<?xml version="1.0"?>
<VTKFile type="UnstructuredGrid" version="0.1" byte_order="LittleEndian">
<UnstructuredGrid>
<Piece NumberOfPoints="31947" NumberOfCells="11176">
<Points>
<DataArray type="Float64" NumberOfComponents="3" format="ascii">
-0.5 -0.5 0 -0.47291164641495098 -0.47998228002335619 0 -0.43145591371879038 -0.5 0 -0.5 -0.5 0 -0.50000000000000433 -0.47788428187462728 0 -0.47291164641495098 -0.47998228002335619 0 -0.50000000000000433 -0.47788428187462728 0 -0.47291164641495098 -0.47998228002335619 0 -0.48585201880880391 -0.46271394907832608 0 -0.50000000000000433 -0.47788428187462728 0 -0.48585201880880391 -0.46271394907832608 0 -0.47291164641495098 -0.47998228002335619 0 -0.4691647414294921 -0.46441675892759238 0 -0.48585201880880391 -0.46271394907832608 0 -0.47291164641495098 -0.47998228002335619 0 -0.45099720453261299 -0.47487869025959373 0 -0.43145591371879038 -0.5 0 -0.47291164641495098 -0.47998228002335619 0 -0.45099720453261299 -0.47487869025959373 0 -0.4691647414294921 -0.46441675892759238 0 -0.44944164227175931 -0.44308997408865619 0 -0.44458614074969038 -0.45362674204253639 0 -0.45904879883441019 -0.45293501062497732 0 -0.44944164227175931 -0.44308997408865619 0 -0.44224392598280859 -0.44224994629392461 0 -0.44458614074969038 -0.45362674204253639 0 -0.44944164227175931 -0.44308997408865619 0 -0.45012294552657017 -0.43389347947670209 0 -0.44944164227175931 -0.44308997408865619 0 -0.44224392598280859 -0.44224994629392461 0 -0.45012294552657017 -0.43389347947670209 0 -0.44224392598280859 -0.44224994629392461 0 -0.43800636655066633 -0.43637152333098561 0 -0.43643311689447861 -0.44657975739963329 0 -0.44224392598280859 -0.44224994629392461 0 -0.45012294552657017 -0.43389347947670209 0 -0.43800636655066633 -0.43637152333098561 0 -0.44224392598280859 -0.44224994629392461 0 -0.44458614074969038 -0.45362674204253639 0 -0.43643311689447861 -0.44657975739963329 0 -0.45099720453261299 -0.47487869025959373 0 -0.44458614074969038 -0.45362674204253639 0 -0.42935215598207299 -0.46202707358843342 0 -0.45099720453261299 -0.47487869025959373 0 -0.44458614074969038 -0.45362674204253639 0 -0.45904879883441019 -0.45293501062497732 0 -0.45904879883441019 -0.45293501062497732 0 -0.47170403761760121 -0.4475436162820271 0 -0.4691647414294921 -0.46441675892759238 0 -0.45099720453261299 -0.47487869025959373 0 -0.45904879883441019 -0.45293501062497732 0 -0.4691647414294921 -0.46441675892759238 0 -0.44944164227175931 -0.44308997408865619 0 -0.45904879883441019 -0.45293501062497732 0 -0.4575560564263994 -0.43237328348572729 0 -0.45904879883441019 -0.45293501062497732 0 -0.47170403761760121 -0.4475436162820271 0 -0.4575560564263994 -0.43237328348572729 0 -0.47170403761760121 -0.4475436162820271 0 -0.4575560564263994 -0.43237328348572729 0 -0.47170403761760121 -0.4475436162820271 0 -0.48668318433556729 -0.44193098916938089 0 -0.47875519273360789 -0.42803770414879561 0 -0.47170403761760121 -0.4475436162820271 0 -0.48585201880880391 -0.46271394907832608 0 -0.48668318433556729 -0.44193098916938089 0 -0.47170403761760121 -0.4475436162820271 0 -0.4691647414294921 -0.46441675892759238 0 -0.48585201880880391 -0.46271394907832608 0 -0.47170403761760121 -0.4475436162820271 0 -0.48585201880880391 -0.46271394907832608 0 -0.50000000000000433 -0.47788428187462728 0 -0.48585201880880391 -0.46271394907832608 0 -0.5 -0.45079320334324668 0 -0.5 -0.45079320334324668 0 -0.48668318433556729 -0.44193098916938089 0 -0.49995432904081683 -0.42370212481186631 0 -0.48585201880880391 -0.46271394907832608 0 -0.5 -0.45079320334324668 0 -0.48668318433556729 -0.44193098916938089 0 -0.49995432904081683 -0.42370212481186631 0 -0.49031232461334501 -0.41958847723210829 0 -0.47875519273360789 -0.42803770414879561 0 -0.48668318433556729 -0.44193098916938089 0 -0.49995432904081683 -0.42370212481186631 0 -0.47875519273360789 -0.42803770414879561 0 -0.49995432904081683 -0.42370212481186631 0 -0.47875519273360789 -0.42803770414879561 0 -0.49031232461334501 -0.41958847723210829 0 -0.47814957490924243 -0.41402158561491431 0 -0.48533645757380739 -0.40368392297237921 0 -0.49031232461334501 -0.41958847723210829 0 -0.48533645757380739 -0.40368392297237921 0 -0.49031232461334501 -0.41958847723210829 0 -0.5 -0.40374154659835249 0 -0.48533645757380739 -0.40368392297237921 0 -0.49995432904081683 -0.42370212481186631 0 -0.49031232461334501 -0.41958847723210829 0 -0.5 -0.40374154659835249 0 -0.47814957490924243 -0.41402158561491431 0 -0.48533645757380739 -0.40368392297237921 0 -0.46906812126939468 -0.40328547935508458 0 -0.49031232461334501 -0.41958847723210829 0 -0.47814957490924243 -0.41402158561491431 0 -0.47875519273360789 -0.42803770414879561 0 -0.47875519273360789 -0.42803770414879561 0 -0.46126253921706689 -0.42204745915435937 0 -0.46727577835605699 -0.41551234436620321 0 -0.47814957490924243 -0.41402158561491431 0 -0.46906812126939468 -0.40328547935508458 0 -0.46727577835605699 -0.41551234436620321 0 -0.47814957490924243 -0.41402158561491431 0 -0.47875519273360789 -0.42803770414879561 0 -0.46727577835605699 -0.41551234436620321 0 -0.47170403761760121 -0.4475436162820271 0 -0.47875519273360789 -0.42803770414879561 0 -0.4575560564263994 -0.43237328348572729 0 -0.49999999999999789 -0.38378096838483872 0 -0.49142426202701889 -0.39474645166705657 0 -0.48036059053426933 -0.38777936871265029 0 -0.49999999999999789 -0.38378096838483872 0 -0.48036059053426933 -0.38777936871265029 0 -0.49999999999999789 -0.38378096838483872 0 -0.48036059053426933 -0.38777936871265029 0 -0.48736435168140257 -0.37133275655010689 0 -0.49999999999999789 -0.38378096838483872 0 -0.49142426202701889 -0.39474645166705657 0 -0.5 -0.40374154659835249 0 -0.49142426202701889 -0.39474645166705657 0 -0.48533645757380739 -0.40368392297237921 0 -0.48036059053426933 -0.38777936871265029 0 -0.49142426202701889 -0.39474645166705657 0 -0.5 -0.40374154659835249 0 -0.48533645757380739 -0.40368392297237921 0 -0.48533645757380739 -0.40368392297237921 0 -0.48036059053426933 -0.38777936871265029 0 -0.48533645757380739 -0.40368392297237921 0 -0.46906812126939468 -0.40328547935508458 0 -0.48036059053426933 -0.38777936871265029 0 -0.48036059053426933 -0.38777936871265029 0 -0.46681845321594467 -0.37776328035327839 0 -0.47223744594528688 -0.36181505076594062 0 -0.48036059053426933 -0.38777936871265029 0 -0.46681845321594467 -0.37776328035327839 0 -0.45312848313319598 -0.39332357142148261 0 -0.46681845321594467 -0.37776328035327839 0 -0.45312848313319598 -0.39332357142148261 0 -0.45518352746400748 -0.36558378890584831 0 -0.45312848313319598 -0.39332357142148261 0 -0.45518352746400748 -0.36558378890584831 0 -0.48036059053426933 -0.38777936871265029 0 -0.45312848313319598 -0.39332357142148261 0 -0.46906812126939468 -0.40328547935508458 0 -0.48036059053426933 -0.38777936871265029 0 -0.45312848313319598 -0.39332357142148261 0 -0.46906812126939468 -0.40328547935508458 0 -0.45312848313319598 -0.39332357142148261 0 -0.45195138390082318 -0.40921251173085083 0 -0.44436579112745322 -0.39510757366704208 0 -0.44130764633640812 -0.41495074205422311 0 -0.45312848313319598 -0.39332357142148261 0 -0.45195138390082318 -0.40921251173085083 0 -0.45312848313319598 -0.39332357142148261 0 -0.44436579112745322 -0.39510757366704208 0 -0.45195138390082318 -0.40921251173085083 0 -0.45312848313319598 -0.39332357142148261 0 -0.44436579112745322 -0.39510757366704208 0 -0.44436579112745322 -0.39510757366704208 0 -0.44687421819164608 -0.3788313199175451 0 -0.43569662450111191 -0.38128365304766082 0 -0.45312848313319598 -0.39332357142148261 0 -0.45518352746400748 -0.36558378890584831 0 -0.44868375247440512 -0.3670899224597412 0 -0.45312848313319598 -0.39332357142148261 0 -0.44687421819164608 -0.3788313199175451 0 -0.44868375247440512 -0.3670899224597412 0 -0.45312848313319598 -0.39332357142148261 0 -0.44436579112745322 -0.39510757366704208 0 -0.44687421819164608 -0.3788313199175451 0 -0.44436579112745322 -0.39510757366704208 0 -0.44687421819164608 -0.3788313199175451 0 -0.44687421819164608 -0.3788313199175451 0 -0.43569662450111191 -0.38128365304766082 0 -0.43935121753743761 -0.37636839254663379 0 -0.44687421819164608 -0.3788313199175451 0 -0.43569662450111191 -0.38128365304766082 0 -0.43935121753743761 -0.37636839254663379 0 -0.43569662450111191 -0.38128365304766082 0 -0.47875519273360789 -0.42803770414879561 0 -0.4575560564263994 -0.43237328348572729 0 -0.46126253921706689 -0.42204745915435937 0 -0.47875519273360789 -0.42803770414879561 0 -0.4575560564263994 -0.43237328348572729 0 -0.4575560564263994 -0.43237328348572729 0 -0.46126253921706689 -0.42204745915435937 0 -0.45077428466844838 -0.42510145204021887 0 -0.4575560564263994 -0.43237328348572729 0 -0.45077428466844838 -0.42510145204021887 0 -0.4575560564263994 -0.43237328348572729 0 -0.45012294552657017 -0.43389347947670209 0 -0.46126253921706689 -0.42204745915435937 0 -0.45195138390082318 -0.40921251173085083 0 -0.45077428466844838 -0.42510145204021887 0 -0.46906812126939468 -0.40328547935508458 0 -0.46727577835605699 -0.41551234436620321 0 -0.45195138390082318 -0.40921251173085083 0 -0.46126253921706689 -0.42204745915435937 0 -0.46727577835605699 -0.41551234436620321 0 -0.45195138390082318 -0.40921251173085083 0 -0.45195138390082318 -0.40921251173085083 0 -0.44130764633640812 -0.41495074205422311 0 -0.45077428466844838 -0.42510145204021887 0 -0.44436579112745322 -0.39510757366704208 0 -0.45195138390082318 -0.40921251173085083 0 -0.44130764633640812 -0.41495074205422311 0 -0.44130764633640812 -0.41495074205422311 0 -0.45077428466844838 -0.42510145204021887 0 -0.45195138390082318 -0.40921251173085083 0 -0.45077428466844838 -0.42510145204021887 0 -0.44436579112745322 -0.39510757366704208 0 -0.44130764633640812 -0.41495074205422311 0 -0.42827303486001211 -0.41305505942262499 0 -0.44130764633640812 -0.41495074205422311 0 -0.43800636655066633 -0.43637152333098561 0 -0.4361379896120311 -0.4195955178792854 0 -0.44130764633640812 -0.41495074205422311 0 -0.43800636655066633 -0.43637152333098561 0 -0.44130764633640812 -0.41495074205422311 0 -0.45077428466844838 -0.42510145204021887 0 -0.43800636655066633 -0.43637152333098561 0 -0.45077428466844838 -0.42510145204021887 0 -0.45012294552657017 -0.43389347947670209 0 -0.45077428466844838 -0.42510145204021887 0 -0.45012294552657017 -0.43389347947670209 0 -0.43800636655066633 -0.43637152333098561 0 -0.44944164227175931 -0.44308997408865619 0 -0.4575560564263994 -0.43237328348572729 0 -0.45012294552657017 -0.43389347947670209 0 -0.4575560564263994 -0.43237328348572729 0 -0.45077428466844838 -0.42510145204021887 0 -0.45012294552657017 -0.43389347947670209 0 -0.45012294552657017 -0.43389347947670209 0 -0.43800636655066633 -0.43637152333098561 0 -0.43800636655066633 -0.43637152333098561 0 -0.42881600920528451 -0.4267730085922703 0 -0.42354378048378122 -0.4393293650280003 0 -0.43800636655066633 -0.43637152333098561 0 -0.42881600920528451 -0.4267730085922703 0 -0.4361379896120311 -0.4195955178792854 0 -0.42881600920528451 -0.4267730085922703 0 -0.41887114860107999 -0.42797098101234821 0 -0.42354378048378122 -0.4393293650280003 0 -0.42881600920528451 -0.4267730085922703 0 -0.42827303486001211 -0.41305505942262499 0 -0.41887114860107999 -0.42797098101234821 0 -0.44130764633640812 -0.41495074205422311 0 -0.4361379896120311 -0.4195955178792854 0 -0.42827303486001211 -0.41305505942262499 0 -0.42881600920528451 -0.4267730085922703 0 -0.4361379896120311 -0.4195955178792854 0 -0.42827303486001211 -0.41305505942262499 0 -0.40711653926046082 -0.4197225606642212 0 -0.41931057955368828 -0.40020858071844678 0 -0.40279430570228258 -0.40480734533094992 0 -0.42827303486001211 -0.41305505942262499 0 -0.40711653926046082 -0.4197225606642212 0 -0.41887114860107999 -0.42797098101234821 0 -0.40711653926046082 -0.4197225606642212 0 -0.42203850375802521 -0.3996532008302745 0 -0.40711653926046082 -0.4197225606642212 0 -0.42203850375802521 -0.3996532008302745 0 -0.41931057955368828 -0.40020858071844678 0 -0.42827303486001211 -0.41305505942262499 0 -0.40711653926046082 -0.4197225606642212 0 -0.42203850375802521 -0.3996532008302745 0 -0.41887114860107999 -0.42797098101234821 0 -0.42354378048378122 -0.4393293650280003 0 -0.41037333795643471 -0.44459535991119709 0 -0.40711653926046082 -0.4197225606642212 0 -0.41887114860107999 -0.42797098101234821 0 -0.41037333795643471 -0.44459535991119709 0 -0.43569662450111191 -0.38128365304766082 0 -0.41298150770769559 -0.3864252597326267 0 -0.42116258666452627 -0.37570008037964758 0 -0.43569662450111191 -0.38128365304766082 0 -0.42203850375802521 -0.3996532008302745 0 -0.43569662450111191 -0.38128365304766082 0 -0.41929824624814349 -0.39218112398728872 0 -0.41298150770769559 -0.3864252597326267 0 -0.43569662450111191 -0.38128365304766082 0 -0.41298150770769559 -0.3864252597326267 0 -0.43569662450111191 -0.38128365304766082 0 -0.42116258666452627 -0.37570008037964758 0 -0.43053389848056961 -0.37325588863200831 0 -0.43935121753743761 -0.37636839254663379 0 -0.43569662450111191 -0.38128365304766082 0 -0.43053389848056961 -0.37325588863200831 0 -0.43569662450111191 -0.38128365304766082 0 -0.42203850375802521 -0.3996532008302745 0 -0.41929824624814349 -0.39218112398728872 0 -0.44436579112745322 -0.39510757366704208 0 -0.43569662450111191 -0.38128365304766082 0 -0.42203850375802521 -0.3996532008302745 0 -0.44436579112745322 -0.39510757366704208 0 -0.42827303486001211 -0.41305505942262499 0 -0.42203850375802521 -0.3996532008302745 0 -0.44436579112745322 -0.39510757366704208 0 -0.42203850375802521 -0.3996532008302745 0 -0.41931057955368828 -0.40020858071844678 0 -0.4099063641749095 -0.39618207729560972 0 -0.40279430570228258 -0.40480734533094992 0 -0.42203850375802521 -0.3996532008302745 0 -0.41931057955368828 -0.40020858071844678 0 -0.4099063641749095 -0.39618207729560972 0 -0.41929824624814349 -0.39218112398728872 0 -0.41298150770769559 -0.3864252597326267 0 -0.42203850375802521 -0.3996532008302745 0 -0.41931057955368828 -0.40020858071844678 0 -0.41929824624814349 -0.39218112398728872 0 -0.41931057955368828 -0.40020858071844678 0 -0.4099063641749095 -0.39618207729560972 0 -0.41929824624814349 -0.39218112398728872 0 -0.41298150770769559 -0.3864252597326267 0 -0.42116258666452627 -0.37570008037964758 0 -0.40369673928499761 -0.37267247115173169 0 -0.39026639091427989 -0.39156686641759503 0 -0.37910124115022042 -0.37744830499117499 0 -0.40369673928499761 -0.37267247115173169 0 -0.41298150770769559 -0.3864252597326267 0 -0.39026639091427989 -0.39156686641759503 0 -0.41298150770769559 -0.3864252597326267 0 -0.39026639091427989 -0.39156686641759503 0 -0.40369673928499761 -0.37267247115173169 0 -0.4099063641749095 -0.39618207729560972 0 -0.41298150770769559 -0.3864252597326267 0 -0.39026639091427989 -0.39156686641759503 0 -0.4099063641749095 -0.39618207729560972 0 -0.40279430570228258 -0.40480734533094992 0 -0.39026639091427989 -0.39156686641759503 0 -0.40279430570228258 -0.40480734533094992 0 -0.39026639091427989 -0.39156686641759503 0 -0.3873716546080746 -0.41635664155887669 0 -0.39026639091427989 -0.39156686641759503 0 -0.36755127412086419 -0.39670847310256308 0 -0.39026639091427989 -0.39156686641759503 0 -0.3873716546080746 -0.41635664155887669 0 -0.36755127412086419 -0.39670847310256308 0 -0.39026639091427989 -0.39156686641759503 0 -0.37910124115022042 -0.37744830499117499 0 -0.36755127412086419 -0.39670847310256308 0 -0.40711653926046082 -0.4197225606642212 0 -0.39219457476289521 -0.43979192049816718 0 -0.41037333795643471 -0.44459535991119709 0 -0.40711653926046082 -0.4197225606642212 0 -0.3873716546080746 -0.41635664155887669 0 -0.39219457476289521 -0.43979192049816718 0 -0.40711653926046082 -0.4197225606642212 0 -0.39219457476289521 -0.43979192049816718 0 -0.40711653926046082 -0.4197225606642212 0 -0.40279430570228258 -0.40480734533094992 0 -0.3873716546080746 -0.41635664155887669 0 -0.3873716546080746 -0.41635664155887669 0 -0.37777333173355659 -0.42764104113900081 0 -0.36647333365820961 -0.4181563531520478 0 -0.37777333173355659 -0.42764104113900081 0 -0.39219457476289521 -0.43979192049816718 0 -0.36505376390504701 -0.43625924934691168 0 -0.3873716546080746 -0.41635664155887669 0 -0.37777333173355659 -0.42764104113900081 0 -0.39219457476289521 -0.43979192049816718 0 -0.39219457476289521 -0.43979192049816718 0 -0.36932403467647562 -0.44914126016337041 0 -0.36505376390504701 -0.43625924934691168 0 -0.39219457476289521 -0.43979192049816718 0 -0.37727261026532982 -0.45986128033211299 0 -0.36932403467647562 -0.44914126016337041 0 -0.39219457476289521 -0.43979192049816718 0 -0.39485298432139349 -0.45738065053066851 0 -0.37727261026532982 -0.45986128033211299 0 -0.39219457476289521 -0.43979192049816718 0 -0.37727261026532982 -0.45986128033211299 0 -0.39219457476289521 -0.43979192049816718 0 -0.39485298432139349 -0.45738065053066851 0 -0.41037333795643471 -0.44459535991119709 0 -0.39485298432139349 -0.45738065053066851 0 -0.39004300365960459 -0.47836396117581498 0 -0.40827895756789379 -0.46733304328734709 0 -0.39485298432139349 -0.45738065053066851 0 -0.41037333795643471 -0.44459535991119709 0 -0.40827895756789379 -0.46733304328734709 0 -0.39485298432139349 -0.45738065053066851 0 -0.37727261026532982 -0.45986128033211299 0 -0.39004300365960459 -0.47836396117581498 0 -0.39004300365960459 -0.47836396117581498 0 -0.38245698795825178 -0.5 0 -0.43145591371879038 -0.5 0 -0.37727261026532982 -0.45986128033211299 0 -0.39004300365960459 -0.47836396117581498 0 -0.36235064576776432 -0.47993064016605869 0 -0.39004300365960459 -0.47836396117581498 0 -0.38245698795825178 -0.5 0 -0.36235064576776432 -0.47993064016605869 0 -0.43145591371879038 -0.5 0 -0.42935215598207299 -0.46202707358843342 0 -0.40827895756789379 -0.46733304328734709 0 -0.39004300365960459 -0.47836396117581498 0 -0.43145591371879038 -0.5 0 -0.40827895756789379 -0.46733304328734709 0 -0.45099720453261299 -0.47487869025959373 0 -0.43145591371879038 -0.5 0 -0.42935215598207299 -0.46202707358843342 0 -0.44458614074969038 -0.45362674204253639 0 -0.42935215598207299 -0.46202707358843342 0 -0.43643311689447861 -0.44657975739963329 0 -0.42935215598207299 -0.46202707358843342 0 -0.43643311689447861 -0.44657975739963329 0 -0.42354378048378122 -0.4393293650280003 0 -0.43800636655066633 -0.43637152333098561 0 -0.43643311689447861 -0.44657975739963329 0 -0.42354378048378122 -0.4393293650280003 0 -0.43800636655066633 -0.43637152333098561 0 -0.43643311689447861 -0.44657975739963329 0 -0.43800636655066633 -0.43637152333098561 0 -0.42354378048378122 -0.4393293650280003 0 -0.42935215598207299 -0.46202707358843342 0 -0.42354378048378122 -0.4393293650280003 0 -0.41037333795643471 -0.44459535991119709 0 -0.42935215598207299 -0.46202707358843342 0 -0.41037333795643471 -0.44459535991119709 0 -0.40827895756789379 -0.46733304328734709 0 -0.44147150055601359 -0.26347668201382168 0 -0.42933896999383259 -0.24913933364668489 0 -0.44570822278707722 -0.24202495304851401 0 -0.44147150055601359 -0.26347668201382168 0 -0.45768764958431513 -0.25729222398890661 0 -0.44570822278707722 -0.24202495304851401 0 -0.44147150055601359 -0.26347668201382168 0 -0.45034712894296952 -0.26694735336303332 0 -0.45768764958431513 -0.25729222398890661 0 -0.44147150055601359 -0.26347668201382168 0 -0.44568089871453548 -0.27693134245410722 0 -0.44147150055601359 -0.26347668201382168 0 -0.44568089871453548 -0.27693134245410722 0 -0.4290752812273243 -0.27627221055680279 0 -0.44568089871453548 -0.27693134245410722 0 -0.45034712894296952 -0.26694735336303332 0 -0.45654846691701378 -0.27008916499529811 0 -0.44147150055601359 -0.26347668201382168 0 -0.44568089871453548 -0.27693134245410722 0 -0.45034712894296952 -0.26694735336303332 0 -0.44568089871453548 -0.27693134245410722 0 -0.47262683570217301 -0.27800091584305042 0 -0.44568089871453548 -0.27693134245410722 0 -0.47262683570217301 -0.27800091584305042 0 -0.46125732463343339 -0.28855357675239279 0 -0.45654846691701378 -0.27008916499529811 0 -0.45768764958431513 -0.25729222398890661 0 -0.47262683570217301 -0.27800091584305042 0 -0.44568089871453548 -0.27693134245410722 0 -0.45654846691701378 -0.27008916499529811 0 -0.47262683570217301 -0.27800091584305042 0 -0.45768764958431513 -0.25729222398890661 0 -0.47321453199734381 -0.26810679201382071 0 -0.47262683570217301 -0.27800091584305042 0 -0.45768764958431513 -0.25729222398890661 0 -0.47262683570217301 -0.27800091584305042 0 -0.45768764958431513 -0.25729222398890661 0 -0.47074320255127322 -0.25302144696007528 0 -0.44570822278707722 -0.24202495304851401 0 -0.45768764958431513 -0.25729222398890661 0 -0.47074320255127322 -0.25302144696007528 0 -0.47321453199734381 -0.26810679201382071 0 -0.45034712894296952 -0.26694735336303332 0 -0.45654846691701378 -0.27008916499529811 0 -0.45768764958431513 -0.25729222398890661 0 -0.47074320255127322 -0.25302144696007528 0 -0.49294212406092791 -0.26277221598499451 0 -0.47074320255127322 -0.25302144696007528 0 -0.48179577121492401 -0.26548147860555121 0 -0.49294212406092791 -0.26277221598499451 0 -0.47074320255127322 -0.25302144696007528 0 -0.48179577121492401 -0.26548147860555121 0 -0.47074320255127322 -0.25302144696007528 0 -0.48179577121492401 -0.26548147860555121 0 -0.47321453199734381 -0.26810679201382071 0 -0.49294212406092791 -0.26277221598499451 0 -0.49999999999999972 -0.26587235389297481 0 -0.5 -0.23961688987295221 0 -0.47074320255127322 -0.25302144696007528 0 -0.49294212406092791 -0.26277221598499451 0 -0.49310290257531619 -0.23676680083720381 0 -0.49294212406092791 -0.26277221598499451 0 -0.49999999999999972 -0.26587235389297481 0 -0.49284833987857368 -0.27794151025102831 0 -0.49999999999999972 -0.26587235389297481 0 -0.49999999999999878 -0.28600388146466932 0 -0.49294212406092791 -0.26277221598499451 0 -0.49284833987857368 -0.27794151025102831 0 -0.49294212406092791 -0.26277221598499451 0 -0.49284833987857368 -0.27794151025102831 0 -0.49999999999999972 -0.26587235389297481 0 -0.48179577121492401 -0.26548147860555121 0 -0.49294212406092791 -0.26277221598499451 0 -0.49284833987857368 -0.27794151025102831 0 -0.48179577121492401 -0.26548147860555121 0 -0.49284833987857368 -0.27794151025102831 0 -0.48179577121492401 -0.26548147860555121 0 -0.49284833987857368 -0.27794151025102831 0 -0.47611398872310728 -0.27813933248360212 0 -0.48179577121492401 -0.26548147860555121 0 -0.47321453199734381 -0.26810679201382071 0 -0.47611398872310728 -0.27813933248360212 0 -0.47321453199734381 -0.26810679201382071 0 -0.47611398872310728 -0.27813933248360212 0 -0.47262683570217301 -0.27800091584305042 0 -0.47611398872310728 -0.27813933248360212 0 -0.47262683570217301 -0.27800091584305042 0 -0.49284833987857368 -0.27794151025102831 0 -0.47611398872310728 -0.27813933248360212 0 -0.48265149105110022 -0.29189708775812018 0 -0.47262683570217301 -0.27800091584305042 0 -0.46946431474125228 -0.29612413911076713 0 -0.48265149105110022 -0.29189708775812018 0 -0.47262683570217301 -0.27800091584305042 0 -0.48265149105110022 -0.29189708775812018 0 -0.47611398872310728 -0.27813933248360212 0 -0.47262683570217301 -0.27800091584305042 0 -0.48265149105110022 -0.29189708775812018 0 -0.49284833987857368 -0.27794151025102831 0 -0.49267614640002932 -0.30579325967318871 0 -0.49284833987857368 -0.27794151025102831 0 -0.49999999999999878 -0.28600388146466932 0 -0.49267614640002932 -0.30579325967318871 0 -0.49284833987857368 -0.27794151025102831 0 -0.48265149105110022 -0.29189708775812018 0 -0.49267614640002932 -0.30579325967318871 0 -0.49284833987857368 -0.27794151025102831 0 -0.49999999999999878 -0.28600388146466932 0 -0.49999999999999878 -0.28600388146466932 0 -0.49267614640002932 -0.30579325967318871 0 -0.50000000000000178 -0.31594558163974318 0 -0.49267614640002932 -0.30579325967318871 0 -0.49262711527901021 -0.31372388810406288 0 -0.50000000000000178 -0.31594558163974318 0 -0.49267614640002932 -0.30579325967318871 0 -0.49262711527901021 -0.31372388810406288 0 -0.49267614640002932 -0.30579325967318871 0 -0.50000000000000178 -0.31594558163974318 0 -0.48265149105110022 -0.29189708775812018 0 -0.49267614640002932 -0.30579325967318871 0 -0.48265149105110022 -0.29189708775812018 0 -0.49267614640002932 -0.30579325967318871 0 -0.47938252021615679 -0.30276855822739063 0 -0.49267614640002932 -0.30579325967318871 0 -0.48363868823229228 -0.31114302018508239 0 -0.47938252021615679 -0.30276855822739063 0 -0.49267614640002932 -0.30579325967318871 0 -0.48363868823229228 -0.31114302018508239 0 -0.49262711527901021 -0.31372388810406288 0 -0.48363868823229228 -0.31114302018508239 0 -0.47938252021615679 -0.30276855822739063 0 -0.47598854066580798 -0.31027604912646228 0 -0.46946431474125228 -0.29612413911076713 0 -0.48265149105110022 -0.29189708775812018 0 -0.47938252021615679 -0.30276855822739063 0 -0.46946431474125228 -0.29612413911076713 0 -0.4713431241008974 -0.30576411556027339 0 -0.46571983273450179 -0.30708796353112522 0 -0.46946431474125228 -0.29612413911076713 0 -0.47938252021615679 -0.30276855822739063 0 -0.4713431241008974 -0.30576411556027339 0 -0.47938252021615679 -0.30276855822739063 0 -0.4713431241008974 -0.30576411556027339 0 -0.47598854066580798 -0.31027604912646228 0 -0.4713431241008974 -0.30576411556027339 0 -0.47598854066580798 -0.31027604912646228 0 -0.46915380476250751 -0.31402731897129521 0 -0.46571983273450179 -0.30708796353112522 0 -0.45996353956434383 -0.3010613384178274 0 -0.45867438050350839 -0.31846290559546281 0 -0.45729868589157419 -0.31119081168453971 0 -0.45134137112862061 -0.29502412707439563 0 -0.4570018435427064 -0.31311691169468392 0 -0.45729868589157419 -0.31119081168453971 0 -0.45996353956434383 -0.3010613384178274 0 -0.45134137112862061 -0.29502412707439563 0 -0.45996353956434383 -0.3010613384178274 0 -0.45867438050350839 -0.31846290559546281 0 -0.45729868589157419 -0.31119081168453971 0 -0.45996353956434383 -0.3010613384178274 0 -0.45867438050350839 -0.31846290559546281 0 -0.45134137112862061 -0.29502412707439563 0 -0.4570018435427064 -0.31311691169468392 0 -0.4713431241008974 -0.30576411556027339 0 -0.46571983273450179 -0.30708796353112522 0 -0.46915380476250751 -0.31402731897129521 0 -0.45729868589157419 -0.31119081168453971 0 -0.4570018435427064 -0.31311691169468392 0 -0.46946431474125228 -0.29612413911076713 0 -0.46571983273450179 -0.30708796353112522 0 -0.45996353956434383 -0.3010613384178274 0 -0.47262683570217301 -0.27800091584305042 0 -0.46946431474125228 -0.29612413911076713 0 -0.46125732463343339 -0.28855357675239279 0 -0.46946431474125228 -0.29612413911076713 0 -0.45996353956434383 -0.3010613384178274 0 -0.46125732463343339 -0.28855357675239279 0 -0.45996353956434383 -0.3010613384178274 0 -0.46125732463343339 -0.28855357675239279 0 -0.45134137112862061 -0.29502412707439563 0 -0.44568089871453548 -0.27693134245410722 0 -0.45134137112862061 -0.29502412707439563 0 -0.4366354251127269 -0.28714237885532867 0 -0.44568089871453548 -0.27693134245410722 0 -0.46125732463343339 -0.28855357675239279 0 -0.45134137112862061 -0.29502412707439563 0 -0.45134137112862061 -0.29502412707439563 0 -0.44083887936605443 -0.30762746308344929 0 -0.4366354251127269 -0.28714237885532867 0 -0.44568089871453548 -0.27693134245410722 0 -0.45134137112862061 -0.29502412707439563 0 -0.45134137112862061 -0.29502412707439563 0 -0.44083887936605443 -0.30762746308344929 0 -0.4570018435427064 -0.31311691169468392 0 -0.44083887936605443 -0.30762746308344929 0 -0.44424226005969059 -0.32504764714664541 0 -0.4570018435427064 -0.31311691169468392 0 -0.44424226005969059 -0.32504764714664541 0 -0.45300171382135529 -0.33907227125243999 0 -0.4570018435427064 -0.31311691169468392 0 -0.44083887936605443 -0.30762746308344929 0 -0.44424226005969059 -0.32504764714664541 0 -0.43107301170672901 -0.32237598992302102 0 -0.44424226005969059 -0.32504764714664541 0 -0.43929585186160719 -0.34304559977963428 0 -0.43107301170672901 -0.32237598992302102 0 -0.44424226005969059 -0.32504764714664541 0 -0.43929585186160719 -0.34304559977963428 0 -0.45300171382135529 -0.33907227125243999 0 -0.43929585186160719 -0.34304559977963428 0 -0.45300171382135529 -0.33907227125243999 0 -0.4572385717948208 -0.33784400639021422 0 -0.46411430135630732 -0.33585073281923 0 -0.45867438050350839 -0.31846290559546281 0 -0.45300171382135529 -0.33907227125243999 0 -0.4572385717948208 -0.33784400639021422 0 -0.45867438050350839 -0.31846290559546281 0 -0.4572385717948208 -0.33784400639021422 0 -0.45867438050350839 -0.31846290559546281 0 -0.45300171382135529 -0.33907227125243999 0 -0.4572385717948208 -0.33784400639021422 0 -0.4572385717948208 -0.33784400639021422 0 -0.46411430135630732 -0.33585073281923 0 -0.46411430135630732 -0.33585073281923 0 -0.46889595870083861 -0.32442547507039282 0 -0.47121549809946839 -0.33379209632634138 0 -0.46411430135630732 -0.33585073281923 0 -0.47121549809946839 -0.33379209632634138 0 -0.45300171382135529 -0.33907227125243999 0 -0.4570018435427064 -0.31311691169468392 0 -0.45867438050350839 -0.31846290559546281 0 -0.46411430135630732 -0.33585073281923 0 -0.45867438050350839 -0.31846290559546281 0 -0.46889595870083861 -0.32442547507039282 0 -0.45300171382135529 -0.33907227125243999 0 -0.4570018435427064 -0.31311691169468392 0 -0.46411430135630732 -0.33585073281923 0 -0.45867438050350839 -0.31846290559546281 0 -0.45729868589157419 -0.31119081168453971 0 -0.4570018435427064 -0.31311691169468392 0 -0.45867438050350839 -0.31846290559546281 0 -0.4570018435427064 -0.31311691169468392 0 -0.45867438050350839 -0.31846290559546281 0 -0.45867438050350839 -0.31846290559546281 0 -0.46915380476250751 -0.31402731897129521 0 -0.46889595870083861 -0.32442547507039282 0 -0.46571983273450179 -0.30708796353112522 0 -0.45867438050350839 -0.31846290559546281 0 -0.46915380476250751 -0.31402731897129521 0 -0.46915380476250751 -0.31402731897129521 0 -0.47588661602812188 -0.31731451872432082 0 -0.46889595870083861 -0.32442547507039282 0 -0.47598854066580798 -0.31027604912646228 0 -0.46915380476250751 -0.31402731897129521 0 -0.47588661602812188 -0.31731451872432082 0 -0.47588661602812188 -0.31731451872432082 0 -0.46889595870083861 -0.32442547507039282 0 -0.47749615336455792 -0.32629642876159187 0 -0.47749615336455792 -0.32629642876159187 0 -0.48489023035482259 -0.31967171233688269 0 -0.48676354553693479 -0.32919319110747292 0 -0.47588661602812188 -0.31731451872432082 0 -0.47749615336455792 -0.32629642876159187 0 -0.48489023035482259 -0.31967171233688269 0 -0.48363868823229228 -0.31114302018508239 0 -0.47588661602812188 -0.31731451872432082 0 -0.48489023035482259 -0.31967171233688269 0 -0.48363868823229228 -0.31114302018508239 0 -0.47598854066580798 -0.31027604912646228 0 -0.47588661602812188 -0.31731451872432082 0 -0.48363868823229228 -0.31114302018508239 0 -0.48489023035482259 -0.31967171233688269 0 -0.49262711527901021 -0.31372388810406288 0 -0.48489023035482259 -0.31967171233688269 0 -0.49285617823415412 -0.32341835008192038 0 -0.49262711527901021 -0.31372388810406288 0 -0.49285617823415412 -0.32341835008192038 0 -0.50000000000000178 -0.31594558163974318 0 -0.5 -0.33855737722144158 0 -0.48489023035482259 -0.31967171233688269 0 -0.49285617823415412 -0.32341835008192038 0 -0.48676354553693479 -0.32919319110747292 0 -0.49285617823415412 -0.32341835008192038 0 -0.49262711527901021 -0.31372388810406288 0 -0.50000000000000178 -0.31594558163974318 0 -0.5 -0.33855737722144158 0 -0.48676354553693479 -0.32919319110747292 0 -0.48270133591068459 -0.34588922414850071 0 -0.49285617823415412 -0.32341835008192038 0 -0.5 -0.33855737722144158 0 -0.48676354553693479 -0.32919319110747292 0 -0.48676354553693479 -0.32919319110747292 0 -0.4795441332279114 -0.33379273508597668 0 -0.48270133591068459 -0.34588922414850071 0 -0.46411430135630732 -0.33585073281923 0 -0.47121549809946839 -0.33379209632634138 0 -0.48270133591068459 -0.34588922414850071 0 -0.4795441332279114 -0.33379273508597668 0 -0.47121549809946839 -0.33379209632634138 0 -0.48270133591068459 -0.34588922414850071 0 -0.47749615336455792 -0.32629642876159187 0 -0.48676354553693479 -0.32919319110747292 0 -0.4795441332279114 -0.33379273508597668 0 -0.47749615336455792 -0.32629642876159187 0 -0.4795441332279114 -0.33379273508597668 0 -0.47121549809946839 -0.33379209632634138 0 -0.46889595870083861 -0.32442547507039282 0 -0.47749615336455792 -0.32629642876159187 0 -0.47121549809946839 -0.33379209632634138 0 -0.46411430135630732 -0.33585073281923 0 -0.48270133591068459 -0.34588922414850071 0 -0.47223744594528688 -0.36181505076594062 0 -0.5 -0.33855737722144158 0 -0.48270133591068459 -0.34588922414850071 0 -0.5 -0.3611691728031402 0 -0.48270133591068459 -0.34588922414850071 0 -0.48736435168140257 -0.37133275655010689 0 -0.5 -0.3611691728031402 0 -0.49999999999999789 -0.38378096838483872 0 -0.48736435168140257 -0.37133275655010689 0 -0.5 -0.3611691728031402 0 -0.48036059053426933 -0.38777936871265029 0 -0.47223744594528688 -0.36181505076594062 0 -0.48270133591068459 -0.34588922414850071 0 -0.48736435168140257 -0.37133275655010689 0 -0.47223744594528688 -0.36181505076594062 0 -0.48036059053426933 -0.38777936871265029 0 -0.48736435168140257 -0.37133275655010689 0 -0.47223744594528688 -0.36181505076594062 0 -0.46681845321594467 -0.37776328035327839 0 -0.47223744594528688 -0.36181505076594062 0 -0.45518352746400748 -0.36558378890584831 0 -0.46411430135630732 -0.33585073281923 0 -0.47223744594528688 -0.36181505076594062 0 -0.4572385717948208 -0.33784400639021422 0 -0.45518352746400748 -0.36558378890584831 0 -0.4572385717948208 -0.33784400639021422 0 -0.47223744594528688 -0.36181505076594062 0 -0.45518352746400748 -0.36558378890584831 0 -0.45300171382135529 -0.33907227125243999 0 -0.4572385717948208 -0.33784400639021422 0 -0.45518352746400748 -0.36558378890584831 0 -0.4572385717948208 -0.33784400639021422 0 -0.46411430135630732 -0.33585073281923 0 -0.47223744594528688 -0.36181505076594062 0 -0.45300171382135529 -0.33907227125243999 0 -0.44868375247440512 -0.3670899224597412 0 -0.45300171382135529 -0.33907227125243999 0 -0.4443233156515351 -0.35568304780839138 0 -0.44868375247440512 -0.3670899224597412 0 -0.45300171382135529 -0.33907227125243999 0 -0.45518352746400748 -0.36558378890584831 0 -0.44868375247440512 -0.3670899224597412 0 -0.43929585186160719 -0.34304559977963428 0 -0.45300171382135529 -0.33907227125243999 0 -0.4443233156515351 -0.35568304780839138 0 -0.43929585186160719 -0.34304559977963428 0 -0.4443233156515351 -0.35568304780839138 0 -0.43148563611623691 -0.35570787225738432 0 -0.43929585186160719 -0.34304559977963428 0 -0.4443233156515351 -0.35568304780839138 0 -0.4443233156515351 -0.35568304780839138 0 -0.44868375247440512 -0.3670899224597412 0 -0.43596785166933849 -0.3648403543846363 0 -0.43935121753743761 -0.37636839254663379 0 -0.44687421819164608 -0.3788313199175451 0 -0.44868375247440512 -0.3670899224597412 0 -0.43935121753743761 -0.37636839254663379 0 -0.44868375247440512 -0.3670899224597412 0 -0.43596785166933849 -0.3648403543846363 0 -0.44687421819164608 -0.3788313199175451 0 -0.44868375247440512 -0.3670899224597412 0 -0.42116258666452627 -0.37570008037964758 0 -0.42290416334825692 -0.36486312933421039 0 -0.43053389848056961 -0.37325588863200831 0 -0.42290416334825692 -0.36486312933421039 0 -0.43053389848056961 -0.37325588863200831 0 -0.43596785166933849 -0.3648403543846363 0 -0.43935121753743761 -0.37636839254663379 0 -0.43053389848056961 -0.37325588863200831 0 -0.43596785166933849 -0.3648403543846363 0 -0.42290416334825692 -0.36486312933421039 0 -0.43596785166933849 -0.3648403543846363 0 -0.43148563611623691 -0.35570787225738432 0 -0.4443233156515351 -0.35568304780839138 0 -0.43596785166933849 -0.3648403543846363 0 -0.43148563611623691 -0.35570787225738432 0 -0.42290416334825692 -0.36486312933421039 0 -0.43148563611623691 -0.35570787225738432 0 -0.41493699805044643 -0.35010722998004912 0 -0.43929585186160719 -0.34304559977963428 0 -0.41493699805044643 -0.35010722998004912 0 -0.43929585186160719 -0.34304559977963428 0 -0.43148563611623691 -0.35570787225738432 0 -0.41493699805044643 -0.35010722998004912 0 -0.42290416334825692 -0.36486312933421039 0 -0.41493699805044643 -0.35010722998004912 0 -0.40369673928499761 -0.37267247115173169 0 -0.42116258666452627 -0.37570008037964758 0 -0.42290416334825692 -0.36486312933421039 0 -0.40369673928499761 -0.37267247115173169 0 -0.41493699805044643 -0.35010722998004912 0 -0.40369673928499761 -0.37267247115173169 0 -0.39057814423928539 -0.3571688601804639 0 -0.37910124115022042 -0.37744830499117499 0 -0.40369673928499761 -0.37267247115173169 0 -0.39057814423928539 -0.3571688601804639 0 -0.39057814423928539 -0.3571688601804639 0 -0.36621929042812451 -0.36423049038087862 0 -0.37910124115022042 -0.37744830499117499 0 -0.39057814423928539 -0.3571688601804639 0 -0.36621929042812451 -0.36423049038087862 0 -0.39057814423928539 -0.3571688601804639 0 -0.37418465591067268 -0.34680695930694477 0 -0.36621929042812451 -0.36423049038087862 0 -0.39057814423928539 -0.3571688601804639 0 -0.38982019416074237 -0.33805841783202978 0 -0.37418465591067268 -0.34680695930694477 0 -0.41493699805044643 -0.35010722998004912 0 -0.39057814423928539 -0.3571688601804639 0 -0.41493699805044643 -0.35010722998004912 0 -0.39057814423928539 -0.3571688601804639 0 -0.40331500780445201 -0.34407947339429962 0 -0.39057814423928539 -0.3571688601804639 0 -0.40331500780445201 -0.34407947339429962 0 -0.38982019416074237 -0.33805841783202978 0 -0.40331500780445201 -0.34407947339429962 0 -0.40163469345683978 -0.31692749425537647 0 -0.40331500780445201 -0.34407947339429962 0 -0.38982019416074237 -0.33805841783202978 0 -0.40163469345683978 -0.31692749425537647 0 -0.37809296521051072 -0.32906757768712541 0 -0.38982019416074237 -0.33805841783202978 0 -0.37418465591067268 -0.34680695930694477 0 -0.37809296521051072 -0.32906757768712541 0 -0.40163469345683978 -0.31692749425537647 0 -0.37512158796465661 -0.30456513774161381 0 -0.37809296521051072 -0.32906757768712541 0 -0.38982019416074237 -0.33805841783202978 0 -0.40163469345683978 -0.31692749425537647 0 -0.40163469345683978 -0.31692749425537647 0 -0.43107301170672901 -0.32237598992302102 0 -0.42285017155185051 -0.30170638006640782 0 -0.40163469345683978 -0.31692749425537647 0 -0.41765565272823202 -0.33452045773444439 0 -0.43107301170672901 -0.32237598992302102 0 -0.40331500780445201 -0.34407947339429962 0 -0.40163469345683978 -0.31692749425537647 0 -0.41765565272823202 -0.33452045773444439 0 -0.41493699805044643 -0.35010722998004912 0 -0.40331500780445201 -0.34407947339429962 0 -0.41765565272823202 -0.33452045773444439 0 -0.43929585186160719 -0.34304559977963428 0 -0.43107301170672901 -0.32237598992302102 0 -0.43929585186160719 -0.34304559977963428 0 -0.41493699805044643 -0.35010722998004912 0 -0.41765565272823202 -0.33452045773444439 0 -0.43929585186160719 -0.34304559977963428 0 -0.41765565272823202 -0.33452045773444439 0 -0.43107301170672901 -0.32237598992302102 0 -0.44083887936605443 -0.30762746308344929 0 -0.43107301170672901 -0.32237598992302102 0 -0.42285017155185051 -0.30170638006640782 0 -0.43107301170672901 -0.32237598992302102 0 -0.42285017155185051 -0.30170638006640782 0 -0.44083887936605443 -0.30762746308344929 0 -0.42285017155185051 -0.30170638006640782 0 -0.4366354251127269 -0.28714237885532867 0 -0.42285017155185051 -0.30170638006640782 0 -0.4366354251127269 -0.28714237885532867 0 -0.42392102483979682 -0.28357055852148733 0 -0.4366354251127269 -0.28714237885532867 0 -0.42392102483979682 -0.28357055852148733 0 -0.4290752812273243 -0.27627221055680279 0 -0.42285017155185051 -0.30170638006640782 0 -0.3999543791092276 -0.28977551511645322 0 -0.41462733139697289 -0.28103677020979417 0 -0.42285017155185051 -0.30170638006640782 0 -0.41462733139697289 -0.28103677020979417 0 -0.42285017155185051 -0.30170638006640782 0 -0.42392102483979682 -0.28357055852148733 0 -0.41462733139697289 -0.28103677020979417 0 -0.42392102483979682 -0.28357055852148733 0 -0.41793644749772801 -0.27936720768643142 0 -0.41462733139697289 -0.28103677020979417 0 -0.39965627699246931 -0.28495852211330708 0 -0.41462733139697289 -0.28103677020979417 0 -0.3999543791092276 -0.28977551511645322 0 -0.41462733139697289 -0.28103677020979417 0 -0.40163469345683978 -0.31692749425537647 0 -0.42285017155185051 -0.30170638006640782 0 -0.3999543791092276 -0.28977551511645322 0 -0.40163469345683978 -0.31692749425537647 0 -0.3999543791092276 -0.28977551511645322 0 -0.40163469345683978 -0.31692749425537647 0 -0.37512158796465661 -0.30456513774161381 0 -0.3999543791092276 -0.28977551511645322 0 -0.37512158796465661 -0.30456513774161381 0 -0.3999543791092276 -0.28977551511645322 0 -0.37647268693461911 -0.29291239555995691 0 -0.38373844921131389 -0.28429595350295428 0 -0.36662939645518128 -0.28500260392903942 0 -0.37647268693461911 -0.29291239555995691 0 -0.38373844921131389 -0.28429595350295428 0 -0.39965627699246931 -0.28495852211330708 0 -0.37647268693461911 -0.29291239555995691 0 -0.39965627699246931 -0.28495852211330708 0 -0.37512158796465661 -0.30456513774161381 0 -0.37647268693461911 -0.29291239555995691 0 -0.3999543791092276 -0.28977551511645322 0 -0.37647268693461911 -0.29291239555995691 0 -0.3999543791092276 -0.28977551511645322 0 -0.39965627699246931 -0.28495852211330708 0 -0.39965627699246931 -0.28495852211330708 0 -0.39481706971438341 -0.27940021326662667 0 -0.39064918377542251 -0.28078783637670929 0 -0.38373844921131389 -0.28429595350295428 0 -0.39965627699246931 -0.28495852211330708 0 -0.39064918377542251 -0.28078783637670929 0 -0.3999543791092276 -0.28977551511645322 0 -0.39965627699246931 -0.28495852211330708 0 -0.41462733139697289 -0.28103677020979417 0 -0.3999543791092276 -0.28977551511645322 0 -0.39965627699246931 -0.28495852211330708 0 -0.39965627699246931 -0.28495852211330708 0 -0.39904495235291793 -0.27508020744924699 0 -0.39965627699246931 -0.28495852211330708 0 -0.39904495235291793 -0.27508020744924699 0 -0.41246966374011318 -0.27561307865949808 0 -0.39904495235291793 -0.27508020744924699 0 -0.41246966374011318 -0.27561307865949808 0 -0.39904495235291793 -0.27508020744924699 0 -0.40668794734353081 -0.26107967901070511 0 -0.41246966374011318 -0.27561307865949808 0 -0.39904495235291793 -0.27508020744924699 0 -0.38966313658033819 -0.27470781214174922 0 -0.38863232386824409 -0.26310108356927098 0 -0.39904495235291793 -0.27508020744924699 0 -0.39481706971438341 -0.27940021326662667 0 -0.39111441293622828 -0.27577365719785751 0 -0.39904495235291793 -0.27508020744924699 0 -0.38966313658033819 -0.27470781214174922 0 -0.39904495235291793 -0.27508020744924699 0 -0.39111441293622828 -0.27577365719785751 0 -0.38966313658033819 -0.27470781214174922 0 -0.39965627699246931 -0.28495852211330708 0 -0.39904495235291793 -0.27508020744924699 0 -0.39481706971438341 -0.27940021326662667 0 -0.39481706971438341 -0.27940021326662667 0 -0.39111441293622828 -0.27577365719785751 0 -0.39064918377542251 -0.28078783637670929 0 -0.38966313658033819 -0.27470781214174922 0 -0.37370142105479592 -0.27407423884363641 0 -0.38966313658033819 -0.27470781214174922 0 -0.37616759085086199 -0.26479642577011359 0 -0.37370142105479592 -0.27407423884363641 0 -0.38373844921131389 -0.28429595350295428 0 -0.38966313658033819 -0.27470781214174922 0 -0.37370142105479592 -0.27407423884363641 0 -0.38373844921131389 -0.28429595350295428 0 -0.39064918377542251 -0.28078783637670929 0 -0.38966313658033819 -0.27470781214174922 0 -0.39111441293622828 -0.27577365719785751 0 -0.39064918377542251 -0.28078783637670929 0 -0.38966313658033819 -0.27470781214174922 0 -0.39111441293622828 -0.27577365719785751 0 -0.38966313658033819 -0.27470781214174922 0 -0.38966313658033819 -0.27470781214174922 0 -0.37616759085086199 -0.26479642577011359 0 -0.38966313658033819 -0.27470781214174922 0 -0.37616759085086199 -0.26479642577011359 0 -0.38863232386824409 -0.26310108356927098 0 -0.3807563853150594 -0.25032788433723541 0 -0.38863232386824409 -0.26310108356927098 0 -0.39752955424204278 -0.25059308814801001 0 -0.3807563853150594 -0.25032788433723541 0 -0.37616759085086199 -0.26479642577011359 0 -0.38863232386824409 -0.26310108356927098 0 -0.39904495235291793 -0.27508020744924699 0 -0.39752955424204278 -0.25059308814801001 0 -0.40668794734353081 -0.26107967901070511 0 -0.39904495235291793 -0.27508020744924699 0 -0.39752955424204278 -0.25059308814801001 0 -0.39904495235291793 -0.27508020744924699 0 -0.38863232386824409 -0.26310108356927098 0 -0.39752955424204278 -0.25059308814801001 0 -0.40957277933576608 -0.25183864413063539 0 -0.40668794734353081 -0.26107967901070511 0 -0.40090623094694627 -0.2465462793619129 0 -0.39752955424204278 -0.25059308814801001 0 -0.40668794734353081 -0.26107967901070511 0 -0.40090623094694627 -0.2465462793619129 0 -0.40668794734353081 -0.26107967901070511 0 -0.40090623094694627 -0.2465462793619129 0 -0.40957277933576608 -0.25183864413063539 0 -0.4211140110866794 -0.261360178174459 0 -0.41772787251651178 -0.24780639585967709 0 -0.40957277933576608 -0.25183864413063539 0 -0.4211140110866794 -0.261360178174459 0 -0.40668794734353081 -0.26107967901070511 0 -0.41246966374011318 -0.27561307865949808 0 -0.42214997724865078 -0.27724133746942409 0 -0.4290752812273243 -0.27627221055680279 0 -0.41246966374011318 -0.27561307865949808 0 -0.4290752812273243 -0.27627221055680279 0 -0.40668794734353081 -0.26107967901070511 0 -0.41246966374011318 -0.27561307865949808 0 -0.4211140110866794 -0.261360178174459 0 -0.41246966374011318 -0.27561307865949808 0 -0.4290752812273243 -0.27627221055680279 0 -0.4211140110866794 -0.261360178174459 0 -0.40668794734353081 -0.26107967901070511 0 -0.41246966374011318 -0.27561307865949808 0 -0.39965627699246931 -0.28495852211330708 0 -0.41246966374011318 -0.27561307865949808 0 -0.41462733139697289 -0.28103677020979417 0 -0.41246966374011318 -0.27561307865949808 0 -0.41462733139697289 -0.28103677020979417 0 -0.41246966374011318 -0.27561307865949808 0 -0.41793644749772801 -0.27936720768643142 0 -0.42214997724865078 -0.27724133746942409 0 -0.41246966374011318 -0.27561307865949808 0 -0.41793644749772801 -0.27936720768643142 0 -0.41462733139697289 -0.28103677020979417 0 -0.41793644749772801 -0.27936720768643142 0 -0.41462733139697289 -0.28103677020979417 0 -0.42392102483979682 -0.28357055852148733 0 -0.41793644749772801 -0.27936720768643142 0 -0.42214997724865078 -0.27724133746942409 0 -0.41793644749772801 -0.27936720768643142 0 -0.42214997724865078 -0.27724133746942409 0 -0.44568089871453548 -0.27693134245410722 0 -0.4366354251127269 -0.28714237885532867 0 -0.4290752812273243 -0.27627221055680279 0 -0.44568089871453548 -0.27693134245410722 0 -0.4290752812273243 -0.27627221055680279 0 -0.44147150055601359 -0.26347668201382168 0 -0.4211140110866794 -0.261360178174459 0 -0.4290752812273243 -0.27627221055680279 0 -0.42392102483979682 -0.28357055852148733 0 -0.42214997724865078 -0.27724133746942409 0 -0.4290752812273243 -0.27627221055680279 0 -0.44147150055601359 -0.26347668201382168 0 -0.4211140110866794 -0.261360178174459 0 -0.42933896999383259 -0.24913933364668489 0 -0.4211140110866794 -0.261360178174459 0 -0.42933896999383259 -0.24913933364668489 0 -0.41772787251651178 -0.24780639585967709 0 -0.31819632532412923 -0.26609267812935089 0 -0.30795773519465919 -0.25381458906647419 0 -0.32479312107020503 -0.24904071669932959 0 -0.31819632532412923 -0.26609267812935089 0 -0.33943265673747691 -0.26074123847790259 0 -0.32479312107020503 -0.24904071669932959 0 -0.31342967699420471 -0.27913183605108238 0 -0.31819632532412923 -0.26609267812935089 0 -0.33195090730643972 -0.28073746895286877 0 -0.31819632532412923 -0.26609267812935089 0 -0.33199816603054172 -0.2693573577748582 0 -0.33195090730643972 -0.28073746895286877 0 -0.33199816603054172 -0.2693573577748582 0 -0.33195090730643972 -0.28073746895286877 0 -0.34337812608559859 -0.26943267680423949 0 -0.33199816603054172 -0.2693573577748582 0 -0.34337812608559859 -0.26943267680423949 0 -0.33943265673747691 -0.26074123847790259 0 -0.31819632532412923 -0.26609267812935089 0 -0.33943265673747691 -0.26074123847790259 0 -0.31819632532412923 -0.26609267812935089 0 -0.33199816603054172 -0.2693573577748582 0 -0.33943265673747691 -0.26074123847790259 0 -0.33943265673747691 -0.26074123847790259 0 -0.33735618903199571 -0.24751717438331339 0 -0.32479312107020503 -0.24904071669932959 0 -0.33943265673747691 -0.26074123847790259 0 -0.35071525358356731 -0.2461037434752176 0 -0.33735618903199571 -0.24751717438331339 0 -0.33943265673747691 -0.26074123847790259 0 -0.35858874157913773 -0.25500361935277088 0 -0.35071525358356731 -0.2461037434752176 0 -0.33943265673747691 -0.26074123847790259 0 -0.35858874157913773 -0.25500361935277088 0 -0.36066898815082499 -0.25538979882645579 0 -0.33943265673747691 -0.26074123847790259 0 -0.36066898815082499 -0.25538979882645579 0 -0.34337812608559859 -0.26943267680423949 0 -0.33943265673747691 -0.26074123847790259 0 -0.36066898815082499 -0.25538979882645579 0 -0.36066898815082499 -0.25538979882645579 0 -0.3577397055292536 -0.27344066554552321 0 -0.35858874157913773 -0.25500361935277088 0 -0.35071525358356731 -0.2461037434752176 0 -0.35858874157913773 -0.25500361935277088 0 -0.36095548195748128 -0.25362436264706378 0 -0.35071525358356731 -0.2461037434752176 0 -0.36095548195748128 -0.25362436264706378 0 -0.3626720451213829 -0.25488503939848212 0 -0.36744040811277451 -0.24659334707129699 0 -0.36066898815082499 -0.25538979882645579 0 -0.36618995014142419 -0.26451723367684288 0 -0.3577397055292536 -0.27344066554552321 0 -0.3807563853150594 -0.25032788433723541 0 -0.3626720451213829 -0.25488503939848212 0 -0.3807563853150594 -0.25032788433723541 0 -0.3626720451213829 -0.25488503939848212 0 -0.36744040811277451 -0.24659334707129699 0 -0.3807563853150594 -0.25032788433723541 0 -0.37616759085086199 -0.26479642577011359 0 -0.3626720451213829 -0.25488503939848212 0 -0.36095548195748128 -0.25362436264706378 0 -0.3626720451213829 -0.25488503939848212 0 -0.36066898815082499 -0.25538979882645579 0 -0.3626720451213829 -0.25488503939848212 0 -0.36066898815082499 -0.25538979882645579 0 -0.36095548195748128 -0.25362436264706378 0 -0.3626720451213829 -0.25488503939848212 0 -0.35858874157913773 -0.25500361935277088 0 -0.36095548195748128 -0.25362436264706378 0 -0.36066898815082499 -0.25538979882645579 0 -0.36095548195748128 -0.25362436264706378 0 -0.36066898815082499 -0.25538979882645579 0 -0.3626720451213829 -0.25488503939848212 0 -0.36066898815082499 -0.25538979882645579 0 -0.36618995014142419 -0.26451723367684288 0 -0.37616759085086199 -0.26479642577011359 0 -0.3626720451213829 -0.25488503939848212 0 -0.36618995014142419 -0.26451723367684288 0 -0.37616759085086199 -0.26479642577011359 0 -0.3626720451213829 -0.25488503939848212 0 -0.37370142105479592 -0.27407423884363641 0 -0.3577397055292536 -0.27344066554552321 0 -0.36618995014142419 -0.26451723367684288 0 -0.37370142105479592 -0.27407423884363641 0 -0.3577397055292536 -0.27344066554552321 0 -0.38373844921131389 -0.28429595350295428 0 -0.37370142105479592 -0.27407423884363641 0 -0.36662939645518128 -0.28500260392903942 0 -0.37370142105479592 -0.27407423884363641 0 -0.3577397055292536 -0.27344066554552321 0 -0.36662939645518128 -0.28500260392903942 0 -0.37616759085086199 -0.26479642577011359 0 -0.36618995014142419 -0.26451723367684288 0 -0.37370142105479592 -0.27407423884363641 0 -0.34337812608559859 -0.26943267680423949 0 -0.36066898815082499 -0.25538979882645579 0 -0.35609044565532738 -0.27337520096459561 0 -0.36066898815082499 -0.25538979882645579 0 -0.3577397055292536 -0.27344066554552321 0 -0.35609044565532738 -0.27337520096459561 0 -0.3577397055292536 -0.27344066554552321 0 -0.35609044565532738 -0.27337520096459561 0 -0.3484909558919474 -0.28474503336336288 0 -0.3577397055292536 -0.27344066554552321 0 -0.35609044565532738 -0.27337520096459561 0 -0.34337812608559859 -0.26943267680423949 0 -0.35609044565532738 -0.27337520096459561 0 -0.3484909558919474 -0.28474503336336288 0 -0.3577397055292536 -0.27344066554552321 0 -0.36662939645518128 -0.28500260392903942 0 -0.35328909687676968 -0.30086626900660901 0 -0.3577397055292536 -0.27344066554552321 0 -0.35328909687676968 -0.30086626900660901 0 -0.3484909558919474 -0.28474503336336288 0 -0.34519374337998432 -0.29488689378520949 0 -0.35328909687676968 -0.30086626900660901 0 -0.3577397055292536 -0.27344066554552321 0 -0.3484909558919474 -0.28474503336336288 0 -0.35328909687676968 -0.30086626900660901 0 -0.37647268693461911 -0.29291239555995691 0 -0.36662939645518128 -0.28500260392903942 0 -0.35328909687676968 -0.30086626900660901 0 -0.37512158796465661 -0.30456513774161381 0 -0.35328909687676968 -0.30086626900660901 0 -0.35028879682008568 -0.3193547603667749 0 -0.37647268693461911 -0.29291239555995691 0 -0.35328909687676968 -0.30086626900660901 0 -0.37512158796465661 -0.30456513774161381 0 -0.37647268693461911 -0.29291239555995691 0 -0.35328909687676968 -0.30086626900660901 0 -0.37512158796465661 -0.30456513774161381 0 -0.35028879682008568 -0.3193547603667749 0 -0.35328909687676968 -0.30086626900660901 0 -0.340600099235362 -0.31552510454219862 0 -0.35028879682008568 -0.3193547603667749 0 -0.35328909687676968 -0.30086626900660901 0 -0.35028879682008568 -0.3193547603667749 0 -0.34519374337998432 -0.29488689378520949 0 -0.35328909687676968 -0.30086626900660901 0 -0.33366808583143259 -0.3075978855664438 0 -0.35328909687676968 -0.30086626900660901 0 -0.33366808583143259 -0.3075978855664438 0 -0.33525461782474969 -0.29646849407400072 0 -0.3271311095639009 -0.32350431134376179 0 -0.33366808583143259 -0.3075978855664438 0 -0.33525461782474969 -0.29646849407400072 0 -0.3271311095639009 -0.32350431134376179 0 -0.33525461782474969 -0.29646849407400072 0 -0.32237826421087662 -0.30733786166403693 0 -0.3271311095639009 -0.32350431134376179 0 -0.35328909687676968 -0.30086626900660901 0 -0.33366808583143259 -0.3075978855664438 0 -0.340600099235362 -0.31552510454219862 0 -0.34519374337998432 -0.29488689378520949 0 -0.33366808583143259 -0.3075978855664438 0 -0.33525461782474969 -0.29646849407400072 0 -0.33195090730643972 -0.28073746895286877 0 -0.32842152398151692 -0.29017152029729287 0 -0.33525461782474969 -0.29646849407400072 0 -0.3484909558919474 -0.28474503336336288 0 -0.34519374337998432 -0.29488689378520949 0 -0.33525461782474969 -0.29646849407400072 0 -0.34337812608559859 -0.26943267680423949 0 -0.33525461782474969 -0.29646849407400072 0 -0.34337812608559859 -0.26943267680423949 0 -0.3484909558919474 -0.28474503336336288 0 -0.33525461782474969 -0.29646849407400072 0 -0.33195090730643972 -0.28073746895286877 0 -0.34337812608559859 -0.26943267680423949 0 -0.33525461782474969 -0.29646849407400072 0 -0.32842152398151692 -0.29017152029729287 0 -0.33525461782474969 -0.29646849407400072 0 -0.32419577432624719 -0.29685674462620731 0 -0.32842152398151692 -0.29017152029729287 0 -0.32419577432624719 -0.29685674462620731 0 -0.31837355890434582 -0.29063237855787549 0 -0.31342967699420471 -0.27913183605108238 0 -0.33195090730643972 -0.28073746895286877 0 -0.31837355890434582 -0.29063237855787549 0 -0.33195090730643972 -0.28073746895286877 0 -0.32842152398151692 -0.29017152029729287 0 -0.31837355890434582 -0.29063237855787549 0 -0.32419577432624719 -0.29685674462620731 0 -0.31837355890434582 -0.29063237855787549 0 -0.31655090670974712 -0.29967346853783072 0 -0.31655090670974712 -0.29967346853783072 0 -0.32237826421087662 -0.30733786166403693 0 -0.30637520513986849 -0.30206095588823711 0 -0.32237826421087662 -0.30733786166403693 0 -0.31249507470475651 -0.31832404966298378 0 -0.30637520513986849 -0.30206095588823711 0 -0.31837355890434582 -0.29063237855787549 0 -0.31655090670974712 -0.29967346853783072 0 -0.30637520513986849 -0.30206095588823711 0 -0.33525461782474969 -0.29646849407400072 0 -0.32419577432624719 -0.29685674462620731 0 -0.32237826421087662 -0.30733786166403693 0 -0.32419577432624719 -0.29685674462620731 0 -0.31655090670974712 -0.29967346853783072 0 -0.32237826421087662 -0.30733786166403693 0 -0.32237826421087662 -0.30733786166403693 0 -0.3271311095639009 -0.32350431134376179 0 -0.31249507470475651 -0.31832404966298378 0 -0.3271311095639009 -0.32350431134376179 0 -0.31340196090011502 -0.33317131745462708 0 -0.31249507470475651 -0.31832404966298378 0 -0.3271311095639009 -0.32350431134376179 0 -0.32988771379035958 -0.33801379648354107 0 -0.319007601303052 -0.35054012861352291 0 -0.3271311095639009 -0.32350431134376179 0 -0.31340196090011502 -0.33317131745462708 0 -0.319007601303052 -0.35054012861352291 0 -0.31340196090011502 -0.33317131745462708 0 -0.319007601303052 -0.35054012861352291 0 -0.30573378425935599 -0.34489948700128259 0 -0.3271311095639009 -0.32350431134376179 0 -0.319007601303052 -0.35054012861352291 0 -0.3271311095639009 -0.32350431134376179 0 -0.32988771379035958 -0.33801379648354107 0 -0.33862340708461869 -0.32630229642740349 0 -0.32988771379035958 -0.33801379648354107 0 -0.33965870547717419 -0.34115575138194459 0 -0.319007601303052 -0.35054012861352291 0 -0.32988771379035958 -0.33801379648354107 0 -0.33965870547717419 -0.34115575138194459 0 -0.33862340708461869 -0.32630229642740349 0 -0.33965870547717419 -0.34115575138194459 0 -0.33862340708461869 -0.32630229642740349 0 -0.34780891071343462 -0.33463634953812538 0 -0.33366808583143259 -0.3075978855664438 0 -0.3271311095639009 -0.32350431134376179 0 -0.340600099235362 -0.31552510454219862 0 -0.33862340708461869 -0.32630229642740349 0 -0.340600099235362 -0.31552510454219862 0 -0.35028879682008568 -0.3193547603667749 0 -0.3271311095639009 -0.32350431134376179 0 -0.33862340708461869 -0.32630229642740349 0 -0.340600099235362 -0.31552510454219862 0 -0.35028879682008568 -0.3193547603667749 0 -0.3639440019375999 -0.32491789162061069 0 -0.34780891071343462 -0.33463634953812538 0 -0.33862340708461869 -0.32630229642740349 0 -0.35028879682008568 -0.3193547603667749 0 -0.33862340708461869 -0.32630229642740349 0 -0.35028879682008568 -0.3193547603667749 0 -0.34780891071343462 -0.33463634953812538 0 -0.35028879682008568 -0.3193547603667749 0 -0.34780891071343462 -0.33463634953812538 0 -0.37809296521051072 -0.32906757768712541 0 -0.37512158796465661 -0.30456513774161381 0 -0.3639440019375999 -0.32491789162061069 0 -0.37512158796465661 -0.30456513774161381 0 -0.35028879682008568 -0.3193547603667749 0 -0.3639440019375999 -0.32491789162061069 0 -0.37809296521051072 -0.32906757768712541 0 -0.36171099490864661 -0.33949275819830049 0 -0.37418465591067268 -0.34680695930694477 0 -0.37809296521051072 -0.32906757768712541 0 -0.36171099490864661 -0.33949275819830049 0 -0.37809296521051072 -0.32906757768712541 0 -0.3639440019375999 -0.32491789162061069 0 -0.36171099490864661 -0.33949275819830049 0 -0.3639440019375999 -0.32491789162061069 0 -0.36171099490864661 -0.33949275819830049 0 -0.34780891071343462 -0.33463634953812538 0 -0.36171099490864661 -0.33949275819830049 0 -0.34780891071343462 -0.33463634953812538 0 -0.34532902460678261 -0.34991793870947568 0 -0.34780891071343462 -0.33463634953812538 0 -0.34532902460678261 -0.34991793870947568 0 -0.33965870547717419 -0.34115575138194459 0 -0.34780891071343462 -0.33463634953812538 0 -0.34532902460678261 -0.34991793870947568 0 -0.36171099490864661 -0.33949275819830049 0 -0.34532902460678261 -0.34991793870947568 0 -0.36171099490864661 -0.33949275819830049 0 -0.34532902460678261 -0.34991793870947568 0 -0.35868634651672698 -0.35282365156287049 0 -0.34532902460678261 -0.34991793870947568 0 -0.35868634651672698 -0.35282365156287049 0 -0.34186043661696619 -0.37129212058130201 0 -0.35868634651672698 -0.35282365156287049 0 -0.37418465591067268 -0.34680695930694477 0 -0.36621929042812451 -0.36423049038087862 0 -0.36171099490864661 -0.33949275819830049 0 -0.35868634651672698 -0.35282365156287049 0 -0.37418465591067268 -0.34680695930694477 0 -0.37910124115022042 -0.37744830499117499 0 -0.36621929042812451 -0.36423049038087862 0 -0.35629560791377018 -0.38234266871381789 0 -0.36621929042812451 -0.36423049038087862 0 -0.34186043661696619 -0.37129212058130201 0 -0.35629560791377018 -0.38234266871381789 0 -0.35868634651672698 -0.35282365156287049 0 -0.36621929042812451 -0.36423049038087862 0 -0.34186043661696619 -0.37129212058130201 0 -0.36621929042812451 -0.36423049038087862 0 -0.34186043661696619 -0.37129212058130201 0 -0.34186043661696619 -0.37129212058130201 0 -0.33117381890118691 -0.37439017039049421 0 -0.34532902460678261 -0.34991793870947568 0 -0.34186043661696619 -0.37129212058130201 0 -0.32164951434731398 -0.36498713761060508 0 -0.34532902460678261 -0.34991793870947568 0 -0.34186043661696619 -0.37129212058130201 0 -0.34186043661696619 -0.37129212058130201 0 -0.33117381890118691 -0.37439017039049421 0 -0.32164951434731398 -0.36498713761060508 0 -0.34532902460678261 -0.34991793870947568 0 -0.32164951434731398 -0.36498713761060508 0 -0.33965870547717419 -0.34115575138194459 0 -0.34532902460678261 -0.34991793870947568 0 -0.319007601303052 -0.35054012861352291 0 -0.34532902460678261 -0.34991793870947568 0 -0.319007601303052 -0.35054012861352291 0 -0.32164951434731398 -0.36498713761060508 0 -0.319007601303052 -0.35054012861352291 0 -0.32164951434731398 -0.36498713761060508 0 -0.30797497110244648 -0.35964977584432162 0 -0.32164951434731398 -0.36498713761060508 0 -0.31915132858901202 -0.3793018138120075 0 -0.29797000408784519 -0.38005633651173459 0 -0.33117381890118691 -0.37439017039049421 0 -0.32164951434731398 -0.36498713761060508 0 -0.31915132858901202 -0.3793018138120075 0 -0.30797497110244648 -0.35964977584432162 0 -0.29464583115526138 -0.35756968241353282 0 -0.29797000408784519 -0.38005633651173459 0 -0.32164951434731398 -0.36498713761060508 0 -0.30797497110244648 -0.35964977584432162 0 -0.29797000408784519 -0.38005633651173459 0 -0.32164951434731398 -0.36498713761060508 0 -0.29797000408784519 -0.38005633651173459 0 -0.30573378425935599 -0.34489948700128259 0 -0.29464583115526138 -0.35756968241353282 0 -0.29132868235419429 -0.34065959771377857 0 -0.319007601303052 -0.35054012861352291 0 -0.30797497110244648 -0.35964977584432162 0 -0.30573378425935599 -0.34489948700128259 0 -0.30797497110244648 -0.35964977584432162 0 -0.30573378425935599 -0.34489948700128259 0 -0.29464583115526138 -0.35756968241353282 0 -0.29464583115526138 -0.35756968241353282 0 -0.28214928821591351 -0.35242870999356501 0 -0.29132868235419429 -0.34065959771377857 0 -0.28214928821591351 -0.35242870999356501 0 -0.27633799931385078 -0.34094546175545348 0 -0.29132868235419429 -0.34065959771377857 0 -0.29464583115526138 -0.35756968241353282 0 -0.28214928821591351 -0.35242870999356501 0 -0.27971672965661898 -0.36715839633563158 0 -0.29464583115526138 -0.35756968241353282 0 -0.27971672965661898 -0.36715839633563158 0 -0.29797000408784519 -0.38005633651173459 0 -0.27971672965661898 -0.36715839633563158 0 -0.26246231193507519 -0.36812652482989489 0 -0.26871719859964188 -0.35581041174942829 0 -0.27971672965661898 -0.36715839633563158 0 -0.26246231193507519 -0.36812652482989489 0 -0.2695413387282441 -0.3774195048182668 0 -0.26246231193507519 -0.36812652482989489 0 -0.2695413387282441 -0.3774195048182668 0 -0.258126515348783 -0.37897424188764472 0 -0.26246231193507519 -0.36812652482989489 0 -0.2537697303883914 -0.37248603908174333 0 -0.258126515348783 -0.37897424188764472 0 -0.26246231193507519 -0.36812652482989489 0 -0.25300435451518749 -0.35969863246827188 0 -0.26871719859964188 -0.35581041174942829 0 -0.26246231193507519 -0.36812652482989489 0 -0.25300435451518749 -0.35969863246827188 0 -0.2537697303883914 -0.37248603908174333 0 -0.25300435451518749 -0.35969863246827188 0 -0.2580372555781828 -0.34474315983665882 0 -0.26871719859964188 -0.35581041174942829 0 -0.2580372555781828 -0.34474315983665882 0 -0.26871719859964188 -0.35581041174942829 0 -0.27633799931385078 -0.34094546175545348 0 -0.28214928821591351 -0.35242870999356501 0 -0.27971672965661898 -0.36715839633563158 0 -0.26871719859964188 -0.35581041174942829 0 -0.28214928821591351 -0.35242870999356501 0 -0.26871719859964188 -0.35581041174942829 0 -0.27633799931385078 -0.34094546175545348 0 -0.27633799931385078 -0.34094546175545348 0 -0.26506929266818341 -0.32745876205300861 0 -0.28368981370174512 -0.3220777410802092 0 -0.2580372555781828 -0.34474315983665882 0 -0.27633799931385078 -0.34094546175545348 0 -0.26506929266818341 -0.32745876205300861 0 -0.2580372555781828 -0.34474315983665882 0 -0.25225645023502208 -0.33168591279810861 0 -0.26506929266818341 -0.32745876205300861 0 -0.26506929266818341 -0.32745876205300861 0 -0.25246230460774721 -0.31461311935138508 0 -0.26763193257255208 -0.31068717749623631 0 -0.25225645023502208 -0.33168591279810861 0 -0.26506929266818341 -0.32745876205300861 0 -0.25246230460774721 -0.31461311935138508 0 -0.26506929266818341 -0.32745876205300861 0 -0.28368981370174512 -0.3220777410802092 0 -0.26763193257255208 -0.31068717749623631 0 -0.28368981370174512 -0.3220777410802092 0 -0.30177411431010581 -0.32839250358065419 0 -0.29646125822190361 -0.31126778035645492 0 -0.27633799931385078 -0.34094546175545348 0 -0.28368981370174512 -0.3220777410802092 0 -0.29132868235419429 -0.34065959771377857 0 -0.28368981370174512 -0.3220777410802092 0 -0.29132868235419429 -0.34065959771377857 0 -0.30177411431010581 -0.32839250358065419 0 -0.31340196090011502 -0.33317131745462708 0 -0.30573378425935599 -0.34489948700128259 0 -0.30177411431010581 -0.32839250358065419 0 -0.30573378425935599 -0.34489948700128259 0 -0.29132868235419429 -0.34065959771377857 0 -0.30177411431010581 -0.32839250358065419 0 -0.30177411431010581 -0.32839250358065419 0 -0.31249507470475651 -0.31832404966298378 0 -0.29646125822190361 -0.31126778035645492 0 -0.31340196090011502 -0.33317131745462708 0 -0.30177411431010581 -0.32839250358065419 0 -0.31249507470475651 -0.31832404966298378 0 -0.31249507470475651 -0.31832404966298378 0 -0.30637520513986849 -0.30206095588823711 0 -0.29646125822190361 -0.31126778035645492 0 -0.30637520513986849 -0.30206095588823711 0 -0.29463284677371132 -0.29687973929045458 0 -0.29646125822190361 -0.31126778035645492 0 -0.31837355890434582 -0.29063237855787549 0 -0.30637520513986849 -0.30206095588823711 0 -0.30166759952532701 -0.2867525368345174 0 -0.31342967699420471 -0.27913183605108238 0 -0.31837355890434582 -0.29063237855787549 0 -0.30166759952532701 -0.2867525368345174 0 -0.30637520513986849 -0.30206095588823711 0 -0.30166759952532701 -0.2867525368345174 0 -0.29463284677371132 -0.29687973929045458 0 -0.30637520513986849 -0.30206095588823711 0 -0.30166759952532701 -0.2867525368345174 0 -0.28964189417545427 -0.28583492492061519 0 -0.28060229075719761 -0.29921097487261727 0 -0.277514767812644 -0.27634420866502618 0 -0.30166759952532701 -0.2867525368345174 0 -0.28964189417545427 -0.28583492492061519 0 -0.29463284677371132 -0.29687973929045458 0 -0.30166759952532701 -0.2867525368345174 0 -0.28964189417545427 -0.28583492492061519 0 -0.29695999391078132 -0.27144411778079902 0 -0.28964189417545427 -0.28583492492061519 0 -0.29463284677371132 -0.29687973929045458 0 -0.28060229075719761 -0.29921097487261727 0 -0.28368981370174512 -0.3220777410802092 0 -0.29646125822190361 -0.31126778035645492 0 -0.28060229075719761 -0.29921097487261727 0 -0.28368981370174512 -0.3220777410802092 0 -0.28060229075719761 -0.29921097487261727 0 -0.29463284677371132 -0.29687973929045458 0 -0.29646125822190361 -0.31126778035645492 0 -0.28060229075719761 -0.29921097487261727 0 -0.26763193257255208 -0.31068717749623631 0 -0.28060229075719761 -0.29921097487261727 0 -0.26561989413048909 -0.29408618155886729 0 -0.28368981370174512 -0.3220777410802092 0 -0.26763193257255208 -0.31068717749623631 0 -0.28060229075719761 -0.29921097487261727 0 -0.26763193257255208 -0.31068717749623631 0 -0.25058554513010328 -0.29905649999165052 0 -0.25246230460774721 -0.31461311935138508 0 -0.26763193257255208 -0.31068717749623631 0 -0.25058554513010328 -0.29905649999165052 0 -0.26763193257255208 -0.31068717749623631 0 -0.25058554513010328 -0.29905649999165052 0 -0.26561989413048909 -0.29408618155886729 0 -0.25058554513010328 -0.29905649999165052 0 -0.26561989413048909 -0.29408618155886729 0 -0.25552696275014952 -0.28188501557604367 0 -0.26561989413048909 -0.29408618155886729 0 -0.25552696275014952 -0.28188501557604367 0 -0.277514767812644 -0.27634420866502618 0 -0.28060229075719761 -0.29921097487261727 0 -0.277514767812644 -0.27634420866502618 0 -0.28060229075719761 -0.29921097487261727 0 -0.26561989413048909 -0.29408618155886729 0 -0.277514767812644 -0.27634420866502618 0 -0.25552696275014952 -0.28188501557604367 0 -0.277514767812644 -0.27634420866502618 0 -0.25552696275014952 -0.28188501557604367 0 -0.277514767812644 -0.27634420866502618 0 -0.26225615194471907 -0.26685919053015938 0 -0.25552696275014952 -0.28188501557604367 0 -0.26225615194471907 -0.26685919053015938 0 -0.24701821730940651 -0.26713600026353113 0 -0.26225615194471907 -0.26685919053015938 0 -0.25509643939260801 -0.25372761686286172 0 -0.27443664003918761 -0.25354702483286451 0 -0.26225615194471907 -0.26685919053015938 0 -0.25509643939260801 -0.25372761686286172 0 -0.24701821730940651 -0.26713600026353113 0 -0.277514767812644 -0.27634420866502618 0 -0.26225615194471907 -0.26685919053015938 0 -0.27443664003918761 -0.25354702483286451 0 -0.277514767812644 -0.27634420866502618 0 -0.27443664003918761 -0.25354702483286451 0 -0.277514767812644 -0.27634420866502618 0 -0.27443664003918761 -0.25354702483286451 0 -0.28465926517563939 -0.26377314249721001 0 -0.27443664003918761 -0.25354702483286451 0 -0.28465926517563939 -0.26377314249721001 0 -0.29053868512760439 -0.25056299608644328 0 -0.29053868512760439 -0.25056299608644328 0 -0.29695999391078132 -0.27144411778079902 0 -0.28465926517563939 -0.26377314249721001 0 -0.29053868512760439 -0.25056299608644328 0 -0.29695999391078132 -0.27144411778079902 0 -0.277514767812644 -0.27634420866502618 0 -0.28465926517563939 -0.26377314249721001 0 -0.29695999391078132 -0.27144411778079902 0 -0.277514767812644 -0.27634420866502618 0 -0.29695999391078132 -0.27144411778079902 0 -0.28964189417545427 -0.28583492492061519 0 -0.277514767812644 -0.27634420866502618 0 -0.29695999391078132 -0.27144411778079902 0 -0.31342967699420471 -0.27913183605108238 0 -0.31819632532412923 -0.26609267812935089 0 -0.29695999391078132 -0.27144411778079902 0 -0.31342967699420471 -0.27913183605108238 0 -0.30166759952532701 -0.2867525368345174 0 -0.29695999391078132 -0.27144411778079902 0 -0.31819632532412923 -0.26609267812935089 0 -0.29695999391078132 -0.27144411778079902 0 -0.30166759952532701 -0.2867525368345174 0 -0.29695999391078132 -0.27144411778079902 0 -0.31819632532412923 -0.26609267812935089 0 -0.29695999391078132 -0.27144411778079902 0 -0.30795773519465919 -0.25381458906647419 0 -0.29053868512760439 -0.25056299608644328 0 -0.29695999391078132 -0.27144411778079902 0 -0.30795773519465919 -0.25381458906647419 0 -0.33538948132179081 -0.44923140962310371 0 -0.32697194626254972 -0.46303818600243879 0 -0.34378844372828032 -0.46415741093683721 0 -0.32697194626254972 -0.46303818600243879 0 -0.33535391701642042 -0.477271031691269 0 -0.34378844372828032 -0.46415741093683721 0 -0.32697194626254972 -0.46303818600243879 0 -0.33163369087915939 -0.43431151752290942 0 -0.33538948132179081 -0.44923140962310371 0 -0.34378844372828032 -0.46415741093683721 0 -0.34004193961202711 -0.43487112999010868 0 -0.34378844372828032 -0.46415741093683721 0 -0.34004193961202711 -0.43487112999010868 0 -0.33538948132179081 -0.44923140962310371 0 -0.32697194626254972 -0.46303818600243879 0 -0.33163369087915939 -0.43431151752290942 0 -0.33538948132179081 -0.44923140962310371 0 -0.33163369087915939 -0.43431151752290942 0 -0.34004193961202711 -0.43487112999010868 0 -0.32243644467647348 -0.44028803833412372 0 -0.31278969071315288 -0.44585360148274911 0 -0.32697194626254972 -0.46303818600243879 0 -0.32243644467647348 -0.44028803833412372 0 -0.32697194626254972 -0.46303818600243879 0 -0.33163369087915939 -0.43431151752290942 0 -0.32243644467647348 -0.44028803833412372 0 -0.31278969071315288 -0.44585360148274911 0 -0.31601447354627599 -0.4304676065217391 0 -0.32697194626254972 -0.46303818600243879 0 -0.30826186670568151 -0.46047040757452562 0 -0.31080148806471808 -0.47569234314871961 0 -0.31278969071315288 -0.44585360148274911 0 -0.32697194626254972 -0.46303818600243879 0 -0.30826186670568151 -0.46047040757452562 0 -0.32697194626254972 -0.46303818600243879 0 -0.32231020164593999 -0.49176485448196822 0 -0.32697194626254972 -0.46303818600243879 0 -0.32231020164593999 -0.49176485448196822 0 -0.33054979109810528 -0.48436503432938949 0 -0.32697194626254972 -0.46303818600243879 0 -0.32231020164593999 -0.49176485448196822 0 -0.31080148806471808 -0.47569234314871961 0 -0.32231020164593999 -0.49176485448196822 0 -0.30985713946684879 -0.49028748124611488 0 -0.31080148806471808 -0.47569234314871961 0 -0.32231020164593999 -0.49176485448196822 0 -0.32360650715619382 -0.5 0 -0.30985713946684879 -0.49028748124611488 0 -0.32231020164593999 -0.49176485448196822 0 -0.32841043948156201 -0.4950242070775705 0 -0.33054979109810528 -0.48436503432938949 0 -0.32231020164593999 -0.49176485448196822 0 -0.32360650715619382 -0.5 0 -0.32841043948156201 -0.4950242070775705 0 -0.32841043948156201 -0.4950242070775705 0 -0.33491751898319477 -0.49268023665261962 0 -0.34742868127019721 -0.50000000000000344 0 -0.32360650715619382 -0.5 0 -0.32841043948156201 -0.4950242070775705 0 -0.34742868127019721 -0.50000000000000344 0 -0.32841043948156201 -0.4950242070775705 0 -0.33491751898319477 -0.49268023665261962 0 -0.33054979109810528 -0.48436503432938949 0 -0.33491751898319477 -0.49268023665261962 0 -0.33512836865216578 -0.48470674327094609 0 -0.33054979109810528 -0.48436503432938949 0 -0.33491751898319477 -0.49268023665261962 0 -0.33512836865216578 -0.48470674327094609 0 -0.33969224751094262 -0.48451067041050627 0 -0.33969224751094262 -0.48451067041050627 0 -0.34205923044280179 -0.49278473873427447 0 -0.34753494784453343 -0.49344369188356563 0 -0.33491751898319477 -0.49268023665261962 0 -0.33969224751094262 -0.48451067041050627 0 -0.34205923044280179 -0.49278473873427447 0 -0.33491751898319477 -0.49268023665261962 0 -0.34205923044280179 -0.49278473873427447 0 -0.34742868127019721 -0.50000000000000344 0 -0.33969224751094262 -0.48451067041050627 0 -0.33535391701642042 -0.477271031691269 0 -0.34378844372828032 -0.46415741093683721 0 -0.32697194626254972 -0.46303818600243879 0 -0.33054979109810528 -0.48436503432938949 0 -0.33535391701642042 -0.477271031691269 0 -0.33969224751094262 -0.48451067041050627 0 -0.34753494784453343 -0.49344369188356563 0 -0.34378844372828032 -0.46415741093683721 0 -0.33512836865216578 -0.48470674327094609 0 -0.33054979109810528 -0.48436503432938949 0 -0.33535391701642042 -0.477271031691269 0 -0.33512836865216578 -0.48470674327094609 0 -0.33969224751094262 -0.48451067041050627 0 -0.33535391701642042 -0.477271031691269 0 -0.34753494784453343 -0.49344369188356563 0 -0.34378844372828032 -0.46415741093683721 0 -0.38245698795825178 -0.5 0 -0.34742868127019721 -0.50000000000000344 0 -0.36235064576776432 -0.47993064016605869 0 -0.34753494784453343 -0.49344369188356563 0 -0.36235064576776432 -0.47993064016605869 0 -0.34378844372828032 -0.46415741093683721 0 -0.34742868127019721 -0.50000000000000344 0 -0.36235064576776432 -0.47993064016605869 0 -0.34742868127019721 -0.50000000000000344 0 -0.34753494784453343 -0.49344369188356563 0 -0.36235064576776432 -0.47993064016605869 0 -0.34205923044280179 -0.49278473873427447 0 -0.34742868127019721 -0.50000000000000344 0 -0.34753494784453343 -0.49344369188356563 0 -0.37727261026532982 -0.45986128033211299 0 -0.36235064576776432 -0.47993064016605869 0 -0.37727261026532982 -0.45986128033211299 0 -0.36030480983881708 -0.46154339887265922 0 -0.36932403467647562 -0.44914126016337041 0 -0.37727261026532982 -0.45986128033211299 0 -0.36235064576776432 -0.47993064016605869 0 -0.36030480983881708 -0.46154339887265922 0 -0.36235064576776432 -0.47993064016605869 0 -0.36030480983881708 -0.46154339887265922 0 -0.34378844372828032 -0.46415741093683721 0 -0.36030480983881708 -0.46154339887265922 0 -0.34378844372828032 -0.46415741093683721 0 -0.35179441461028882 -0.4482504517670009 0 -0.34378844372828032 -0.46415741093683721 0 -0.35179441461028882 -0.4482504517670009 0 -0.34004193961202711 -0.43487112999010868 0 -0.35179441461028882 -0.4482504517670009 0 -0.34993813021452591 -0.43692807356835772 0 -0.34004193961202711 -0.43487112999010868 0 -0.35179441461028882 -0.4482504517670009 0 -0.36505376390504701 -0.43625924934691168 0 -0.34993813021452591 -0.43692807356835772 0 -0.35179441461028882 -0.4482504517670009 0 -0.36932403467647562 -0.44914126016337041 0 -0.36505376390504701 -0.43625924934691168 0 -0.36030480983881708 -0.46154339887265922 0 -0.35179441461028882 -0.4482504517670009 0 -0.36932403467647562 -0.44914126016337041 0 -0.37777333173355659 -0.42764104113900081 0 -0.36505376390504701 -0.43625924934691168 0 -0.36647333365820961 -0.4181563531520478 0 -0.36505376390504701 -0.43625924934691168 0 -0.36647333365820961 -0.4181563531520478 0 -0.35428483769693508 -0.42968477591943588 0 -0.3873716546080746 -0.41635664155887669 0 -0.36647333365820961 -0.4181563531520478 0 -0.36755127412086419 -0.39670847310256308 0 -0.36647333365820961 -0.4181563531520478 0 -0.35701117013497941 -0.40799931658505789 0 -0.36755127412086419 -0.39670847310256308 0 -0.36647333365820961 -0.4181563531520478 0 -0.35156403118411761 -0.41897309999394239 0 -0.35701117013497941 -0.40799931658505789 0 -0.35156403118411761 -0.41897309999394239 0 -0.35701117013497941 -0.40799931658505789 0 -0.34697417382564949 -0.41241261756835518 0 -0.35701117013497941 -0.40799931658505789 0 -0.34697417382564949 -0.41241261756835518 0 -0.34483615732744838 -0.4018500797875314 0 -0.35156403118411761 -0.41897309999394239 0 -0.34697417382564949 -0.41241261756835518 0 -0.34624794381837781 -0.42349518731609109 0 -0.35156403118411761 -0.41897309999394239 0 -0.34624794381837781 -0.42349518731609109 0 -0.35428483769693508 -0.42968477591943588 0 -0.34624794381837781 -0.42349518731609109 0 -0.34993813021452591 -0.43692807356835772 0 -0.35428483769693508 -0.42968477591943588 0 -0.34624794381837781 -0.42349518731609109 0 -0.34993813021452591 -0.43692807356835772 0 -0.34004193961202711 -0.43487112999010868 0 -0.36505376390504701 -0.43625924934691168 0 -0.34993813021452591 -0.43692807356835772 0 -0.35428483769693508 -0.42968477591943588 0 -0.36647333365820961 -0.4181563531520478 0 -0.35156403118411761 -0.41897309999394239 0 -0.35428483769693508 -0.42968477591943588 0 -0.37910124115022042 -0.37744830499117499 0 -0.36755127412086419 -0.39670847310256308 0 -0.35629560791377018 -0.38234266871381789 0 -0.36755127412086419 -0.39670847310256308 0 -0.34483615732744838 -0.4018500797875314 0 -0.34987697303871979 -0.39174388969637652 0 -0.35701117013497941 -0.40799931658505789 0 -0.36755127412086419 -0.39670847310256308 0 -0.34483615732744838 -0.4018500797875314 0 -0.36755127412086419 -0.39670847310256308 0 -0.34483615732744838 -0.4018500797875314 0 -0.34483615732744838 -0.4018500797875314 0 -0.34987697303871979 -0.39174388969637652 0 -0.33907793605636949 -0.38843848481234128 0 -0.34186043661696619 -0.37129212058130201 0 -0.35629560791377018 -0.38234266871381789 0 -0.33907793605636949 -0.38843848481234128 0 -0.36755127412086419 -0.39670847310256308 0 -0.34987697303871979 -0.39174388969637652 0 -0.35629560791377018 -0.38234266871381789 0 -0.34987697303871979 -0.39174388969637652 0 -0.35629560791377018 -0.38234266871381789 0 -0.33907793605636949 -0.38843848481234128 0 -0.34186043661696619 -0.37129212058130201 0 -0.33907793605636949 -0.38843848481234128 0 -0.34186043661696619 -0.37129212058130201 0 -0.33117381890118691 -0.37439017039049421 0 -0.33907793605636949 -0.38843848481234128 0 -0.33907793605636949 -0.38843848481234128 0 -0.32863834086785437 -0.39580531279144587 0 -0.32670088077396042 -0.38608634583090168 0 -0.33117381890118691 -0.37439017039049421 0 -0.33907793605636949 -0.38843848481234128 0 -0.32670088077396042 -0.38608634583090168 0 -0.34483615732744838 -0.4018500797875314 0 -0.33907793605636949 -0.38843848481234128 0 -0.33629543549577151 -0.40558484904338049 0 -0.33907793605636949 -0.38843848481234128 0 -0.33629543549577151 -0.40558484904338049 0 -0.33907793605636949 -0.38843848481234128 0 -0.33629543549577151 -0.40558484904338049 0 -0.33579888560636328 -0.40170333734230868 0 -0.33907793605636949 -0.38843848481234128 0 -0.32863834086785437 -0.39580531279144587 0 -0.33579888560636328 -0.40170333734230868 0 -0.33629543549577151 -0.40558484904338049 0 -0.33579888560636328 -0.40170333734230868 0 -0.32863834086785437 -0.39580531279144587 0 -0.33579888560636328 -0.40170333734230868 0 -0.33021483669551349 -0.40414938169144859 0 -0.33629543549577151 -0.40558484904338049 0 -0.33021483669551349 -0.40414938169144859 0 -0.33091863910355951 -0.40879365829631792 0 -0.33629543549577151 -0.40558484904338049 0 -0.33579888560636328 -0.40170333734230868 0 -0.33021483669551349 -0.40414938169144859 0 -0.33021483669551349 -0.40414938169144859 0 -0.32177508124016668 -0.4034652483553739 0 -0.3264441482527094 -0.41016238720690118 0 -0.32863834086785437 -0.39580531279144587 0 -0.33021483669551349 -0.40414938169144859 0 -0.32177508124016668 -0.4034652483553739 0 -0.32177508124016668 -0.4034652483553739 0 -0.31546297945537932 -0.39249594734821952 0 -0.31052191011204727 -0.40690946020928409 0 -0.32863834086785437 -0.39580531279144587 0 -0.31546297945537932 -0.39249594734821952 0 -0.32670088077396042 -0.38608634583090168 0 -0.32863834086785437 -0.39580531279144587 0 -0.32177508124016668 -0.4034652483553739 0 -0.31546297945537932 -0.39249594734821952 0 -0.31546297945537932 -0.39249594734821952 0 -0.32670088077396042 -0.38608634583090168 0 -0.31915132858901202 -0.3793018138120075 0 -0.33117381890118691 -0.37439017039049421 0 -0.32670088077396042 -0.38608634583090168 0 -0.31915132858901202 -0.3793018138120075 0 -0.33163369087915939 -0.43431151752290942 0 -0.3303834457037691 -0.41543203935978429 0 -0.32477242198122958 -0.42776928014078203 0 -0.33629543549577151 -0.40558484904338049 0 -0.33163369087915939 -0.43431151752290942 0 -0.34004193961202711 -0.43487112999010868 0 -0.34697417382564949 -0.41241261756835518 0 -0.34624794381837781 -0.42349518731609109 0 -0.33629543549577151 -0.40558484904338049 0 -0.33629543549577151 -0.40558484904338049 0 -0.33163369087915939 -0.43431151752290942 0 -0.33629543549577151 -0.40558484904338049 0 -0.33163369087915939 -0.43431151752290942 0 -0.3303834457037691 -0.41543203935978429 0 -0.33629543549577151 -0.40558484904338049 0 -0.34004193961202711 -0.43487112999010868 0 -0.34624794381837781 -0.42349518731609109 0 -0.33629543549577151 -0.40558484904338049 0 -0.34004193961202711 -0.43487112999010868 0 -0.34697417382564949 -0.41241261756835518 0 -0.34483615732744838 -0.4018500797875314 0 -0.33629543549577151 -0.40558484904338049 0 -0.33629543549577151 -0.40558484904338049 0 -0.33091863910355951 -0.40879365829631792 0 -0.3303834457037691 -0.41543203935978429 0 -0.33091863910355951 -0.40879365829631792 0 -0.3303834457037691 -0.41543203935978429 0 -0.3264441482527094 -0.41016238720690118 0 -0.33021483669551349 -0.40414938169144859 0 -0.33091863910355951 -0.40879365829631792 0 -0.3264441482527094 -0.41016238720690118 0 -0.3303834457037691 -0.41543203935978429 0 -0.32288477020011092 -0.4187009813968855 0 -0.32477242198122958 -0.42776928014078203 0 -0.3303834457037691 -0.41543203935978429 0 -0.32288477020011092 -0.4187009813968855 0 -0.3264441482527094 -0.41016238720690118 0 -0.32177508124016668 -0.4034652483553739 0 -0.3264441482527094 -0.41016238720690118 0 -0.31854448597667667 -0.41177934550394762 0 -0.32288477020011092 -0.4187009813968855 0 -0.3264441482527094 -0.41016238720690118 0 -0.31854448597667667 -0.41177934550394762 0 -0.31854448597667667 -0.41177934550394762 0 -0.31109652007834909 -0.41965865035129363 0 -0.31052191011204727 -0.40690946020928409 0 -0.32177508124016668 -0.4034652483553739 0 -0.31854448597667667 -0.41177934550394762 0 -0.31052191011204727 -0.40690946020928409 0 -0.32288477020011092 -0.4187009813968855 0 -0.31854448597667667 -0.41177934550394762 0 -0.31109652007834909 -0.41965865035129363 0 -0.32288477020011092 -0.4187009813968855 0 -0.31601447354627599 -0.4304676065217391 0 -0.31109652007834909 -0.41965865035129363 0 -0.32288477020011092 -0.4187009813968855 0 -0.32477242198122958 -0.42776928014078203 0 -0.31601447354627599 -0.4304676065217391 0 -0.32243644467647348 -0.44028803833412372 0 -0.33163369087915939 -0.43431151752290942 0 -0.32477242198122958 -0.42776928014078203 0 -0.32243644467647348 -0.44028803833412372 0 -0.32477242198122958 -0.42776928014078203 0 -0.31601447354627599 -0.4304676065217391 0 -0.31278969071315288 -0.44585360148274911 0 -0.31601447354627599 -0.4304676065217391 0 -0.30102498919984599 -0.43090607869259728 0 -0.30102498919984599 -0.43090607869259728 0 -0.31109652007834909 -0.41965865035129363 0 -0.29936303921050761 -0.41758181210429351 0 -0.31601447354627599 -0.4304676065217391 0 -0.30102498919984599 -0.43090607869259728 0 -0.31109652007834909 -0.41965865035129363 0 -0.31052191011204727 -0.40690946020928409 0 -0.29936303921050761 -0.41758181210429351 0 -0.28993314142481957 -0.40862128752144822 0 -0.31109652007834909 -0.41965865035129363 0 -0.31052191011204727 -0.40690946020928409 0 -0.29936303921050761 -0.41758181210429351 0 -0.29936303921050761 -0.41758181210429351 0 -0.28993314142481957 -0.40862128752144822 0 -0.28423863523747561 -0.42181358374684402 0 -0.28993314142481957 -0.40862128752144822 0 -0.28423863523747561 -0.42181358374684402 0 -0.27775409311702742 -0.40692435996392379 0 -0.30102498919984599 -0.43090607869259728 0 -0.2802504069536742 -0.43783339447521452 0 -0.30102498919984599 -0.43090607869259728 0 -0.29936303921050761 -0.41758181210429351 0 -0.28423863523747561 -0.42181358374684402 0 -0.30102498919984599 -0.43090607869259728 0 -0.28423863523747561 -0.42181358374684402 0 -0.2802504069536742 -0.43783339447521452 0 -0.31546297945537932 -0.39249594734821952 0 -0.31915132858901202 -0.3793018138120075 0 -0.29797000408784519 -0.38005633651173459 0 -0.31546297945537932 -0.39249594734821952 0 -0.29797000408784519 -0.38005633651173459 0 -0.30035203363435242 -0.39716442592835532 0 -0.31052191011204727 -0.40690946020928409 0 -0.28993314142481957 -0.40862128752144822 0 -0.30035203363435242 -0.39716442592835532 0 -0.31546297945537932 -0.39249594734821952 0 -0.31052191011204727 -0.40690946020928409 0 -0.30035203363435242 -0.39716442592835532 0 -0.29797000408784519 -0.38005633651173459 0 -0.30035203363435242 -0.39716442592835532 0 -0.28787213309167059 -0.39773909805109048 0 -0.29797000408784519 -0.38005633651173459 0 -0.28787213309167059 -0.39773909805109048 0 -0.27429049382837661 -0.39512553541286399 0 -0.28993314142481957 -0.40862128752144822 0 -0.30035203363435242 -0.39716442592835532 0 -0.28787213309167059 -0.39773909805109048 0 -0.28993314142481957 -0.40862128752144822 0 -0.28787213309167059 -0.39773909805109048 0 -0.27775409311702742 -0.40692435996392379 0 -0.29797000408784519 -0.38005633651173459 0 -0.277823285439811 -0.38170687556220118 0 -0.27429049382837661 -0.39512553541286399 0 -0.27971672965661898 -0.36715839633563158 0 -0.29797000408784519 -0.38005633651173459 0 -0.277823285439811 -0.38170687556220118 0 -0.29797000408784519 -0.38005633651173459 0 -0.27429049382837661 -0.39512553541286399 0 -0.2695413387282441 -0.3774195048182668 0 -0.277823285439811 -0.38170687556220118 0 -0.26759786089797022 -0.38877460473250902 0 -0.27971672965661898 -0.36715839633563158 0 -0.2695413387282441 -0.3774195048182668 0 -0.277823285439811 -0.38170687556220118 0 -0.2695413387282441 -0.3774195048182668 0 -0.26759786089797022 -0.38877460473250902 0 -0.26440424609215102 -0.3823841352349987 0 -0.277823285439811 -0.38170687556220118 0 -0.26759786089797022 -0.38877460473250902 0 -0.27429049382837661 -0.39512553541286399 0 -0.26759786089797022 -0.38877460473250902 0 -0.27429049382837661 -0.39512553541286399 0 -0.26544543617465299 -0.4025808059697909 0 -0.28787213309167059 -0.39773909805109048 0 -0.27429049382837661 -0.39512553541286399 0 -0.27775409311702742 -0.40692435996392379 0 -0.27429049382837661 -0.39512553541286399 0 -0.26544543617465299 -0.4025808059697909 0 -0.27775409311702742 -0.40692435996392379 0 -0.25088597312503602 -0.40590154939457251 0 -0.26544543617465299 -0.4025808059697909 0 -0.25704803487579092 -0.38298507069563392 0 -0.26759786089797022 -0.38877460473250902 0 -0.26544543617465299 -0.4025808059697909 0 -0.25704803487579092 -0.38298507069563392 0 -0.25088597312503602 -0.40590154939457251 0 -0.25704803487579092 -0.38298507069563392 0 -0.26759786089797022 -0.38877460473250902 0 -0.25704803487579092 -0.38298507069563392 0 -0.26759786089797022 -0.38877460473250902 0 -0.25704803487579092 -0.38298507069563392 0 -0.26440424609215102 -0.3823841352349987 0 -0.2537697303883914 -0.37248603908174333 0 -0.25704803487579092 -0.38298507069563392 0 -0.258126515348783 -0.37897424188764472 0 -0.25704803487579092 -0.38298507069563392 0 -0.258126515348783 -0.37897424188764472 0 -0.2695413387282441 -0.3774195048182668 0 -0.258126515348783 -0.37897424188764472 0 -0.26440424609215102 -0.3823841352349987 0 -0.25704803487579092 -0.38298507069563392 0 -0.258126515348783 -0.37897424188764472 0 -0.26440424609215102 -0.3823841352349987 0 -0.26916777989159141 -0.42794081636719361 0 -0.26050281665580022 -0.43702740274022628 0 -0.2802504069536742 -0.43783339447521452 0 -0.28423863523747561 -0.42181358374684402 0 -0.26916777989159141 -0.42794081636719361 0 -0.2802504069536742 -0.43783339447521452 0 -0.26916777989159141 -0.42794081636719361 0 -0.27119712566838589 -0.41732700187338551 0 -0.25934447170998409 -0.42102751971564789 0 -0.28423863523747561 -0.42181358374684402 0 -0.26916777989159141 -0.42794081636719361 0 -0.27119712566838589 -0.41732700187338551 0 -0.28423863523747561 -0.42181358374684402 0 -0.27775409311702742 -0.40692435996392379 0 -0.27119712566838589 -0.41732700187338551 0 -0.26544543617465299 -0.4025808059697909 0 -0.27775409311702742 -0.40692435996392379 0 -0.27119712566838589 -0.41732700187338551 0 -0.25088597312503602 -0.40590154939457251 0 -0.25934447170998409 -0.42102751971564789 0 -0.24472391137428079 -0.42881802809351088 0 -0.26544543617465299 -0.4025808059697909 0 -0.27119712566838589 -0.41732700187338551 0 -0.25934447170998409 -0.42102751971564789 0 -0.25088597312503602 -0.40590154939457251 0 -0.26544543617465299 -0.4025808059697909 0 -0.25934447170998409 -0.42102751971564789 0 -0.26050281665580022 -0.43702740274022628 0 -0.25947582470750241 -0.44476071025783132 0 -0.24472391137428079 -0.42881802809351088 0 -0.26916777989159141 -0.42794081636719361 0 -0.25934447170998409 -0.42102751971564789 0 -0.26050281665580022 -0.43702740274022628 0 -0.25934447170998409 -0.42102751971564789 0 -0.26050281665580022 -0.43702740274022628 0 -0.24472391137428079 -0.42881802809351088 0 -0.26050281665580022 -0.43702740274022628 0 -0.25947582470750241 -0.44476071025783132 0 -0.25947582470750241 -0.44476071025783132 0 -0.27720585299085831 -0.45843825406921562 0 -0.25580790476084247 -0.47238035512891519 0 -0.25947582470750241 -0.44476071025783132 0 -0.25580790476084247 -0.47238035512891519 0 -0.24749825628717001 -0.45919959786827141 0 -0.25947582470750241 -0.44476071025783132 0 -0.25580790476084247 -0.47238035512891519 0 -0.25947582470750241 -0.44476071025783132 0 -0.27720585299085831 -0.45843825406921562 0 -0.2802504069536742 -0.43783339447521452 0 -0.26050281665580022 -0.43702740274022628 0 -0.25947582470750241 -0.44476071025783132 0 -0.2802504069536742 -0.43783339447521452 0 -0.25947582470750241 -0.44476071025783132 0 -0.2802504069536742 -0.43783339447521452 0 -0.27720585299085831 -0.45843825406921562 0 -0.2802504069536742 -0.43783339447521452 0 -0.29636521287132811 -0.45022234390161459 0 -0.30102498919984599 -0.43090607869259728 0 -0.2802504069536742 -0.43783339447521452 0 -0.29636521287132811 -0.45022234390161459 0 -0.27720585299085831 -0.45843825406921562 0 -0.29636521287132811 -0.45022234390161459 0 -0.29438099561665859 -0.46754556333710551 0 -0.29438099561665859 -0.46754556333710551 0 -0.30826186670568151 -0.46047040757452562 0 -0.31080148806471808 -0.47569234314871961 0 -0.29636521287132811 -0.45022234390161459 0 -0.29438099561665859 -0.46754556333710551 0 -0.30826186670568151 -0.46047040757452562 0 -0.31278969071315288 -0.44585360148274911 0 -0.30102498919984599 -0.43090607869259728 0 -0.29636521287132811 -0.45022234390161459 0 -0.31278969071315288 -0.44585360148274911 0 -0.29636521287132811 -0.45022234390161459 0 -0.30826186670568151 -0.46047040757452562 0 -0.29978433304219038 -0.5 0 -0.30985713946684879 -0.49028748124611488 0 -0.29278316742520188 -0.48398020859988639 0 -0.32360650715619382 -0.5 0 -0.29978433304219038 -0.5 0 -0.30985713946684879 -0.49028748124611488 0 -0.29438099561665859 -0.46754556333710551 0 -0.31080148806471808 -0.47569234314871961 0 -0.29278316742520188 -0.48398020859988639 0 -0.30985713946684879 -0.49028748124611488 0 -0.31080148806471808 -0.47569234314871961 0 -0.29278316742520188 -0.48398020859988639 0 -0.27720585299085831 -0.45843825406921562 0 -0.29438099561665859 -0.46754556333710551 0 -0.27471334408932202 -0.48039073018918699 0 -0.29438099561665859 -0.46754556333710551 0 -0.29278316742520188 -0.48398020859988639 0 -0.27471334408932202 -0.48039073018918699 0 -0.29978433304219038 -0.5 0 -0.29278316742520188 -0.48398020859988639 0 -0.27596215892818698 -0.5 0 -0.29278316742520188 -0.48398020859988639 0 -0.27596215892818698 -0.5 0 -0.27471334408932202 -0.48039073018918699 0 -0.27596215892818698 -0.5 0 -0.27471334408932202 -0.48039073018918699 0 -0.25213998481418359 -0.49999999999999939 0 -0.27720585299085831 -0.45843825406921562 0 -0.27471334408932202 -0.48039073018918699 0 -0.25580790476084247 -0.47238035512891519 0 -0.27471334408932202 -0.48039073018918699 0 -0.25580790476084247 -0.47238035512891519 0 -0.25213998481418359 -0.49999999999999939 0 -0.25580790476084247 -0.47238035512891519 0 -0.25213998481418359 -0.49999999999999939 0 -0.25213998481418359 -0.49999999999999939 0 -0.2370397965235331 -0.4829156019362853 0 -0.2231517949981118 -0.5 0 -0.25580790476084247 -0.47238035512891519 0 -0.25213998481418359 -0.49999999999999939 0 -0.2370397965235331 -0.4829156019362853 0 -0.25580790476084247 -0.47238035512891519 0 -0.2370397965235331 -0.4829156019362853 0 -0.23508783154653221 -0.46465425094324281 0 -0.2370397965235331 -0.4829156019362853 0 -0.21901146649799569 -0.47754340360926922 0 -0.23508783154653221 -0.46465425094324281 0 -0.2370397965235331 -0.4829156019362853 0 -0.21901146649799569 -0.47754340360926922 0 -0.2231517949981118 -0.5 0 -0.2385618496235262 -0.45173450679244942 0 -0.23129160106511851 -0.43709963730954993 0 -0.24472391137428079 -0.42881802809351088 0 -0.2385618496235262 -0.45173450679244942 0 -0.24472391137428079 -0.42881802809351088 0 -0.25947582470750241 -0.44476071025783132 0 -0.2385618496235262 -0.45173450679244942 0 -0.25947582470750241 -0.44476071025783132 0 -0.2385618496235262 -0.45173450679244942 0 -0.24749825628717001 -0.45919959786827141 0 -0.25947582470750241 -0.44476071025783132 0 -0.2385618496235262 -0.45173450679244942 0 -0.24472391137428079 -0.42881802809351088 0 -0.25580790476084247 -0.47238035512891519 0 -0.24749825628717001 -0.45919959786827141 0 -0.23508783154653221 -0.46465425094324281 0 -0.2385618496235262 -0.45173450679244942 0 -0.23508783154653221 -0.46465425094324281 0 -0.2385618496235262 -0.45173450679244942 0 -0.24749825628717001 -0.45919959786827141 0 -0.23508783154653221 -0.46465425094324281 0 -0.2385618496235262 -0.45173450679244942 0 -0.23508783154653221 -0.46465425094324281 0 -0.21422987578458089 -0.45984804016700492 0 -0.2385618496235262 -0.45173450679244942 0 -0.21422987578458089 -0.45984804016700492 0 -0.21901146649799569 -0.47754340360926922 0 -0.23508783154653221 -0.46465425094324281 0 -0.21422987578458089 -0.45984804016700492 0 -0.2385618496235262 -0.45173450679244942 0 -0.22373294895950069 -0.44562363246201497 0 -0.21422987578458089 -0.45984804016700492 0 -0.22373294895950069 -0.44562363246201497 0 -0.23129160106511851 -0.43709963730954993 0 -0.2192384910052303 -0.43488680371419752 0 -0.2385618496235262 -0.45173450679244942 0 -0.22373294895950069 -0.44562363246201497 0 -0.23129160106511851 -0.43709963730954993 0 -0.21289818343492381 -0.44349854971687441 0 -0.20397315398609531 -0.4496244745745217 0 -0.21422987578458089 -0.45984804016700492 0 -0.22373294895950069 -0.44562363246201497 0 -0.21289818343492381 -0.44349854971687441 0 -0.21422987578458089 -0.45984804016700492 0 -0.21289818343492381 -0.44349854971687441 0 -0.20397315398609531 -0.4496244745745217 0 -0.20581969429101329 -0.43465918960913369 0 -0.21289818343492381 -0.44349854971687441 0 -0.20581969429101329 -0.43465918960913369 0 -0.2192384910052303 -0.43488680371419752 0 -0.22373294895950069 -0.44562363246201497 0 -0.21289818343492381 -0.44349854971687441 0 -0.2192384910052303 -0.43488680371419752 0 -0.21901146649799569 -0.47754340360926922 0 -0.21422987578458089 -0.45984804016700492 0 -0.19506641466448671 -0.46828098387341971 0 -0.20397315398609531 -0.4496244745745217 0 -0.21422987578458089 -0.45984804016700492 0 -0.19506641466448671 -0.46828098387341971 0 -0.19506641466448671 -0.46828098387341971 0 -0.1896401196652954 -0.44755426621927857 0 -0.20397315398609531 -0.4496244745745217 0 -0.19506641466448671 -0.46828098387341971 0 -0.1896401196652954 -0.44755426621927857 0 -0.1896401196652954 -0.44755426621927857 0 -0.19421517347938899 -0.43892384599924311 0 -0.18421382466610381 -0.42682754856513749 0 -0.20397315398609531 -0.4496244745745217 0 -0.1896401196652954 -0.44755426621927857 0 -0.19421517347938899 -0.43892384599924311 0 -0.20397315398609531 -0.4496244745745217 0 -0.19421517347938899 -0.43892384599924311 0 -0.20581969429101329 -0.43465918960913369 0 -0.2231517949981118 -0.5 0 -0.20408729917130211 -0.48554238702921543 0 -0.19416360518204001 -0.5 0 -0.21901146649799569 -0.47754340360926922 0 -0.2231517949981118 -0.5 0 -0.20408729917130211 -0.48554238702921543 0 -0.21901146649799569 -0.47754340360926922 0 -0.19506641466448671 -0.46828098387341971 0 -0.20408729917130211 -0.48554238702921543 0 -0.19506641466448671 -0.46828098387341971 0 -0.20408729917130211 -0.48554238702921543 0 -0.18904321451387629 -0.48188754766338809 0 -0.20408729917130211 -0.48554238702921543 0 -0.18904321451387629 -0.48188754766338809 0 -0.19416360518204001 -0.5 0 -0.18904321451387629 -0.48188754766338809 0 -0.19416360518204001 -0.5 0 -0.1749502834427957 -0.488733265356326 0 -0.19416360518204001 -0.5 0 -0.1749502834427957 -0.488733265356326 0 -0.16517541536596811 -0.5 0 -0.1749502834427957 -0.488733265356326 0 -0.16517541536596811 -0.5 0 -0.16100752861487899 -0.48637228700894902 0 -0.16100752861487899 -0.48637228700894902 0 -0.17431056471527609 -0.46358966005581043 0 -0.15155521059242361 -0.47585415269531178 0 -0.1749502834427957 -0.488733265356326 0 -0.16100752861487899 -0.48637228700894902 0 -0.17431056471527609 -0.46358966005581043 0 -0.19506641466448671 -0.46828098387341971 0 -0.18904321451387629 -0.48188754766338809 0 -0.17431056471527609 -0.46358966005581043 0 -0.18904321451387629 -0.48188754766338809 0 -0.1749502834427957 -0.488733265356326 0 -0.17431056471527609 -0.46358966005581043 0 -0.1749502834427957 -0.488733265356326 0 -0.17431056471527609 -0.46358966005581043 0 -0.19506641466448671 -0.46828098387341971 0 -0.1896401196652954 -0.44755426621927857 0 -0.17431056471527609 -0.46358966005581043 0 -0.1896401196652954 -0.44755426621927857 0 -0.17431056471527609 -0.46358966005581043 0 -0.17367084598775659 -0.43844605475529469 0 -0.1896401196652954 -0.44755426621927857 0 -0.17367084598775659 -0.43844605475529469 0 -0.18421382466610381 -0.42682754856513749 0 -0.17431056471527609 -0.46358966005581043 0 -0.17367084598775659 -0.43844605475529469 0 -0.17431056471527609 -0.46358966005581043 0 -0.17367084598775659 -0.43844605475529469 0 -0.1621750359315654 -0.4506644270107184 0 -0.17367084598775659 -0.43844605475529469 0 -0.1621750359315654 -0.4506644270107184 0 -0.1604126943466824 -0.42620343591829618 0 -0.17431056471527609 -0.46358966005581043 0 -0.1621750359315654 -0.4506644270107184 0 -0.15155521059242361 -0.47585415269531178 0 -0.14611492905428211 -0.45420162634824401 0 -0.13784215215085011 -0.46756250438726787 0 -0.15155521059242361 -0.47585415269531178 0 -0.1621750359315654 -0.4506644270107184 0 -0.14611492905428211 -0.45420162634824401 0 -0.15155521059242361 -0.47585415269531178 0 -0.1621750359315654 -0.4506644270107184 0 -0.14535368939372481 -0.43667890619187499 0 -0.1604126943466824 -0.42620343591829618 0 -0.1621750359315654 -0.4506644270107184 0 -0.14611492905428211 -0.45420162634824401 0 -0.14535368939372481 -0.43667890619187499 0 -0.12609498559090451 -0.4536751920835832 0 -0.14535368939372481 -0.43667890619187499 0 -0.1231970525530857 -0.43363603978277332 0 -0.14611492905428211 -0.45420162634824401 0 -0.12609498559090451 -0.4536751920835832 0 -0.14535368939372481 -0.43667890619187499 0 -0.13784215215085011 -0.46756250438726787 0 -0.12609498559090451 -0.4536751920835832 0 -0.1220003165794752 -0.47100054322375778 0 -0.14611492905428211 -0.45420162634824401 0 -0.13784215215085011 -0.46756250438726787 0 -0.12609498559090451 -0.4536751920835832 0 -0.13784215215085011 -0.46756250438726787 0 -0.13618722554989629 -0.5 0 -0.15155521059242361 -0.47585415269531178 0 -0.13784215215085011 -0.46756250438726787 0 -0.13618722554989629 -0.5 0 -0.1220003165794752 -0.47100054322375778 0 -0.16100752861487899 -0.48637228700894902 0 -0.13618722554989629 -0.5 0 -0.15155521059242361 -0.47585415269531178 0 -0.16517541536596811 -0.5 0 -0.16100752861487899 -0.48637228700894902 0 -0.13618722554989629 -0.5 0 -0.14819062995230839 -0.38325869741118851 0 -0.13825485317448671 -0.39996143161534992 0 -0.16492612771174869 -0.40349972313534699 0 -0.14819062995230839 -0.38325869741118851 0 -0.126179364221604 -0.38421012841432062 0 -0.1314551321928682 -0.36301767168702992 0 -0.14819062995230839 -0.38325869741118851 0 -0.126179364221604 -0.38421012841432062 0 -0.13825485317448671 -0.39996143161534992 0 -0.126179364221604 -0.38421012841432062 0 -0.13825485317448671 -0.39996143161534992 0 -0.1221605545703203 -0.39811076834837961 0 -0.13825485317448671 -0.39996143161534992 0 -0.1239451303712449 -0.41521880271736639 0 -0.1221605545703203 -0.39811076834837961 0 -0.13825485317448671 -0.39996143161534992 0 -0.14406159013241671 -0.41856788145905938 0 -0.1239451303712449 -0.41521880271736639 0 -0.14406159013241671 -0.41856788145905938 0 -0.1231970525530857 -0.43363603978277332 0 -0.14535368939372481 -0.43667890619187499 0 -0.14406159013241671 -0.41856788145905938 0 -0.1231970525530857 -0.43363603978277332 0 -0.14406159013241671 -0.41856788145905938 0 -0.1231970525530857 -0.43363603978277332 0 -0.1239451303712449 -0.41521880271736639 0 -0.14535368939372481 -0.43667890619187499 0 -0.14406159013241671 -0.41856788145905938 0 -0.1604126943466824 -0.42620343591829618 0 -0.14406159013241671 -0.41856788145905938 0 -0.16492612771174869 -0.40349972313534699 0 -0.13825485317448671 -0.39996143161534992 0 -0.14406159013241671 -0.41856788145905938 0 -0.16492612771174869 -0.40349972313534699 0 -0.1604126943466824 -0.42620343591829618 0 -0.17303112726023739 -0.41330244945477929 0 -0.16492612771174869 -0.40349972313534699 0 -0.14406159013241671 -0.41856788145905938 0 -0.1604126943466824 -0.42620343591829618 0 -0.16492612771174869 -0.40349972313534699 0 -0.17303112726023739 -0.41330244945477929 0 -0.16492612771174869 -0.40349972313534699 0 -0.17287040850739391 -0.40698553436062868 0 -0.17303112726023739 -0.41330244945477929 0 -0.16492612771174869 -0.40349972313534699 0 -0.17367084598775659 -0.43844605475529469 0 -0.1604126943466824 -0.42620343591829618 0 -0.17303112726023739 -0.41330244945477929 0 -0.17367084598775659 -0.43844605475529469 0 -0.17303112726023739 -0.41330244945477929 0 -0.17367084598775659 -0.43844605475529469 0 -0.18421382466610381 -0.42682754856513749 0 -0.17303112726023739 -0.41330244945477929 0 -0.1896401196652954 -0.44755426621927857 0 -0.18421382466610381 -0.42682754856513749 0 -0.18421382466610381 -0.42682754856513749 0 -0.17912957749089961 -0.40740734459538941 0 -0.18421382466610381 -0.42682754856513749 0 -0.1770372286059157 -0.41282877379879152 0 -0.17912957749089961 -0.40740734459538941 0 -0.18421382466610381 -0.42682754856513749 0 -0.17912957749089961 -0.40740734459538941 0 -0.19494559176423421 -0.41320829278358062 0 -0.1770372286059157 -0.41282877379879152 0 -0.17912957749089961 -0.40740734459538941 0 -0.17287040850739391 -0.40698553436062868 0 -0.1770372286059157 -0.41282877379879152 0 -0.17912957749089961 -0.40740734459538941 0 -0.17287040850739391 -0.40698553436062868 0 -0.17303112726023739 -0.41330244945477929 0 -0.1770372286059157 -0.41282877379879152 0 -0.17287040850739391 -0.40698553436062868 0 -0.17303112726023739 -0.41330244945477929 0 -0.18421382466610381 -0.42682754856513749 0 -0.17303112726023739 -0.41330244945477929 0 -0.18421382466610381 -0.42682754856513749 0 -0.1770372286059157 -0.41282877379879152 0 -0.17303112726023739 -0.41330244945477929 0 -0.17912957749089961 -0.40740734459538941 0 -0.17601077276200941 -0.39549450442659417 0 -0.18670908186840901 -0.38776829363479531 0 -0.17912957749089961 -0.40740734459538941 0 -0.18670908186840901 -0.38776829363479531 0 -0.17912957749089961 -0.40740734459538941 0 -0.18670908186840901 -0.38776829363479531 0 -0.1918055204296128 -0.39899815761910062 0 -0.17601077276200941 -0.39549450442659417 0 -0.18670908186840901 -0.38776829363479531 0 -0.17912957749089961 -0.40740734459538941 0 -0.17601077276200941 -0.39549450442659417 0 -0.17912957749089961 -0.40740734459538941 0 -0.17287040850739391 -0.40698553436062868 0 -0.17601077276200941 -0.39549450442659417 0 -0.17601077276200941 -0.39549450442659417 0 -0.16492612771174869 -0.40349972313534699 0 -0.17287040850739391 -0.40698553436062868 0 -0.17601077276200941 -0.39549450442659417 0 -0.16492612771174869 -0.40349972313534699 0 -0.14819062995230839 -0.38325869741118851 0 -0.16492612771174869 -0.40349972313534699 0 -0.14819062995230839 -0.38325869741118851 0 -0.16492612771174869 -0.40349972313534699 0 -0.16488331853339999 -0.38908450115326759 0 -0.17601077276200941 -0.39549450442659417 0 -0.16492612771174869 -0.40349972313534699 0 -0.16488331853339999 -0.38908450115326759 0 -0.14819062995230839 -0.38325869741118851 0 -0.16488331853339999 -0.38908450115326759 0 -0.17040574370753489 -0.37408507963994281 0 -0.17601077276200941 -0.39549450442659417 0 -0.16488331853339999 -0.38908450115326759 0 -0.17040574370753489 -0.37408507963994281 0 -0.18670908186840901 -0.38776829363479531 0 -0.1936176589590955 -0.36986766441266911 0 -0.17040574370753489 -0.37408507963994281 0 -0.17601077276200941 -0.39549450442659417 0 -0.17040574370753489 -0.37408507963994281 0 -0.17601077276200941 -0.39549450442659417 0 -0.18670908186840901 -0.38776829363479531 0 -0.17040574370753489 -0.37408507963994281 0 -0.18670908186840901 -0.38776829363479531 0 -0.1936176589590955 -0.36986766441266911 0 -0.18670908186840901 -0.38776829363479531 0 -0.198392631158402 -0.37933055233259272 0 -0.1936176589590955 -0.36986766441266911 0 -0.198392631158402 -0.37933055233259272 0 -0.19706829601479389 -0.38965649286578108 0 -0.20830822392967921 -0.38653954153674369 0 -0.18670908186840901 -0.38776829363479531 0 -0.198392631158402 -0.37933055233259272 0 -0.19706829601479389 -0.38965649286578108 0 -0.18670908186840901 -0.38776829363479531 0 -0.198392631158402 -0.37933055233259272 0 -0.18670908186840901 -0.38776829363479531 0 -0.19706829601479389 -0.38965649286578108 0 -0.1918055204296128 -0.39899815761910062 0 -0.1918055204296128 -0.39899815761910062 0 -0.20222408733159011 -0.39825480922624162 0 -0.19494559176423421 -0.41320829278358062 0 -0.19706829601479389 -0.38965649286578108 0 -0.20222408733159011 -0.39825480922624162 0 -0.20830822392967921 -0.38653954153674369 0 -0.19706829601479389 -0.38965649286578108 0 -0.1918055204296128 -0.39899815761910062 0 -0.20222408733159011 -0.39825480922624162 0 -0.20222408733159011 -0.39825480922624162 0 -0.21548332061321299 -0.39742161253697078 0 -0.20830822392967921 -0.38653954153674369 0 -0.20222408733159011 -0.39825480922624162 0 -0.21548332061321299 -0.39742161253697078 0 -0.2112768205308076 -0.41045335407315958 0 -0.21548332061321299 -0.39742161253697078 0 -0.20830822392967921 -0.38653954153674369 0 -0.22452694288275349 -0.38773070279792382 0 -0.198392631158402 -0.37933055233259272 0 -0.21576852154598239 -0.37643282426404501 0 -0.20830822392967921 -0.38653954153674369 0 -0.21576852154598239 -0.37643282426404501 0 -0.20830822392967921 -0.38653954153674369 0 -0.22452694288275349 -0.38773070279792382 0 -0.19421517347938899 -0.43892384599924311 0 -0.19575487018989651 -0.42767257538749898 0 -0.20581969429101329 -0.43465918960913369 0 -0.19421517347938899 -0.43892384599924311 0 -0.18421382466610381 -0.42682754856513749 0 -0.19421517347938899 -0.43892384599924311 0 -0.18421382466610381 -0.42682754856513749 0 -0.19575487018989651 -0.42767257538749898 0 -0.18421382466610381 -0.42682754856513749 0 -0.19575487018989651 -0.42767257538749898 0 -0.19494559176423421 -0.41320829278358062 0 -0.19575487018989651 -0.42767257538749898 0 -0.2037388209401062 -0.42171455186022461 0 -0.20581969429101329 -0.43465918960913369 0 -0.17912957749089961 -0.40740734459538941 0 -0.1918055204296128 -0.39899815761910062 0 -0.19494559176423421 -0.41320829278358062 0 -0.20222408733159011 -0.39825480922624162 0 -0.19494559176423421 -0.41320829278358062 0 -0.2112768205308076 -0.41045335407315958 0 -0.19575487018989651 -0.42767257538749898 0 -0.19494559176423421 -0.41320829278358062 0 -0.2037388209401062 -0.42171455186022461 0 -0.19494559176423421 -0.41320829278358062 0 -0.2112768205308076 -0.41045335407315958 0 -0.2037388209401062 -0.42171455186022461 0 -0.2112768205308076 -0.41045335407315958 0 -0.2130770286723927 -0.42480957310445888 0 -0.2253113165948063 -0.4223339662655789 0 -0.2112768205308076 -0.41045335407315958 0 -0.2037388209401062 -0.42171455186022461 0 -0.2130770286723927 -0.42480957310445888 0 -0.2037388209401062 -0.42171455186022461 0 -0.2130770286723927 -0.42480957310445888 0 -0.20581969429101329 -0.43465918960913369 0 -0.2130770286723927 -0.42480957310445888 0 -0.20581969429101329 -0.43465918960913369 0 -0.2192384910052303 -0.43488680371419752 0 -0.23129160106511851 -0.43709963730954993 0 -0.2253113165948063 -0.4223339662655789 0 -0.24472391137428079 -0.42881802809351088 0 -0.23129160106511851 -0.43709963730954993 0 -0.2192384910052303 -0.43488680371419752 0 -0.2253113165948063 -0.4223339662655789 0 -0.2130770286723927 -0.42480957310445888 0 -0.2192384910052303 -0.43488680371419752 0 -0.2253113165948063 -0.4223339662655789 0 -0.2253113165948063 -0.4223339662655789 0 -0.24472391137428079 -0.42881802809351088 0 -0.23108052839123491 -0.40412965505078541 0 -0.2112768205308076 -0.41045335407315958 0 -0.2253113165948063 -0.4223339662655789 0 -0.23108052839123491 -0.40412965505078541 0 -0.25088597312503602 -0.40590154939457251 0 -0.24472391137428079 -0.42881802809351088 0 -0.25088597312503602 -0.40590154939457251 0 -0.24472391137428079 -0.42881802809351088 0 -0.23108052839123491 -0.40412965505078541 0 -0.21576852154598239 -0.37643282426404501 0 -0.22452694288275349 -0.38773070279792382 0 -0.23820743526712029 -0.37264572552727099 0 -0.22452694288275349 -0.38773070279792382 0 -0.24034978290838721 -0.39067854069323732 0 -0.23820743526712029 -0.37264572552727099 0 -0.22452694288275349 -0.38773070279792382 0 -0.23108052839123491 -0.40412965505078541 0 -0.24034978290838721 -0.39067854069323732 0 -0.21548332061321299 -0.39742161253697078 0 -0.2112768205308076 -0.41045335407315958 0 -0.23108052839123491 -0.40412965505078541 0 -0.21548332061321299 -0.39742161253697078 0 -0.22452694288275349 -0.38773070279792382 0 -0.23108052839123491 -0.40412965505078541 0 -0.25088597312503602 -0.40590154939457251 0 -0.25704803487579092 -0.38298507069563392 0 -0.24034978290838721 -0.39067854069323732 0 -0.25088597312503602 -0.40590154939457251 0 -0.23108052839123491 -0.40412965505078541 0 -0.24034978290838721 -0.39067854069323732 0 -0.25704803487579092 -0.38298507069563392 0 -0.24034978290838721 -0.39067854069323732 0 -0.23820743526712029 -0.37264572552727099 0 -0.25704803487579092 -0.38298507069563392 0 -0.23820743526712029 -0.37264572552727099 0 -0.2537697303883914 -0.37248603908174333 0 -0.25704803487579092 -0.38298507069563392 0 -0.23820743526712029 -0.37264572552727099 0 -0.25300435451518749 -0.35969863246827188 0 -0.23820743526712029 -0.37264572552727099 0 -0.23765945627743909 -0.34686298652561548 0 -0.25300435451518749 -0.35969863246827188 0 -0.2537697303883914 -0.37248603908174333 0 -0.23820743526712029 -0.37264572552727099 0 -0.23820743526712029 -0.37264572552727099 0 -0.2193668356584505 -0.362306380358907 0 -0.23765945627743909 -0.34686298652561548 0 -0.23820743526712029 -0.37264572552727099 0 -0.2193668356584505 -0.362306380358907 0 -0.21576852154598239 -0.37643282426404501 0 -0.23820743526712029 -0.37264572552727099 0 -0.2193668356584505 -0.362306380358907 0 -0.2193668356584505 -0.362306380358907 0 -0.23765945627743909 -0.34686298652561548 0 -0.2169593907974379 -0.34564605119534653 0 -0.25300435451518749 -0.35969863246827188 0 -0.2580372555781828 -0.34474315983665882 0 -0.23765945627743909 -0.34686298652561548 0 -0.2580372555781828 -0.34474315983665882 0 -0.25225645023502208 -0.33168591279810861 0 -0.23765945627743909 -0.34686298652561548 0 -0.25225645023502208 -0.33168591279810861 0 -0.23765945627743909 -0.34686298652561548 0 -0.23901155064040011 -0.3240817370220449 0 -0.25246230460774721 -0.31461311935138508 0 -0.23901155064040011 -0.3240817370220449 0 -0.2331790186848042 -0.30493943721822642 0 -0.25225645023502208 -0.33168591279810861 0 -0.25246230460774721 -0.31461311935138508 0 -0.23901155064040011 -0.3240817370220449 0 -0.23901155064040011 -0.3240817370220449 0 -0.22410108280689511 -0.33223980257165081 0 -0.2165502477483848 -0.31044764729021362 0 -0.23901155064040011 -0.3240817370220449 0 -0.2331790186848042 -0.30493943721822642 0 -0.2165502477483848 -0.31044764729021362 0 -0.23765945627743909 -0.34686298652561548 0 -0.23901155064040011 -0.3240817370220449 0 -0.22410108280689511 -0.33223980257165081 0 -0.23765945627743909 -0.34686298652561548 0 -0.22410108280689511 -0.33223980257165081 0 -0.2169593907974379 -0.34564605119534653 0 -0.2085382418990846 -0.33120734124037871 0 -0.20052623604978101 -0.35196703519054262 0 -0.2169593907974379 -0.34564605119534653 0 -0.2085382418990846 -0.33120734124037871 0 -0.20052623604978101 -0.35196703519054262 0 -0.22410108280689511 -0.33223980257165081 0 -0.2085382418990846 -0.33120734124037871 0 -0.2169593907974379 -0.34564605119534653 0 -0.22410108280689511 -0.33223980257165081 0 -0.2085382418990846 -0.33120734124037871 0 -0.2165502477483848 -0.31044764729021362 0 -0.2085382418990846 -0.33120734124037871 0 -0.2165502477483848 -0.31044764729021362 0 -0.2085382418990846 -0.33120734124037871 0 -0.2165502477483848 -0.31044764729021362 0 -0.19862651296620101 -0.30840817899464601 0 -0.2085382418990846 -0.33120734124037871 0 -0.1904389857752265 -0.32402854625902711 0 -0.19862651296620101 -0.30840817899464601 0 -0.1904389857752265 -0.32402854625902711 0 -0.19862651296620101 -0.30840817899464601 0 -0.18630864575992029 -0.31364786540529599 0 -0.2085382418990846 -0.33120734124037871 0 -0.19415661737463211 -0.33658168300831393 0 -0.20052623604978101 -0.35196703519054262 0 -0.2085382418990846 -0.33120734124037871 0 -0.1904389857752265 -0.32402854625902711 0 -0.19415661737463211 -0.33658168300831393 0 -0.19415661737463211 -0.33658168300831393 0 -0.20052623604978101 -0.35196703519054262 0 -0.17712300577443679 -0.33912380934330733 0 -0.20052623604978101 -0.35196703519054262 0 -0.17712300577443679 -0.33912380934330733 0 -0.20052623604978101 -0.35196703519054262 0 -0.1936176589590955 -0.36986766441266911 0 -0.18129467182878151 -0.35754384868795069 0 -0.20052623604978101 -0.35196703519054262 0 -0.1936176589590955 -0.36986766441266911 0 -0.20664135076263049 -0.3686035366206345 0 -0.20052623604978101 -0.35196703519054262 0 -0.1936176589590955 -0.36986766441266911 0 -0.198392631158402 -0.37933055233259272 0 -0.1936176589590955 -0.36986766441266911 0 -0.20664135076263049 -0.3686035366206345 0 -0.2193668356584505 -0.362306380358907 0 -0.20052623604978101 -0.35196703519054262 0 -0.20664135076263049 -0.3686035366206345 0 -0.198392631158402 -0.37933055233259272 0 -0.21576852154598239 -0.37643282426404501 0 -0.20664135076263049 -0.3686035366206345 0 -0.21576852154598239 -0.37643282426404501 0 -0.2193668356584505 -0.362306380358907 0 -0.20664135076263049 -0.3686035366206345 0 -0.2193668356584505 -0.362306380358907 0 -0.20052623604978101 -0.35196703519054262 0 -0.2193668356584505 -0.362306380358907 0 -0.20052623604978101 -0.35196703519054262 0 -0.2169593907974379 -0.34564605119534653 0 -0.22123898279613269 -0.25275702491106239 0 -0.22507569117076121 -0.26256021488732012 0 -0.21475210666427599 -0.26298068087708337 0 -0.22507569117076121 -0.26256021488732012 0 -0.22166039805252219 -0.2705925891853545 0 -0.21475210666427599 -0.26298068087708337 0 -0.22507569117076121 -0.26256021488732012 0 -0.23590736163769621 -0.25558715954368849 0 -0.23181960670317889 -0.27088361991941168 0 -0.22123898279613269 -0.25275702491106239 0 -0.22507569117076121 -0.26256021488732012 0 -0.23590736163769621 -0.25558715954368849 0 -0.25509643939260801 -0.25372761686286172 0 -0.23590736163769621 -0.25558715954368849 0 -0.24701821730940651 -0.26713600026353113 0 -0.25509643939260801 -0.25372761686286172 0 -0.23590736163769621 -0.25558715954368849 0 -0.2445407545490455 -0.242169086467064 0 -0.23590736163769621 -0.25558715954368849 0 -0.24701821730940651 -0.26713600026353113 0 -0.23181960670317889 -0.27088361991941168 0 -0.24701821730940651 -0.26713600026353113 0 -0.24168946669341149 -0.27821812889605269 0 -0.23181960670317889 -0.27088361991941168 0 -0.25552696275014952 -0.28188501557604367 0 -0.24701821730940651 -0.26713600026353113 0 -0.24168946669341149 -0.27821812889605269 0 -0.24168946669341149 -0.27821812889605269 0 -0.23181960670317889 -0.27088361991941168 0 -0.22712445612159521 -0.28304909894637981 0 -0.23181960670317889 -0.27088361991941168 0 -0.22712445612159521 -0.28304909894637981 0 -0.23181960670317889 -0.27088361991941168 0 -0.22166039805252219 -0.2705925891853545 0 -0.22712445612159521 -0.28304909894637981 0 -0.22507569117076121 -0.26256021488732012 0 -0.23181960670317889 -0.27088361991941168 0 -0.22166039805252219 -0.2705925891853545 0 -0.22166039805252219 -0.2705925891853545 0 -0.22712445612159521 -0.28304909894637981 0 -0.211810835392201 -0.27260068078549721 0 -0.22712445612159521 -0.28304909894637981 0 -0.211810835392201 -0.27260068078549721 0 -0.2245622535976825 -0.28968795334004749 0 -0.2335391576876556 -0.28742582248706311 0 -0.2331790186848042 -0.30493943721822642 0 -0.2245622535976825 -0.28968795334004749 0 -0.22712445612159521 -0.28304909894637981 0 -0.21455580173652189 -0.28373520328382018 0 -0.2245622535976825 -0.28968795334004749 0 -0.22712445612159521 -0.28304909894637981 0 -0.2245622535976825 -0.28968795334004749 0 -0.2335391576876556 -0.28742582248706311 0 -0.22712445612159521 -0.28304909894637981 0 -0.24168946669341149 -0.27821812889605269 0 -0.2335391576876556 -0.28742582248706311 0 -0.22712445612159521 -0.28304909894637981 0 -0.2245622535976825 -0.28968795334004749 0 -0.2335391576876556 -0.28742582248706311 0 -0.2335391576876556 -0.28742582248706311 0 -0.22712445612159521 -0.28304909894637981 0 -0.25058554513010328 -0.29905649999165052 0 -0.2335391576876556 -0.28742582248706311 0 -0.25552696275014952 -0.28188501557604367 0 -0.24168946669341149 -0.27821812889605269 0 -0.2335391576876556 -0.28742582248706311 0 -0.25552696275014952 -0.28188501557604367 0 -0.2335391576876556 -0.28742582248706311 0 -0.25058554513010328 -0.29905649999165052 0 -0.25552696275014952 -0.28188501557604367 0 -0.2335391576876556 -0.28742582248706311 0 -0.25058554513010328 -0.29905649999165052 0 -0.2335391576876556 -0.28742582248706311 0 -0.2331790186848042 -0.30493943721822642 0 -0.25246230460774721 -0.31461311935138508 0 -0.25058554513010328 -0.29905649999165052 0 -0.2331790186848042 -0.30493943721822642 0 -0.2245622535976825 -0.28968795334004749 0 -0.2165502477483848 -0.31044764729021362 0 -0.2245622535976825 -0.28968795334004749 0 -0.2331790186848042 -0.30493943721822642 0 -0.2165502477483848 -0.31044764729021362 0 -0.2245622535976825 -0.28968795334004749 0 -0.2165502477483848 -0.31044764729021362 0 -0.20415730266322041 -0.29482988964679918 0 -0.2165502477483848 -0.31044764729021362 0 -0.19862651296620101 -0.30840817899464601 0 -0.20415730266322041 -0.29482988964679918 0 -0.20415730266322041 -0.29482988964679918 0 -0.18375235172875881 -0.29997182595355348 0 -0.19862651296620101 -0.30840817899464601 0 -0.20415730266322041 -0.29482988964679918 0 -0.18375235172875881 -0.29997182595355348 0 -0.19862651296620101 -0.30840817899464601 0 -0.18454974136587551 -0.30430890130232219 0 -0.18630864575992029 -0.31364786540529599 0 -0.19862651296620101 -0.30840817899464601 0 -0.18454974136587551 -0.30430890130232219 0 -0.18375235172875881 -0.29997182595355348 0 -0.19234981302424681 -0.28484999945516393 0 -0.20415730266322041 -0.29482988964679918 0 -0.18375235172875881 -0.29997182595355348 0 -0.19234981302424681 -0.28484999945516393 0 -0.20415730266322041 -0.29482988964679918 0 -0.20218335790267239 -0.28093273203969338 0 -0.20415730266322041 -0.29482988964679918 0 -0.21455580173652189 -0.28373520328382018 0 -0.20218335790267239 -0.28093273203969338 0 -0.2245622535976825 -0.28968795334004749 0 -0.20415730266322041 -0.29482988964679918 0 -0.2245622535976825 -0.28968795334004749 0 -0.20415730266322041 -0.29482988964679918 0 -0.21455580173652189 -0.28373520328382018 0 -0.22712445612159521 -0.28304909894637981 0 -0.21455580173652189 -0.28373520328382018 0 -0.211810835392201 -0.27260068078549721 0 -0.22166039805252219 -0.2705925891853545 0 -0.211810835392201 -0.27260068078549721 0 -0.21475210666427599 -0.26298068087708337 0 -0.211810835392201 -0.27260068078549721 0 -0.2033017377273994 -0.26489218144547988 0 -0.21475210666427599 -0.26298068087708337 0 -0.211810835392201 -0.27260068078549721 0 -0.19649721466280681 -0.26215226262461477 0 -0.211810835392201 -0.27260068078549721 0 -0.19649721466280681 -0.26215226262461477 0 -0.2033017377273994 -0.26489218144547988 0 -0.21455580173652189 -0.28373520328382018 0 -0.211810835392201 -0.27260068078549721 0 -0.20218335790267239 -0.28093273203969338 0 -0.211810835392201 -0.27260068078549721 0 -0.20218335790267239 -0.28093273203969338 0 -0.19248006653516661 -0.27197025351455473 0 -0.211810835392201 -0.27260068078549721 0 -0.19248006653516661 -0.27197025351455473 0 -0.19649721466280681 -0.26215226262461477 0 -0.19234981302424681 -0.28484999945516393 0 -0.20218335790267239 -0.28093273203969338 0 -0.19248006653516661 -0.27197025351455473 0 -0.19234981302424681 -0.28484999945516393 0 -0.19248006653516661 -0.27197025351455473 0 -0.17948827724285121 -0.27677913385259301 0 -0.19649721466280681 -0.26215226262461477 0 -0.17397364154919151 -0.24678452467897261 0 -0.1927761404030483 -0.24738098496973321 0 -0.19248006653516661 -0.27197025351455473 0 -0.19649721466280681 -0.26215226262461477 0 -0.18098947037320079 -0.25590789251301371 0 -0.19649721466280681 -0.26215226262461477 0 -0.20632428494652991 -0.25294021015760532 0 -0.2033017377273994 -0.26489218144547988 0 -0.19649721466280681 -0.26215226262461477 0 -0.2033017377273994 -0.26489218144547988 0 -0.19649721466280681 -0.26215226262461477 0 -0.18098947037320079 -0.25590789251301371 0 -0.19649721466280681 -0.26215226262461477 0 -0.20632428494652991 -0.25294021015760532 0 -0.1927761404030483 -0.24738098496973321 0 -0.20632428494652991 -0.25294021015760532 0 -0.2033017377273994 -0.26489218144547988 0 -0.21475210666427599 -0.26298068087708337 0 -0.22123898279613269 -0.25275702491106239 0 -0.20632428494652991 -0.25294021015760532 0 -0.21475210666427599 -0.26298068087708337 0 -0.17522420275694239 -0.25358644175163281 0 -0.15967070578823961 -0.26816480599322717 0 -0.15352784145279941 -0.2448501544149298 0 -0.18098947037320079 -0.25590789251301371 0 -0.17397364154919151 -0.24678452467897261 0 -0.19248006653516661 -0.27197025351455473 0 -0.18098947037320079 -0.25590789251301371 0 -0.17522420275694239 -0.25358644175163281 0 -0.18255576349924671 -0.26553437952712972 0 -0.17948827724285121 -0.27677913385259301 0 -0.19248006653516661 -0.27197025351455473 0 -0.18098947037320079 -0.25590789251301371 0 -0.18255576349924671 -0.26553437952712972 0 -0.17522420275694239 -0.25358644175163281 0 -0.17397364154919151 -0.24678452467897261 0 -0.19649721466280681 -0.26215226262461477 0 -0.17397364154919151 -0.24678452467897261 0 -0.19649721466280681 -0.26215226262461477 0 -0.18098947037320079 -0.25590789251301371 0 -0.17397364154919151 -0.24678452467897261 0 -0.17522420275694239 -0.25358644175163281 0 -0.18098947037320079 -0.25590789251301371 0 -0.17397364154919151 -0.24678452467897261 0 -0.17522420275694239 -0.25358644175163281 0 -0.17948827724285121 -0.27677913385259301 0 -0.17522420275694239 -0.25358644175163281 0 -0.18098947037320079 -0.25590789251301371 0 -0.17522420275694239 -0.25358644175163281 0 -0.18098947037320079 -0.25590789251301371 0 -0.18255576349924671 -0.26553437952712972 0 -0.19248006653516661 -0.27197025351455473 0 -0.18255576349924671 -0.26553437952712972 0 -0.17948827724285121 -0.27677913385259301 0 -0.17948827724285121 -0.27677913385259301 0 -0.15967070578823961 -0.26816480599322717 0 -0.16678440438703701 -0.2884456277909308 0 -0.17522420275694239 -0.25358644175163281 0 -0.17948827724285121 -0.27677913385259301 0 -0.15967070578823961 -0.26816480599322717 0 -0.15967070578823961 -0.26816480599322717 0 -0.16678440438703701 -0.2884456277909308 0 -0.1427570724296407 -0.28541550230392287 0 -0.17948827724285121 -0.27677913385259301 0 -0.18375235172875881 -0.29997182595355348 0 -0.16678440438703701 -0.2884456277909308 0 -0.17820702621905041 -0.30136921772688618 0 -0.18375235172875881 -0.29997182595355348 0 -0.19234981302424681 -0.28484999945516393 0 -0.17948827724285121 -0.27677913385259301 0 -0.18375235172875881 -0.29997182595355348 0 -0.17948827724285121 -0.27677913385259301 0 -0.16678440438703701 -0.2884456277909308 0 -0.18375235172875881 -0.29997182595355348 0 -0.17820702621905041 -0.30136921772688618 0 -0.18375235172875881 -0.29997182595355348 0 -0.17820702621905041 -0.30136921772688618 0 -0.182247013923133 -0.30123430270277213 0 -0.182247013923133 -0.30123430270277213 0 -0.18454974136587551 -0.30430890130232219 0 -0.18375235172875881 -0.29997182595355348 0 -0.17820702621905041 -0.30136921772688618 0 -0.182247013923133 -0.30123430270277213 0 -0.18454974136587551 -0.30430890130232219 0 -0.17820702621905041 -0.30136921772688618 0 -0.182247013923133 -0.30123430270277213 0 -0.18375235172875881 -0.29997182595355348 0 -0.18454974136587551 -0.30430890130232219 0 -0.18375235172875881 -0.29997182595355348 0 -0.17820702621905041 -0.30136921772688618 0 -0.18454974136587551 -0.30430890130232219 0 -0.17750787240998811 -0.31119014579366311 0 -0.18454974136587551 -0.30430890130232219 0 -0.17750787240998811 -0.31119014579366311 0 -0.18630864575992029 -0.31364786540529599 0 -0.17820702621905041 -0.30136921772688618 0 -0.17750787240998811 -0.31119014579366311 0 -0.1542617857213997 -0.30740328768786318 0 -0.17820702621905041 -0.30136921772688618 0 -0.15624943433525179 -0.30210248952260088 0 -0.17820702621905041 -0.30136921772688618 0 -0.15624943433525179 -0.30210248952260088 0 -0.1542617857213997 -0.30740328768786318 0 -0.16678440438703701 -0.2884456277909308 0 -0.17820702621905041 -0.30136921772688618 0 -0.15624943433525179 -0.30210248952260088 0 -0.17820702621905041 -0.30136921772688618 0 -0.1542617857213997 -0.30740328768786318 0 -0.1542617857213997 -0.30740328768786318 0 -0.13031654522374839 -0.31343735764883729 0 -0.15624943433525179 -0.30210248952260088 0 -0.13429184245145331 -0.30283576131831758 0 -0.15624943433525179 -0.30210248952260088 0 -0.1542617857213997 -0.30740328768786318 0 -0.13429184245145331 -0.30283576131831758 0 -0.1542617857213997 -0.30740328768786318 0 -0.13429184245145331 -0.30283576131831758 0 -0.13031654522374839 -0.31343735764883729 0 -0.13429184245145331 -0.30283576131831758 0 -0.13031654522374839 -0.31343735764883729 0 -0.11233425056765491 -0.30356903311403483 0 -0.13429184245145331 -0.30283576131831758 0 -0.1427570724296407 -0.28541550230392287 0 -0.1230090408380061 -0.29409904358223921 0 -0.1427570724296407 -0.28541550230392287 0 -0.1216867723207317 -0.27989047380845328 0 -0.1230090408380061 -0.29409904358223921 0 -0.15624943433525179 -0.30210248952260088 0 -0.13429184245145331 -0.30283576131831758 0 -0.1427570724296407 -0.28541550230392287 0 -0.16678440438703701 -0.2884456277909308 0 -0.15624943433525179 -0.30210248952260088 0 -0.1427570724296407 -0.28541550230392287 0 -0.15967070578823961 -0.26816480599322717 0 -0.1427570724296407 -0.28541550230392287 0 -0.13760730688676531 -0.26237031411169143 0 -0.1427570724296407 -0.28541550230392287 0 -0.13760730688676531 -0.26237031411169143 0 -0.1216867723207317 -0.27989047380845328 0 -0.13760730688676531 -0.26237031411169143 0 -0.1219718459382431 -0.26117742982747882 0 -0.1216867723207317 -0.27989047380845328 0 -0.13760730688676531 -0.26237031411169143 0 -0.1216867723207317 -0.27989047380845328 0 -0.13760730688676531 -0.26237031411169143 0 -0.1219718459382431 -0.26117742982747882 0 -0.14467308579152019 -0.24979515566572699 0 -0.1219718459382431 -0.26117742982747882 0 -0.14467308579152019 -0.24979515566572699 0 -0.1219718459382431 -0.26117742982747882 0 -0.14467308579152019 -0.24979515566572699 0 -0.13028287227370461 -0.24829102399749131 0 -0.13760730688676531 -0.26237031411169143 0 -0.15352784145279941 -0.2448501544149298 0 -0.14467308579152019 -0.24979515566572699 0 -0.13760730688676531 -0.26237031411169143 0 -0.15352784145279941 -0.2448501544149298 0 -0.15967070578823961 -0.26816480599322717 0 -0.13760730688676531 -0.26237031411169143 0 -0.15352784145279941 -0.2448501544149298 0 -0.16480071465305959 -0.35267565485329172 0 -0.17040574370753489 -0.37408507963994281 0 -0.16480071465305959 -0.35267565485329172 0 -0.17040574370753489 -0.37408507963994281 0 -0.14954442587581379 -0.35938928238291112 0 -0.1936176589590955 -0.36986766441266911 0 -0.17040574370753489 -0.37408507963994281 0 -0.18129467182878151 -0.35754384868795069 0 -0.16480071465305959 -0.35267565485329172 0 -0.17040574370753489 -0.37408507963994281 0 -0.18129467182878151 -0.35754384868795069 0 -0.20052623604978101 -0.35196703519054262 0 -0.18129467182878151 -0.35754384868795069 0 -0.17712300577443679 -0.33912380934330733 0 -0.16480071465305959 -0.35267565485329172 0 -0.18129467182878151 -0.35754384868795069 0 -0.17712300577443679 -0.33912380934330733 0 -0.1904389857752265 -0.32402854625902711 0 -0.19415661737463211 -0.33658168300831393 0 -0.17712300577443679 -0.33912380934330733 0 -0.1904389857752265 -0.32402854625902711 0 -0.17712300577443679 -0.33912380934330733 0 -0.17336766791711741 -0.32012312686935729 0 -0.1904389857752265 -0.32402854625902711 0 -0.18630864575992029 -0.31364786540529599 0 -0.17336766791711741 -0.32012312686935729 0 -0.17750787240998811 -0.31119014579366311 0 -0.18630864575992029 -0.31364786540529599 0 -0.17336766791711741 -0.32012312686935729 0 -0.1542617857213997 -0.30740328768786318 0 -0.17336766791711741 -0.32012312686935729 0 -0.15371977549909299 -0.32628058349607159 0 -0.17750787240998811 -0.31119014579366311 0 -0.1542617857213997 -0.30740328768786318 0 -0.17336766791711741 -0.32012312686935729 0 -0.16480071465305959 -0.35267565485329172 0 -0.17712300577443679 -0.33912380934330733 0 -0.1591956855985843 -0.33126623006664058 0 -0.16480071465305959 -0.35267565485329172 0 -0.1591956855985843 -0.33126623006664058 0 -0.17712300577443679 -0.33912380934330733 0 -0.1591956855985843 -0.33126623006664058 0 -0.15371977549909299 -0.32628058349607159 0 -0.17712300577443679 -0.33912380934330733 0 -0.17336766791711741 -0.32012312686935729 0 -0.15371977549909299 -0.32628058349607159 0 -0.16480071465305959 -0.35267565485329172 0 -0.1591956855985843 -0.33126623006664058 0 -0.15289465343104461 -0.34477349986594619 0 -0.17712300577443679 -0.33912380934330733 0 -0.15371977549909299 -0.32628058349607159 0 -0.1484123914829534 -0.33576734252068802 0 -0.15371977549909299 -0.32628058349607159 0 -0.13577616276485879 -0.33134454888927067 0 -0.1591956855985843 -0.33126623006664058 0 -0.1484123914829534 -0.33576734252068802 0 -0.15289465343104461 -0.34477349986594619 0 -0.1591956855985843 -0.33126623006664058 0 -0.1484123914829534 -0.33576734252068802 0 -0.15371977549909299 -0.32628058349607159 0 -0.1484123914829534 -0.33576734252068802 0 -0.13577616276485879 -0.33134454888927067 0 -0.14047568012118641 -0.34517185028551051 0 -0.1484123914829534 -0.33576734252068802 0 -0.14047568012118641 -0.34517185028551051 0 -0.15289465343104461 -0.34477349986594619 0 -0.15371977549909299 -0.32628058349607159 0 -0.13031654522374839 -0.31343735764883729 0 -0.1542617857213997 -0.30740328768786318 0 -0.15371977549909299 -0.32628058349607159 0 -0.13031654522374839 -0.31343735764883729 0 -0.13031654522374839 -0.31343735764883729 0 -0.13577616276485879 -0.33134454888927067 0 -0.1249685804051176 -0.32503637420095821 0 -0.15371977549909299 -0.32628058349607159 0 -0.13031654522374839 -0.31343735764883729 0 -0.13577616276485879 -0.33134454888927067 0 -0.13577616276485879 -0.33134454888927067 0 -0.11471963443342791 -0.34277664596287127 0 -0.1249685804051176 -0.32503637420095821 0 -0.13577616276485879 -0.33134454888927067 0 -0.14047568012118641 -0.34517185028551051 0 -0.11471963443342791 -0.34277664596287127 0 -0.14047568012118641 -0.34517185028551051 0 -0.14954442587581379 -0.35938928238291112 0 -0.1314551321928682 -0.36301767168702992 0 -0.14047568012118641 -0.34517185028551051 0 -0.1314551321928682 -0.36301767168702992 0 -0.11471963443342791 -0.34277664596287127 0 -0.14047568012118641 -0.34517185028551051 0 -0.15289465343104461 -0.34477349986594619 0 -0.14954442587581379 -0.35938928238291112 0 -0.16480071465305959 -0.35267565485329172 0 -0.15289465343104461 -0.34477349986594619 0 -0.14954442587581379 -0.35938928238291112 0 -0.14819062995230839 -0.38325869741118851 0 -0.14954442587581379 -0.35938928238291112 0 -0.1314551321928682 -0.36301767168702992 0 -0.14819062995230839 -0.38325869741118851 0 -0.17040574370753489 -0.37408507963994281 0 -0.14954442587581379 -0.35938928238291112 0 -0.14819062995230839 -0.38325869741118851 0 -0.1314551321928682 -0.36301767168702992 0 -0.126179364221604 -0.38421012841432062 0 -0.1314551321928682 -0.36301767168702992 0 -0.1086727911308718 -0.3771463550453375 0 -0.1314551321928682 -0.36301767168702992 0 -0.1061366769319084 -0.35898338218367609 0 -0.1086727911308718 -0.3771463550453375 0 -0.088219580269369116 -0.36289530058630892 0 -0.1086727911308718 -0.3771463550453375 0 -0.088863777993192616 -0.38044904001208169 0 -0.1061366769319084 -0.35898338218367609 0 -0.088219580269369116 -0.36289530058630892 0 -0.1086727911308718 -0.3771463550453375 0 -0.1061366769319084 -0.35898338218367609 0 -0.11471963443342791 -0.34277664596287127 0 -0.093286021529017965 -0.34214439765500843 0 -0.1061366769319084 -0.35898338218367609 0 -0.093286021529017965 -0.34214439765500843 0 -0.088219580269369116 -0.36289530058630892 0 -0.1314551321928682 -0.36301767168702992 0 -0.1061366769319084 -0.35898338218367609 0 -0.11471963443342791 -0.34277664596287127 0 -0.1314551321928682 -0.36301767168702992 0 -0.11471963443342791 -0.34277664596287127 0 -0.11471963443342791 -0.34277664596287127 0 -0.1249685804051176 -0.32503637420095821 0 -0.11476253679321891 -0.31735688291118119 0 -0.13031654522374839 -0.31343735764883729 0 -0.1249685804051176 -0.32503637420095821 0 -0.11476253679321891 -0.31735688291118119 0 -0.13031654522374839 -0.31343735764883729 0 -0.11476253679321891 -0.31735688291118119 0 -0.11471963443342791 -0.34277664596287127 0 -0.11476253679321891 -0.31735688291118119 0 -0.097984136673987615 -0.32253562023871257 0 -0.11476253679321891 -0.31735688291118119 0 -0.097984136673987615 -0.32253562023871257 0 -0.1040247861545654 -0.31206345828747722 0 -0.097984136673987615 -0.32253562023871257 0 -0.091451703422000513 -0.31347425061693601 0 -0.1040247861545654 -0.31206345828747722 0 -0.11471963443342791 -0.34277664596287127 0 -0.097984136673987615 -0.32253562023871257 0 -0.11471963443342791 -0.34277664596287127 0 -0.097984136673987615 -0.32253562023871257 0 -0.093286021529017965 -0.34214439765500843 0 -0.093286021529017965 -0.34214439765500843 0 -0.074172695176090125 -0.33433341197941829 0 -0.082039086183403498 -0.35143669041701542 0 -0.097984136673987615 -0.32253562023871257 0 -0.093286021529017965 -0.34214439765500843 0 -0.086394442855400461 -0.32476088346284732 0 -0.093286021529017965 -0.34214439765500843 0 -0.086394442855400461 -0.32476088346284732 0 -0.074172695176090125 -0.33433341197941829 0 -0.086394442855400461 -0.32476088346284732 0 -0.077638708896932251 -0.31485203122265459 0 -0.074172695176090125 -0.33433341197941829 0 -0.097984136673987615 -0.32253562023871257 0 -0.091451703422000513 -0.31347425061693601 0 -0.086394442855400461 -0.32476088346284732 0 -0.091451703422000513 -0.31347425061693601 0 -0.086394442855400461 -0.32476088346284732 0 -0.077638708896932251 -0.31485203122265459 0 -0.077638708896932251 -0.31485203122265459 0 -0.074172695176090125 -0.33433341197941829 0 -0.06232705567388247 -0.31607076631558889 0 -0.074172695176090125 -0.33433341197941829 0 -0.057372881831761043 -0.33181678542764781 0 -0.06232705567388247 -0.31607076631558889 0 -0.074172695176090125 -0.33433341197941829 0 -0.063581007738924097 -0.34183981599360458 0 -0.057372881831761043 -0.33181678542764781 0 -0.074172695176090125 -0.33433341197941829 0 -0.063581007738924097 -0.34183981599360458 0 -0.07094720726158299 -0.34991361115292968 0 -0.074172695176090125 -0.33433341197941829 0 -0.07094720726158299 -0.34991361115292968 0 -0.082039086183403498 -0.35143669041701542 0 -0.063581007738924097 -0.34183981599360458 0 -0.07094720726158299 -0.34991361115292968 0 -0.059910395796370627 -0.35316023954511239 0 -0.07094720726158299 -0.34991361115292968 0 -0.069590954953861944 -0.36233640732595718 0 -0.082039086183403498 -0.35143669041701542 0 -0.07094720726158299 -0.34991361115292968 0 -0.069590954953861944 -0.36233640732595718 0 -0.059910395796370627 -0.35316023954511239 0 -0.069590954953861944 -0.36233640732595718 0 -0.088219580269369116 -0.36289530058630892 0 -0.074512076485066581 -0.37665453674020399 0 -0.069590954953861944 -0.36233640732595718 0 -0.062397948458787267 -0.37488570279703531 0 -0.074512076485066581 -0.37665453674020399 0 -0.088219580269369116 -0.36289530058630892 0 -0.088863777993192616 -0.38044904001208169 0 -0.074512076485066581 -0.37665453674020399 0 -0.093286021529017965 -0.34214439765500843 0 -0.088219580269369116 -0.36289530058630892 0 -0.082039086183403498 -0.35143669041701542 0 -0.069590954953861944 -0.36233640732595718 0 -0.088219580269369116 -0.36289530058630892 0 -0.082039086183403498 -0.35143669041701542 0 -0.096665960940051032 -0.25610933762668647 0 -0.10931740613783621 -0.25525066145170427 0 -0.099270606084965934 -0.27255970398923057 0 -0.096665960940051032 -0.25610933762668647 0 -0.1047441773361453 -0.24825177899687451 0 -0.09738865516331853 -0.24664385226085889 0 -0.096665960940051032 -0.25610933762668647 0 -0.10931740613783621 -0.25525066145170427 0 -0.1047441773361453 -0.24825177899687451 0 -0.10931740613783621 -0.25525066145170427 0 -0.1219718459382431 -0.26117742982747882 0 -0.1195935868873325 -0.24923947994859169 0 -0.10931740613783621 -0.25525066145170427 0 -0.1219718459382431 -0.26117742982747882 0 -0.099270606084965934 -0.27255970398923057 0 -0.1219718459382431 -0.26117742982747882 0 -0.1195935868873325 -0.24923947994859169 0 -0.13028287227370461 -0.24829102399749131 0 -0.1219718459382431 -0.26117742982747882 0 -0.1216867723207317 -0.27989047380845328 0 -0.099270606084965934 -0.27255970398923057 0 -0.1219718459382431 -0.26117742982747882 0 -0.099270606084965934 -0.27255970398923057 0 -0.1216867723207317 -0.27989047380845328 0 -0.099270606084965934 -0.27255970398923057 0 -0.1036262187773269 -0.284695608537954 0 -0.099270606084965934 -0.27255970398923057 0 -0.094451808399671433 -0.29375550563251063 0 -0.1036262187773269 -0.284695608537954 0 -0.094451808399671433 -0.29375550563251063 0 -0.1036262187773269 -0.284695608537954 0 -0.10576623775469809 -0.29741063350521518 0 -0.1216867723207317 -0.27989047380845328 0 -0.1230090408380061 -0.29409904358223921 0 -0.10576623775469809 -0.29741063350521518 0 -0.1216867723207317 -0.27989047380845328 0 -0.10576623775469809 -0.29741063350521518 0 -0.1216867723207317 -0.27989047380845328 0 -0.1036262187773269 -0.284695608537954 0 -0.10576623775469809 -0.29741063350521518 0 -0.13429184245145331 -0.30283576131831758 0 -0.11233425056765491 -0.30356903311403483 0 -0.13031654522374839 -0.31343735764883729 0 -0.11233425056765491 -0.30356903311403483 0 -0.1230090408380061 -0.29409904358223921 0 -0.11233425056765491 -0.30356903311403483 0 -0.10576623775469809 -0.29741063350521518 0 -0.13429184245145331 -0.30283576131831758 0 -0.1230090408380061 -0.29409904358223921 0 -0.11233425056765491 -0.30356903311403483 0 -0.13031654522374839 -0.31343735764883729 0 -0.11476253679321891 -0.31735688291118119 0 -0.11233425056765491 -0.30356903311403483 0 -0.11476253679321891 -0.31735688291118119 0 -0.11233425056765491 -0.30356903311403483 0 -0.1040247861545654 -0.31206345828747722 0 -0.094451808399671433 -0.29375550563251063 0 -0.11233425056765491 -0.30356903311403483 0 -0.097649529430842971 -0.30405942804871439 0 -0.094451808399671433 -0.29375550563251063 0 -0.11233425056765491 -0.30356903311403483 0 -0.10576623775469809 -0.29741063350521518 0 -0.11233425056765491 -0.30356903311403483 0 -0.1040247861545654 -0.31206345828747722 0 -0.097649529430842971 -0.30405942804871439 0 -0.094451808399671433 -0.29375550563251063 0 -0.11233425056765491 -0.30356903311403483 0 -0.11233425056765491 -0.30356903311403483 0 -0.097649529430842971 -0.30405942804871439 0 -0.091451703422000513 -0.31347425061693601 0 -0.1040247861545654 -0.31206345828747722 0 -0.097649529430842971 -0.30405942804871439 0 -0.091451703422000513 -0.31347425061693601 0 -0.097649529430842971 -0.30405942804871439 0 -0.083780746960874022 -0.30271531650208339 0 -0.094451808399671433 -0.29375550563251063 0 -0.097649529430842971 -0.30405942804871439 0 -0.083780746960874022 -0.30271531650208339 0 -0.091451703422000513 -0.31347425061693601 0 -0.077638708896932251 -0.31485203122265459 0 -0.083780746960874022 -0.30271531650208339 0 -0.077638708896932251 -0.31485203122265459 0 -0.083780746960874022 -0.30271531650208339 0 -0.069945804297731728 -0.30176288077593072 0 -0.077638708896932251 -0.31485203122265459 0 -0.069945804297731728 -0.30176288077593072 0 -0.06232705567388247 -0.31607076631558889 0 -0.069945804297731728 -0.30176288077593072 0 -0.076569366231689445 -0.28394197815098371 0 -0.05279771533835198 -0.29586095039629567 0 -0.076569366231689445 -0.28394197815098371 0 -0.06411434761547874 -0.27710691242982211 0 -0.05279771533835198 -0.29586095039629567 0 -0.083780746960874022 -0.30271531650208339 0 -0.069945804297731728 -0.30176288077593072 0 -0.076569366231689445 -0.28394197815098371 0 -0.076569366231689445 -0.28394197815098371 0 -0.05279771533835198 -0.29586095039629567 0 -0.094451808399671433 -0.29375550563251063 0 -0.083780746960874022 -0.30271531650208339 0 -0.076569366231689445 -0.28394197815098371 0 -0.099270606084965934 -0.27255970398923057 0 -0.094451808399671433 -0.29375550563251063 0 -0.076569366231689445 -0.28394197815098371 0 -0.094451808399671433 -0.29375550563251063 0 -0.076569366231689445 -0.28394197815098371 0 -0.099270606084965934 -0.27255970398923057 0 -0.076569366231689445 -0.28394197815098371 0 -0.099270606084965934 -0.27255970398923057 0 -0.076569366231689445 -0.28394197815098371 0 -0.079570227585980188 -0.26417846211872581 0 -0.076569366231689445 -0.28394197815098371 0 -0.06411434761547874 -0.27710691242982211 0 -0.076569366231689445 -0.28394197815098371 0 -0.06411434761547874 -0.27710691242982211 0 -0.079570227585980188 -0.26417846211872581 0 -0.06411434761547874 -0.27710691242982211 0 -0.063363785046684287 -0.26154930817452821 0 -0.079570227585980188 -0.26417846211872581 0 -0.063363785046684287 -0.26154930817452821 0 -0.079570227585980188 -0.26417846211872581 0 -0.071604140050827339 -0.2458442540854556 0 -0.096665960940051032 -0.25610933762668647 0 -0.099270606084965934 -0.27255970398923057 0 -0.079570227585980188 -0.26417846211872581 0 -0.079570227585980188 -0.26417846211872581 0 -0.08621409042463074 -0.25069620380078528 0 -0.071604140050827339 -0.2458442540854556 0 -0.096665960940051032 -0.25610933762668647 0 -0.079570227585980188 -0.26417846211872581 0 -0.08621409042463074 -0.25069620380078528 0 -0.096665960940051032 -0.25610933762668647 0 -0.08621409042463074 -0.25069620380078528 0 -0.09738865516331853 -0.24664385226085889 0 -0.048384655956861727 -0.25338641839162213 0 -0.025165171862896119 -0.26092858269778868 0 -0.029961008511695159 -0.24612032589200489 0 -0.048384655956861727 -0.25338641839162213 0 -0.041607751468791282 -0.27631727878630952 0 -0.025165171862896119 -0.26092858269778868 0 -0.048384655956861727 -0.25338641839162213 0 -0.025165171862896119 -0.26092858269778868 0 -0.048384655956861727 -0.25338641839162213 0 -0.054367635021954012 -0.26708997944557039 0 -0.041607751468791282 -0.27631727878630952 0 -0.063363785046684287 -0.26154930817452821 0 -0.048384655956861727 -0.25338641839162213 0 -0.071604140050827339 -0.2458442540854556 0 -0.063363785046684287 -0.26154930817452821 0 -0.048384655956861727 -0.25338641839162213 0 -0.054367635021954012 -0.26708997944557039 0 -0.06411434761547874 -0.27710691242982211 0 -0.054367635021954012 -0.26708997944557039 0 -0.041607751468791282 -0.27631727878630952 0 -0.06411434761547874 -0.27710691242982211 0 -0.063363785046684287 -0.26154930817452821 0 -0.054367635021954012 -0.26708997944557039 0 -0.041607751468791282 -0.27631727878630952 0 -0.034949446402053212 -0.29278024887951121 0 -0.05279771533835198 -0.29586095039629567 0 -0.041607751468791282 -0.27631727878630952 0 -0.034949446402053212 -0.29278024887951121 0 -0.02032020728894739 -0.28308486290935531 0 -0.06411434761547874 -0.27710691242982211 0 -0.041607751468791282 -0.27631727878630952 0 -0.05279771533835198 -0.29586095039629567 0 -0.05279771533835198 -0.29586095039629567 0 -0.06232705567388247 -0.31607076631558889 0 -0.046579768449943368 -0.31665354720935351 0 -0.069945804297731728 -0.30176288077593072 0 -0.05279771533835198 -0.29586095039629567 0 -0.06232705567388247 -0.31607076631558889 0 -0.034949446402053212 -0.29278024887951121 0 -0.05279771533835198 -0.29586095039629567 0 -0.029026064445015012 -0.30777992264160908 0 -0.05279771533835198 -0.29586095039629567 0 -0.029026064445015012 -0.30777992264160908 0 -0.046579768449943368 -0.31665354720935351 0 -0.05279771533835198 -0.29586095039629567 0 -0.029026064445015012 -0.30777992264160908 0 -0.034949446402053212 -0.29278024887951121 0 -0.029026064445015012 -0.30777992264160908 0 -0.01341582803751455 -0.30631130210187879 0 -0.029026064445015012 -0.30777992264160908 0 -0.01341582803751455 -0.30631130210187879 0 -0.0052544135516779328 -0.31969889488692221 0 -0.01341582803751455 -0.30631130210187879 0 -0.0036000506603035519 -0.29408482094543792 0 -0.0052544135516779328 -0.31969889488692221 0 -0.0036000506603035519 -0.29408482094543792 0 -0.0052544135516779328 -0.31969889488692221 0 -0.0036000506603035519 -0.29408482094543792 0 -0.001945687768929825 -0.26847074700395329 0 -0.0036000506603035519 -0.29408482094543792 0 -0.02032020728894739 -0.28308486290935531 0 -0.001945687768929825 -0.26847074700395329 0 -0.01341582803751455 -0.30631130210187879 0 -0.0036000506603035519 -0.29408482094543792 0 -0.02032020728894739 -0.28308486290935531 0 -0.034949446402053212 -0.29278024887951121 0 -0.01341582803751455 -0.30631130210187879 0 -0.02032020728894739 -0.28308486290935531 0 -0.041607751468791282 -0.27631727878630952 0 -0.02032020728894739 -0.28308486290935531 0 -0.025165171862896119 -0.26092858269778868 0 -0.02032020728894739 -0.28308486290935531 0 -0.001945687768929825 -0.26847074700395329 0 -0.025165171862896119 -0.26092858269778868 0 -0.001945687768929825 -0.26847074700395329 0 -0.0013499795393466961 -0.2592475501348519 0 -0.025165171862896119 -0.26092858269778868 0 -0.001945687768929825 -0.26847074700395329 0 -0.025165171862896119 -0.26092858269778868 0 -0.0013499795393466961 -0.2592475501348519 0 -0.025165171862896119 -0.26092858269778868 0 -0.013927496954496001 -0.2469218739772201 0 -0.001945687768929825 -0.26847074700395329 0 -0.0013499795393466961 -0.2592475501348519 0 -0.001945687768929825 -0.26847074700395329 0 -0.0013499795393466961 -0.2592475501348519 0 0.00192333823438529 -0.2632535055597901 0 -0.025165171862896119 -0.26092858269778868 0 -0.029961008511695159 -0.24612032589200489 0 -0.013927496954496001 -0.2469218739772201 0 -0.042539989230450638 -0.34506501587449201 0 -0.034063160855794077 -0.3532586356890402 0 -0.034292596549787807 -0.33738344755727012 0 -0.034063160855794077 -0.3532586356890402 0 -0.048872082040541907 -0.3681590472324856 0 -0.048176893739280427 -0.35573190043100389 0 -0.042539989230450638 -0.34506501587449201 0 -0.034063160855794077 -0.3532586356890402 0 -0.048176893739280427 -0.35573190043100389 0 -0.048872082040541907 -0.3681590472324856 0 -0.054985368636130322 -0.36447653797276319 0 -0.035073819187519228 -0.38584336618902332 0 -0.034063160855794077 -0.3532586356890402 0 -0.048872082040541907 -0.3681590472324856 0 -0.029827872295024722 -0.36814135572602391 0 -0.048872082040541907 -0.3681590472324856 0 -0.029827872295024722 -0.36814135572602391 0 -0.035073819187519228 -0.38584336618902332 0 -0.034063160855794077 -0.3532586356890402 0 -0.048872082040541907 -0.3681590472324856 0 -0.048872082040541907 -0.3681590472324856 0 -0.054985368636130322 -0.36447653797276319 0 -0.048176893739280427 -0.35573190043100389 0 -0.062397948458787267 -0.37488570279703531 0 -0.054985368636130322 -0.36447653797276319 0 -0.052622806273112402 -0.38207490110933112 0 -0.069590954953861944 -0.36233640732595718 0 -0.062397948458787267 -0.37488570279703531 0 -0.054985368636130322 -0.36447653797276319 0 -0.069590954953861944 -0.36233640732595718 0 -0.054985368636130322 -0.36447653797276319 0 -0.059910395796370627 -0.35316023954511239 0 -0.054985368636130322 -0.36447653797276319 0 -0.059910395796370627 -0.35316023954511239 0 -0.048176893739280427 -0.35573190043100389 0 -0.042539989230450638 -0.34506501587449201 0 -0.048176893739280427 -0.35573190043100389 0 -0.052180942448444012 -0.34466316439441558 0 -0.059910395796370627 -0.35316023954511239 0 -0.048176893739280427 -0.35573190043100389 0 -0.052180942448444012 -0.34466316439441558 0 -0.063581007738924097 -0.34183981599360458 0 -0.059910395796370627 -0.35316023954511239 0 -0.052180942448444012 -0.34466316439441558 0 -0.063581007738924097 -0.34183981599360458 0 -0.052180942448444012 -0.34466316439441558 0 -0.057372881831761043 -0.33181678542764781 0 -0.052180942448444012 -0.34466316439441558 0 -0.057372881831761043 -0.33181678542764781 0 -0.043986352558946881 -0.3342879313007302 0 -0.057372881831761043 -0.33181678542764781 0 -0.06232705567388247 -0.31607076631558889 0 -0.046579768449943368 -0.31665354720935351 0 -0.057372881831761043 -0.33181678542764781 0 -0.046579768449943368 -0.31665354720935351 0 -0.043986352558946881 -0.3342879313007302 0 -0.029026064445015012 -0.30777992264160908 0 -0.046579768449943368 -0.31665354720935351 0 -0.037889559269027727 -0.32465980251824511 0 -0.046579768449943368 -0.31665354720935351 0 -0.037889559269027727 -0.32465980251824511 0 -0.043986352558946881 -0.3342879313007302 0 -0.042539989230450638 -0.34506501587449201 0 -0.043986352558946881 -0.3342879313007302 0 -0.034292596549787807 -0.33738344755727012 0 -0.042539989230450638 -0.34506501587449201 0 -0.052180942448444012 -0.34466316439441558 0 -0.043986352558946881 -0.3342879313007302 0 -0.037889559269027727 -0.32465980251824511 0 -0.043986352558946881 -0.3342879313007302 0 -0.034292596549787807 -0.33738344755727012 0 -0.037889559269027727 -0.32465980251824511 0 -0.034292596549787807 -0.33738344755727012 0 -0.026459779091778102 -0.32765646479133659 0 -0.034063160855794077 -0.3532586356890402 0 -0.034292596549787807 -0.33738344755727012 0 -0.01925423967104626 -0.3383582241455948 0 -0.034292596549787807 -0.33738344755727012 0 -0.01925423967104626 -0.3383582241455948 0 -0.026459779091778102 -0.32765646479133659 0 -0.01863089002827353 -0.33016188059773882 0 -0.01925423967104626 -0.3383582241455948 0 -0.0099333534441187338 -0.32897975295257642 0 -0.01925423967104626 -0.3383582241455948 0 -0.026459779091778102 -0.32765646479133659 0 -0.01863089002827353 -0.33016188059773882 0 -0.01925423967104626 -0.3383582241455948 0 -0.026459779091778102 -0.32765646479133659 0 -0.029026064445015012 -0.30777992264160908 0 -0.01863089002827353 -0.33016188059773882 0 -0.026459779091778102 -0.32765646479133659 0 -0.029026064445015012 -0.30777992264160908 0 -0.037889559269027727 -0.32465980251824511 0 -0.026459779091778102 -0.32765646479133659 0 -0.029026064445015012 -0.30777992264160908 0 -0.01863089002827353 -0.33016188059773882 0 -0.0052544135516779328 -0.31969889488692221 0 -0.029026064445015012 -0.30777992264160908 0 -0.0052544135516779328 -0.31969889488692221 0 -0.01863089002827353 -0.33016188059773882 0 -0.0052544135516779328 -0.31969889488692221 0 -0.0099333534441187338 -0.32897975295257642 0 -0.0055703042154493709 -0.324589748557221 0 -0.0052544135516779328 -0.31969889488692221 0 -0.0099333534441187338 -0.32897975295257642 0 -0.0055703042154493709 -0.324589748557221 0 -0.0022210525713660619 -0.32121980504568931 0 0.001168824432842991 -0.33045720967714221 0 -0.0055703042154493709 -0.324589748557221 0 -0.0099333534441187338 -0.32897975295257642 0 -0.0055703042154493709 -0.324589748557221 0 -0.0022210525713660619 -0.32121980504568931 0 -0.0022210525713660619 -0.32121980504568931 0 -0.0052544135516779328 -0.31969889488692221 0 -0.0055703042154493709 -0.324589748557221 0 -0.0022210525713660619 -0.32121980504568931 0 -0.0052544135516779328 -0.31969889488692221 0 -0.0055703042154493709 -0.324589748557221 0 -0.0052544135516779328 -0.31969889488692221 0 -0.0061942153590944342 -0.3342496038704359 0 -0.0065203273706707469 -0.3392987120324209 0 0.0082968131085368151 -0.35467290943829721 0 -0.01925423967104626 -0.3383582241455948 0 -0.0061942153590944342 -0.3342496038704359 0 -0.0065203273706707469 -0.3392987120324209 0 -0.01925423967104626 -0.3383582241455948 0 -0.0099333534441187338 -0.32897975295257642 0 -0.01925423967104626 -0.3383582241455948 0 -0.0099333534441187338 -0.32897975295257642 0 -0.0061942153590944342 -0.3342496038704359 0 -0.0099333534441187338 -0.32897975295257642 0 -0.0061942153590944342 -0.3342496038704359 0 -0.0055703042154493709 -0.324589748557221 0 -0.0099333534441187338 -0.32897975295257642 0 -0.0061942153590944342 -0.3342496038704359 0 -0.0055703042154493709 -0.324589748557221 0 -0.0061942153590944342 -0.3342496038704359 0 0.001168824432842991 -0.33045720967714221 0 -0.0055703042154493709 -0.324589748557221 0 -0.0061942153590944342 -0.3342496038704359 0 -0.0061942153590944342 -0.3342496038704359 0 0.0027171044227525189 -0.33950663027710132 0 0.001168824432842991 -0.33045720967714221 0 -0.0061942153590944342 -0.3342496038704359 0 -0.0065203273706707469 -0.3392987120324209 0 -0.01925423967104626 -0.3383582241455948 0 -0.0065203273706707469 -0.3392987120324209 0 -0.005891012688517723 -0.35820545986425312 0 -0.0065203273706707469 -0.3392987120324209 0 -0.005891012688517723 -0.35820545986425312 0 0.0082968131085368151 -0.35467290943829721 0 -0.01925423967104626 -0.3383582241455948 0 -0.005891012688517723 -0.35820545986425312 0 -0.01925423967104626 -0.3383582241455948 0 -0.005891012688517723 -0.35820545986425312 0 -0.02112115666210844 -0.35670980683355802 0 -0.034063160855794077 -0.3532586356890402 0 -0.01925423967104626 -0.3383582241455948 0 -0.02112115666210844 -0.35670980683355802 0 -0.034063160855794077 -0.3532586356890402 0 -0.02112115666210844 -0.35670980683355802 0 -0.029827872295024722 -0.36814135572602391 0 -0.034063160855794077 -0.3532586356890402 0 -0.01925423967104626 -0.3383582241455948 0 -0.02112115666210844 -0.35670980683355802 0 -0.029827872295024722 -0.36814135572602391 0 -0.0161445839022985 -0.36658065373790988 0 -0.029827872295024722 -0.36814135572602391 0 -0.0161445839022985 -0.36658065373790988 0 -0.018473740731704571 -0.37952825934480922 0 -0.005891012688517723 -0.35820545986425312 0 -0.0067307527660310932 -0.37372707628901403 0 0.0074722142940108396 -0.37805269558291138 0 -0.0161445839022985 -0.36658065373790988 0 -0.0067307527660310932 -0.37372707628901403 0 -0.018473740731704571 -0.37952825934480922 0 -0.005891012688517723 -0.35820545986425312 0 -0.02112115666210844 -0.35670980683355802 0 -0.0161445839022985 -0.36658065373790988 0 -0.005891012688517723 -0.35820545986425312 0 -0.0161445839022985 -0.36658065373790988 0 -0.0067307527660310932 -0.37372707628901403 0 -0.0067307527660310932 -0.37372707628901403 0 -0.003259872065433636 -0.39308569165140339 0 -0.018473740731704571 -0.37952825934480922 0 -0.0067307527660310932 -0.37372707628901403 0 -0.003259872065433636 -0.39308569165140339 0 0.0074722142940108396 -0.37805269558291138 0 -0.003259872065433636 -0.39308569165140339 0 -0.01799242543089136 -0.3914168778976298 0 -0.018473740731704571 -0.37952825934480922 0 -0.003259872065433636 -0.39308569165140339 0 -0.01799242543089136 -0.3914168778976298 0 -0.015162269738907891 -0.40721019440528339 0 -0.003259872065433636 -0.39308569165140339 0 -0.015162269738907891 -0.40721019440528339 0 0.0066211565102503971 -0.40895534065416661 0 -0.035073819187519228 -0.38584336618902332 0 -0.036846191794470351 -0.40547301978438027 0 -0.015162269738907891 -0.40721019440528339 0 -0.01799242543089136 -0.3914168778976298 0 -0.035073819187519228 -0.38584336618902332 0 -0.015162269738907891 -0.40721019440528339 0 -0.035073819187519228 -0.38584336618902332 0 -0.015162269738907891 -0.40721019440528339 0 -0.029827872295024722 -0.36814135572602391 0 -0.018473740731704571 -0.37952825934480922 0 -0.035073819187519228 -0.38584336618902332 0 -0.01799242543089136 -0.3914168778976298 0 -0.018473740731704571 -0.37952825934480922 0 -0.035073819187519228 -0.38584336618902332 0 -0.054985368636130322 -0.36447653797276319 0 -0.035073819187519228 -0.38584336618902332 0 -0.035073819187519228 -0.38584336618902332 0 -0.048777686234763709 -0.39487953185929059 0 -0.052622806273112402 -0.38207490110933112 0 -0.035073819187519228 -0.38584336618902332 0 -0.036846191794470351 -0.40547301978438027 0 -0.048777686234763709 -0.39487953185929059 0 -0.056340947321212531 -0.40611807422956658 0 -0.048777686234763709 -0.39487953185929059 0 -0.063779705886484572 -0.38975799280985529 0 -0.036846191794470351 -0.40547301978438027 0 -0.056340947321212531 -0.40611807422956658 0 -0.048777686234763709 -0.39487953185929059 0 -0.054985368636130322 -0.36447653797276319 0 -0.035073819187519228 -0.38584336618902332 0 -0.052622806273112402 -0.38207490110933112 0 -0.048777686234763709 -0.39487953185929059 0 -0.052622806273112402 -0.38207490110933112 0 -0.063779705886484572 -0.38975799280985529 0 -0.062397948458787267 -0.37488570279703531 0 -0.052622806273112402 -0.38207490110933112 0 -0.063779705886484572 -0.38975799280985529 0 -0.058587294715505112 -0.4315578549591752 0 -0.048374560415046779 -0.4171789944696479 0 -0.058587294715505112 -0.4315578549591752 0 -0.048374560415046779 -0.4171789944696479 0 -0.045477911903479433 -0.42767699133407322 0 -0.052635795216390308 -0.43648010739199888 0 -0.045477911903479433 -0.42767699133407322 0 -0.044931319668361787 -0.43701859771710988 0 -0.052635795216390308 -0.43648010739199888 0 -0.058587294715505112 -0.4315578549591752 0 -0.045477911903479433 -0.42767699133407322 0 -0.056340947321212531 -0.40611807422956658 0 -0.048374560415046779 -0.4171789944696479 0 -0.065807412286244121 -0.41670919740185908 0 -0.058587294715505112 -0.4315578549591752 0 -0.048374560415046779 -0.4171789944696479 0 -0.065807412286244121 -0.41670919740185908 0 -0.036846191794470351 -0.40547301978438027 0 -0.056340947321212531 -0.40611807422956658 0 -0.048374560415046779 -0.4171789944696479 0 -0.036846191794470351 -0.40547301978438027 0 -0.033984228641966013 -0.42490009167598353 0 -0.026076097734252901 -0.41546144754826031 0 -0.036846191794470351 -0.40547301978438027 0 -0.048374560415046779 -0.4171789944696479 0 -0.033984228641966013 -0.42490009167598353 0 -0.033984228641966013 -0.42490009167598353 0 -0.044931319668361787 -0.43701859771710988 0 -0.028616328745775511 -0.44032353621063641 0 -0.048374560415046779 -0.4171789944696479 0 -0.033984228641966013 -0.42490009167598353 0 -0.045477911903479433 -0.42767699133407322 0 -0.033984228641966013 -0.42490009167598353 0 -0.045477911903479433 -0.42767699133407322 0 -0.044931319668361787 -0.43701859771710988 0 -0.018311700761667229 -0.42426248432739372 0 -0.0090122328767619497 -0.43758507999149487 0 -0.028616328745775511 -0.44032353621063641 0 -0.033984228641966013 -0.42490009167598353 0 -0.018311700761667229 -0.42426248432739372 0 -0.028616328745775511 -0.44032353621063641 0 -0.033984228641966013 -0.42490009167598353 0 -0.018311700761667229 -0.42426248432739372 0 -0.026076097734252901 -0.41546144754826031 0 -0.018311700761667229 -0.42426248432739372 0 -0.026076097734252901 -0.41546144754826031 0 -0.015162269738907891 -0.40721019440528339 0 -0.036846191794470351 -0.40547301978438027 0 -0.026076097734252901 -0.41546144754826031 0 -0.015162269738907891 -0.40721019440528339 0 -0.036846191794470351 -0.40547301978438027 0 -0.015162269738907891 -0.40721019440528339 0 -0.018311700761667229 -0.42426248432739372 0 -0.015162269738907891 -0.40721019440528339 0 -0.002285203373328108 -0.42102840908881828 0 -0.015162269738907891 -0.40721019440528339 0 0.0066211565102503971 -0.40895534065416661 0 -0.015162269738907891 -0.40721019440528339 0 -0.002285203373328108 -0.42102840908881828 0 0.0066211565102503971 -0.40895534065416661 0 -0.015162269738907891 -0.40721019440528339 0 -0.002285203373328108 -0.42102840908881828 0 -0.002285203373328108 -0.42102840908881828 0 -0.0090122328767619497 -0.43758507999149487 0 0.010591862992251601 -0.43484662377235328 0 -0.018311700761667229 -0.42426248432739372 0 -0.002285203373328108 -0.42102840908881828 0 -0.0090122328767619497 -0.43758507999149487 0 -0.005577595179060809 -0.44499050769520798 0 -0.011182769503661689 -0.45749411919417993 0 -0.021410859245325931 -0.45077846902927798 0 -0.005577595179060809 -0.44499050769520798 0 -0.0090122328767619497 -0.43758507999149487 0 -0.028616328745775511 -0.44032353621063641 0 -0.005577595179060809 -0.44499050769520798 0 -0.0090122328767619497 -0.43758507999149487 0 0.010591862992251601 -0.43484662377235328 0 -0.005577595179060809 -0.44499050769520798 0 -0.011182769503661689 -0.45749411919417993 0 0.0028291302825320728 -0.45876387370612298 0 -0.011182769503661689 -0.45749411919417993 0 -0.0035289706845435449 -0.47124467642878848 0 0.0028291302825320728 -0.45876387370612298 0 -0.011182769503661689 -0.45749411919417993 0 -0.0035289706845435449 -0.47124467642878848 0 -0.013376518818665519 -0.46881203549648293 0 -0.025155978503658569 -0.46433956424197592 0 -0.036521624294473129 -0.44674461780438929 0 -0.03135651710320176 -0.46737719477122408 0 -0.011182769503661689 -0.45749411919417993 0 -0.025155978503658569 -0.46433956424197592 0 -0.025155978503658569 -0.46433956424197592 0 -0.036521624294473129 -0.44674461780438929 0 -0.025155978503658569 -0.46433956424197592 0 -0.021410859245325931 -0.45077846902927798 0 -0.036521624294473129 -0.44674461780438929 0 -0.011182769503661689 -0.45749411919417993 0 -0.025155978503658569 -0.46433956424197592 0 -0.021410859245325931 -0.45077846902927798 0 -0.011182769503661689 -0.45749411919417993 0 -0.025155978503658569 -0.46433956424197592 0 -0.013376518818665519 -0.46881203549648293 0 -0.025155978503658569 -0.46433956424197592 0 -0.03135651710320176 -0.46737719477122408 0 -0.0090122328767619497 -0.43758507999149487 0 -0.028616328745775511 -0.44032353621063641 0 -0.028616328745775511 -0.44032353621063641 0 -0.021410859245325931 -0.45077846902927798 0 -0.036521624294473129 -0.44674461780438929 0 -0.005577595179060809 -0.44499050769520798 0 -0.028616328745775511 -0.44032353621063641 0 -0.005577595179060809 -0.44499050769520798 0 -0.028616328745775511 -0.44032353621063641 0 -0.021410859245325931 -0.45077846902927798 0 -0.01059836770153239 -0.50000000000000111 0 -0.01363835658279846 -0.4821697821209876 0 -0.020977442402367499 -0.48368859738561287 0 -0.0021207346619387391 -0.49999999999999961 0 -0.01363835658279846 -0.4821697821209876 0 0.001175748076098193 -0.48555418352193808 0 -0.0021207346619387391 -0.49999999999999961 0 -0.01363835658279846 -0.4821697821209876 0 -0.01059836770153239 -0.50000000000000111 0 -0.0021207346619387391 -0.49999999999999961 0 -0.01363835658279846 -0.4821697821209876 0 -0.01363835658279846 -0.4821697821209876 0 -0.0035289706845435449 -0.47124467642878848 0 0.001175748076098193 -0.48555418352193808 0 -0.01363835658279846 -0.4821697821209876 0 -0.0035289706845435449 -0.47124467642878848 0 -0.013376518818665519 -0.46881203549648293 0 -0.025155978503658569 -0.46433956424197592 0 -0.01363835658279846 -0.4821697821209876 0 -0.020977442402367499 -0.48368859738561287 0 -0.020977442402367499 -0.48368859738561287 0 -0.038972657543340922 -0.48457114172026261 0 -0.03135651710320176 -0.46737719477122408 0 -0.025155978503658569 -0.46433956424197592 0 -0.01363835658279846 -0.4821697821209876 0 -0.020977442402367499 -0.48368859738561287 0 -0.03135651710320176 -0.46737719477122408 0 -0.025155978503658569 -0.46433956424197592 0 -0.01363835658279846 -0.4821697821209876 0 -0.013376518818665519 -0.46881203549648293 0 -0.025155978503658569 -0.46433956424197592 0 -0.020977442402367499 -0.48368859738561287 0 -0.03135651710320176 -0.46737719477122408 0 -0.01059836770153239 -0.50000000000000111 0 -0.020977442402367499 -0.48368859738561287 0 -0.034748534709605372 -0.5 0 -0.01059836770153239 -0.50000000000000111 0 -0.020977442402367499 -0.48368859738561287 0 -0.020977442402367499 -0.48368859738561287 0 -0.034748534709605372 -0.5 0 -0.038972657543340922 -0.48457114172026261 0 -0.034748534709605372 -0.5 0 -0.038972657543340922 -0.48457114172026261 0 -0.049988855997792389 -0.4909189631153511 0 -0.058240009796674062 -0.48054736004436038 0 -0.03135651710320176 -0.46737719477122408 0 -0.045708637783471798 -0.46156584156003377 0 -0.058240009796674062 -0.48054736004436038 0 -0.03135651710320176 -0.46737719477122408 0 -0.038972657543340922 -0.48457114172026261 0 -0.058240009796674062 -0.48054736004436038 0 -0.03135651710320176 -0.46737719477122408 0 -0.038972657543340922 -0.48457114172026261 0 -0.058240009796674062 -0.48054736004436038 0 -0.049988855997792389 -0.4909189631153511 0 -0.034748534709605372 -0.5 0 -0.049988855997792389 -0.4909189631153511 0 -0.058898701717678408 -0.5 0 -0.058240009796674062 -0.48054736004436038 0 -0.049988855997792389 -0.4909189631153511 0 -0.064771701790745442 -0.49006366044473981 0 -0.049988855997792389 -0.4909189631153511 0 -0.058898701717678408 -0.5 0 -0.064771701790745442 -0.49006366044473981 0 -0.028616328745775511 -0.44032353621063641 0 -0.048708178880869792 -0.4431301258296686 0 -0.028616328745775511 -0.44032353621063641 0 -0.036521624294473129 -0.44674461780438929 0 -0.048708178880869792 -0.4431301258296686 0 -0.044931319668361787 -0.43701859771710988 0 -0.028616328745775511 -0.44032353621063641 0 -0.044931319668361787 -0.43701859771710988 0 -0.028616328745775511 -0.44032353621063641 0 -0.048708178880869792 -0.4431301258296686 0 -0.044676476404074961 -0.44644399742692381 0 -0.036521624294473129 -0.44674461780438929 0 -0.048708178880869792 -0.4431301258296686 0 -0.044676476404074961 -0.44644399742692381 0 -0.03135651710320176 -0.46737719477122408 0 -0.044676476404074961 -0.44644399742692381 0 -0.03135651710320176 -0.46737719477122408 0 -0.045708637783471798 -0.46156584156003377 0 -0.044676476404074961 -0.44644399742692381 0 -0.036521624294473129 -0.44674461780438929 0 -0.03135651710320176 -0.46737719477122408 0 -0.044676476404074961 -0.44644399742692381 0 -0.045708637783471798 -0.46156584156003377 0 -0.057543701141753757 -0.45669122202490819 0 -0.058240009796674062 -0.48054736004436038 0 -0.045708637783471798 -0.46156584156003377 0 -0.057543701141753757 -0.45669122202490819 0 -0.048708178880869792 -0.4431301258296686 0 -0.068800029015963854 -0.44593671544870211 0 -0.057543701141753757 -0.45669122202490819 0 -0.048708178880869792 -0.4431301258296686 0 -0.068800029015963854 -0.44593671544870211 0 -0.052635795216390308 -0.43648010739199888 0 -0.058587294715505112 -0.4315578549591752 0 -0.068800029015963854 -0.44593671544870211 0 -0.052635795216390308 -0.43648010739199888 0 -0.048708178880869792 -0.4431301258296686 0 -0.068800029015963854 -0.44593671544870211 0 -0.044676476404074961 -0.44644399742692381 0 -0.057543701141753757 -0.45669122202490819 0 -0.048708178880869792 -0.4431301258296686 0 -0.052635795216390308 -0.43648010739199888 0 -0.044931319668361787 -0.43701859771710988 0 -0.048708178880869792 -0.4431301258296686 0 -0.068800029015963854 -0.44593671544870211 0 -0.081467977394421298 -0.46377235643019782 0 -0.081594812388724292 -0.44772399267555257 0 -0.058587294715505112 -0.4315578549591752 0 -0.068800029015963854 -0.44593671544870211 0 -0.068800029015963854 -0.44593671544870211 0 -0.081594812388724292 -0.44772399267555257 0 -0.078937336747985379 -0.43504207013150709 0 -0.068800029015963854 -0.44593671544870211 0 -0.081594812388724292 -0.44772399267555257 0 -0.057543701141753757 -0.45669122202490819 0 -0.068800029015963854 -0.44593671544870211 0 -0.081467977394421298 -0.46377235643019782 0 -0.058240009796674062 -0.48054736004436038 0 -0.057543701141753757 -0.45669122202490819 0 -0.081467977394421298 -0.46377235643019782 0 -0.068800029015963854 -0.44593671544870211 0 -0.081467977394421298 -0.46377235643019782 0 -0.081467977394421298 -0.46377235643019782 0 -0.1023325149737547 -0.44870419810648732 0 -0.081467977394421298 -0.46377235643019782 0 -0.081594812388724292 -0.44772399267555257 0 -0.1023325149737547 -0.44870419810648732 0 -0.081594812388724292 -0.44772399267555257 0 -0.1023325149737547 -0.44870419810648732 0 -0.092029216822858112 -0.43404764191854478 0 -0.081594812388724292 -0.44772399267555257 0 -0.078937336747985379 -0.43504207013150709 0 -0.092029216822858112 -0.43404764191854478 0 -0.058240009796674062 -0.48054736004436038 0 -0.080547446161197481 -0.49147572516010812 0 -0.058240009796674062 -0.48054736004436038 0 -0.064771701790745442 -0.49006366044473981 0 -0.080547446161197481 -0.49147572516010812 0 -0.058898701717678408 -0.5 0 -0.064771701790745442 -0.49006366044473981 0 -0.083048868725751401 -0.5 0 -0.064771701790745442 -0.49006366044473981 0 -0.080547446161197481 -0.49147572516010812 0 -0.083048868725751401 -0.5 0 -0.058240009796674062 -0.48054736004436038 0 -0.081467977394421298 -0.46377235643019782 0 -0.079869971490211744 -0.47854276560769943 0 -0.058240009796674062 -0.48054736004436038 0 -0.081467977394421298 -0.46377235643019782 0 -0.058240009796674062 -0.48054736004436038 0 -0.079869971490211744 -0.47854276560769943 0 -0.080547446161197481 -0.49147572516010812 0 -0.081467977394421298 -0.46377235643019782 0 -0.094333506564122066 -0.48188617821510099 0 -0.081467977394421298 -0.46377235643019782 0 -0.079869971490211744 -0.47854276560769943 0 -0.094333506564122066 -0.48188617821510099 0 -0.079869971490211744 -0.47854276560769943 0 -0.080547446161197481 -0.49147572516010812 0 -0.094333506564122066 -0.48188617821510099 0 -0.080547446161197481 -0.49147572516010812 0 -0.091716000225614963 -0.49282750173494833 0 -0.094333506564122066 -0.48188617821510099 0 -0.080547446161197481 -0.49147572516010812 0 -0.091716000225614963 -0.49282750173494833 0 -0.083048868725751401 -0.5 0 -0.1071990357338244 -0.50000000000000333 0 -0.094333506564122066 -0.48188617821510099 0 -0.091716000225614963 -0.49282750173494833 0 -0.1071990357338244 -0.50000000000000333 0 -0.094333506564122066 -0.48188617821510099 0 -0.091716000225614963 -0.49282750173494833 0 -0.083048868725751401 -0.5 0 -0.1071990357338244 -0.50000000000000333 0 -0.1071990357338244 -0.50000000000000333 0 -0.094333506564122066 -0.48188617821510099 0 -0.11100940090714891 -0.48366780031108858 0 -0.094333506564122066 -0.48188617821510099 0 -0.11100940090714891 -0.48366780031108858 0 -0.1056764498154134 -0.46701151437820437 0 -0.081467977394421298 -0.46377235643019782 0 -0.094333506564122066 -0.48188617821510099 0 -0.1056764498154134 -0.46701151437820437 0 -0.1220003165794752 -0.47100054322375778 0 -0.11100940090714891 -0.48366780031108858 0 -0.1056764498154134 -0.46701151437820437 0 -0.13618722554989629 -0.5 0 -0.1220003165794752 -0.47100054322375778 0 -0.11100940090714891 -0.48366780031108858 0 -0.13618722554989629 -0.5 0 -0.1071990357338244 -0.50000000000000333 0 -0.11100940090714891 -0.48366780031108858 0 -0.081467977394421298 -0.46377235643019782 0 -0.1023325149737547 -0.44870419810648732 0 -0.1056764498154134 -0.46701151437820437 0 -0.12609498559090451 -0.4536751920835832 0 -0.1023325149737547 -0.44870419810648732 0 -0.1056764498154134 -0.46701151437820437 0 -0.12609498559090451 -0.4536751920835832 0 -0.1220003165794752 -0.47100054322375778 0 -0.1056764498154134 -0.46701151437820437 0 -0.1023325149737547 -0.44870419810648732 0 -0.1231970525530857 -0.43363603978277332 0 -0.12609498559090451 -0.4536751920835832 0 -0.1023325149737547 -0.44870419810648732 0 -0.1231970525530857 -0.43363603978277332 0 -0.1023325149737547 -0.44870419810648732 0 -0.1231970525530857 -0.43363603978277332 0 -0.1076824883078715 -0.42738060456593402 0 -0.1231970525530857 -0.43363603978277332 0 -0.1076824883078715 -0.42738060456593402 0 -0.1239451303712449 -0.41521880271736639 0 -0.1076824883078715 -0.42738060456593402 0 -0.096439458707995515 -0.42126504342240612 0 -0.092029216822858112 -0.43404764191854478 0 -0.1023325149737547 -0.44870419810648732 0 -0.1076824883078715 -0.42738060456593402 0 -0.092029216822858112 -0.43404764191854478 0 -0.1081515564182898 -0.41141190144802597 0 -0.096439458707995515 -0.42126504342240612 0 -0.092402701367792259 -0.41018195754804931 0 -0.1076824883078715 -0.42738060456593402 0 -0.1081515564182898 -0.41141190144802597 0 -0.096439458707995515 -0.42126504342240612 0 -0.1076824883078715 -0.42738060456593402 0 -0.1081515564182898 -0.41141190144802597 0 -0.1239451303712449 -0.41521880271736639 0 -0.1081515564182898 -0.41141190144802597 0 -0.1239451303712449 -0.41521880271736639 0 -0.1221605545703203 -0.39811076834837961 0 -0.1081515564182898 -0.41141190144802597 0 -0.1221605545703203 -0.39811076834837961 0 -0.1066388270608124 -0.39313485276849808 0 -0.126179364221604 -0.38421012841432062 0 -0.1221605545703203 -0.39811076834837961 0 -0.1066388270608124 -0.39313485276849808 0 -0.126179364221604 -0.38421012841432062 0 -0.1086727911308718 -0.3771463550453375 0 -0.1066388270608124 -0.39313485276849808 0 -0.1066388270608124 -0.39313485276849808 0 -0.0891324388680515 -0.39572990786928469 0 -0.088863777993192616 -0.38044904001208169 0 -0.1086727911308718 -0.3771463550453375 0 -0.1066388270608124 -0.39313485276849808 0 -0.088863777993192616 -0.38044904001208169 0 -0.1066388270608124 -0.39313485276849808 0 -0.0891324388680515 -0.39572990786928469 0 -0.092402701367792259 -0.41018195754804931 0 -0.1081515564182898 -0.41141190144802597 0 -0.1066388270608124 -0.39313485276849808 0 -0.092402701367792259 -0.41018195754804931 0 -0.0891324388680515 -0.39572990786928469 0 -0.075405721377080334 -0.40440243416511618 0 -0.092402701367792259 -0.41018195754804931 0 -0.0891324388680515 -0.39572990786928469 0 -0.078338744121975126 -0.38939878231930841 0 -0.075405721377080334 -0.40440243416511618 0 -0.0891324388680515 -0.39572990786928469 0 -0.088863777993192616 -0.38044904001208169 0 -0.078338744121975126 -0.38939878231930841 0 -0.088863777993192616 -0.38044904001208169 0 -0.078338744121975126 -0.38939878231930841 0 -0.074512076485066581 -0.37665453674020399 0 -0.078338744121975126 -0.38939878231930841 0 -0.074512076485066581 -0.37665453674020399 0 -0.063779705886484572 -0.38975799280985529 0 -0.062397948458787267 -0.37488570279703531 0 -0.074512076485066581 -0.37665453674020399 0 -0.063779705886484572 -0.38975799280985529 0 -0.056340947321212531 -0.40611807422956658 0 -0.063779705886484572 -0.38975799280985529 0 -0.075405721377080334 -0.40440243416511618 0 -0.078338744121975126 -0.38939878231930841 0 -0.063779705886484572 -0.38975799280985529 0 -0.075405721377080334 -0.40440243416511618 0 -0.056340947321212531 -0.40611807422956658 0 -0.075405721377080334 -0.40440243416511618 0 -0.065807412286244121 -0.41670919740185908 0 -0.075405721377080334 -0.40440243416511618 0 -0.065807412286244121 -0.41670919740185908 0 -0.081768643552167092 -0.42105892254680022 0 -0.058587294715505112 -0.4315578549591752 0 -0.068800029015963854 -0.44593671544870211 0 -0.069741672244740219 -0.42826374817094809 0 -0.068800029015963854 -0.44593671544870211 0 -0.069741672244740219 -0.42826374817094809 0 -0.078937336747985379 -0.43504207013150709 0 -0.065807412286244121 -0.41670919740185908 0 -0.069741672244740219 -0.42826374817094809 0 -0.081768643552167092 -0.42105892254680022 0 -0.058587294715505112 -0.4315578549591752 0 -0.065807412286244121 -0.41670919740185908 0 -0.069741672244740219 -0.42826374817094809 0 -0.069741672244740219 -0.42826374817094809 0 -0.078937336747985379 -0.43504207013150709 0 -0.081768643552167092 -0.42105892254680022 0 -0.078937336747985379 -0.43504207013150709 0 -0.092029216822858112 -0.43404764191854478 0 -0.081768643552167092 -0.42105892254680022 0 -0.096439458707995515 -0.42126504342240612 0 -0.092029216822858112 -0.43404764191854478 0 -0.081768643552167092 -0.42105892254680022 0 -0.096439458707995515 -0.42126504342240612 0 -0.092402701367792259 -0.41018195754804931 0 -0.081768643552167092 -0.42105892254680022 0 -0.075405721377080334 -0.40440243416511618 0 -0.092402701367792259 -0.41018195754804931 0 -0.081768643552167092 -0.42105892254680022 0 -0.087384778302227725 -0.082253978765832847 0 -0.071077440927873686 -0.08031991690627828 0 -0.081262101008759718 -0.1005927993359111 0 -0.087384778302227725 -0.082253978765832847 0 -0.081262101008759718 -0.1005927993359111 0 -0.103174572870824 -0.096327426299960661 0 -0.087384778302227725 -0.082253978765832847 0 -0.086228729455799527 -0.063209245975050898 0 -0.071077440927873686 -0.08031991690627828 0 -0.087384778302227725 -0.082253978765832847 0 -0.086228729455799527 -0.063209245975050898 0 -0.1014826564757403 -0.073832596544226595 0 -0.086228729455799527 -0.063209245975050898 0 -0.071077440927873686 -0.08031991690627828 0 -0.086228729455799527 -0.063209245975050898 0 -0.071077440927873686 -0.08031991690627828 0 -0.062402438069185308 -0.064698450667390772 0 -0.071077440927873686 -0.08031991690627828 0 -0.05438239004447816 -0.08406477130069967 0 -0.062402438069185308 -0.064698450667390772 0 -0.071077440927873686 -0.08031991690627828 0 -0.081262101008759718 -0.1005927993359111 0 -0.06120099168706427 -0.1026592969625425 0 -0.071333720728019662 -0.1182395118359027 0 -0.081262101008759718 -0.1005927993359111 0 -0.06120099168706427 -0.1026592969625425 0 -0.071333720728019662 -0.1182395118359027 0 -0.091318256771398987 -0.1238796836358954 0 -0.081262101008759718 -0.1005927993359111 0 -0.091318256771398987 -0.1238796836358954 0 -0.081262101008759718 -0.1005927993359111 0 -0.103174572870824 -0.096327426299960661 0 -0.091318256771398987 -0.1238796836358954 0 -0.103174572870824 -0.096327426299960661 0 -0.11161036192447719 -0.1162173407966679 0 -0.11161036192447719 -0.1162173407966679 0 -0.12773106944785939 -0.1302683276577824 0 -0.12834653564563239 -0.10083667827016669 0 -0.103174572870824 -0.096327426299960661 0 -0.11161036192447719 -0.1162173407966679 0 -0.12834653564563239 -0.10083667827016669 0 -0.103174572870824 -0.096327426299960661 0 -0.116387766544777 -0.081436152704049941 0 -0.12834653564563239 -0.10083667827016669 0 -0.087384778302227725 -0.082253978765832847 0 -0.103174572870824 -0.096327426299960661 0 -0.1014826564757403 -0.073832596544226595 0 -0.103174572870824 -0.096327426299960661 0 -0.116387766544777 -0.081436152704049941 0 -0.1014826564757403 -0.073832596544226595 0 -0.086228729455799527 -0.063209245975050898 0 -0.1014826564757403 -0.073832596544226595 0 -0.10076228593278801 -0.060798056122276539 0 -0.1014826564757403 -0.073832596544226595 0 -0.1139577398158869 -0.060051806926005112 0 -0.10076228593278801 -0.060798056122276539 0 -0.116387766544777 -0.081436152704049941 0 -0.1139577398158869 -0.060051806926005112 0 -0.13497732791580139 -0.076132255479890693 0 -0.116387766544777 -0.081436152704049941 0 -0.1014826564757403 -0.073832596544226595 0 -0.1139577398158869 -0.060051806926005112 0 -0.1139577398158869 -0.060051806926005112 0 -0.13497732791580139 -0.076132255479890693 0 -0.1139577398158869 -0.060051806926005112 0 -0.11631220064756249 -0.044057363794101613 0 -0.1013800179837253 -0.046098575043823559 0 -0.1139577398158869 -0.060051806926005112 0 -0.11631220064756249 -0.044057363794101613 0 -0.1302813490505676 -0.046114076915425177 0 -0.11631220064756249 -0.044057363794101613 0 -0.1013800179837253 -0.046098575043823559 0 -0.1165313065116514 -0.028987904112596389 0 -0.12405433683914049 -0.038238732028205748 0 -0.1165313065116514 -0.028987904112596389 0 -0.13309249114678059 -0.033795583290699857 0 -0.12405433683914049 -0.038238732028205748 0 -0.11631220064756249 -0.044057363794101613 0 -0.1302813490505676 -0.046114076915425177 0 -0.12405433683914049 -0.038238732028205748 0 -0.11631220064756249 -0.044057363794101613 0 -0.1165313065116514 -0.028987904112596389 0 -0.095532526442870289 -0.034604148045169508 0 -0.1165313065116514 -0.028987904112596389 0 -0.095532526442870289 -0.034604148045169508 0 -0.1013800179837253 -0.046098575043823559 0 -0.1165313065116514 -0.028987904112596389 0 -0.1013800179837253 -0.046098575043823559 0 -0.1165313065116514 -0.028987904112596389 0 -0.095532526442870289 -0.034604148045169508 0 -0.1013800179837253 -0.046098575043823559 0 -0.086744056919633383 -0.047610598817476479 0 -0.086228729455799527 -0.063209245975050898 0 -0.1013800179837253 -0.046098575043823559 0 -0.10076228593278801 -0.060798056122276539 0 -0.086228729455799527 -0.063209245975050898 0 -0.1013800179837253 -0.046098575043823559 0 -0.1139577398158869 -0.060051806926005112 0 -0.1013800179837253 -0.046098575043823559 0 -0.10076228593278801 -0.060798056122276539 0 -0.1155530629942846 -0.0040336814150362509 0 -0.1223008309163644 -0.01266638868992407 0 -0.1308273698701844 -0.003706324753454524 0 -0.1155530629942846 -0.0040336814150362509 0 -0.1223008309163644 -0.01266638868992407 0 -0.11138628540534511 -0.018249734454342911 0 -0.11138628540534511 -0.018249734454342911 0 -0.1217729598611689 -0.023068394004009941 0 -0.1165313065116514 -0.028987904112596389 0 -0.1223008309163644 -0.01266638868992407 0 -0.11138628540534511 -0.018249734454342911 0 -0.1217729598611689 -0.023068394004009941 0 -0.1217729598611689 -0.023068394004009941 0 -0.1165313065116514 -0.028987904112596389 0 -0.095532526442870289 -0.034604148045169508 0 -0.1165313065116514 -0.028987904112596389 0 -0.098911201335801516 -0.02263682649892907 0 -0.11138628540534511 -0.018249734454342911 0 -0.1165313065116514 -0.028987904112596389 0 -0.098911201335801516 -0.02263682649892907 0 -0.11138628540534511 -0.018249734454342911 0 -0.098911201335801516 -0.02263682649892907 0 -0.10038097562275521 -0.0095636440604990307 0 -0.1155530629942846 -0.0040336814150362509 0 -0.11138628540534511 -0.018249734454342911 0 -0.10038097562275521 -0.0095636440604990307 0 -0.10038097562275521 -0.0095636440604990307 0 -0.090400042956509136 -0.0016468222240374789 0 -0.102069930659121 0.0058161948806418904 0 -0.1155530629942846 -0.0040336814150362509 0 -0.10038097562275521 -0.0095636440604990307 0 -0.102069930659121 0.0058161948806418904 0 -0.079130125441821936 -0.01191819417384915 0 -0.090400042956509136 -0.0016468222240374789 0 -0.080019140102338349 0.0090783544575563768 0 -0.098911201335801516 -0.02263682649892907 0 -0.10038097562275521 -0.0095636440604990307 0 -0.079130125441821936 -0.01191819417384915 0 -0.10038097562275521 -0.0095636440604990307 0 -0.079130125441821936 -0.01191819417384915 0 -0.090400042956509136 -0.0016468222240374789 0 -0.095532526442870289 -0.034604148045169508 0 -0.098911201335801516 -0.02263682649892907 0 -0.082614933785987527 -0.027337079900780149 0 -0.098911201335801516 -0.02263682649892907 0 -0.079130125441821936 -0.01191819417384915 0 -0.082614933785987527 -0.027337079900780149 0 -0.079130125441821936 -0.01191819417384915 0 -0.082614933785987527 -0.027337079900780149 0 -0.066332545873565421 -0.028877415042082761 0 -0.079130125441821936 -0.01191819417384915 0 -0.066332545873565421 -0.028877415042082761 0 -0.079130125441821936 -0.01191819417384915 0 -0.066332545873565421 -0.028877415042082761 0 -0.061922113567694302 -0.01224106905728786 0 -0.079130125441821936 -0.01191819417384915 0 -0.0656650319423632 -0.001268180764667408 0 -0.080019140102338349 0.0090783544575563768 0 -0.079130125441821936 -0.01191819417384915 0 -0.0656650319423632 -0.001268180764667408 0 -0.061922113567694302 -0.01224106905728786 0 -0.086228729455799527 -0.063209245975050898 0 -0.1013800179837253 -0.046098575043823559 0 -0.086744056919633383 -0.047610598817476479 0 -0.086744056919633383 -0.047610598817476479 0 -0.074533746374089146 -0.040220391977742249 0 -0.07604526434168267 -0.053920633045596161 0 -0.086228729455799527 -0.063209245975050898 0 -0.086744056919633383 -0.047610598817476479 0 -0.07604526434168267 -0.053920633045596161 0 -0.095532526442870289 -0.034604148045169508 0 -0.074533746374089146 -0.040220391977742249 0 -0.095532526442870289 -0.034604148045169508 0 -0.086744056919633383 -0.047610598817476479 0 -0.074533746374089146 -0.040220391977742249 0 -0.095532526442870289 -0.034604148045169508 0 -0.082614933785987527 -0.027337079900780149 0 -0.074533746374089146 -0.040220391977742249 0 -0.082614933785987527 -0.027337079900780149 0 -0.066332545873565421 -0.028877415042082761 0 -0.074533746374089146 -0.040220391977742249 0 -0.066332545873565421 -0.028877415042082761 0 -0.074533746374089146 -0.040220391977742249 0 -0.053534966305308282 -0.04583663591031592 0 -0.074533746374089146 -0.040220391977742249 0 -0.053534966305308282 -0.04583663591031592 0 -0.074533746374089146 -0.040220391977742249 0 -0.07604526434168267 -0.053920633045596161 0 -0.053534966305308282 -0.04583663591031592 0 -0.086228729455799527 -0.063209245975050898 0 -0.07604526434168267 -0.053920633045596161 0 -0.062402438069185308 -0.064698450667390772 0 -0.07604526434168267 -0.053920633045596161 0 -0.053534966305308282 -0.04583663591031592 0 -0.062402438069185308 -0.064698450667390772 0 -0.050657788623046339 -0.062127901701216917 0 -0.053534966305308282 -0.04583663591031592 0 -0.03933471195551666 -0.064654666977736169 0 -0.050657788623046339 -0.062127901701216917 0 -0.053534966305308282 -0.04583663591031592 0 -0.062402438069185308 -0.064698450667390772 0 -0.066332545873565421 -0.028877415042082761 0 -0.053534966305308282 -0.04583663591031592 0 -0.054906725199860708 -0.022520621581663011 0 -0.066332545873565421 -0.028877415042082761 0 -0.053534966305308282 -0.04583663591031592 0 -0.053534966305308282 -0.04583663591031592 0 -0.054906725199860708 -0.022520621581663011 0 -0.042050652285652947 -0.026664681160136639 0 -0.053534966305308282 -0.04583663591031592 0 -0.033327678371719897 -0.036869960918508048 0 -0.029816195799649892 -0.052180356855256529 0 -0.053534966305308282 -0.04583663591031592 0 -0.033327678371719897 -0.036869960918508048 0 -0.042050652285652947 -0.026664681160136639 0 -0.053534966305308282 -0.04583663591031592 0 -0.03933471195551666 -0.064654666977736169 0 -0.053534966305308282 -0.04583663591031592 0 -0.029816195799649892 -0.052180356855256529 0 -0.053534966305308282 -0.04583663591031592 0 -0.029816195799649892 -0.052180356855256529 0 -0.03933471195551666 -0.064654666977736169 0 -0.029816195799649892 -0.052180356855256529 0 -0.02603440067254887 -0.065538246605562428 0 -0.03933471195551666 -0.064654666977736169 0 -0.029816195799649892 -0.052180356855256529 0 -0.03933471195551666 -0.064654666977736169 0 -0.048933732325526003 -0.0029621306740495062 0 -0.054906725199860708 -0.022520621581663011 0 -0.040988656910417171 -0.01446178299950656 0 -0.061922113567694302 -0.01224106905728786 0 -0.048933732325526003 -0.0029621306740495062 0 -0.054906725199860708 -0.022520621581663011 0 -0.0656650319423632 -0.001268180764667408 0 -0.061922113567694302 -0.01224106905728786 0 -0.048933732325526003 -0.0029621306740495062 0 -0.066332545873565421 -0.028877415042082761 0 -0.061922113567694302 -0.01224106905728786 0 -0.054906725199860708 -0.022520621581663011 0 -0.042050652285652947 -0.026664681160136639 0 -0.040988656910417171 -0.01446178299950656 0 -0.026282033230630799 -0.019071289943683331 0 -0.033327678371719897 -0.036869960918508048 0 -0.042050652285652947 -0.026664681160136639 0 -0.026282033230630799 -0.019071289943683331 0 -0.054906725199860708 -0.022520621581663011 0 -0.042050652285652947 -0.026664681160136639 0 -0.040988656910417171 -0.01446178299950656 0 -0.048933732325526003 -0.0029621306740495062 0 -0.031850607683756693 -0.00085088897714030286 0 -0.040988656910417171 -0.01446178299950656 0 -0.031850607683756693 -0.00085088897714030286 0 -0.040988656910417171 -0.01446178299950656 0 -0.026282033230630799 -0.019071289943683331 0 -0.031850607683756693 -0.00085088897714030286 0 -0.026282033230630799 -0.019071289943683331 0 -0.01557282743566684 0.00075989858952775491 0 -0.026282033230630799 -0.019071289943683331 0 -0.0054506867423313801 -0.02024860286168588 0 -0.01557282743566684 0.00075989858952775491 0 -0.026282033230630799 -0.019071289943683331 0 -0.0054506867423313801 -0.02024860286168588 0 -0.017633441270990421 -0.036214479858471343 0 -0.033327678371719897 -0.036869960918508048 0 -0.026282033230630799 -0.019071289943683331 0 -0.017633441270990421 -0.036214479858471343 0 -0.0081999764837987002 -0.031176467430896609 0 -0.0054506867423313801 -0.02024860286168588 0 -0.017633441270990421 -0.036214479858471343 0 -0.002425590017454001 -0.02652719064859925 0 -0.0054506867423313801 -0.02024860286168588 0 0.0032282499690442449 -0.0088745875952064811 0 -0.0054506867423313801 -0.02024860286168588 0 -0.017633441270990421 -0.036214479858471343 0 -0.0081999764837987002 -0.031176467430896609 0 -0.002425590017454001 -0.02652719064859925 0 -0.0054506867423313801 -0.02024860286168588 0 -0.002425590017454001 -0.02652719064859925 0 -0.0054506867423313801 -0.02024860286168588 0 -0.01557282743566684 0.00075989858952775491 0 -0.0020858838102024279 0.0039170107241266374 0 0.0032282499690442449 -0.0088745875952064811 0 -0.0054506867423313801 -0.02024860286168588 0 -0.01557282743566684 0.00075989858952775491 0 0.0032282499690442449 -0.0088745875952064811 0 -0.0054506867423313801 -0.02024860286168588 0 -0.01557282743566684 0.00075989858952775491 0 -0.0054506867423313801 -0.02024860286168588 0 0.0032282499690442449 -0.0088745875952064811 0 -0.029816195799649892 -0.052180356855256529 0 -0.012154785791383569 -0.056904002061058452 0 -0.029816195799649892 -0.052180356855256529 0 -0.012154785791383569 -0.056904002061058452 0 -0.02603440067254887 -0.065538246605562428 0 -0.01676421280808359 -0.047054449575529733 0 -0.029816195799649892 -0.052180356855256529 0 -0.012154785791383569 -0.056904002061058452 0 -0.033327678371719897 -0.036869960918508048 0 -0.029816195799649892 -0.052180356855256529 0 -0.017633441270990421 -0.036214479858471343 0 -0.029816195799649892 -0.052180356855256529 0 -0.017633441270990421 -0.036214479858471343 0 -0.01676421280808359 -0.047054449575529733 0 -0.029816195799649892 -0.052180356855256529 0 -0.017633441270990421 -0.036214479858471343 0 -0.002425590017454001 -0.02652719064859925 0 -0.0072901879044174342 -0.041715596354829257 0 0.006694469641824588 -0.045455873067852828 0 -0.01676421280808359 -0.047054449575529733 0 -0.017633441270990421 -0.036214479858471343 0 -0.0072901879044174342 -0.041715596354829257 0 -0.0081999764837987002 -0.031176467430896609 0 -0.017633441270990421 -0.036214479858471343 0 -0.0072901879044174342 -0.041715596354829257 0 -0.002425590017454001 -0.02652719064859925 0 -0.0072901879044174342 -0.041715596354829257 0 -0.0081999764837987002 -0.031176467430896609 0 -0.002425590017454001 -0.02652719064859925 0 -0.0072901879044174342 -0.041715596354829257 0 -0.0072901879044174342 -0.041715596354829257 0 -0.012154785791383569 -0.056904002061058452 0 0.00076600631178217024 -0.05211500674271155 0 -0.0072901879044174342 -0.041715596354829257 0 -0.012154785791383569 -0.056904002061058452 0 -0.01676421280808359 -0.047054449575529733 0 -0.0072901879044174342 -0.041715596354829257 0 -0.012154785791383569 -0.056904002061058452 0 -0.012154785791383569 -0.056904002061058452 0 -0.0071097612631524426 -0.078114451273502583 0 -0.020958947031511469 -0.084392640572456892 0 -0.012154785791383569 -0.056904002061058452 0 -0.0071097612631524426 -0.078114451273502583 0 0.0043923339882334317 -0.072413952491771169 0 -0.0071097612631524426 -0.078114451273502583 0 0.0020876159228450362 -0.083587805440608301 0 0.0043923339882334317 -0.072413952491771169 0 -0.0071097612631524426 -0.078114451273502583 0 -0.020958947031511469 -0.084392640572456892 0 -0.008003249791205572 -0.09561207256085448 0 -0.0071097612631524426 -0.078114451273502583 0 -0.008003249791205572 -0.09561207256085448 0 0.0020876159228450362 -0.083587805440608301 0 -0.020958947031511469 -0.084392640572456892 0 -0.033041808105215092 -0.072993958460989272 0 -0.039034547138440429 -0.081434599043252953 0 -0.020958947031511469 -0.084392640572456892 0 -0.02603440067254887 -0.065538246605562428 0 -0.033041808105215092 -0.072993958460989272 0 -0.012154785791383569 -0.056904002061058452 0 -0.020958947031511469 -0.084392640572456892 0 -0.02603440067254887 -0.065538246605562428 0 -0.012154785791383569 -0.056904002061058452 0 -0.020958947031511469 -0.084392640572456892 0 -0.02603440067254887 -0.065538246605562428 0 -0.03933471195551666 -0.064654666977736169 0 -0.033041808105215092 -0.072993958460989272 0 -0.03933471195551666 -0.064654666977736169 0 -0.033041808105215092 -0.072993958460989272 0 -0.050657788623046339 -0.062127901701216917 0 -0.03933471195551666 -0.064654666977736169 0 -0.045231085754533801 -0.072382047397385879 0 -0.03933471195551666 -0.064654666977736169 0 -0.045231085754533801 -0.072382047397385879 0 -0.033041808105215092 -0.072993958460989272 0 -0.03933471195551666 -0.064654666977736169 0 -0.045231085754533801 -0.072382047397385879 0 -0.045231085754533801 -0.072382047397385879 0 -0.033041808105215092 -0.072993958460989272 0 -0.039034547138440429 -0.081434599043252953 0 -0.020958947031511469 -0.084392640572456892 0 -0.039034547138440429 -0.081434599043252953 0 -0.041558504756463638 -0.09333957748473308 0 -0.039034547138440429 -0.081434599043252953 0 -0.041558504756463638 -0.09333957748473308 0 -0.05438239004447816 -0.08406477130069967 0 -0.045231085754533801 -0.072382047397385879 0 -0.039034547138440429 -0.081434599043252953 0 -0.05438239004447816 -0.08406477130069967 0 -0.071077440927873686 -0.08031991690627828 0 -0.05438239004447816 -0.08406477130069967 0 -0.06120099168706427 -0.1026592969625425 0 -0.041558504756463638 -0.09333957748473308 0 -0.05438239004447816 -0.08406477130069967 0 -0.06120099168706427 -0.1026592969625425 0 -0.045231085754533801 -0.072382047397385879 0 -0.05438239004447816 -0.08406477130069967 0 -0.062402438069185308 -0.064698450667390772 0 -0.050657788623046339 -0.062127901701216917 0 -0.045231085754533801 -0.072382047397385879 0 -0.062402438069185308 -0.064698450667390772 0 -0.054643572447683607 -0.1238556032366591 0 -0.06120099168706427 -0.1026592969625425 0 -0.029763108271639471 -0.11188127908385539 0 -0.041558504756463638 -0.09333957748473308 0 -0.06120099168706427 -0.1026592969625425 0 -0.029763108271639471 -0.11188127908385539 0 -0.071333720728019662 -0.1182395118359027 0 -0.054643572447683607 -0.1238556032366591 0 -0.06120099168706427 -0.1026592969625425 0 -0.054643572447683607 -0.1238556032366591 0 -0.029763108271639471 -0.11188127908385539 0 -0.043932490787199248 -0.13687757207129531 0 -0.029763108271639471 -0.11188127908385539 0 -0.0079539226757655221 -0.1150958422717388 0 -0.01372060402952738 -0.13094434672327571 0 -0.020958947031511469 -0.084392640572456892 0 -0.029763108271639471 -0.11188127908385539 0 -0.020958947031511469 -0.084392640572456892 0 -0.029763108271639471 -0.11188127908385539 0 -0.008003249791205572 -0.09561207256085448 0 -0.020958947031511469 -0.084392640572456892 0 -0.041558504756463638 -0.09333957748473308 0 -0.029763108271639471 -0.11188127908385539 0 -0.029763108271639471 -0.11188127908385539 0 -0.008003249791205572 -0.09561207256085448 0 -0.0079539226757655221 -0.1150958422717388 0 -0.008003249791205572 -0.09561207256085448 0 -0.0079539226757655221 -0.1150958422717388 0 0.003459360455224499 -0.1064706842325762 0 -0.0079539226757655221 -0.1150958422717388 0 -0.01372060402952738 -0.13094434672327571 0 0.002064890662622494 -0.12644808147915401 0 -0.0028890046353027888 -0.13536793891998999 0 -0.01372060402952738 -0.13094434672327571 0 0.002064890662622494 -0.12644808147915401 0 -0.0094249880707617979 -0.14019776670663139 0 -0.01372060402952738 -0.13094434672327571 0 -0.016985595417945209 -0.14732562550629241 0 -0.0028890046353027888 -0.13536793891998999 0 -0.0094249880707617979 -0.14019776670663139 0 -0.003094464573322353 -0.14556905266318071 0 -0.0028890046353027888 -0.13536793891998999 0 -0.0094249880707617979 -0.14019776670663139 0 -0.01372060402952738 -0.13094434672327571 0 -0.029763108271639471 -0.11188127908385539 0 -0.01372060402952738 -0.13094434672327571 0 -0.027231384032607941 -0.13732167639320619 0 -0.01372060402952738 -0.13094434672327571 0 -0.027231384032607941 -0.13732167639320619 0 -0.016985595417945209 -0.14732562550629241 0 -0.027231384032607941 -0.13732167639320619 0 -0.016985595417945209 -0.14732562550629241 0 -0.032980954034809662 -0.15157955642288121 0 -0.016985595417945209 -0.14732562550629241 0 -0.022313216426005821 -0.16277919101957811 0 -0.032980954034809662 -0.15157955642288121 0 -0.016985595417945209 -0.14732562550629241 0 -0.0084360841992662753 -0.15764165390904589 0 -0.022313216426005821 -0.16277919101957811 0 -0.016985595417945209 -0.14732562550629241 0 -0.003094464573322353 -0.14556905266318071 0 -0.0084360841992662753 -0.15764165390904589 0 -0.0094249880707617979 -0.14019776670663139 0 -0.016985595417945209 -0.14732562550629241 0 -0.003094464573322353 -0.14556905266318071 0 -0.003094464573322353 -0.14556905266318071 0 -0.0084360841992662753 -0.15764165390904589 0 0.002775149226100111 -0.1461070162142882 0 -0.013623143195151399 -0.17058675284778549 0 -0.0084360841992662753 -0.15764165390904589 0 0.002592722288945457 -0.17119553403993629 0 -0.0084360841992662753 -0.15764165390904589 0 0.002592722288945457 -0.17119553403993629 0 0.002775149226100111 -0.1461070162142882 0 -0.013623143195151399 -0.17058675284778549 0 -0.0084360841992662753 -0.15764165390904589 0 -0.022313216426005821 -0.16277919101957811 0 -0.013623143195151399 -0.17058675284778549 0 -0.013621508378482141 -0.1839774372137796 0 0.002592722288945457 -0.17119553403993629 0 -0.013621508378482141 -0.1839774372137796 0 0.0024102953517908042 -0.19628405186558409 0 0.002592722288945457 -0.17119553403993629 0 -0.013621508378482141 -0.1839774372137796 0 -0.026337629260948219 -0.17733994805658759 0 -0.029107438693580099 -0.1979817880153773 0 -0.013623143195151399 -0.17058675284778549 0 -0.013621508378482141 -0.1839774372137796 0 -0.026337629260948219 -0.17733994805658759 0 -0.026337629260948219 -0.17733994805658759 0 -0.022313216426005821 -0.16277919101957811 0 -0.038518103204237722 -0.16709639193136111 0 -0.013623143195151399 -0.17058675284778549 0 -0.026337629260948219 -0.17733994805658759 0 -0.022313216426005821 -0.16277919101957811 0 -0.038518103204237722 -0.16709639193136111 0 -0.05073224421126319 -0.15641714128266471 0 -0.032980954034809662 -0.15157955642288121 0 -0.022313216426005821 -0.16277919101957811 0 -0.038518103204237722 -0.16709639193136111 0 -0.032980954034809662 -0.15157955642288121 0 -0.026337629260948219 -0.17733994805658759 0 -0.043033658670042899 -0.18330399212516091 0 -0.029107438693580099 -0.1979817880153773 0 -0.026337629260948219 -0.17733994805658759 0 -0.038518103204237722 -0.16709639193136111 0 -0.043033658670042899 -0.18330399212516091 0 -0.038518103204237722 -0.16709639193136111 0 -0.043033658670042899 -0.18330399212516091 0 -0.055710916622356589 -0.17115852268129381 0 -0.043033658670042899 -0.18330399212516091 0 -0.061475228946294591 -0.18650843493844049 0 -0.055710916622356589 -0.17115852268129381 0 -0.05073224421126319 -0.15641714128266471 0 -0.055710916622356589 -0.17115852268129381 0 -0.071230263546124231 -0.16693204361373071 0 -0.038518103204237722 -0.16709639193136111 0 -0.05073224421126319 -0.15641714128266471 0 -0.055710916622356589 -0.17115852268129381 0 -0.05073224421126319 -0.15641714128266471 0 -0.043932490787199248 -0.13687757207129531 0 -0.068243681725191727 -0.14021017600850519 0 -0.054643572447683607 -0.1238556032366591 0 -0.043932490787199248 -0.13687757207129531 0 -0.068243681725191727 -0.14021017600850519 0 -0.029763108271639471 -0.11188127908385539 0 -0.027231384032607941 -0.13732167639320619 0 -0.043932490787199248 -0.13687757207129531 0 -0.05073224421126319 -0.15641714128266471 0 -0.043932490787199248 -0.13687757207129531 0 -0.032980954034809662 -0.15157955642288121 0 -0.027231384032607941 -0.13732167639320619 0 -0.043932490787199248 -0.13687757207129531 0 -0.032980954034809662 -0.15157955642288121 0 -0.029961008511695159 -0.24612032589200489 0 -0.013927496954496001 -0.2469218739772201 0 -0.023143406459867889 -0.23429637880741949 0 -0.029961008511695159 -0.24612032589200489 0 -0.023143406459867889 -0.23429637880741949 0 -0.039184311324354071 -0.2350683755859744 0 -0.013927496954496001 -0.2469218739772201 0 -0.0092414433629382058 -0.23091620779093769 0 -0.023143406459867889 -0.23429637880741949 0 -0.013927496954496001 -0.2469218739772201 0 -0.0092414433629382058 -0.23091620779093769 0 0.00207560332451072 -0.24231303762551121 0 -0.0013499795393466961 -0.2592475501348519 0 -0.013927496954496001 -0.2469218739772201 0 0.00207560332451072 -0.24231303762551121 0 -0.0092414433629382058 -0.23091620779093769 0 0.00207560332451072 -0.24231303762551121 0 0.0022278684146351522 -0.22137256969123209 0 -0.0092414433629382058 -0.23091620779093769 0 -0.01343978513947301 -0.20967717885330539 0 0.0022278684146351522 -0.22137256969123209 0 -0.0092414433629382058 -0.23091620779093769 0 -0.023143406459867889 -0.23429637880741949 0 -0.01343978513947301 -0.20967717885330539 0 -0.023143406459867889 -0.23429637880741949 0 -0.01343978513947301 -0.20967717885330539 0 -0.031612395084015157 -0.21657588047117909 0 -0.01343978513947301 -0.20967717885330539 0 -0.029107438693580099 -0.1979817880153773 0 -0.01343978513947301 -0.20967717885330539 0 -0.029107438693580099 -0.1979817880153773 0 -0.031612395084015157 -0.21657588047117909 0 -0.01343978513947301 -0.20967717885330539 0 0.0022278684146351522 -0.22137256969123209 0 -0.01343978513947301 -0.20967717885330539 0 0.0022278684146351522 -0.22137256969123209 0 0.0024102953517908042 -0.19628405186558409 0 -0.01343978513947301 -0.20967717885330539 0 -0.012207504915588439 -0.19678363247773331 0 0.0024102953517908042 -0.19628405186558409 0 -0.013621508378482141 -0.1839774372137796 0 -0.012207504915588439 -0.19678363247773331 0 0.0024102953517908042 -0.19628405186558409 0 -0.013621508378482141 -0.1839774372137796 0 -0.012207504915588439 -0.19678363247773331 0 -0.029107438693580099 -0.1979817880153773 0 -0.01343978513947301 -0.20967717885330539 0 -0.012207504915588439 -0.19678363247773331 0 -0.029107438693580099 -0.1979817880153773 0 -0.043033658670042899 -0.18330399212516091 0 -0.029107438693580099 -0.1979817880153773 0 -0.049909242108636932 -0.2035655319692708 0 -0.061475228946294591 -0.18650843493844049 0 -0.049909242108636932 -0.2035655319692708 0 -0.074999694773775868 -0.2035541682492053 0 -0.043033658670042899 -0.18330399212516091 0 -0.061475228946294591 -0.18650843493844049 0 -0.049909242108636932 -0.2035655319692708 0 -0.049909242108636932 -0.2035655319692708 0 -0.061661949946783021 -0.2169620332692965 0 -0.047695574256153193 -0.22194661015137229 0 -0.049909242108636932 -0.2035655319692708 0 -0.061661949946783021 -0.2169620332692965 0 -0.074999694773775868 -0.2035541682492053 0 -0.029107438693580099 -0.1979817880153773 0 -0.049909242108636932 -0.2035655319692708 0 -0.031612395084015157 -0.21657588047117909 0 -0.049909242108636932 -0.2035655319692708 0 -0.031612395084015157 -0.21657588047117909 0 -0.047695574256153193 -0.22194661015137229 0 -0.031612395084015157 -0.21657588047117909 0 -0.047695574256153193 -0.22194661015137229 0 -0.039184311324354071 -0.2350683755859744 0 -0.023143406459867889 -0.23429637880741949 0 -0.031612395084015157 -0.21657588047117909 0 -0.039184311324354071 -0.2350683755859744 0 -0.047695574256153193 -0.22194661015137229 0 -0.05702849520941889 -0.23302432072796381 0 -0.039184311324354071 -0.2350683755859744 0 -0.061661949946783021 -0.2169620332692965 0 -0.047695574256153193 -0.22194661015137229 0 -0.05702849520941889 -0.23302432072796381 0 -0.048384655956861727 -0.25338641839162213 0 -0.05702849520941889 -0.23302432072796381 0 -0.039184311324354071 -0.2350683755859744 0 -0.048384655956861727 -0.25338641839162213 0 -0.071604140050827339 -0.2458442540854556 0 -0.048384655956861727 -0.25338641839162213 0 -0.05702849520941889 -0.23302432072796381 0 -0.071604140050827339 -0.2458442540854556 0 -0.048384655956861727 -0.25338641839162213 0 -0.029961008511695159 -0.24612032589200489 0 -0.039184311324354071 -0.2350683755859744 0 -0.071604140050827339 -0.2458442540854556 0 -0.086999847522169632 -0.23041386212378631 0 -0.094823624144792923 -0.2383020897792891 0 -0.08621409042463074 -0.25069620380078528 0 -0.071604140050827339 -0.2458442540854556 0 -0.094823624144792923 -0.2383020897792891 0 -0.071604140050827339 -0.2458442540854556 0 -0.094823624144792923 -0.2383020897792891 0 -0.08621409042463074 -0.25069620380078528 0 -0.094823624144792923 -0.2383020897792891 0 -0.09738865516331853 -0.24664385226085889 0 -0.05702849520941889 -0.23302432072796381 0 -0.071604140050827339 -0.2458442540854556 0 -0.073640339721533998 -0.22493823288406231 0 -0.061661949946783021 -0.2169620332692965 0 -0.05702849520941889 -0.23302432072796381 0 -0.073640339721533998 -0.22493823288406231 0 -0.071604140050827339 -0.2458442540854556 0 -0.073640339721533998 -0.22493823288406231 0 -0.086999847522169632 -0.23041386212378631 0 -0.073640339721533998 -0.22493823288406231 0 -0.086999847522169632 -0.23041386212378631 0 -0.086618465811188899 -0.2190926317145038 0 -0.086618465811188899 -0.2190926317145038 0 -0.096006559666008601 -0.20634809160077869 0 -0.097569327297545139 -0.23383756092240651 0 -0.086999847522169632 -0.23041386212378631 0 -0.086618465811188899 -0.2190926317145038 0 -0.097569327297545139 -0.23383756092240651 0 -0.086999847522169632 -0.23041386212378631 0 -0.097569327297545139 -0.23383756092240651 0 -0.094823624144792923 -0.2383020897792891 0 -0.086618465811188899 -0.2190926317145038 0 -0.074999694773775868 -0.2035541682492053 0 -0.096006559666008601 -0.20634809160077869 0 -0.073640339721533998 -0.22493823288406231 0 -0.086618465811188899 -0.2190926317145038 0 -0.074999694773775868 -0.2035541682492053 0 -0.061661949946783021 -0.2169620332692965 0 -0.073640339721533998 -0.22493823288406231 0 -0.074999694773775868 -0.2035541682492053 0 -0.061475228946294591 -0.18650843493844049 0 -0.074999694773775868 -0.2035541682492053 0 -0.079631107793335085 -0.18844027213626119 0 -0.074999694773775868 -0.2035541682492053 0 -0.079631107793335085 -0.18844027213626119 0 -0.096006559666008601 -0.20634809160077869 0 -0.079631107793335085 -0.18844027213626119 0 -0.096006559666008601 -0.20634809160077869 0 -0.094443792034472063 -0.17885862227915089 0 -0.1143857750292695 -0.1943677251533 0 -0.1156798765029972 -0.20491323378230469 0 -0.096006559666008601 -0.20634809160077869 0 -0.1143857750292695 -0.1943677251533 0 -0.096006559666008601 -0.20634809160077869 0 -0.094443792034472063 -0.17885862227915089 0 -0.096006559666008601 -0.20634809160077869 0 -0.094443792034472063 -0.17885862227915089 0 -0.1143857750292695 -0.1943677251533 0 -0.1231842406127192 -0.18837833370579599 0 -0.12827837381229321 -0.19566027665662339 0 -0.1143857750292695 -0.1943677251533 0 -0.12728262134963761 -0.20341486522038379 0 -0.12827837381229321 -0.19566027665662339 0 -0.1143857750292695 -0.1943677251533 0 -0.1156798765029972 -0.20491323378230469 0 -0.12728262134963761 -0.20341486522038379 0 -0.1135744021864543 -0.21444084180063239 0 -0.13358784167392579 -0.21622939676750591 0 -0.12728262134963761 -0.20341486522038379 0 -0.1135744021864543 -0.21444084180063239 0 -0.118713430413513 -0.2222437024274995 0 -0.13358784167392579 -0.21622939676750591 0 -0.1135744021864543 -0.21444084180063239 0 -0.13358784167392579 -0.21622939676750591 0 -0.1156798765029972 -0.20491323378230469 0 -0.1135744021864543 -0.21444084180063239 0 -0.12728262134963761 -0.20341486522038379 0 -0.1135744021864543 -0.21444084180063239 0 -0.096006559666008601 -0.20634809160077869 0 -0.1035330569014275 -0.2203306089525307 0 -0.1156798765029972 -0.20491323378230469 0 -0.1135744021864543 -0.21444084180063239 0 -0.096006559666008601 -0.20634809160077869 0 -0.096006559666008601 -0.20634809160077869 0 -0.097569327297545139 -0.23383756092240651 0 -0.1035330569014275 -0.2203306089525307 0 -0.096006559666008601 -0.20634809160077869 0 -0.097569327297545139 -0.23383756092240651 0 -0.097569327297545139 -0.23383756092240651 0 -0.10556651884836001 -0.23404837770830941 0 -0.1087769259278235 -0.22595274314483549 0 -0.097569327297545139 -0.23383756092240651 0 -0.1035330569014275 -0.2203306089525307 0 -0.1087769259278235 -0.22595274314483549 0 -0.1135744021864543 -0.21444084180063239 0 -0.1035330569014275 -0.2203306089525307 0 -0.1087769259278235 -0.22595274314483549 0 -0.1135744021864543 -0.21444084180063239 0 -0.1087769259278235 -0.22595274314483549 0 -0.118713430413513 -0.2222437024274995 0 -0.1087769259278235 -0.22595274314483549 0 -0.118713430413513 -0.2222437024274995 0 -0.11401774667704009 -0.23133325982959951 0 -0.118713430413513 -0.2222437024274995 0 -0.1208872327639846 -0.2301030520649732 0 -0.1267717092947987 -0.22423278556233489 0 -0.118713430413513 -0.2222437024274995 0 -0.1208872327639846 -0.2301030520649732 0 -0.11401774667704009 -0.23133325982959951 0 -0.1208872327639846 -0.2301030520649732 0 -0.11401774667704009 -0.23133325982959951 0 -0.1210996211434924 -0.23841220268522001 0 -0.10556651884836001 -0.23404837770830941 0 -0.1087769259278235 -0.22595274314483549 0 -0.11401774667704009 -0.23133325982959951 0 -0.11401774667704009 -0.23133325982959951 0 -0.1114092102234616 -0.23793599992183681 0 -0.1210996211434924 -0.23841220268522001 0 -0.10556651884836001 -0.23404837770830941 0 -0.11401774667704009 -0.23133325982959951 0 -0.1114092102234616 -0.23793599992183681 0 -0.1114092102234616 -0.23793599992183681 0 -0.1210996211434924 -0.23841220268522001 0 -0.1120203303371731 -0.2452663948616628 0 -0.1114092102234616 -0.23793599992183681 0 -0.1120203303371731 -0.2452663948616628 0 -0.10509789381175839 -0.2415745418102096 0 -0.1208872327639846 -0.2301030520649732 0 -0.1210996211434924 -0.23841220268522001 0 -0.1327250690184309 -0.23647368082845999 0 -0.1210996211434924 -0.23841220268522001 0 -0.1195935868873325 -0.24923947994859169 0 -0.13028287227370461 -0.24829102399749131 0 -0.1210996211434924 -0.23841220268522001 0 -0.1195935868873325 -0.24923947994859169 0 -0.1120203303371731 -0.2452663948616628 0 -0.10931740613783621 -0.25525066145170427 0 -0.1195935868873325 -0.24923947994859169 0 -0.1120203303371731 -0.2452663948616628 0 -0.10931740613783621 -0.25525066145170427 0 -0.1120203303371731 -0.2452663948616628 0 -0.1047441773361453 -0.24825177899687451 0 -0.1047441773361453 -0.24825177899687451 0 -0.10509789381175839 -0.2415745418102096 0 -0.09738865516331853 -0.24664385226085889 0 -0.1120203303371731 -0.2452663948616628 0 -0.1047441773361453 -0.24825177899687451 0 -0.10509789381175839 -0.2415745418102096 0 -0.10556651884836001 -0.23404837770830941 0 -0.1114092102234616 -0.23793599992183681 0 -0.10509789381175839 -0.2415745418102096 0 -0.10556651884836001 -0.23404837770830941 0 -0.10509789381175839 -0.2415745418102096 0 -0.10008920385315501 -0.23888128449621471 0 -0.097569327297545139 -0.23383756092240651 0 -0.10556651884836001 -0.23404837770830941 0 -0.10008920385315501 -0.23888128449621471 0 -0.10008920385315501 -0.23888128449621471 0 -0.094823624144792923 -0.2383020897792891 0 -0.09738865516331853 -0.24664385226085889 0 -0.097569327297545139 -0.23383756092240651 0 -0.10008920385315501 -0.23888128449621471 0 -0.094823624144792923 -0.2383020897792891 0 -0.10509789381175839 -0.2415745418102096 0 -0.10008920385315501 -0.23888128449621471 0 -0.09738865516331853 -0.24664385226085889 0 -0.091318256771398987 -0.1238796836358954 0 -0.092881024402935525 -0.15136915295752321 0 -0.068243681725191727 -0.14021017600850519 0 -0.091318256771398987 -0.1238796836358954 0 -0.092881024402935525 -0.15136915295752321 0 -0.071333720728019662 -0.1182395118359027 0 -0.091318256771398987 -0.1238796836358954 0 -0.068243681725191727 -0.14021017600850519 0 -0.071333720728019662 -0.1182395118359027 0 -0.054643572447683607 -0.1238556032366591 0 -0.068243681725191727 -0.14021017600850519 0 -0.05073224421126319 -0.15641714128266471 0 -0.068243681725191727 -0.14021017600850519 0 -0.071230263546124231 -0.16693204361373071 0 -0.092881024402935525 -0.15136915295752321 0 -0.068243681725191727 -0.14021017600850519 0 -0.071230263546124231 -0.16693204361373071 0 -0.061475228946294591 -0.18650843493844049 0 -0.055710916622356589 -0.17115852268129381 0 -0.071230263546124231 -0.16693204361373071 0 -0.061475228946294591 -0.18650843493844049 0 -0.079631107793335085 -0.18844027213626119 0 -0.071230263546124231 -0.16693204361373071 0 -0.079631107793335085 -0.18844027213626119 0 -0.071230263546124231 -0.16693204361373071 0 -0.094443792034472063 -0.17885862227915089 0 -0.092881024402935525 -0.15136915295752321 0 -0.071230263546124231 -0.16693204361373071 0 -0.094443792034472063 -0.17885862227915089 0 -0.092881024402935525 -0.15136915295752321 0 -0.094443792034472063 -0.17885862227915089 0 -0.092881024402935525 -0.15136915295752321 0 -0.094443792034472063 -0.17885862227915089 0 -0.1101705896506905 -0.1629608978902953 0 -0.1143857750292695 -0.1943677251533 0 -0.094443792034472063 -0.17885862227915089 0 -0.1152394611392747 -0.17824820694907059 0 -0.094443792034472063 -0.17885862227915089 0 -0.1152394611392747 -0.17824820694907059 0 -0.1101705896506905 -0.1629608978902953 0 -0.1143857750292695 -0.1943677251533 0 -0.1231842406127192 -0.18837833370579599 0 -0.1152394611392747 -0.17824820694907059 0 -0.1152394611392747 -0.17824820694907059 0 -0.1243235652291762 -0.16866318745464889 0 -0.12549998751358121 -0.17834080261474369 0 -0.1231842406127192 -0.18837833370579599 0 -0.1152394611392747 -0.17824820694907059 0 -0.12549998751358121 -0.17834080261474369 0 -0.1101705896506905 -0.1629608978902953 0 -0.1243235652291762 -0.16866318745464889 0 -0.126131695923515 -0.15556894587578199 0 -0.1152394611392747 -0.17824820694907059 0 -0.1101705896506905 -0.1629608978902953 0 -0.1243235652291762 -0.16866318745464889 0 -0.11324052538255221 -0.14071040956971209 0 -0.13284067955698869 -0.14470851817403849 0 -0.126131695923515 -0.15556894587578199 0 -0.1101705896506905 -0.1629608978902953 0 -0.11324052538255221 -0.14071040956971209 0 -0.126131695923515 -0.15556894587578199 0 -0.092881024402935525 -0.15136915295752321 0 -0.1101705896506905 -0.1629608978902953 0 -0.11324052538255221 -0.14071040956971209 0 -0.091318256771398987 -0.1238796836358954 0 -0.11161036192447719 -0.1162173407966679 0 -0.11324052538255221 -0.14071040956971209 0 -0.091318256771398987 -0.1238796836358954 0 -0.092881024402935525 -0.15136915295752321 0 -0.11324052538255221 -0.14071040956971209 0 -0.11161036192447719 -0.1162173407966679 0 -0.11324052538255221 -0.14071040956971209 0 -0.12773106944785939 -0.1302683276577824 0 -0.11324052538255221 -0.14071040956971209 0 -0.12773106944785939 -0.1302683276577824 0 -0.13284067955698869 -0.14470851817403849 0 -0.12773106944785939 -0.1302683276577824 0 -0.14438535185289131 -0.14103801387529691 0 -0.13284067955698869 -0.14470851817403849 0 -0.12773106944785939 -0.1302683276577824 0 -0.14438535185289131 -0.14103801387529691 0 -0.14664080783937489 -0.1178448104280701 0 -0.14438535185289131 -0.14103801387529691 0 -0.1631084809502045 -0.13431637081015149 0 -0.14664080783937489 -0.1178448104280701 0 -0.14920045778477961 -0.16033958903264009 0 -0.1631084809502045 -0.13431637081015149 0 -0.14438535185289131 -0.14103801387529691 0 -0.1374745817412191 -0.1531553653830503 0 -0.14920045778477961 -0.16033958903264009 0 -0.14438535185289131 -0.14103801387529691 0 -0.14920045778477961 -0.16033958903264009 0 -0.1631084809502045 -0.13431637081015149 0 -0.14438535185289131 -0.14103801387529691 0 -0.1374745817412191 -0.1531553653830503 0 -0.13284067955698869 -0.14470851817403849 0 -0.1374745817412191 -0.1531553653830503 0 -0.13284067955698869 -0.14470851817403849 0 -0.126131695923515 -0.15556894587578199 0 -0.1374745817412191 -0.1531553653830503 0 -0.126131695923515 -0.15556894587578199 0 -0.13481472358792079 -0.1641217599574939 0 -0.1243235652291762 -0.16866318745464889 0 -0.126131695923515 -0.15556894587578199 0 -0.13481472358792079 -0.1641217599574939 0 -0.1243235652291762 -0.16866318745464889 0 -0.13481472358792079 -0.1641217599574939 0 -0.1340849335600752 -0.17273851144050789 0 -0.13481472358792079 -0.1641217599574939 0 -0.1340849335600752 -0.17273851144050789 0 -0.14920045778477961 -0.16033958903264009 0 -0.1374745817412191 -0.1531553653830503 0 -0.13481472358792079 -0.1641217599574939 0 -0.14920045778477961 -0.16033958903264009 0 -0.1340849335600752 -0.17273851144050789 0 -0.13529243461935481 -0.18636280725512849 0 -0.14920045778477961 -0.16033958903264009 0 -0.1231842406127192 -0.18837833370579599 0 -0.12549998751358121 -0.17834080261474369 0 -0.13471154143201569 -0.1912173585686279 0 -0.12549998751358121 -0.17834080261474369 0 -0.13529243461935481 -0.18636280725512849 0 -0.13471154143201569 -0.1912173585686279 0 -0.12549998751358121 -0.17834080261474369 0 -0.13471154143201569 -0.1912173585686279 0 -0.12549998751358121 -0.17834080261474369 0 -0.1340849335600752 -0.17273851144050789 0 -0.13529243461935481 -0.18636280725512849 0 -0.1243235652291762 -0.16866318745464889 0 -0.12549998751358121 -0.17834080261474369 0 -0.1340849335600752 -0.17273851144050789 0 -0.13529243461935481 -0.18636280725512849 0 -0.14444429238256079 -0.18472902129963009 0 -0.1416148922574888 -0.18969634128016949 0 -0.13529243461935481 -0.18636280725512849 0 -0.14695979310817109 -0.17587023085522391 0 -0.14920045778477961 -0.16033958903264009 0 -0.13529243461935481 -0.18636280725512849 0 -0.14920045778477961 -0.16033958903264009 0 -0.14444429238256079 -0.18472902129963009 0 -0.1500984230909842 -0.18192308275718919 0 -0.1489715260421193 -0.18984032843132151 0 -0.13529243461935481 -0.18636280725512849 0 -0.14444429238256079 -0.18472902129963009 0 -0.14695979310817109 -0.17587023085522391 0 -0.14444429238256079 -0.18472902129963009 0 -0.14695979310817109 -0.17587023085522391 0 -0.1500984230909842 -0.18192308275718919 0 -0.14695979310817109 -0.17587023085522391 0 -0.15485006166200049 -0.17700858986443169 0 -0.15207105305167101 -0.17051490962997859 0 -0.14695979310817109 -0.17587023085522391 0 -0.15485006166200049 -0.17700858986443169 0 -0.1500984230909842 -0.18192308275718919 0 -0.15485006166200049 -0.17700858986443169 0 -0.15207105305167101 -0.17051490962997859 0 -0.15727389965173269 -0.16884122876761889 0 -0.1500984230909842 -0.18192308275718919 0 -0.1561071508392412 -0.18175704105296911 0 -0.1489715260421193 -0.18984032843132151 0 -0.1561071508392412 -0.18175704105296911 0 -0.16218289343450201 -0.18265356459191651 0 -0.1489715260421193 -0.18984032843132151 0 -0.15485006166200049 -0.17700858986443169 0 -0.1500984230909842 -0.18192308275718919 0 -0.1561071508392412 -0.18175704105296911 0 -0.14695979310817109 -0.17587023085522391 0 -0.15207105305167101 -0.17051490962997859 0 -0.14920045778477961 -0.16033958903264009 0 -0.15207105305167101 -0.17051490962997859 0 -0.14920045778477961 -0.16033958903264009 0 -0.15727389965173269 -0.16884122876761889 0 -0.14920045778477961 -0.16033958903264009 0 -0.16118729435046891 -0.16135344195652351 0 -0.15727389965173269 -0.16884122876761889 0 -0.14920045778477961 -0.16033958903264009 0 -0.16118729435046891 -0.16135344195652351 0 -0.15815333258832551 -0.15208917936453539 0 -0.16118729435046891 -0.16135344195652351 0 -0.17128123912037341 -0.15907121553325471 0 -0.15815333258832551 -0.15208917936453539 0 -0.15727389965173269 -0.16884122876761889 0 -0.16502437787685609 -0.16704613309718969 0 -0.16184520858908949 -0.1738208023688145 0 -0.16118729435046891 -0.16135344195652351 0 -0.15727389965173269 -0.16884122876761889 0 -0.16502437787685609 -0.16704613309718969 0 -0.16502437787685609 -0.16704613309718969 0 -0.16184520858908949 -0.1738208023688145 0 -0.17323157540359641 -0.16968038676164479 0 -0.16502437787685609 -0.16704613309718969 0 -0.17128123912037341 -0.15907121553325471 0 -0.17323157540359641 -0.16968038676164479 0 -0.16118729435046891 -0.16135344195652351 0 -0.16502437787685609 -0.16704613309718969 0 -0.17128123912037341 -0.15907121553325471 0 -0.16218289343450201 -0.18265356459191651 0 -0.17836579397271571 -0.1810416930293004 0 -0.17323157540359641 -0.16968038676164479 0 -0.1561071508392412 -0.18175704105296911 0 -0.16184732014416819 -0.1808283506971444 0 -0.15869268066167311 -0.1782883299758114 0 -0.1561071508392412 -0.18175704105296911 0 -0.16184732014416819 -0.1808283506971444 0 -0.16218289343450201 -0.18265356459191651 0 -0.16184732014416819 -0.1808283506971444 0 -0.16218289343450201 -0.18265356459191651 0 -0.15485006166200049 -0.17700858986443169 0 -0.15727389965173269 -0.16884122876761889 0 -0.16184520858908949 -0.1738208023688145 0 -0.16184732014416819 -0.1808283506971444 0 -0.15869268066167311 -0.1782883299758114 0 -0.16184520858908949 -0.1738208023688145 0 -0.15485006166200049 -0.17700858986443169 0 -0.15869268066167311 -0.1782883299758114 0 -0.16184520858908949 -0.1738208023688145 0 -0.15485006166200049 -0.17700858986443169 0 -0.1561071508392412 -0.18175704105296911 0 -0.15869268066167311 -0.1782883299758114 0 -0.16184732014416819 -0.1808283506971444 0 -0.16184520858908949 -0.1738208023688145 0 -0.17323157540359641 -0.16968038676164479 0 -0.16184732014416819 -0.1808283506971444 0 -0.16218289343450201 -0.18265356459191651 0 -0.17323157540359641 -0.16968038676164479 0 -0.16218289343450201 -0.18265356459191651 0 -0.17323157540359641 -0.16968038676164479 0 -0.17836579397271571 -0.1810416930293004 0 -0.18912216696908421 -0.19127628253442061 0 -0.1911774566480792 -0.17465322978038381 0 -0.16218289343450201 -0.18265356459191651 0 -0.17836579397271571 -0.1810416930293004 0 -0.17558366203960671 -0.1926717371218353 0 -0.17836579397271571 -0.1810416930293004 0 -0.17323157540359641 -0.16968038676164479 0 -0.18403619985510999 -0.1690183103103638 0 -0.17836579397271571 -0.1810416930293004 0 -0.18403619985510999 -0.1690183103103638 0 -0.1911774566480792 -0.17465322978038381 0 -0.17128123912037341 -0.15907121553325471 0 -0.17323157540359641 -0.16968038676164479 0 -0.18428025737269091 -0.1567072089313733 0 -0.17323157540359641 -0.16968038676164479 0 -0.18428025737269091 -0.1567072089313733 0 -0.17323157540359641 -0.16968038676164479 0 -0.18403619985510999 -0.1690183103103638 0 -0.18428025737269091 -0.1567072089313733 0 -0.18403619985510999 -0.1690183103103638 0 -0.18428025737269091 -0.1567072089313733 0 -0.19312591587846781 -0.16300903304911649 0 -0.17128123912037341 -0.15907121553325471 0 -0.18428025737269091 -0.1567072089313733 0 -0.1846484633716747 -0.14670496701039559 0 -0.1846484633716747 -0.14670496701039559 0 -0.1749736544985365 -0.1386064815496687 0 -0.15815333258832551 -0.15208917936453539 0 -0.1749736544985365 -0.1386064815496687 0 -0.18126402438478001 -0.12766945086563031 0 -0.1631084809502045 -0.13431637081015149 0 -0.1846484633716747 -0.14670496701039559 0 -0.1749736544985365 -0.1386064815496687 0 -0.1915247720916454 -0.1356637587344432 0 -0.1749736544985365 -0.1386064815496687 0 -0.18126402438478001 -0.12766945086563031 0 -0.1915247720916454 -0.1356637587344432 0 -0.1846484633716747 -0.14670496701039559 0 -0.15815333258832551 -0.15208917936453539 0 -0.1749736544985365 -0.1386064815496687 0 -0.1631084809502045 -0.13431637081015149 0 -0.15815333258832551 -0.15208917936453539 0 -0.17128123912037341 -0.15907121553325471 0 -0.1846484633716747 -0.14670496701039559 0 -0.15815333258832551 -0.15208917936453539 0 -0.14920045778477961 -0.16033958903264009 0 -0.1631084809502045 -0.13431637081015149 0 -0.15815333258832551 -0.15208917936453539 0 -0.15352784145279941 -0.2448501544149298 0 -0.1403022171341137 -0.2448525037266519 0 -0.1327250690184309 -0.23647368082845999 0 -0.15352784145279941 -0.2448501544149298 0 -0.1327250690184309 -0.23647368082845999 0 -0.1464665114763051 -0.2323669675838527 0 -0.15352784145279941 -0.2448501544149298 0 -0.1327250690184309 -0.23647368082845999 0 -0.15352784145279941 -0.2448501544149298 0 -0.15470735857195661 -0.23427071108878469 0 -0.16026774791472079 -0.2374330518632306 0 -0.15352784145279941 -0.2448501544149298 0 -0.1464665114763051 -0.2323669675838527 0 -0.15470735857195661 -0.23427071108878469 0 -0.15352784145279941 -0.2448501544149298 0 -0.14467308579152019 -0.24979515566572699 0 -0.1403022171341137 -0.2448525037266519 0 -0.1403022171341137 -0.2448525037266519 0 -0.13028287227370461 -0.24829102399749131 0 -0.1327250690184309 -0.23647368082845999 0 -0.14467308579152019 -0.24979515566572699 0 -0.1403022171341137 -0.2448525037266519 0 -0.13028287227370461 -0.24829102399749131 0 -0.1210996211434924 -0.23841220268522001 0 -0.13028287227370461 -0.24829102399749131 0 -0.1327250690184309 -0.23647368082845999 0 -0.1327250690184309 -0.23647368082845999 0 -0.13712896433219879 -0.22647688017053769 0 -0.1464665114763051 -0.2323669675838527 0 -0.1208872327639846 -0.2301030520649732 0 -0.1327250690184309 -0.23647368082845999 0 -0.1267717092947987 -0.22423278556233489 0 -0.1327250690184309 -0.23647368082845999 0 -0.1267717092947987 -0.22423278556233489 0 -0.13712896433219879 -0.22647688017053769 0 -0.1267717092947987 -0.22423278556233489 0 -0.13712896433219879 -0.22647688017053769 0 -0.13358784167392579 -0.21622939676750591 0 -0.118713430413513 -0.2222437024274995 0 -0.1267717092947987 -0.22423278556233489 0 -0.13358784167392579 -0.21622939676750591 0 -0.1267717092947987 -0.22423278556233489 0 -0.13358784167392579 -0.21622939676750591 0 -0.13712896433219879 -0.22647688017053769 0 -0.14277165400724409 -0.22327954671350109 0 -0.13358784167392579 -0.21622939676750591 0 -0.14277165400724409 -0.22327954671350109 0 -0.1539032985465483 -0.21804494233210769 0 -0.13358784167392579 -0.21622939676750591 0 -0.14277165400724409 -0.22327954671350109 0 -0.1464665114763051 -0.2323669675838527 0 -0.1539032985465483 -0.21804494233210769 0 -0.1464665114763051 -0.2323669675838527 0 -0.15470735857195661 -0.23427071108878469 0 -0.1539032985465483 -0.21804494233210769 0 -0.13712896433219879 -0.22647688017053769 0 -0.14277165400724409 -0.22327954671350109 0 -0.1464665114763051 -0.2323669675838527 0 -0.1539032985465483 -0.21804494233210769 0 -0.1439230953504505 -0.20409391452251191 0 -0.1655598252252056 -0.20102100623173039 0 -0.1539032985465483 -0.21804494233210769 0 -0.13358784167392579 -0.21622939676750591 0 -0.1539032985465483 -0.21804494233210769 0 -0.1439230953504505 -0.20409391452251191 0 -0.13358784167392579 -0.21622939676750591 0 -0.1539032985465483 -0.21804494233210769 0 -0.1439230953504505 -0.20409391452251191 0 -0.13358784167392579 -0.21622939676750591 0 -0.12728262134963761 -0.20341486522038379 0 -0.13516668387198419 -0.20096599477898941 0 -0.1439230953504505 -0.20409391452251191 0 -0.13358784167392579 -0.21622939676750591 0 -0.1439230953504505 -0.20409391452251191 0 -0.13358784167392579 -0.21622939676750591 0 -0.13516668387198419 -0.20096599477898941 0 -0.1439230953504505 -0.20409391452251191 0 -0.13471154143201569 -0.1912173585686279 0 -0.14230526377051861 -0.1937119857006577 0 -0.1439230953504505 -0.20409391452251191 0 -0.13471154143201569 -0.1912173585686279 0 -0.1439230953504505 -0.20409391452251191 0 -0.13516668387198419 -0.20096599477898941 0 -0.13471154143201569 -0.1912173585686279 0 -0.12728262134963761 -0.20341486522038379 0 -0.13516668387198419 -0.20096599477898941 0 -0.12827837381229321 -0.19566027665662339 0 -0.13516668387198419 -0.20096599477898941 0 -0.12827837381229321 -0.19566027665662339 0 -0.13471154143201569 -0.1912173585686279 0 -0.1231842406127192 -0.18837833370579599 0 -0.12827837381229321 -0.19566027665662339 0 -0.13471154143201569 -0.1912173585686279 0 -0.13471154143201569 -0.1912173585686279 0 -0.1416148922574888 -0.18969634128016949 0 -0.14230526377051861 -0.1937119857006577 0 -0.13529243461935481 -0.18636280725512849 0 -0.13471154143201569 -0.1912173585686279 0 -0.1416148922574888 -0.18969634128016949 0 -0.1416148922574888 -0.18969634128016949 0 -0.14230526377051861 -0.1937119857006577 0 -0.1489715260421193 -0.18984032843132151 0 -0.16218289343450201 -0.18265356459191651 0 -0.1439230953504505 -0.20409391452251191 0 -0.16218289343450201 -0.18265356459191651 0 -0.1439230953504505 -0.20409391452251191 0 -0.1489715260421193 -0.18984032843132151 0 -0.14444429238256079 -0.18472902129963009 0 -0.1416148922574888 -0.18969634128016949 0 -0.1489715260421193 -0.18984032843132151 0 -0.1439230953504505 -0.20409391452251191 0 -0.14230526377051861 -0.1937119857006577 0 -0.1489715260421193 -0.18984032843132151 0 -0.16218289343450201 -0.18265356459191651 0 -0.1655598252252056 -0.20102100623173039 0 -0.17558366203960671 -0.1926717371218353 0 -0.16218289343450201 -0.18265356459191651 0 -0.1439230953504505 -0.20409391452251191 0 -0.1655598252252056 -0.20102100623173039 0 -0.16218289343450201 -0.18265356459191651 0 -0.1655598252252056 -0.20102100623173039 0 -0.1655598252252056 -0.20102100623173039 0 -0.17558366203960671 -0.1926717371218353 0 -0.18268763059652621 -0.20736613922180891 0 -0.17558366203960671 -0.1926717371218353 0 -0.18268763059652621 -0.20736613922180891 0 -0.18912216696908421 -0.19127628253442061 0 -0.17836579397271571 -0.1810416930293004 0 -0.17558366203960671 -0.1926717371218353 0 -0.18912216696908421 -0.19127628253442061 0 -0.18268763059652621 -0.20736613922180891 0 -0.16893675701590841 -0.21938844787154441 0 -0.19446674646327111 -0.22167000419568131 0 -0.1655598252252056 -0.20102100623173039 0 -0.18268763059652621 -0.20736613922180891 0 -0.16893675701590841 -0.21938844787154441 0 -0.1539032985465483 -0.21804494233210769 0 -0.1655598252252056 -0.20102100623173039 0 -0.16893675701590841 -0.21938844787154441 0 -0.1655598252252056 -0.20102100623173039 0 -0.16893675701590841 -0.21938844787154441 0 -0.1539032985465483 -0.21804494233210769 0 -0.16893675701590841 -0.21938844787154441 0 -0.15470735857195661 -0.23427071108878469 0 -0.1539032985465483 -0.21804494233210769 0 -0.16446710107527709 -0.2328117662091039 0 -0.1539032985465483 -0.21804494233210769 0 -0.16446710107527709 -0.2328117662091039 0 -0.1539032985465483 -0.21804494233210769 0 -0.16446710107527709 -0.2328117662091039 0 -0.16893675701590841 -0.21938844787154441 0 -0.16446710107527709 -0.2328117662091039 0 -0.17023723619220851 -0.2264618733520993 0 -0.17023723619220851 -0.2264618733520993 0 -0.16893675701590841 -0.21938844787154441 0 -0.17378248675083849 -0.22256041164586299 0 -0.17023723619220851 -0.2264618733520993 0 -0.16893675701590841 -0.21938844787154441 0 -0.16446710107527709 -0.2328117662091039 0 -0.17023723619220851 -0.2264618733520993 0 -0.16893675701590841 -0.21938844787154441 0 -0.17378248675083849 -0.22256041164586299 0 -0.1828728819850387 -0.2363193331271172 0 -0.19446674646327111 -0.22167000419568131 0 -0.16893675701590841 -0.21938844787154441 0 -0.17378248675083849 -0.22256041164586299 0 -0.19446674646327111 -0.22167000419568131 0 -0.16893675701590841 -0.21938844787154441 0 -0.19446674646327111 -0.22167000419568131 0 -0.17023723619220851 -0.2264618733520993 0 -0.17378248675083849 -0.22256041164586299 0 -0.17023723619220851 -0.2264618733520993 0 -0.17378248675083849 -0.22256041164586299 0 -0.1828728819850387 -0.2363193331271172 0 -0.17023723619220851 -0.2264618733520993 0 -0.17397364154919151 -0.24678452467897261 0 -0.17023723619220851 -0.2264618733520993 0 -0.1828728819850387 -0.2363193331271172 0 -0.17397364154919151 -0.24678452467897261 0 -0.1828728819850387 -0.2363193331271172 0 -0.17397364154919151 -0.24678452467897261 0 -0.1927761404030483 -0.24738098496973321 0 -0.17522420275694239 -0.25358644175163281 0 -0.15352784145279941 -0.2448501544149298 0 -0.17397364154919151 -0.24678452467897261 0 -0.16446710107527709 -0.2328117662091039 0 -0.17023723619220851 -0.2264618733520993 0 -0.17397364154919151 -0.24678452467897261 0 -0.17522420275694239 -0.25358644175163281 0 -0.15352784145279941 -0.2448501544149298 0 -0.15352784145279941 -0.2448501544149298 0 -0.17397364154919151 -0.24678452467897261 0 -0.16026774791472079 -0.2374330518632306 0 -0.16446710107527709 -0.2328117662091039 0 -0.17397364154919151 -0.24678452467897261 0 -0.16026774791472079 -0.2374330518632306 0 -0.16446710107527709 -0.2328117662091039 0 -0.17397364154919151 -0.24678452467897261 0 -0.17397364154919151 -0.24678452467897261 0 -0.16026774791472079 -0.2374330518632306 0 -0.15470735857195661 -0.23427071108878469 0 -0.16446710107527709 -0.2328117662091039 0 -0.16026774791472079 -0.2374330518632306 0 -0.16446710107527709 -0.2328117662091039 0 -0.16026774791472079 -0.2374330518632306 0 -0.15352784145279941 -0.2448501544149298 0 -0.16026774791472079 -0.2374330518632306 0 -0.21535174887558051 -0.24323111077953299 0 -0.20173347918597681 -0.23783975887483111 0 -0.21999673591063401 -0.22395156051981621 0 -0.22123898279613269 -0.25275702491106239 0 -0.20632428494652991 -0.25294021015760532 0 -0.21535174887558051 -0.24323111077953299 0 -0.20632428494652991 -0.25294021015760532 0 -0.21535174887558051 -0.24323111077953299 0 -0.20173347918597681 -0.23783975887483111 0 -0.20632428494652991 -0.25294021015760532 0 -0.1927761404030483 -0.24738098496973321 0 -0.20173347918597681 -0.23783975887483111 0 -0.1828728819850387 -0.2363193331271172 0 -0.1927761404030483 -0.24738098496973321 0 -0.20173347918597681 -0.23783975887483111 0 -0.1828728819850387 -0.2363193331271172 0 -0.20173347918597681 -0.23783975887483111 0 -0.19446674646327111 -0.22167000419568131 0 -0.19446674646327111 -0.22167000419568131 0 -0.21999673591063401 -0.22395156051981621 0 -0.20173347918597681 -0.23783975887483111 0 -0.19446674646327111 -0.22167000419568131 0 -0.21999673591063401 -0.22395156051981621 0 -0.20393492949338241 -0.20145906137733791 0 -0.22803138080037119 -0.19845620280455439 0 -0.21999673591063401 -0.22395156051981621 0 -0.19446674646327111 -0.22167000419568131 0 -0.20393492949338241 -0.20145906137733791 0 -0.21999673591063401 -0.22395156051981621 0 -0.18268763059652621 -0.20736613922180891 0 -0.19446674646327111 -0.22167000419568131 0 -0.20393492949338241 -0.20145906137733791 0 -0.18912216696908421 -0.19127628253442061 0 -0.20393492949338241 -0.20145906137733791 0 -0.20002178004568821 -0.1832409690932881 0 -0.18268763059652621 -0.20736613922180891 0 -0.18912216696908421 -0.19127628253442061 0 -0.20393492949338241 -0.20145906137733791 0 -0.20393492949338241 -0.20145906137733791 0 -0.22803138080037119 -0.19845620280455439 0 -0.21361183285721311 -0.18442027167803379 0 -0.20393492949338241 -0.20145906137733791 0 -0.20002178004568821 -0.1832409690932881 0 -0.21361183285721311 -0.18442027167803379 0 -0.22803138080037119 -0.19845620280455439 0 -0.21361183285721311 -0.18442027167803379 0 -0.22672050310085259 -0.1827103983696414 0 -0.22803138080037119 -0.19845620280455439 0 -0.24728644507765571 -0.2002560626264171 0 -0.24061794079690979 -0.18131396252955059 0 -0.24728644507765571 -0.2002560626264171 0 -0.24061794079690979 -0.18131396252955059 0 -0.25774260565997792 -0.1890357780921619 0 -0.22803138080037119 -0.19845620280455439 0 -0.24728644507765571 -0.2002560626264171 0 -0.23996393313580219 -0.2117325393530167 0 -0.24728644507765571 -0.2002560626264171 0 -0.23996393313580219 -0.2117325393530167 0 -0.25558452198744702 -0.21497569689874149 0 -0.23996393313580219 -0.2117325393530167 0 -0.2455267253579968 -0.22623311684395109 0 -0.25558452198744702 -0.21497569689874149 0 -0.22803138080037119 -0.19845620280455439 0 -0.23996393313580219 -0.2117325393530167 0 -0.21999673591063401 -0.22395156051981621 0 -0.21999673591063401 -0.22395156051981621 0 -0.2455267253579968 -0.22623311684395109 0 -0.21999673591063401 -0.22395156051981621 0 -0.2455267253579968 -0.22623311684395109 0 -0.22895648894281681 -0.23918949786925989 0 -0.23996393313580219 -0.2117325393530167 0 -0.21999673591063401 -0.22395156051981621 0 -0.2455267253579968 -0.22623311684395109 0 -0.2455267253579968 -0.22623311684395109 0 -0.2445407545490455 -0.242169086467064 0 -0.25721675741410982 -0.23610804121555889 0 -0.2455267253579968 -0.22623311684395109 0 -0.2445407545490455 -0.242169086467064 0 -0.22895648894281681 -0.23918949786925989 0 -0.23590736163769621 -0.25558715954368849 0 -0.2445407545490455 -0.242169086467064 0 -0.22895648894281681 -0.23918949786925989 0 -0.22123898279613269 -0.25275702491106239 0 -0.23590736163769621 -0.25558715954368849 0 -0.22895648894281681 -0.23918949786925989 0 -0.21535174887558051 -0.24323111077953299 0 -0.21999673591063401 -0.22395156051981621 0 -0.22895648894281681 -0.23918949786925989 0 -0.22123898279613269 -0.25275702491106239 0 -0.21535174887558051 -0.24323111077953299 0 -0.22895648894281681 -0.23918949786925989 0 -0.2162058765890931 -0.1558945490252413 0 -0.2111435941550239 -0.1413207546562559 0 -0.19956934042216809 -0.15478525196500609 0 -0.2111435941550239 -0.1413207546562559 0 -0.20054923953594611 -0.12629621427753979 0 -0.22039661709150971 -0.12530263399076541 0 -0.18126402438478001 -0.12766945086563031 0 -0.20054923953594611 -0.12629621427753979 0 -0.1915247720916454 -0.1356637587344432 0 -0.2111435941550239 -0.1413207546562559 0 -0.20054923953594611 -0.12629621427753979 0 -0.1915247720916454 -0.1356637587344432 0 -0.1846484633716747 -0.14670496701039559 0 -0.2111435941550239 -0.1413207546562559 0 -0.1915247720916454 -0.1356637587344432 0 -0.1846484633716747 -0.14670496701039559 0 -0.2111435941550239 -0.1413207546562559 0 -0.19956934042216809 -0.15478525196500609 0 -0.1846484633716747 -0.14670496701039559 0 -0.2111435941550239 -0.1413207546562559 0 -0.18428025737269091 -0.1567072089313733 0 -0.1846484633716747 -0.14670496701039559 0 -0.19956934042216809 -0.15478525196500609 0 -0.18428025737269091 -0.1567072089313733 0 -0.19956934042216809 -0.15478525196500609 0 -0.19312591587846781 -0.16300903304911649 0 -0.18403619985510999 -0.1690183103103638 0 -0.19312591587846781 -0.16300903304911649 0 -0.1911774566480792 -0.17465322978038381 0 -0.19312591587846781 -0.16300903304911649 0 -0.1911774566480792 -0.17465322978038381 0 -0.20569616414973141 -0.16586096363866029 0 -0.19956934042216809 -0.15478525196500609 0 -0.19312591587846781 -0.16300903304911649 0 -0.20569616414973141 -0.16586096363866029 0 -0.20002178004568821 -0.1832409690932881 0 -0.1911774566480792 -0.17465322978038381 0 -0.20569616414973141 -0.16586096363866029 0 -0.18912216696908421 -0.19127628253442061 0 -0.20002178004568821 -0.1832409690932881 0 -0.1911774566480792 -0.17465322978038381 0 -0.21361183285721311 -0.18442027167803379 0 -0.20569616414973141 -0.16586096363866029 0 -0.22491509098693141 -0.16874494134683221 0 -0.20002178004568821 -0.1832409690932881 0 -0.21361183285721311 -0.18442027167803379 0 -0.20569616414973141 -0.16586096363866029 0 -0.2162058765890931 -0.1558945490252413 0 -0.19956934042216809 -0.15478525196500609 0 -0.20569616414973141 -0.16586096363866029 0 -0.2162058765890931 -0.1558945490252413 0 -0.20569616414973141 -0.16586096363866029 0 -0.22491509098693141 -0.16874494134683221 0 -0.2162058765890931 -0.1558945490252413 0 -0.22491509098693141 -0.16874494134683221 0 -0.23052257572453869 -0.14878643637005151 0 -0.22491509098693141 -0.16874494134683221 0 -0.23887816087994479 -0.16469721671546461 0 -0.23052257572453869 -0.14878643637005151 0 -0.22803138080037119 -0.19845620280455439 0 -0.22672050310085259 -0.1827103983696414 0 -0.24061794079690979 -0.18131396252955059 0 -0.21361183285721311 -0.18442027167803379 0 -0.22491509098693141 -0.16874494134683221 0 -0.22672050310085259 -0.1827103983696414 0 -0.22491509098693141 -0.16874494134683221 0 -0.22672050310085259 -0.1827103983696414 0 -0.24061794079690979 -0.18131396252955059 0 -0.24061794079690979 -0.18131396252955059 0 -0.23887816087994479 -0.16469721671546461 0 -0.25185558617192882 -0.17065781086998111 0 -0.22491509098693141 -0.16874494134683221 0 -0.24061794079690979 -0.18131396252955059 0 -0.23887816087994479 -0.16469721671546461 0 -0.23887816087994479 -0.16469721671546461 0 -0.24647961071941521 -0.1539829324609073 0 -0.25185558617192882 -0.17065781086998111 0 -0.24754887274922219 -0.14467637963377011 0 -0.23052257572453869 -0.14878643637005151 0 -0.23763872493837329 -0.1359365423021161 0 -0.23887816087994479 -0.16469721671546461 0 -0.24647961071941521 -0.1539829324609073 0 -0.23052257572453869 -0.14878643637005151 0 -0.24647961071941521 -0.1539829324609073 0 -0.24754887274922219 -0.14467637963377011 0 -0.23052257572453869 -0.14878643637005151 0 -0.24647961071941521 -0.1539829324609073 0 -0.23052257572453869 -0.14878643637005151 0 -0.2162058765890931 -0.1558945490252413 0 -0.2111435941550239 -0.1413207546562559 0 -0.23052257572453869 -0.14878643637005151 0 -0.2111435941550239 -0.1413207546562559 0 -0.23052257572453869 -0.14878643637005151 0 -0.23763872493837329 -0.1359365423021161 0 -0.2111435941550239 -0.1413207546562559 0 -0.22039661709150971 -0.12530263399076541 0 -0.23763872493837329 -0.1359365423021161 0 -0.2111435941550239 -0.1413207546562559 0 -0.23763872493837329 -0.1359365423021161 0 -0.22039661709150971 -0.12530263399076541 0 -0.23763872493837329 -0.1359365423021161 0 -0.23857506954762561 -0.11975223491879269 0 -0.23763872493837329 -0.1359365423021161 0 -0.24924508807722659 -0.1257843991541214 0 -0.25430937103603363 -0.1358634516022558 0 -0.23763872493837329 -0.1359365423021161 0 -0.24924508807722659 -0.1257843991541214 0 -0.23857506954762561 -0.11975223491879269 0 -0.24754887274922219 -0.14467637963377011 0 -0.23763872493837329 -0.1359365423021161 0 -0.25430937103603363 -0.1358634516022558 0 -0.24924508807722659 -0.1257843991541214 0 -0.23857506954762561 -0.11975223491879269 0 -0.25337825677268122 -0.1120537464675339 0 -0.23857506954762561 -0.11975223491879269 0 -0.23957340314030251 -0.1043872682842823 0 -0.25337825677268122 -0.1120537464675339 0 -0.23957340314030251 -0.1043872682842823 0 -0.23870816928080391 -0.087568890414997227 0 -0.25263941859887101 -0.093970859555490477 0 -0.23957340314030251 -0.1043872682842823 0 -0.25337825677268122 -0.1120537464675339 0 -0.25263941859887101 -0.093970859555490477 0 -0.23957340314030251 -0.1043872682842823 0 -0.22620169119527619 -0.098170497920498395 0 -0.23870816928080391 -0.087568890414997227 0 -0.23957340314030251 -0.1043872682842823 0 -0.22620169119527619 -0.098170497920498395 0 -0.22431828110894131 -0.1125286152567881 0 -0.22620169119527619 -0.098170497920498395 0 -0.22431828110894131 -0.1125286152567881 0 -0.2150911321756101 -0.10444880558683869 0 -0.22039661709150971 -0.12530263399076541 0 -0.23857506954762561 -0.11975223491879269 0 -0.22431828110894131 -0.1125286152567881 0 -0.23857506954762561 -0.11975223491879269 0 -0.23957340314030251 -0.1043872682842823 0 -0.22431828110894131 -0.1125286152567881 0 -0.23650986791081599 -0.068627799573093812 0 -0.23870816928080391 -0.087568890414997227 0 -0.25175401642449291 -0.077053893218510347 0 -0.23650986791081599 -0.068627799573093812 0 -0.25115174390531159 -0.058546135902508643 0 -0.25175401642449291 -0.077053893218510347 0 -0.23870816928080391 -0.087568890414997227 0 -0.25175401642449291 -0.077053893218510347 0 -0.25263941859887101 -0.093970859555490477 0 -0.23650986791081599 -0.068627799573093812 0 -0.23870816928080391 -0.087568890414997227 0 -0.22505824124925569 -0.080324490178351859 0 -0.22620169119527619 -0.098170497920498395 0 -0.22505824124925569 -0.080324490178351859 0 -0.21382639562410599 -0.090140836129450327 0 -0.22620169119527619 -0.098170497920498395 0 -0.23870816928080391 -0.087568890414997227 0 -0.22505824124925569 -0.080324490178351859 0 -0.23650986791081599 -0.068627799573093812 0 -0.22505824124925569 -0.080324490178351859 0 -0.217824421958107 -0.061522165585685122 0 -0.21083325515215859 -0.075203223242030229 0 -0.1957179401497483 -0.073301008470471163 0 -0.2030177189233604 -0.056391249796619268 0 -0.21083325515215859 -0.075203223242030229 0 -0.2030177189233604 -0.056391249796619268 0 -0.217824421958107 -0.061522165585685122 0 -0.22505824124925569 -0.080324490178351859 0 -0.21083325515215859 -0.075203223242030229 0 -0.217824421958107 -0.061522165585685122 0 -0.21083325515215859 -0.075203223242030229 0 -0.21382639562410599 -0.090140836129450327 0 -0.20001012175347971 -0.08684171700883013 0 -0.22505824124925569 -0.080324490178351859 0 -0.21083325515215859 -0.075203223242030229 0 -0.21382639562410599 -0.090140836129450327 0 -0.20001012175347971 -0.08684171700883013 0 -0.1957179401497483 -0.073301008470471163 0 -0.1863672221326888 -0.090797080529067181 0 -0.1957179401497483 -0.073301008470471163 0 -0.1863672221326888 -0.090797080529067181 0 -0.21083325515215859 -0.075203223242030229 0 -0.20001012175347971 -0.08684171700883013 0 -0.1957179401497483 -0.073301008470471163 0 -0.1957179401497483 -0.073301008470471163 0 -0.18229511840462689 -0.063800491120187125 0 -0.19031866432022471 -0.057023969427033513 0 -0.20054923953594611 -0.12629621427753979 0 -0.22039661709150971 -0.12530263399076541 0 -0.2106473165585559 -0.11565544996114691 0 -0.20054923953594611 -0.12629621427753979 0 -0.2106473165585559 -0.11565544996114691 0 -0.20046197639117111 -0.10574862866630939 0 -0.22039661709150971 -0.12530263399076541 0 -0.22431828110894131 -0.1125286152567881 0 -0.2106473165585559 -0.11565544996114691 0 -0.22431828110894131 -0.1125286152567881 0 -0.2106473165585559 -0.11565544996114691 0 -0.2150911321756101 -0.10444880558683869 0 -0.21382639562410599 -0.090140836129450327 0 -0.20001012175347971 -0.08684171700883013 0 -0.20046197639117111 -0.10574862866630939 0 -0.22620169119527619 -0.098170497920498395 0 -0.21382639562410599 -0.090140836129450327 0 -0.2150911321756101 -0.10444880558683869 0 -0.21382639562410599 -0.090140836129450327 0 -0.2150911321756101 -0.10444880558683869 0 -0.20046197639117111 -0.10574862866630939 0 -0.2106473165585559 -0.11565544996114691 0 -0.2150911321756101 -0.10444880558683869 0 -0.20046197639117111 -0.10574862866630939 0 -0.20001012175347971 -0.08684171700883013 0 -0.20046197639117111 -0.10574862866630939 0 -0.1863672221326888 -0.090797080529067181 0 -0.20046197639117111 -0.10574862866630939 0 -0.1770165041156295 -0.1082931525876633 0 -0.1863672221326888 -0.090797080529067181 0 -0.20054923953594611 -0.12629621427753979 0 -0.20046197639117111 -0.10574862866630939 0 -0.1770165041156295 -0.1082931525876633 0 -0.20054923953594611 -0.12629621427753979 0 -0.1770165041156295 -0.1082931525876633 0 -0.18126402438478001 -0.12766945086563031 0 -0.20054923953594611 -0.12629621427753979 0 -0.1770165041156295 -0.1082931525876633 0 -0.18126402438478001 -0.12766945086563031 0 -0.1631084809502045 -0.13431637081015149 0 -0.1770165041156295 -0.1082931525876633 0 -0.1631084809502045 -0.13431637081015149 0 -0.1770165041156295 -0.1082931525876633 0 -0.1631084809502045 -0.13431637081015149 0 -0.16027649312394629 -0.1083967679212471 0 -0.1770165041156295 -0.1082931525876633 0 -0.1631084809502045 -0.13431637081015149 0 -0.16027649312394629 -0.1083967679212471 0 -0.14664080783937489 -0.1178448104280701 0 -0.1770165041156295 -0.1082931525876633 0 -0.155996916015716 -0.092212704033776294 0 -0.16027649312394629 -0.1083967679212471 0 -0.1770165041156295 -0.1082931525876633 0 -0.155996916015716 -0.092212704033776294 0 -0.1770165041156295 -0.1082931525876633 0 -0.1863672221326888 -0.090797080529067181 0 -0.155996916015716 -0.092212704033776294 0 -0.1770165041156295 -0.1082931525876633 0 -0.1863672221326888 -0.090797080529067181 0 -0.1957179401497483 -0.073301008470471163 0 -0.1863672221326888 -0.090797080529067181 0 -0.17124881910847781 -0.073778571315876618 0 -0.1957179401497483 -0.073301008470471163 0 -0.18229511840462689 -0.063800491120187125 0 -0.17124881910847781 -0.073778571315876618 0 -0.18229511840462689 -0.063800491120187125 0 -0.17124881910847781 -0.073778571315876618 0 -0.17510559098224349 -0.051131697104315137 0 -0.17124881910847781 -0.073778571315876618 0 -0.1538029965563637 -0.064387312451108 0 -0.17510559098224349 -0.051131697104315137 0 -0.17124881910847781 -0.073778571315876618 0 -0.155996916015716 -0.092212704033776294 0 -0.1538029965563637 -0.064387312451108 0 -0.1863672221326888 -0.090797080529067181 0 -0.17124881910847781 -0.073778571315876618 0 -0.155996916015716 -0.092212704033776294 0 -0.155996916015716 -0.092212704033776294 0 -0.13497732791580139 -0.076132255479890693 0 -0.1538029965563637 -0.064387312451108 0 -0.13497732791580139 -0.076132255479890693 0 -0.13533633977788939 -0.059474615633110281 0 -0.155996916015716 -0.092212704033776294 0 -0.1538029965563637 -0.064387312451108 0 -0.13497732791580139 -0.076132255479890693 0 -0.1139577398158869 -0.060051806926005112 0 -0.13497732791580139 -0.076132255479890693 0 -0.13533633977788939 -0.059474615633110281 0 -0.155996916015716 -0.092212704033776294 0 -0.13497732791580139 -0.076132255479890693 0 -0.12834653564563239 -0.10083667827016669 0 -0.116387766544777 -0.081436152704049941 0 -0.13497732791580139 -0.076132255479890693 0 -0.12834653564563239 -0.10083667827016669 0 -0.12773106944785939 -0.1302683276577824 0 -0.12834653564563239 -0.10083667827016669 0 -0.14664080783937489 -0.1178448104280701 0 -0.16027649312394629 -0.1083967679212471 0 -0.155996916015716 -0.092212704033776294 0 -0.14664080783937489 -0.1178448104280701 0 -0.155996916015716 -0.092212704033776294 0 -0.12834653564563239 -0.10083667827016669 0 -0.14664080783937489 -0.1178448104280701 0 -0.14295110907722361 -0.021921776681734211 0 -0.13309249114678059 -0.033795583290699857 0 -0.15158807436094451 -0.036407454492567173 0 -0.14295110907722361 -0.021921776681734211 0 -0.15158807436094451 -0.036407454492567173 0 -0.16937091164279569 -0.014855649250871669 0 -0.14295110907722361 -0.021921776681734211 0 -0.16937091164279569 -0.014855649250871669 0 -0.14190339469330571 -0.010117617497673381 0 -0.1308273698701844 -0.003706324753454524 0 -0.14915950396313971 0.006694546598058051 0 -0.14295110907722361 -0.021921776681734211 0 -0.15372413480418251 -0.0092773897285387073 0 -0.16937091164279569 -0.014855649250871669 0 -0.15372413480418251 -0.0092773897285387073 0 -0.14190339469330571 -0.010117617497673381 0 -0.14915950396313971 0.006694546598058051 0 -0.14295110907722361 -0.021921776681734211 0 -0.15372413480418251 -0.0092773897285387073 0 -0.14190339469330571 -0.010117617497673381 0 -0.14295110907722361 -0.021921776681734211 0 -0.14190339469330571 -0.010117617497673381 0 -0.1319644764508387 -0.014273808822776721 0 -0.14190339469330571 -0.010117617497673381 0 -0.1308273698701844 -0.003706324753454524 0 -0.1319644764508387 -0.014273808822776721 0 -0.1223008309163644 -0.01266638868992407 0 -0.1308273698701844 -0.003706324753454524 0 -0.1319644764508387 -0.014273808822776721 0 -0.1217729598611689 -0.023068394004009941 0 -0.14295110907722361 -0.021921776681734211 0 -0.1319644764508387 -0.014273808822776721 0 -0.1223008309163644 -0.01266638868992407 0 -0.1217729598611689 -0.023068394004009941 0 -0.1319644764508387 -0.014273808822776721 0 -0.1165313065116514 -0.028987904112596389 0 -0.14295110907722361 -0.021921776681734211 0 -0.13309249114678059 -0.033795583290699857 0 -0.1165313065116514 -0.028987904112596389 0 -0.14295110907722361 -0.021921776681734211 0 -0.1217729598611689 -0.023068394004009941 0 -0.1165313065116514 -0.028987904112596389 0 -0.14295110907722361 -0.021921776681734211 0 -0.12405433683914049 -0.038238732028205748 0 -0.1302813490505676 -0.046114076915425177 0 -0.13309249114678059 -0.033795583290699857 0 -0.1302813490505676 -0.046114076915425177 0 -0.13309249114678059 -0.033795583290699857 0 -0.14377592298582359 -0.048182651593287273 0 -0.1139577398158869 -0.060051806926005112 0 -0.1302813490505676 -0.046114076915425177 0 -0.13533633977788939 -0.059474615633110281 0 -0.1302813490505676 -0.046114076915425177 0 -0.13533633977788939 -0.059474615633110281 0 -0.14377592298582359 -0.048182651593287273 0 -0.1538029965563637 -0.064387312451108 0 -0.14377592298582359 -0.048182651593287273 0 -0.15861110573989351 -0.047664379376895598 0 -0.1538029965563637 -0.064387312451108 0 -0.13533633977788939 -0.059474615633110281 0 -0.14377592298582359 -0.048182651593287273 0 -0.13309249114678059 -0.033795583290699857 0 -0.14377592298582359 -0.048182651593287273 0 -0.15158807436094451 -0.036407454492567173 0 -0.14377592298582359 -0.048182651593287273 0 -0.15158807436094451 -0.036407454492567173 0 -0.15861110573989351 -0.047664379376895598 0 -0.15158807436094451 -0.036407454492567173 0 -0.16758248790402799 -0.037642509972719528 0 -0.1758975211610789 -0.023504920906405619 0 -0.16758248790402799 -0.037642509972719528 0 -0.15861110573989351 -0.047664379376895598 0 -0.17510559098224349 -0.051131697104315137 0 -0.15158807436094451 -0.036407454492567173 0 -0.16758248790402799 -0.037642509972719528 0 -0.15861110573989351 -0.047664379376895598 0 -0.1538029965563637 -0.064387312451108 0 -0.15861110573989351 -0.047664379376895598 0 -0.17510559098224349 -0.051131697104315137 0 -0.17510559098224349 -0.051131697104315137 0 -0.19031866432022471 -0.057023969427033513 0 -0.19129306798239129 -0.045770222528604562 0 -0.18229511840462689 -0.063800491120187125 0 -0.17510559098224349 -0.051131697104315137 0 -0.19031866432022471 -0.057023969427033513 0 -0.16758248790402799 -0.037642509972719528 0 -0.17510559098224349 -0.051131697104315137 0 -0.17626497858470699 -0.033096811948537662 0 -0.17510559098224349 -0.051131697104315137 0 -0.17626497858470699 -0.033096811948537662 0 -0.18601539167933601 -0.036442119038596038 0 -0.17510559098224349 -0.051131697104315137 0 -0.18601539167933601 -0.036442119038596038 0 -0.19129306798239129 -0.045770222528604562 0 -0.16758248790402799 -0.037642509972719528 0 -0.17626497858470699 -0.033096811948537662 0 -0.1758975211610789 -0.023504920906405619 0 -0.17626497858470699 -0.033096811948537662 0 -0.18601539167933601 -0.036442119038596038 0 -0.18577207079687341 -0.029153014965294769 0 -0.18577207079687341 -0.029153014965294769 0 -0.1758975211610789 -0.023504920906405619 0 -0.18916079395695351 -0.023180833158666429 0 -0.1758975211610789 -0.023504920906405619 0 -0.18916079395695351 -0.023180833158666429 0 -0.19351967008589191 -0.01886640123371041 0 -0.1758975211610789 -0.023504920906405619 0 -0.17726052073477691 -0.01445355104179012 0 -0.18582346022452961 -0.01196680666757349 0 -0.1758975211610789 -0.023504920906405619 0 -0.16937091164279569 -0.014855649250871669 0 -0.17726052073477691 -0.01445355104179012 0 -0.17626497858470699 -0.033096811948537662 0 -0.18577207079687341 -0.029153014965294769 0 -0.1758975211610789 -0.023504920906405619 0 -0.15158807436094451 -0.036407454492567173 0 -0.1758975211610789 -0.023504920906405619 0 -0.15158807436094451 -0.036407454492567173 0 -0.1758975211610789 -0.023504920906405619 0 -0.16937091164279569 -0.014855649250871669 0 -0.15372413480418251 -0.0092773897285387073 0 -0.16937091164279569 -0.014855649250871669 0 -0.17482108057029491 -0.0012271014601547951 0 -0.15372413480418251 -0.0092773897285387073 0 -0.17482108057029491 -0.0012271014601547951 0 -0.14915950396313971 0.006694546598058051 0 -0.17482108057029491 -0.0012271014601547951 0 -0.18582346022452961 -0.01196680666757349 0 -0.20048265717745009 -0.0091487495183676416 0 -0.1758975211610789 -0.023504920906405619 0 -0.18582346022452961 -0.01196680666757349 0 -0.20020696796121329 -0.01060238732024405 0 -0.16937091164279569 -0.014855649250871669 0 -0.17482108057029491 -0.0012271014601547951 0 -0.17726052073477691 -0.01445355104179012 0 -0.17482108057029491 -0.0012271014601547951 0 -0.17726052073477691 -0.01445355104179012 0 -0.18582346022452961 -0.01196680666757349 0 -0.17482108057029491 -0.0012271014601547951 0 -0.1916493180489231 -0.0013587422905579211 0 -0.20048265717745009 -0.0091487495183676416 0 -0.17482108057029491 -0.0012271014601547951 0 -0.20048265717745009 -0.0091487495183676416 0 -0.1916493180489231 -0.0013587422905579211 0 -0.1988101645859931 -0.0018992895646593819 0 -0.20048265717745009 -0.0091487495183676416 0 -0.1916493180489231 -0.0013587422905579211 0 -0.1988101645859931 -0.0018992895646593819 0 -0.19624554147368009 0.00242762966048044 0 -0.1988101645859931 -0.0018992895646593819 0 -0.20048265717745009 -0.0091487495183676416 0 -0.2050648132605469 0.00070925757607599434 0 -0.18582346022452961 -0.01196680666757349 0 -0.20048265717745009 -0.0091487495183676416 0 -0.20020696796121329 -0.01060238732024405 0 -0.20020696796121329 -0.01060238732024405 0 -0.19351967008589191 -0.01886640123371041 0 -0.19898353718776879 -0.016066615627418991 0 -0.20020696796121329 -0.01060238732024405 0 -0.19898353718776879 -0.016066615627418991 0 -0.20261325837447919 -0.01828009819718325 0 -0.1758975211610789 -0.023504920906405619 0 -0.20020696796121329 -0.01060238732024405 0 -0.1758975211610789 -0.023504920906405619 0 -0.20020696796121329 -0.01060238732024405 0 -0.19351967008589191 -0.01886640123371041 0 -0.18916079395695351 -0.023180833158666429 0 -0.19351967008589191 -0.01886640123371041 0 -0.19760361472161581 -0.02249473730185407 0 -0.18916079395695351 -0.023180833158666429 0 -0.19182737550431431 -0.02684418947397469 0 -0.19760361472161581 -0.02249473730185407 0 -0.19182737550431431 -0.02684418947397469 0 -0.19760361472161581 -0.02249473730185407 0 -0.19477302254181439 -0.032548172470083472 0 -0.18577207079687341 -0.029153014965294769 0 -0.19182737550431431 -0.02684418947397469 0 -0.19477302254181439 -0.032548172470083472 0 -0.18577207079687341 -0.029153014965294769 0 -0.18916079395695351 -0.023180833158666429 0 -0.19182737550431431 -0.02684418947397469 0 -0.20267882519495919 -0.027380440373662711 0 -0.19760361472161581 -0.02249473730185407 0 -0.19477302254181439 -0.032548172470083472 0 -0.20267882519495919 -0.027380440373662711 0 -0.19760361472161581 -0.02249473730185407 0 -0.20261325837447919 -0.01828009819718325 0 -0.19351967008589191 -0.01886640123371041 0 -0.1987178075221058 -0.01873447530289846 0 -0.19898353718776879 -0.016066615627418991 0 -0.19351967008589191 -0.01886640123371041 0 -0.1987178075221058 -0.01873447530289846 0 -0.19760361472161581 -0.02249473730185407 0 -0.1987178075221058 -0.01873447530289846 0 -0.19760361472161581 -0.02249473730185407 0 -0.20261325837447919 -0.01828009819718325 0 -0.1987178075221058 -0.01873447530289846 0 -0.19898353718776879 -0.016066615627418991 0 -0.20261325837447919 -0.01828009819718325 0 -0.20267882519495919 -0.027380440373662711 0 -0.20261325837447919 -0.01828009819718325 0 -0.20938741566724259 -0.023817128691490101 0 -0.20261325837447919 -0.01828009819718325 0 -0.20938741566724259 -0.023817128691490101 0 -0.21296342334433821 -0.01436513850116387 0 -0.20267882519495919 -0.027380440373662711 0 -0.20938741566724259 -0.023817128691490101 0 -0.20990982638016001 -0.033819320913168638 0 -0.20938741566724259 -0.023817128691490101 0 -0.20990982638016001 -0.033819320913168638 0 -0.21877174504227639 -0.025240645472272019 0 -0.20938741566724259 -0.023817128691490101 0 -0.21296342334433821 -0.01436513850116387 0 -0.21877174504227639 -0.025240645472272019 0 -0.20020696796121329 -0.01060238732024405 0 -0.2245164147613477 0.0023001462659175201 0 -0.20048265717745009 -0.0091487495183676416 0 -0.2050648132605469 0.00070925757607599434 0 -0.2245164147613477 0.0023001462659175201 0 -0.20020696796121329 -0.01060238732024405 0 -0.21296342334433821 -0.01436513850116387 0 -0.2245164147613477 0.0023001462659175201 0 -0.20048265717745009 -0.0091487495183676416 0 -0.20020696796121329 -0.01060238732024405 0 -0.2245164147613477 0.0023001462659175201 0 -0.20020696796121329 -0.01060238732024405 0 -0.20261325837447919 -0.01828009819718325 0 -0.21296342334433821 -0.01436513850116387 0 -0.1957179401497483 -0.073301008470471163 0 -0.2030177189233604 -0.056391249796619268 0 -0.19031866432022471 -0.057023969427033513 0 -0.2030177189233604 -0.056391249796619268 0 -0.19031866432022471 -0.057023969427033513 0 -0.19129306798239129 -0.045770222528604562 0 -0.2030177189233604 -0.056391249796619268 0 -0.20139772668656089 -0.042197652815864288 0 -0.19129306798239129 -0.045770222528604562 0 -0.20139772668656089 -0.042197652815864288 0 -0.19129306798239129 -0.045770222528604562 0 -0.19477302254181439 -0.032548172470083472 0 -0.18601539167933601 -0.036442119038596038 0 -0.18577207079687341 -0.029153014965294769 0 -0.19477302254181439 -0.032548172470083472 0 -0.18601539167933601 -0.036442119038596038 0 -0.19129306798239129 -0.045770222528604562 0 -0.19477302254181439 -0.032548172470083472 0 -0.20267882519495919 -0.027380440373662711 0 -0.19477302254181439 -0.032548172470083472 0 -0.2021898502008736 -0.033986396643194777 0 -0.20139772668656089 -0.042197652815864288 0 -0.19477302254181439 -0.032548172470083472 0 -0.2021898502008736 -0.033986396643194777 0 -0.20139772668656089 -0.042197652815864288 0 -0.2021898502008736 -0.033986396643194777 0 -0.20990982638016001 -0.033819320913168638 0 -0.20267882519495919 -0.027380440373662711 0 -0.2021898502008736 -0.033986396643194777 0 -0.20990982638016001 -0.033819320913168638 0 -0.20990982638016001 -0.033819320913168638 0 -0.2229389916637923 -0.037209639315723277 0 -0.21877174504227639 -0.025240645472272019 0 -0.20990982638016001 -0.033819320913168638 0 -0.21397949739148869 -0.04715833384969647 0 -0.2229389916637923 -0.037209639315723277 0 -0.20139772668656089 -0.042197652815864288 0 -0.20990982638016001 -0.033819320913168638 0 -0.21397949739148869 -0.04715833384969647 0 -0.2030177189233604 -0.056391249796619268 0 -0.20139772668656089 -0.042197652815864288 0 -0.21397949739148869 -0.04715833384969647 0 -0.2030177189233604 -0.056391249796619268 0 -0.21397949739148869 -0.04715833384969647 0 -0.217824421958107 -0.061522165585685122 0 -0.23650986791081599 -0.068627799573093812 0 -0.217824421958107 -0.061522165585685122 0 -0.23298009712084161 -0.048457193276090667 0 -0.21397949739148869 -0.04715833384969647 0 -0.217824421958107 -0.061522165585685122 0 -0.23298009712084161 -0.048457193276090667 0 -0.23298009712084161 -0.048457193276090667 0 -0.2229389916637923 -0.037209639315723277 0 -0.23373555259425061 -0.030412903087978779 0 -0.21397949739148869 -0.04715833384969647 0 -0.23298009712084161 -0.048457193276090667 0 -0.2229389916637923 -0.037209639315723277 0 -0.23298009712084161 -0.048457193276090667 0 -0.23373555259425061 -0.030412903087978779 0 -0.25008687705643012 -0.037811544699967531 0 -0.23650986791081599 -0.068627799573093812 0 -0.23298009712084161 -0.048457193276090667 0 -0.25115174390531159 -0.058546135902508643 0 -0.23298009712084161 -0.048457193276090667 0 -0.25008687705643012 -0.037811544699967531 0 -0.25115174390531159 -0.058546135902508643 0 -0.2488730923558598 -0.0172032822455544 0 -0.25976749961366202 -0.0010753608270254731 0 -0.2245164147613477 0.0023001462659175201 0 -0.21296342334433821 -0.01436513850116387 0 -0.22815262244213569 -0.016445044713286599 0 -0.2245164147613477 0.0023001462659175201 0 -0.22815262244213569 -0.016445044713286599 0 -0.2488730923558598 -0.0172032822455544 0 -0.2245164147613477 0.0023001462659175201 0 -0.21296342334433821 -0.01436513850116387 0 -0.21877174504227639 -0.025240645472272019 0 -0.22815262244213569 -0.016445044713286599 0 -0.2229389916637923 -0.037209639315723277 0 -0.21877174504227639 -0.025240645472272019 0 -0.23373555259425061 -0.030412903087978779 0 -0.21877174504227639 -0.025240645472272019 0 -0.23373555259425061 -0.030412903087978779 0 -0.22815262244213569 -0.016445044713286599 0 -0.23373555259425061 -0.030412903087978779 0 -0.22815262244213569 -0.016445044713286599 0 -0.2488730923558598 -0.0172032822455544 0 -0.23373555259425061 -0.030412903087978779 0 -0.2488730923558598 -0.0172032822455544 0 -0.25008687705643012 -0.037811544699967531 0 -0.2488730923558598 -0.0172032822455544 0 -0.25976749961366202 -0.0010753608270254731 0 -0.27250295981119332 -0.017847891610294538 0 -0.2488730923558598 -0.0172032822455544 0 -0.26752634218707838 -0.034292856088331887 0 -0.25008687705643012 -0.037811544699967531 0 -0.2488730923558598 -0.0172032822455544 0 -0.27250295981119332 -0.017847891610294538 0 -0.26752634218707838 -0.034292856088331887 0 -0.27250295981119332 -0.017847891610294538 0 -0.28748077792494192 -0.03311402999097604 0 -0.26752634218707838 -0.034292856088331887 0 -0.25976749961366202 -0.0010753608270254731 0 -0.27250295981119332 -0.017847891610294538 0 -0.286468818953594 -0.0051721761543546442 0 -0.27250295981119332 -0.017847891610294538 0 -0.286468818953594 -0.0051721761543546442 0 -0.29247317643533932 -0.020792290693576462 0 -0.286468818953594 -0.0051721761543546442 0 -0.29247317643533932 -0.020792290693576462 0 -0.31083389858319399 -0.01771263237121502 0 -0.27250295981119332 -0.017847891610294538 0 -0.29247317643533932 -0.020792290693576462 0 -0.28748077792494192 -0.03311402999097604 0 -0.29247317643533932 -0.020792290693576462 0 -0.3029324749253583 -0.033385346120961487 0 -0.28748077792494192 -0.03311402999097604 0 -0.29247317643533932 -0.020792290693576462 0 -0.31083389858319399 -0.01771263237121502 0 -0.3029324749253583 -0.033385346120961487 0 -0.31083389858319399 -0.01771263237121502 0 -0.3029324749253583 -0.033385346120961487 0 -0.31797791488597388 -0.03414608070223938 0 -0.286468818953594 -0.0051721761543546442 0 -0.31083389858319399 -0.01771263237121502 0 -0.286468818953594 -0.0051721761543546442 0 -0.31083389858319399 -0.01771263237121502 0 -0.30622626610694459 0.00024583799610343368 0 -0.29471012009422592 -0.046221419021362023 0 -0.29936803152355562 -0.063498925962243991 0 -0.31304548563926732 -0.049960935336359723 0 -0.29936803152355562 -0.063498925962243991 0 -0.31604318545389631 -0.069902362457255757 0 -0.31304548563926732 -0.049960935336359723 0 -0.3029324749253583 -0.033385346120961487 0 -0.31797791488597388 -0.03414608070223938 0 -0.31304548563926732 -0.049960935336359723 0 -0.3029324749253583 -0.033385346120961487 0 -0.29471012009422592 -0.046221419021362023 0 -0.31304548563926732 -0.049960935336359723 0 -0.3029324749253583 -0.033385346120961487 0 -0.29471012009422592 -0.046221419021362023 0 -0.28748077792494192 -0.03311402999097604 0 -0.29471012009422592 -0.046221419021362023 0 -0.28748077792494192 -0.03311402999097604 0 -0.28014884294153047 -0.044560520968446329 0 -0.29471012009422592 -0.046221419021362023 0 -0.28275071198362661 -0.057686033747952482 0 -0.28014884294153047 -0.044560520968446329 0 -0.29471012009422592 -0.046221419021362023 0 -0.28275071198362661 -0.057686033747952482 0 -0.29936803152355562 -0.063498925962243991 0 -0.28275071198362661 -0.057686033747952482 0 -0.26827626251777958 -0.051488265993609228 0 -0.28014884294153047 -0.044560520968446329 0 -0.28275071198362661 -0.057686033747952482 0 -0.26827626251777958 -0.051488265993609228 0 -0.2677013479846112 -0.066832593215303437 0 -0.28748077792494192 -0.03311402999097604 0 -0.26752634218707838 -0.034292856088331887 0 -0.28014884294153047 -0.044560520968446329 0 -0.26827626251777958 -0.051488265993609228 0 -0.26752634218707838 -0.034292856088331887 0 -0.28014884294153047 -0.044560520968446329 0 -0.26827626251777958 -0.051488265993609228 0 -0.26752634218707838 -0.034292856088331887 0 -0.25008687705643012 -0.037811544699967531 0 -0.26827626251777958 -0.051488265993609228 0 -0.25115174390531159 -0.058546135902508643 0 -0.2677013479846112 -0.066832593215303437 0 -0.26827626251777958 -0.051488265993609228 0 -0.25008687705643012 -0.037811544699967531 0 -0.25115174390531159 -0.058546135902508643 0 -0.25175401642449291 -0.077053893218510347 0 -0.26733863509825839 -0.083025937522562918 0 -0.2677013479846112 -0.066832593215303437 0 -0.25115174390531159 -0.058546135902508643 0 -0.25175401642449291 -0.077053893218510347 0 -0.2677013479846112 -0.066832593215303437 0 -0.25175401642449291 -0.077053893218510347 0 -0.26733863509825839 -0.083025937522562918 0 -0.25263941859887101 -0.093970859555490477 0 -0.26733863509825839 -0.083025937522562918 0 -0.25263941859887101 -0.093970859555490477 0 -0.2650840308766873 -0.099735421425056259 0 -0.26733863509825839 -0.083025937522562918 0 -0.28493671797819831 -0.07319529290667702 0 -0.2837522637890037 -0.089908174417965447 0 -0.26733863509825839 -0.083025937522562918 0 -0.2650840308766873 -0.099735421425056259 0 -0.2837522637890037 -0.089908174417965447 0 -0.28275071198362661 -0.057686033747952482 0 -0.2677013479846112 -0.066832593215303437 0 -0.28493671797819831 -0.07319529290667702 0 -0.26733863509825839 -0.083025937522562918 0 -0.2677013479846112 -0.066832593215303437 0 -0.28493671797819831 -0.07319529290667702 0 -0.24924508807722659 -0.1257843991541214 0 -0.25337825677268122 -0.1120537464675339 0 -0.26232401809141931 -0.12531602047990839 0 -0.25337825677268122 -0.1120537464675339 0 -0.26545255323713352 -0.1137642390911566 0 -0.26232401809141931 -0.12531602047990839 0 -0.25337825677268122 -0.1120537464675339 0 -0.25263941859887101 -0.093970859555490477 0 -0.2650840308766873 -0.099735421425056259 0 -0.25337825677268122 -0.1120537464675339 0 -0.26545255323713352 -0.1137642390911566 0 -0.2650840308766873 -0.099735421425056259 0 -0.2650840308766873 -0.099735421425056259 0 -0.28118783881817672 -0.1069481668380006 0 -0.2837522637890037 -0.089908174417965447 0 -0.26545255323713352 -0.1137642390911566 0 -0.2650840308766873 -0.099735421425056259 0 -0.28118783881817672 -0.1069481668380006 0 -0.26545255323713352 -0.1137642390911566 0 -0.28118783881817672 -0.1069481668380006 0 -0.27551603752324622 -0.12138573291103801 0 -0.26545255323713352 -0.1137642390911566 0 -0.27551603752324622 -0.12138573291103801 0 -0.26232401809141931 -0.12531602047990839 0 -0.28118783881817672 -0.1069481668380006 0 -0.28829694366981751 -0.122180913281198 0 -0.29685206651416879 -0.1132040496784268 0 -0.28829694366981751 -0.122180913281198 0 -0.29685206651416879 -0.1132040496784268 0 -0.30036533075545663 -0.12763974635465661 0 -0.27551603752324622 -0.12138573291103801 0 -0.28829694366981751 -0.122180913281198 0 -0.28164259098368349 -0.12773858005991989 0 -0.28118783881817672 -0.1069481668380006 0 -0.27551603752324622 -0.12138573291103801 0 -0.28829694366981751 -0.122180913281198 0 -0.28118783881817672 -0.1069481668380006 0 -0.29685206651416879 -0.1132040496784268 0 -0.29876268961467811 -0.099309109427749898 0 -0.28118783881817672 -0.1069481668380006 0 -0.29876268961467811 -0.099309109427749898 0 -0.2837522637890037 -0.089908174417965447 0 -0.29876268961467811 -0.099309109427749898 0 -0.31224451900450118 -0.1147882246518258 0 -0.31276094390531128 -0.099248964117085836 0 -0.29685206651416879 -0.1132040496784268 0 -0.29876268961467811 -0.099309109427749898 0 -0.31224451900450118 -0.1147882246518258 0 -0.31224451900450118 -0.1147882246518258 0 -0.31168865834382392 -0.1302914114040104 0 -0.30036533075545663 -0.12763974635465661 0 -0.29685206651416879 -0.1132040496784268 0 -0.31224451900450118 -0.1147882246518258 0 -0.30036533075545663 -0.12763974635465661 0 -0.28493671797819831 -0.07319529290667702 0 -0.30208504580473872 -0.082467925292468852 0 -0.29936803152355562 -0.063498925962243991 0 -0.28275071198362661 -0.057686033747952482 0 -0.28493671797819831 -0.07319529290667702 0 -0.29936803152355562 -0.063498925962243991 0 -0.29876268961467811 -0.099309109427749898 0 -0.2837522637890037 -0.089908174417965447 0 -0.30208504580473872 -0.082467925292468852 0 -0.28493671797819831 -0.07319529290667702 0 -0.2837522637890037 -0.089908174417965447 0 -0.30208504580473872 -0.082467925292468852 0 -0.30208504580473872 -0.082467925292468852 0 -0.31884588140366471 -0.085707165747491001 0 -0.31276094390531128 -0.099248964117085836 0 -0.29876268961467811 -0.099309109427749898 0 -0.30208504580473872 -0.082467925292468852 0 -0.31276094390531128 -0.099248964117085836 0 -0.30208504580473872 -0.082467925292468852 0 -0.31604318545389631 -0.069902362457255757 0 -0.31884588140366471 -0.085707165747491001 0 -0.30208504580473872 -0.082467925292468852 0 -0.29936803152355562 -0.063498925962243991 0 -0.31604318545389631 -0.069902362457255757 0 -0.31604318545389631 -0.069902362457255757 0 -0.33702022574480611 -0.079023215191283025 0 -0.32645263802288998 -0.059456299311171378 0 -0.31604318545389631 -0.069902362457255757 0 -0.31884588140366471 -0.085707165747491001 0 -0.33702022574480611 -0.079023215191283025 0 -0.31884588140366471 -0.085707165747491001 0 -0.33702022574480611 -0.079023215191283025 0 -0.3274363969406609 -0.09929394587432841 0 -0.33702022574480611 -0.079023215191283025 0 -0.3274363969406609 -0.09929394587432841 0 -0.34844546322183301 -0.095295898859187975 0 -0.33702022574480611 -0.079023215191283025 0 -0.34911433812553838 -0.057742046875553191 0 -0.33702022574480611 -0.079023215191283025 0 -0.32645263802288998 -0.059456299311171378 0 -0.33741006274824481 -0.056276989107042028 0 -0.33702022574480611 -0.079023215191283025 0 -0.34911433812553838 -0.057742046875553191 0 -0.33741006274824481 -0.056276989107042028 0 -0.31224451900450118 -0.1147882246518258 0 -0.32920422099498597 -0.11942458871672321 0 -0.32205285601257022 -0.12890680514571221 0 -0.31224451900450118 -0.1147882246518258 0 -0.3274363969406609 -0.09929394587432841 0 -0.32920422099498597 -0.11942458871672321 0 -0.31224451900450118 -0.1147882246518258 0 -0.31168865834382392 -0.1302914114040104 0 -0.32205285601257022 -0.12890680514571221 0 -0.31224451900450118 -0.1147882246518258 0 -0.31276094390531128 -0.099248964117085836 0 -0.3274363969406609 -0.09929394587432841 0 -0.31884588140366471 -0.085707165747491001 0 -0.31276094390531128 -0.099248964117085836 0 -0.3274363969406609 -0.09929394587432841 0 -0.3274363969406609 -0.09929394587432841 0 -0.33952191557871331 -0.1073513236379135 0 -0.32920422099498597 -0.11942458871672321 0 -0.3274363969406609 -0.09929394587432841 0 -0.33952191557871331 -0.1073513236379135 0 -0.34844546322183301 -0.095295898859187975 0 -0.32920422099498597 -0.11942458871672321 0 -0.35300158115737351 -0.1153908611014145 0 -0.337730033971816 -0.1369690566387215 0 -0.33952191557871331 -0.1073513236379135 0 -0.32920422099498597 -0.11942458871672321 0 -0.35300158115737351 -0.1153908611014145 0 -0.35300158115737351 -0.1153908611014145 0 -0.36637657814104618 -0.1248527974026854 0 -0.35520250956017879 -0.1320261243990688 0 -0.35300158115737351 -0.1153908611014145 0 -0.34844546322183301 -0.095295898859187975 0 -0.36827312834293391 -0.093812665564109526 0 -0.33952191557871331 -0.1073513236379135 0 -0.35300158115737351 -0.1153908611014145 0 -0.34844546322183301 -0.095295898859187975 0 -0.36827312834293391 -0.093812665564109526 0 -0.37300257255490549 -0.1111697193622338 0 -0.35300158115737351 -0.1153908611014145 0 -0.36827312834293391 -0.093812665564109526 0 -0.35300158115737351 -0.1153908611014145 0 -0.36827312834293391 -0.093812665564109526 0 -0.37300257255490549 -0.1111697193622338 0 -0.36827312834293391 -0.093812665564109526 0 -0.37300257255490549 -0.1111697193622338 0 -0.38255888383713033 -0.092502536681813657 0 -0.35300158115737351 -0.1153908611014145 0 -0.37300257255490549 -0.1111697193622338 0 -0.36637657814104618 -0.1248527974026854 0 -0.37300257255490549 -0.1111697193622338 0 -0.36637657814104618 -0.1248527974026854 0 -0.38034207896725769 -0.1263442640507923 0 -0.33702022574480611 -0.079023215191283025 0 -0.34845544954266972 -0.082627750281131521 0 -0.34911433812553838 -0.057742046875553191 0 -0.35989634204588627 -0.079041248468637776 0 -0.36184699791954 -0.070228775687469103 0 -0.34911433812553838 -0.057742046875553191 0 -0.34845544954266972 -0.082627750281131521 0 -0.35989634204588627 -0.079041248468637776 0 -0.34911433812553838 -0.057742046875553191 0 -0.35989634204588627 -0.079041248468637776 0 -0.34911433812553838 -0.057742046875553191 0 -0.34844546322183301 -0.095295898859187975 0 -0.36827312834293391 -0.093812665564109526 0 -0.35626759578833073 -0.087694390793266699 0 -0.33702022574480611 -0.079023215191283025 0 -0.34844546322183301 -0.095295898859187975 0 -0.34845544954266972 -0.082627750281131521 0 -0.34844546322183301 -0.095295898859187975 0 -0.34845544954266972 -0.082627750281131521 0 -0.35626759578833073 -0.087694390793266699 0 -0.34845544954266972 -0.082627750281131521 0 -0.35626759578833073 -0.087694390793266699 0 -0.35989634204588627 -0.079041248468637776 0 -0.36827312834293391 -0.093812665564109526 0 -0.35989634204588627 -0.079041248468637776 0 -0.36184699791954 -0.070228775687469103 0 -0.36827312834293391 -0.093812665564109526 0 -0.36184699791954 -0.070228775687469103 0 -0.36827312834293391 -0.093812665564109526 0 -0.36840710195405918 -0.080061405315211526 0 -0.36184699791954 -0.070228775687469103 0 -0.36827312834293391 -0.093812665564109526 0 -0.35626759578833073 -0.087694390793266699 0 -0.35989634204588627 -0.079041248468637776 0 -0.36827312834293391 -0.093812665564109526 0 -0.37774874928737529 -0.080423923801911157 0 -0.36827312834293391 -0.093812665564109526 0 -0.36840710195405918 -0.080061405315211526 0 -0.37774874928737529 -0.080423923801911157 0 -0.36840710195405918 -0.080061405315211526 0 -0.37841599573768031 -0.052496443599965727 0 -0.36840710195405918 -0.080061405315211526 0 -0.36184699791954 -0.070228775687469103 0 -0.37841599573768031 -0.052496443599965727 0 -0.35805189482353278 -0.042015250031470393 0 -0.37841599573768031 -0.052496443599965727 0 -0.36184699791954 -0.070228775687469103 0 -0.36391321239596602 -0.053939343057610861 0 -0.37841599573768031 -0.052496443599965727 0 -0.36184699791954 -0.070228775687469103 0 -0.36391321239596602 -0.053939343057610861 0 -0.35542086749614182 -0.046644885810829761 0 -0.36391321239596602 -0.053939343057610861 0 -0.35805189482353278 -0.042015250031470393 0 -0.37841599573768031 -0.052496443599965727 0 -0.36184699791954 -0.070228775687469103 0 -0.34911433812553838 -0.057742046875553191 0 -0.35542086749614182 -0.046644885810829761 0 -0.36184699791954 -0.070228775687469103 0 -0.35542086749614182 -0.046644885810829761 0 -0.34911433812553838 -0.057742046875553191 0 -0.35542086749614182 -0.046644885810829761 0 -0.36391321239596602 -0.053939343057610861 0 -0.35542086749614182 -0.046644885810829761 0 -0.35805189482353278 -0.042015250031470393 0 -0.34911433812553838 -0.057742046875553191 0 -0.34215665816916452 -0.043997567731815727 0 -0.34911433812553838 -0.057742046875553191 0 -0.35542086749614182 -0.046644885810829761 0 -0.34215665816916452 -0.043997567731815727 0 -0.35352444508595821 -0.039685018155720092 0 -0.35210727634680061 -0.034484010818675283 0 -0.3351989782127931 -0.030253088588076928 0 -0.35352444508595821 -0.039685018155720092 0 -0.3351989782127931 -0.030253088588076928 0 -0.35805189482353278 -0.042015250031470393 0 -0.35210727634680061 -0.034484010818675283 0 -0.35661672874640349 -0.024850974032903209 0 -0.35352444508595821 -0.039685018155720092 0 -0.35542086749614182 -0.046644885810829761 0 -0.34215665816916452 -0.043997567731815727 0 -0.35352444508595821 -0.039685018155720092 0 -0.35542086749614182 -0.046644885810829761 0 -0.35542086749614182 -0.046644885810829761 0 -0.35805189482353278 -0.042015250031470393 0 -0.35352444508595821 -0.039685018155720092 0 -0.35805189482353278 -0.042015250031470393 0 -0.35352444508595821 -0.039685018155720092 0 -0.35542086749614182 -0.046644885810829761 0 -0.35805189482353278 -0.042015250031470393 0 -0.35352444508595821 -0.039685018155720092 0 -0.35805189482353278 -0.042015250031470393 0 -0.35210727634680061 -0.034484010818675283 0 -0.35352444508595821 -0.039685018155720092 0 -0.35210727634680061 -0.034484010818675283 0 -0.35805189482353278 -0.042015250031470393 0 -0.37242176172479219 -0.038602561064218867 0 -0.36968045282994472 -0.021553285365267918 0 -0.35805189482353278 -0.042015250031470393 0 -0.36968045282994472 -0.021553285365267918 0 -0.35805189482353278 -0.042015250031470393 0 -0.37242176172479219 -0.038602561064218867 0 -0.37841599573768031 -0.052496443599965727 0 -0.35805189482353278 -0.042015250031470393 0 -0.36968045282994472 -0.021553285365267918 0 -0.35661672874640349 -0.024850974032903209 0 -0.36968045282994472 -0.021553285365267918 0 -0.3632545040566233 -0.012463460552657089 0 -0.35661672874640349 -0.024850974032903209 0 -0.36968045282994472 -0.021553285365267918 0 -0.3632545040566233 -0.012463460552657089 0 -0.38130901083635682 -0.0010913206990655409 0 -0.3632545040566233 -0.012463460552657089 0 -0.36557867523590631 -0.0021662686662354169 0 -0.38130901083635682 -0.0010913206990655409 0 -0.36557867523590631 -0.0021662686662354169 0 -0.3556439998422094 -0.00520968311981758 0 -0.3591266599220081 0.002314006955012288 0 -0.3632545040566233 -0.012463460552657089 0 -0.36557867523590631 -0.0021662686662354169 0 -0.3556439998422094 -0.00520968311981758 0 -0.3632545040566233 -0.012463460552657089 0 -0.3556439998422094 -0.00520968311981758 0 -0.35019270780724809 -0.01452683231234856 0 -0.35019270780724809 -0.01452683231234856 0 -0.3457554037342303 -0.0046582507321048317 0 -0.33947905219084878 -0.013916007299954279 0 -0.3556439998422094 -0.00520968311981758 0 -0.35019270780724809 -0.01452683231234856 0 -0.3457554037342303 -0.0046582507321048317 0 -0.3556439998422094 -0.00520968311981758 0 -0.3457554037342303 -0.0046582507321048317 0 -0.3515305953768067 0.0043846640713042723 0 -0.35210727634680061 -0.034484010818675283 0 -0.34638389081368581 -0.023747314477905661 0 -0.3351989782127931 -0.030253088588076928 0 -0.35210727634680061 -0.034484010818675283 0 -0.35661672874640349 -0.024850974032903209 0 -0.34638389081368581 -0.023747314477905661 0 -0.3632545040566233 -0.012463460552657089 0 -0.35019270780724809 -0.01452683231234856 0 -0.35661672874640349 -0.024850974032903209 0 -0.35019270780724809 -0.01452683231234856 0 -0.35661672874640349 -0.024850974032903209 0 -0.34638389081368581 -0.023747314477905661 0 -0.35019270780724809 -0.01452683231234856 0 -0.34638389081368581 -0.023747314477905661 0 -0.33947905219084878 -0.013916007299954279 0 -0.3351989782127931 -0.030253088588076928 0 -0.33947905219084878 -0.013916007299954279 0 -0.32385765207493478 -0.0078489795256403549 0 -0.34638389081368581 -0.023747314477905661 0 -0.3351989782127931 -0.030253088588076928 0 -0.33947905219084878 -0.013916007299954279 0 -0.3351989782127931 -0.030253088588076928 0 -0.32385765207493478 -0.0078489795256403549 0 -0.3457554037342303 -0.0046582507321048317 0 -0.33548568050220218 -0.0024615781636486839 0 -0.3413382638878204 0.0063593465364551686 0 -0.3457554037342303 -0.0046582507321048317 0 -0.33947905219084878 -0.013916007299954279 0 -0.33548568050220218 -0.0024615781636486839 0 -0.33947905219084878 -0.013916007299954279 0 -0.33548568050220218 -0.0024615781636486839 0 -0.32385765207493478 -0.0078489795256403549 0 -0.33548568050220218 -0.0024615781636486839 0 -0.32385765207493478 -0.0078489795256403549 0 -0.32977592091503111 0.0063646395929695329 0 -0.31083389858319399 -0.01771263237121502 0 -0.32385765207493478 -0.0078489795256403549 0 -0.30622626610694459 0.00024583799610343368 0 -0.31083389858319399 -0.01771263237121502 0 -0.3351989782127931 -0.030253088588076928 0 -0.31083389858319399 -0.01771263237121502 0 -0.3351989782127931 -0.030253088588076928 0 -0.31797791488597388 -0.03414608070223938 0 -0.31083389858319399 -0.01771263237121502 0 -0.3351989782127931 -0.030253088588076928 0 -0.32385765207493478 -0.0078489795256403549 0 -0.31797791488597388 -0.03414608070223938 0 -0.31304548563926732 -0.049960935336359723 0 -0.32898384069503772 -0.045334441382984453 0 -0.3351989782127931 -0.030253088588076928 0 -0.31797791488597388 -0.03414608070223938 0 -0.32898384069503772 -0.045334441382984453 0 -0.31604318545389631 -0.069902362457255757 0 -0.31304548563926732 -0.049960935336359723 0 -0.32645263802288998 -0.059456299311171378 0 -0.31304548563926732 -0.049960935336359723 0 -0.32645263802288998 -0.059456299311171378 0 -0.32898384069503772 -0.045334441382984453 0 -0.32645263802288998 -0.059456299311171378 0 -0.33741006274824481 -0.056276989107042028 0 -0.32898384069503772 -0.045334441382984453 0 -0.34911433812553838 -0.057742046875553191 0 -0.33741006274824481 -0.056276989107042028 0 -0.34215665816916452 -0.043997567731815727 0 -0.33741006274824481 -0.056276989107042028 0 -0.34215665816916452 -0.043997567731815727 0 -0.32898384069503772 -0.045334441382984453 0 -0.35352444508595821 -0.039685018155720092 0 -0.3351989782127931 -0.030253088588076928 0 -0.34215665816916452 -0.043997567731815727 0 -0.3351989782127931 -0.030253088588076928 0 -0.34215665816916452 -0.043997567731815727 0 -0.3351989782127931 -0.030253088588076928 0 -0.34215665816916452 -0.043997567731815727 0 -0.32898384069503772 -0.045334441382984453 0 -0.29053868512760439 -0.25056299608644328 0 -0.30795773519465919 -0.25381458906647419 0 -0.3093005505405762 -0.2319324366364478 0 -0.3093005505405762 -0.2319324366364478 0 -0.30603211463924718 -0.22419577587051931 0 -0.3135535780935807 -0.22440143216467451 0 -0.30603211463924718 -0.22419577587051931 0 -0.30654023177491008 -0.21782177043080059 0 -0.3135535780935807 -0.22440143216467451 0 -0.3093005505405762 -0.2319324366364478 0 -0.30603211463924718 -0.22419577587051931 0 -0.29473409814792212 -0.22262746425015431 0 -0.30603211463924718 -0.22419577587051931 0 -0.29473409814792212 -0.22262746425015431 0 -0.30654023177491008 -0.21782177043080059 0 -0.3093005505405762 -0.2319324366364478 0 -0.29473409814792212 -0.22262746425015431 0 -0.28411737634441858 -0.22968187439209031 0 -0.3093005505405762 -0.2319324366364478 0 -0.28411737634441858 -0.22968187439209031 0 -0.29473409814792212 -0.22262746425015431 0 -0.28411737634441858 -0.22968187439209031 0 -0.28048167195113649 -0.2178591154430479 0 -0.28411737634441858 -0.22968187439209031 0 -0.28048167195113649 -0.2178591154430479 0 -0.27443664003918761 -0.25354702483286451 0 -0.29053868512760439 -0.25056299608644328 0 -0.27893920543334361 -0.24093273706553359 0 -0.29053868512760439 -0.25056299608644328 0 -0.28411737634441858 -0.22968187439209031 0 -0.27893920543334361 -0.24093273706553359 0 -0.29053868512760439 -0.25056299608644328 0 -0.28411737634441858 -0.22968187439209031 0 -0.29053868512760439 -0.25056299608644328 0 -0.3093005505405762 -0.2319324366364478 0 -0.28411737634441858 -0.22968187439209031 0 -0.25509643939260801 -0.25372761686286172 0 -0.27443664003918761 -0.25354702483286451 0 -0.27135851226572638 -0.23074984100070339 0 -0.27443664003918761 -0.25354702483286451 0 -0.27893920543334361 -0.24093273706553359 0 -0.27135851226572638 -0.23074984100070339 0 -0.27443664003918761 -0.25354702483286451 0 -0.27135851226572638 -0.23074984100070339 0 -0.27893920543334361 -0.24093273706553359 0 -0.27135851226572638 -0.23074984100070339 0 -0.27716447250231657 -0.23291411694808159 0 -0.28411737634441858 -0.22968187439209031 0 -0.27893920543334361 -0.24093273706553359 0 -0.27716447250231657 -0.23291411694808159 0 -0.25509643939260801 -0.25372761686286172 0 -0.2445407545490455 -0.242169086467064 0 -0.25721675741410982 -0.23610804121555889 0 -0.25509643939260801 -0.25372761686286172 0 -0.27135851226572638 -0.23074984100070339 0 -0.25509643939260801 -0.25372761686286172 0 -0.25721675741410982 -0.23610804121555889 0 -0.27135851226572638 -0.23074984100070339 0 -0.2455267253579968 -0.22623311684395109 0 -0.25721675741410982 -0.23610804121555889 0 -0.27105671480535981 -0.22851467316808499 0 -0.2455267253579968 -0.22623311684395109 0 -0.27105671480535981 -0.22851467316808499 0 -0.25558452198744702 -0.21497569689874149 0 -0.2455267253579968 -0.22623311684395109 0 -0.27105671480535981 -0.22851467316808499 0 -0.27105671480535981 -0.22851467316808499 0 -0.26939578132031738 -0.21621349245751231 0 -0.25558452198744702 -0.21497569689874149 0 -0.27105671480535981 -0.22851467316808499 0 -0.26939578132031738 -0.21621349245751231 0 -0.27105671480535981 -0.22851467316808499 0 -0.27282835555404172 -0.22867300061912049 0 -0.26939578132031738 -0.21621349245751231 0 -0.25721675741410982 -0.23610804121555889 0 -0.27105671480535981 -0.22851467316808499 0 -0.27135851226572638 -0.23074984100070339 0 -0.27105671480535981 -0.22851467316808499 0 -0.27282835555404172 -0.22867300061912049 0 -0.27105671480535981 -0.22851467316808499 0 -0.27282835555404172 -0.22867300061912049 0 -0.27135851226572638 -0.23074984100070339 0 -0.27282835555404172 -0.22867300061912049 0 -0.27135851226572638 -0.23074984100070339 0 -0.27105671480535981 -0.22851467316808499 0 -0.27135851226572638 -0.23074984100070339 0 -0.28411737634441858 -0.22968187439209031 0 -0.27282835555404172 -0.22867300061912049 0 -0.28411737634441858 -0.22968187439209031 0 -0.27282835555404172 -0.22867300061912049 0 -0.27716447250231657 -0.23291411694808159 0 -0.27282835555404172 -0.22867300061912049 0 -0.27135851226572638 -0.23074984100070339 0 -0.27716447250231657 -0.23291411694808159 0 -0.28411737634441858 -0.22968187439209031 0 -0.27282835555404172 -0.22867300061912049 0 -0.28048167195113649 -0.2178591154430479 0 -0.27282835555404172 -0.22867300061912049 0 -0.28048167195113649 -0.2178591154430479 0 -0.26939578132031738 -0.21621349245751231 0 -0.27282835555404172 -0.22867300061912049 0 -0.28048167195113649 -0.2178591154430479 0 -0.26939578132031738 -0.21621349245751231 0 -0.26084769027921217 -0.20399822282102689 0 -0.27446666320552249 -0.19829921981261869 0 -0.28048167195113649 -0.2178591154430479 0 -0.27446666320552249 -0.19829921981261869 0 -0.28048167195113649 -0.2178591154430479 0 -0.26939578132031738 -0.21621349245751231 0 -0.27446666320552249 -0.19829921981261869 0 -0.26939578132031738 -0.21621349245751231 0 -0.26084769027921217 -0.20399822282102689 0 -0.25558452198744702 -0.21497569689874149 0 -0.24728644507765571 -0.2002560626264171 0 -0.26084769027921217 -0.20399822282102689 0 -0.25558452198744702 -0.21497569689874149 0 -0.26084769027921217 -0.20399822282102689 0 -0.25774260565997792 -0.1890357780921619 0 -0.27446666320552249 -0.19829921981261869 0 -0.24728644507765571 -0.2002560626264171 0 -0.26084769027921217 -0.20399822282102689 0 -0.25774260565997792 -0.1890357780921619 0 -0.27446666320552249 -0.19829921981261869 0 -0.26845165445990821 -0.1787393241821896 0 -0.27446666320552249 -0.19829921981261869 0 -0.28601168365374952 -0.19043813099713211 0 -0.26845165445990821 -0.1787393241821896 0 -0.25774260565997792 -0.1890357780921619 0 -0.27446666320552249 -0.19829921981261869 0 -0.26845165445990821 -0.1787393241821896 0 -0.27446666320552249 -0.19829921981261869 0 -0.28601168365374952 -0.19043813099713211 0 -0.29053633634148113 -0.20365220427414821 0 -0.28601168365374952 -0.19043813099713211 0 -0.29053633634148113 -0.20365220427414821 0 -0.30059100073182948 -0.1894452931052511 0 -0.29053633634148113 -0.20365220427414821 0 -0.30059100073182948 -0.1894452931052511 0 -0.28048167195113649 -0.2178591154430479 0 -0.27446666320552249 -0.19829921981261869 0 -0.29053633634148113 -0.20365220427414821 0 -0.28048167195113649 -0.2178591154430479 0 -0.29053633634148113 -0.20365220427414821 0 -0.29473409814792212 -0.22262746425015431 0 -0.28048167195113649 -0.2178591154430479 0 -0.29139368133773569 -0.21376980700867301 0 -0.28048167195113649 -0.2178591154430479 0 -0.29139368133773569 -0.21376980700867301 0 -0.29053633634148113 -0.20365220427414821 0 -0.29473409814792212 -0.22262746425015431 0 -0.29139368133773569 -0.21376980700867301 0 -0.2998226189104029 -0.2109404440673415 0 -0.29139368133773569 -0.21376980700867301 0 -0.29053633634148113 -0.20365220427414821 0 -0.2998226189104029 -0.2109404440673415 0 -0.2998226189104029 -0.2109404440673415 0 -0.31593507560035511 -0.20678962154806879 0 -0.31504917971357688 -0.21334105842322079 0 -0.2998226189104029 -0.2109404440673415 0 -0.30172125789601723 -0.2027068907487023 0 -0.31593507560035511 -0.20678962154806879 0 -0.29053633634148113 -0.20365220427414821 0 -0.2998226189104029 -0.2109404440673415 0 -0.30172125789601723 -0.2027068907487023 0 -0.29473409814792212 -0.22262746425015431 0 -0.2998226189104029 -0.2109404440673415 0 -0.30654023177491008 -0.21782177043080059 0 -0.30654023177491008 -0.21782177043080059 0 -0.31504917971357688 -0.21334105842322079 0 -0.3135535780935807 -0.22440143216467451 0 -0.2998226189104029 -0.2109404440673415 0 -0.31504917971357688 -0.21334105842322079 0 -0.2998226189104029 -0.2109404440673415 0 -0.30654023177491008 -0.21782177043080059 0 -0.31504917971357688 -0.21334105842322079 0 -0.30059100073182948 -0.1894452931052511 0 -0.31593507560035511 -0.20678962154806879 0 -0.30059100073182948 -0.1894452931052511 0 -0.31813489754757951 -0.19052135025466191 0 -0.31593507560035511 -0.20678962154806879 0 -0.30059100073182948 -0.1894452931052511 0 -0.30172125789601723 -0.2027068907487023 0 -0.31593507560035511 -0.20678962154806879 0 -0.29053633634148113 -0.20365220427414821 0 -0.30059100073182948 -0.1894452931052511 0 -0.30172125789601723 -0.2027068907487023 0 -0.29966526059328807 -0.1785665249690451 0 -0.31085239279341842 -0.17494628251387809 0 -0.29463645419896339 -0.1696654730437776 0 -0.31085239279341842 -0.17494628251387809 0 -0.29463645419896339 -0.1696654730437776 0 -0.30059100073182948 -0.1894452931052511 0 -0.31085239279341842 -0.17494628251387809 0 -0.31813489754757951 -0.19052135025466191 0 -0.31085239279341842 -0.17494628251387809 0 -0.29463645419896339 -0.1696654730437776 0 -0.31297668627359221 -0.1719447254655431 0 -0.30059100073182948 -0.1894452931052511 0 -0.29966526059328807 -0.1785665249690451 0 -0.31085239279341842 -0.17494628251387809 0 -0.30059100073182948 -0.1894452931052511 0 -0.31085239279341842 -0.17494628251387809 0 -0.31085239279341842 -0.17494628251387809 0 -0.31297668627359221 -0.1719447254655431 0 -0.30252330730599908 -0.15852659737208191 0 -0.28630605104736961 -0.163577645268116 0 -0.31297668627359221 -0.1719447254655431 0 -0.29463645419896339 -0.1696654730437776 0 -0.28630605104736961 -0.163577645268116 0 -0.31297668627359221 -0.1719447254655431 0 -0.28630605104736961 -0.163577645268116 0 -0.31297668627359221 -0.1719447254655431 0 -0.31248211439623558 -0.16154068549317041 0 -0.30252330730599908 -0.15852659737208191 0 -0.31297668627359221 -0.1719447254655431 0 -0.31248211439623558 -0.16154068549317041 0 -0.30252330730599908 -0.15852659737208191 0 -0.31028305771630571 -0.15454610130322691 0 -0.29463645419896339 -0.1696654730437776 0 -0.27842051560450848 -0.1643846635736767 0 -0.29463645419896339 -0.1696654730437776 0 -0.28950575816816998 -0.1769149783394631 0 -0.27842051560450848 -0.1643846635736767 0 -0.29463645419896339 -0.1696654730437776 0 -0.28630605104736961 -0.163577645268116 0 -0.27842051560450848 -0.1643846635736767 0 -0.30252330730599908 -0.15852659737208191 0 -0.28630605104736961 -0.163577645268116 0 -0.2912346765450069 -0.15361794488836891 0 -0.28630605104736961 -0.163577645268116 0 -0.28173653564174972 -0.1563685272013712 0 -0.2912346765450069 -0.15361794488836891 0 -0.28630605104736961 -0.163577645268116 0 -0.28173653564174972 -0.1563685272013712 0 -0.27842051560450848 -0.1643846635736767 0 -0.28950575816816998 -0.1769149783394631 0 -0.27842051560450848 -0.1643846635736767 0 -0.28601168365374952 -0.19043813099713211 0 -0.28950575816816998 -0.1769149783394631 0 -0.26845165445990821 -0.1787393241821896 0 -0.29966526059328807 -0.1785665249690451 0 -0.29463645419896339 -0.1696654730437776 0 -0.28950575816816998 -0.1769149783394631 0 -0.30059100073182948 -0.1894452931052511 0 -0.28950575816816998 -0.1769149783394631 0 -0.28601168365374952 -0.19043813099713211 0 -0.30059100073182948 -0.1894452931052511 0 -0.28950575816816998 -0.1769149783394631 0 -0.30059100073182948 -0.1894452931052511 0 -0.29966526059328807 -0.1785665249690451 0 -0.28950575816816998 -0.1769149783394631 0 -0.28950575816816998 -0.1769149783394631 0 -0.26845165445990821 -0.1787393241821896 0 -0.27842051560450848 -0.1643846635736767 0 -0.24061794079690979 -0.18131396252955059 0 -0.25774260565997792 -0.1890357780921619 0 -0.25185558617192882 -0.17065781086998111 0 -0.25774260565997792 -0.1890357780921619 0 -0.26845165445990821 -0.1787393241821896 0 -0.25185558617192882 -0.17065781086998111 0 -0.26845165445990821 -0.1787393241821896 0 -0.25185558617192882 -0.17065781086998111 0 -0.26243664571429243 -0.1591794285517609 0 -0.26845165445990821 -0.1787393241821896 0 -0.26243664571429243 -0.1591794285517609 0 -0.24647961071941521 -0.1539829324609073 0 -0.25185558617192882 -0.17065781086998111 0 -0.26243664571429243 -0.1591794285517609 0 -0.24647961071941521 -0.1539829324609073 0 -0.26243664571429243 -0.1591794285517609 0 -0.26243664571429243 -0.1591794285517609 0 -0.26124795401837619 -0.15531398354707021 0 -0.26243664571429243 -0.1591794285517609 0 -0.27842051560450848 -0.1643846635736767 0 -0.26845165445990821 -0.1787393241821896 0 -0.26243664571429243 -0.1591794285517609 0 -0.27842051560450848 -0.1643846635736767 0 -0.26243664571429243 -0.1591794285517609 0 -0.27336988596649042 -0.1586756338644599 0 -0.26781847092595412 -0.1531766459561679 0 -0.26243664571429243 -0.1591794285517609 0 -0.27336988596649042 -0.1586756338644599 0 -0.27842051560450848 -0.1643846635736767 0 -0.28173653564174972 -0.1563685272013712 0 -0.27336988596649042 -0.1586756338644599 0 -0.27842051560450848 -0.1643846635736767 0 -0.27336988596649042 -0.1586756338644599 0 -0.27842051560450848 -0.1643846635736767 0 -0.28173653564174972 -0.1563685272013712 0 -0.27617787836631807 -0.15048011723399729 0 -0.28491020632080588 -0.14747515837960659 0 -0.28173653564174972 -0.1563685272013712 0 -0.27336988596649042 -0.1586756338644599 0 -0.27617787836631807 -0.15048011723399729 0 -0.27617787836631807 -0.15048011723399729 0 -0.27863063054663251 -0.1411588362312281 0 -0.26970928140547867 -0.14439704218144259 0 -0.27617787836631807 -0.15048011723399729 0 -0.27863063054663251 -0.1411588362312281 0 -0.28491020632080588 -0.14747515837960659 0 -0.27617787836631807 -0.15048011723399729 0 -0.26970928140547867 -0.14439704218144259 0 -0.26781847092595412 -0.1531766459561679 0 -0.26970928140547867 -0.14439704218144259 0 -0.26781847092595412 -0.1531766459561679 0 -0.26333319627589202 -0.14949727627894921 0 -0.27336988596649042 -0.1586756338644599 0 -0.27617787836631807 -0.15048011723399729 0 -0.26781847092595412 -0.1531766459561679 0 -0.24647961071941521 -0.1539829324609073 0 -0.26243664571429243 -0.1591794285517609 0 -0.26124795401837619 -0.15531398354707021 0 -0.26781847092595412 -0.1531766459561679 0 -0.26124795401837619 -0.15531398354707021 0 -0.26333319627589202 -0.14949727627894921 0 -0.26243664571429243 -0.1591794285517609 0 -0.26781847092595412 -0.1531766459561679 0 -0.26124795401837619 -0.15531398354707021 0 -0.26124795401837619 -0.15531398354707021 0 -0.26333319627589202 -0.14949727627894921 0 -0.25621760643898461 -0.1495195702395756 0 -0.26970928140547867 -0.14439704218144259 0 -0.26333319627589202 -0.14949727627894921 0 -0.260125347637988 -0.14396934482771459 0 -0.26970928140547867 -0.14439704218144259 0 -0.260125347637988 -0.14396934482771459 0 -0.26413989947066852 -0.13640376007999361 0 -0.26333319627589202 -0.14949727627894921 0 -0.260125347637988 -0.14396934482771459 0 -0.25621760643898461 -0.1495195702395756 0 -0.24754887274922219 -0.14467637963377011 0 -0.260125347637988 -0.14396934482771459 0 -0.25430937103603363 -0.1358634516022558 0 -0.24754887274922219 -0.14467637963377011 0 -0.260125347637988 -0.14396934482771459 0 -0.25621760643898461 -0.1495195702395756 0 -0.24647961071941521 -0.1539829324609073 0 -0.26124795401837619 -0.15531398354707021 0 -0.25621760643898461 -0.1495195702395756 0 -0.24647961071941521 -0.1539829324609073 0 -0.24754887274922219 -0.14467637963377011 0 -0.25621760643898461 -0.1495195702395756 0 -0.24924508807722659 -0.1257843991541214 0 -0.25430937103603363 -0.1358634516022558 0 -0.26232401809141931 -0.12531602047990839 0 -0.260125347637988 -0.14396934482771459 0 -0.25430937103603363 -0.1358634516022558 0 -0.26413989947066852 -0.13640376007999361 0 -0.25430937103603363 -0.1358634516022558 0 -0.26413989947066852 -0.13640376007999361 0 -0.26232401809141931 -0.12531602047990839 0 -0.26413989947066852 -0.13640376007999361 0 -0.26232401809141931 -0.12531602047990839 0 -0.27423147918242302 -0.1324729413086464 0 -0.27551603752324622 -0.12138573291103801 0 -0.26232401809141931 -0.12531602047990839 0 -0.27423147918242302 -0.1324729413086464 0 -0.26970928140547867 -0.14439704218144259 0 -0.26413989947066852 -0.13640376007999361 0 -0.27423147918242302 -0.1324729413086464 0 -0.27863063054663251 -0.1411588362312281 0 -0.26970928140547867 -0.14439704218144259 0 -0.27423147918242302 -0.1324729413086464 0 -0.27863063054663251 -0.1411588362312281 0 -0.27423147918242302 -0.1324729413086464 0 -0.28743688568394332 -0.13546594243000559 0 -0.27551603752324622 -0.12138573291103801 0 -0.27423147918242302 -0.1324729413086464 0 -0.28164259098368349 -0.12773858005991989 0 -0.27423147918242302 -0.1324729413086464 0 -0.28164259098368349 -0.12773858005991989 0 -0.28743688568394332 -0.13546594243000559 0 -0.28829694366981751 -0.122180913281198 0 -0.28164259098368349 -0.12773858005991989 0 -0.28743688568394332 -0.13546594243000559 0 -0.28829694366981751 -0.122180913281198 0 -0.28743688568394332 -0.13546594243000559 0 -0.30036533075545663 -0.12763974635465661 0 -0.28743688568394332 -0.13546594243000559 0 -0.30036533075545663 -0.12763974635465661 0 -0.2975133441389845 -0.13975982706115239 0 -0.28743688568394332 -0.13546594243000559 0 -0.29251519382118901 -0.1452181374993953 0 -0.2975133441389845 -0.13975982706115239 0 -0.28743688568394332 -0.13546594243000559 0 -0.28491020632080588 -0.14747515837960659 0 -0.29251519382118901 -0.1452181374993953 0 -0.27863063054663251 -0.1411588362312281 0 -0.28743688568394332 -0.13546594243000559 0 -0.28491020632080588 -0.14747515837960659 0 -0.28173653564174972 -0.1563685272013712 0 -0.28491020632080588 -0.14747515837960659 0 -0.2912346765450069 -0.15361794488836891 0 -0.28491020632080588 -0.14747515837960659 0 -0.2912346765450069 -0.15361794488836891 0 -0.29251519382118901 -0.1452181374993953 0 -0.2912346765450069 -0.15361794488836891 0 -0.29251519382118901 -0.1452181374993953 0 -0.30137404263177819 -0.1485132690018704 0 -0.29251519382118901 -0.1452181374993953 0 -0.30137404263177819 -0.1485132690018704 0 -0.2975133441389845 -0.13975982706115239 0 -0.30137404263177819 -0.1485132690018704 0 -0.30730635033950188 -0.13870549479087729 0 -0.2975133441389845 -0.13975982706115239 0 -0.30252330730599908 -0.15852659737208191 0 -0.2912346765450069 -0.15361794488836891 0 -0.30137404263177819 -0.1485132690018704 0 -0.30137404263177819 -0.1485132690018704 0 -0.31028305771630571 -0.15454610130322691 0 -0.313514037539673 -0.14651657118878589 0 -0.30252330730599908 -0.15852659737208191 0 -0.30137404263177819 -0.1485132690018704 0 -0.31028305771630571 -0.15454610130322691 0 -0.30730635033950188 -0.13870549479087729 0 -0.3159281799089047 -0.13671763178998489 0 -0.313514037539673 -0.14651657118878589 0 -0.30137404263177819 -0.1485132690018704 0 -0.30730635033950188 -0.13870549479087729 0 -0.313514037539673 -0.14651657118878589 0 -0.30730635033950188 -0.13870549479087729 0 -0.31168865834382392 -0.1302914114040104 0 -0.3159281799089047 -0.13671763178998489 0 -0.30730635033950188 -0.13870549479087729 0 -0.31168865834382392 -0.1302914114040104 0 -0.30036533075545663 -0.12763974635465661 0 -0.30730635033950188 -0.13870549479087729 0 -0.30036533075545663 -0.12763974635465661 0 -0.2975133441389845 -0.13975982706115239 0 -0.32507899730895462 -0.13916787642053849 0 -0.32205285601257022 -0.12890680514571221 0 -0.3159281799089047 -0.13671763178998489 0 -0.31168865834382392 -0.1302914114040104 0 -0.32205285601257022 -0.12890680514571221 0 -0.3159281799089047 -0.13671763178998489 0 -0.32507899730895462 -0.13916787642053849 0 -0.3159281799089047 -0.13671763178998489 0 -0.313514037539673 -0.14651657118878589 0 -0.32507899730895462 -0.13916787642053849 0 -0.313514037539673 -0.14651657118878589 0 -0.32245848678625882 -0.15854725217602861 0 -0.32507899730895462 -0.13916787642053849 0 -0.32245848678625882 -0.15854725217602861 0 -0.31028305771630571 -0.15454610130322691 0 -0.313514037539673 -0.14651657118878589 0 -0.32245848678625882 -0.15854725217602861 0 -0.33872826036548198 -0.153836537473128 0 -0.337730033971816 -0.1369690566387215 0 -0.32245848678625882 -0.15854725217602861 0 -0.337730033971816 -0.1369690566387215 0 -0.32245848678625882 -0.15854725217602861 0 -0.33872826036548198 -0.153836537473128 0 -0.337730033971816 -0.1369690566387215 0 -0.3532930225747426 -0.14625505478622289 0 -0.32507899730895462 -0.13916787642053849 0 -0.337730033971816 -0.1369690566387215 0 -0.32245848678625882 -0.15854725217602861 0 -0.32920422099498597 -0.11942458871672321 0 -0.32205285601257022 -0.12890680514571221 0 -0.337730033971816 -0.1369690566387215 0 -0.32507899730895462 -0.13916787642053849 0 -0.32205285601257022 -0.12890680514571221 0 -0.337730033971816 -0.1369690566387215 0 -0.337730033971816 -0.1369690566387215 0 -0.35520250956017879 -0.1320261243990688 0 -0.3532930225747426 -0.14625505478622289 0 -0.35300158115737351 -0.1153908611014145 0 -0.337730033971816 -0.1369690566387215 0 -0.35300158115737351 -0.1153908611014145 0 -0.337730033971816 -0.1369690566387215 0 -0.35520250956017879 -0.1320261243990688 0 -0.35520250956017879 -0.1320261243990688 0 -0.37033414846551499 -0.13933301809991741 0 -0.3532930225747426 -0.14625505478622289 0 -0.36637657814104618 -0.1248527974026854 0 -0.35520250956017879 -0.1320261243990688 0 -0.37033414846551499 -0.13933301809991741 0 -0.36637657814104618 -0.1248527974026854 0 -0.37033414846551499 -0.13933301809991741 0 -0.38034207896725769 -0.1263442640507923 0 -0.37033414846551499 -0.13933301809991741 0 -0.36755111874268631 -0.15413462722283369 0 -0.3532930225747426 -0.14625505478622289 0 -0.36755111874268631 -0.15413462722283369 0 -0.3532930225747426 -0.14625505478622289 0 -0.35021206434277757 -0.16123096488366781 0 -0.33872826036548198 -0.153836537473128 0 -0.3532930225747426 -0.14625505478622289 0 -0.35021206434277757 -0.16123096488366781 0 -0.35021206434277757 -0.16123096488366781 0 -0.34578936231047042 -0.1822386794551695 0 -0.33550457865995859 -0.16602130258984979 0 -0.36755111874268631 -0.15413462722283369 0 -0.35021206434277757 -0.16123096488366781 0 -0.36164159184826478 -0.17471782474634501 0 -0.36755111874268631 -0.15413462722283369 0 -0.37497398290543532 -0.1672393582268307 0 -0.36164159184826478 -0.17471782474634501 0 -0.37497398290543532 -0.1672393582268307 0 -0.36164159184826478 -0.17471782474634501 0 -0.37124400512613698 -0.19022427994908231 0 -0.37497398290543532 -0.1672393582268307 0 -0.37124400512613698 -0.19022427994908231 0 -0.36164159184826478 -0.17471782474634501 0 -0.34578936231047042 -0.1822386794551695 0 -0.37124400512613698 -0.19022427994908231 0 -0.35021206434277757 -0.16123096488366781 0 -0.36164159184826478 -0.17471782474634501 0 -0.34578936231047042 -0.1822386794551695 0 -0.34578936231047042 -0.1822386794551695 0 -0.37124400512613698 -0.19022427994908231 0 -0.34578936231047042 -0.1822386794551695 0 -0.33550457865995859 -0.16602130258984979 0 -0.32033471949480441 -0.17425307896125519 0 -0.34578936231047042 -0.1822386794551695 0 -0.32033471949480441 -0.17425307896125519 0 -0.33872826036548198 -0.153836537473128 0 -0.33550457865995859 -0.16602130258984979 0 -0.32245848678625882 -0.15854725217602861 0 -0.33872826036548198 -0.153836537473128 0 -0.35021206434277757 -0.16123096488366781 0 -0.33550457865995859 -0.16602130258984979 0 -0.33550457865995859 -0.16602130258984979 0 -0.32245848678625882 -0.15854725217602861 0 -0.32033471949480441 -0.17425307896125519 0 -0.32245848678625882 -0.15854725217602861 0 -0.31297668627359221 -0.1719447254655431 0 -0.32033471949480441 -0.17425307896125519 0 -0.32245848678625882 -0.15854725217602861 0 -0.32033471949480441 -0.17425307896125519 0 -0.31248211439623558 -0.16154068549317041 0 -0.31028305771630571 -0.15454610130322691 0 -0.32245848678625882 -0.15854725217602861 0 -0.31248211439623558 -0.16154068549317041 0 -0.32245848678625882 -0.15854725217602861 0 -0.31297668627359221 -0.1719447254655431 0 -0.32245848678625882 -0.15854725217602861 0 -0.31297668627359221 -0.1719447254655431 0 -0.31085239279341842 -0.17494628251387809 0 -0.31297668627359221 -0.1719447254655431 0 -0.31478163385959562 -0.17622586144862079 0 -0.31297668627359221 -0.1719447254655431 0 -0.31478163385959562 -0.17622586144862079 0 -0.32033471949480441 -0.17425307896125519 0 -0.31478163385959562 -0.17622586144862079 0 -0.32033471949480441 -0.17425307896125519 0 -0.31813489754757951 -0.19052135025466191 0 -0.31085239279341842 -0.17494628251387809 0 -0.31478163385959562 -0.17622586144862079 0 -0.32033471949480441 -0.17425307896125519 0 -0.31813489754757951 -0.19052135025466191 0 -0.34578936231047042 -0.1822386794551695 0 -0.32033471949480441 -0.17425307896125519 0 -0.31813489754757951 -0.19052135025466191 0 -0.31297668627359221 -0.1719447254655431 0 -0.32033471949480441 -0.17425307896125519 0 -0.31085239279341842 -0.17494628251387809 0 -0.31478163385959562 -0.17622586144862079 0 -0.31813489754757951 -0.19052135025466191 0 -0.31813489754757951 -0.19052135025466191 0 -0.31593507560035511 -0.20678962154806879 0 -0.31813489754757951 -0.19052135025466191 0 -0.31593507560035511 -0.20678962154806879 0 -0.33130173448687628 -0.20126569998359761 0 -0.31593507560035511 -0.20678962154806879 0 -0.31504917971357688 -0.21334105842322079 0 -0.31593507560035511 -0.20678962154806879 0 -0.32281397409937618 -0.21456525324396089 0 -0.31504917971357688 -0.21334105842322079 0 -0.32281397409937618 -0.21456525324396089 0 -0.31860757482294583 -0.22252325135789491 0 -0.31504917971357688 -0.21334105842322079 0 -0.32281397409937618 -0.21456525324396089 0 -0.31593507560035511 -0.20678962154806879 0 -0.31504917971357688 -0.21334105842322079 0 -0.32281397409937618 -0.21456525324396089 0 -0.31593507560035511 -0.20678962154806879 0 -0.32281397409937618 -0.21456525324396089 0 -0.33130173448687628 -0.20126569998359761 0 -0.32281397409937618 -0.21456525324396089 0 -0.33130173448687628 -0.20126569998359761 0 -0.34449915780498402 -0.21798413187232951 0 -0.32281397409937618 -0.21456525324396089 0 -0.34449915780498402 -0.21798413187232951 0 -0.33130173448687628 -0.20126569998359761 0 -0.34534632330101622 -0.2032582556082419 0 -0.34449915780498402 -0.21798413187232951 0 -0.34578936231047042 -0.1822386794551695 0 -0.33130173448687628 -0.20126569998359761 0 -0.34534632330101622 -0.2032582556082419 0 -0.34578936231047042 -0.1822386794551695 0 -0.31813489754757951 -0.19052135025466191 0 -0.33130173448687628 -0.20126569998359761 0 -0.34578936231047042 -0.1822386794551695 0 -0.37124400512613698 -0.19022427994908231 0 -0.36005221778385998 -0.20440096667511021 0 -0.34578936231047042 -0.1822386794551695 0 -0.36005221778385998 -0.20440096667511021 0 -0.34534632330101622 -0.2032582556082419 0 -0.37124400512613698 -0.19022427994908231 0 -0.36835182259138211 -0.20804652798946921 0 -0.37124400512613698 -0.19022427994908231 0 -0.36835182259138211 -0.20804652798946921 0 -0.36005221778385998 -0.20440096667511021 0 -0.37468689411984901 -0.19130437901972611 0 -0.37124400512613698 -0.19022427994908231 0 -0.36835182259138211 -0.20804652798946921 0 -0.37468689411984901 -0.19130437901972611 0 -0.37124400512613698 -0.19022427994908231 0 -0.36835182259138211 -0.20804652798946921 0 -0.36618434151059132 -0.22140301050070069 0 -0.36835182259138211 -0.20804652798946921 0 -0.36005221778385998 -0.20440096667511021 0 -0.35956526354828361 -0.21299876299814391 0 -0.36835182259138211 -0.20804652798946921 0 -0.36005221778385998 -0.20440096667511021 0 -0.36835182259138211 -0.20804652798946921 0 -0.35956526354828361 -0.21299876299814391 0 -0.36618434151059132 -0.22140301050070069 0 -0.35956526354828361 -0.21299876299814391 0 -0.3523657406095359 -0.20966052928845641 0 -0.34449915780498402 -0.21798413187232951 0 -0.35956526354828361 -0.21299876299814391 0 -0.34449915780498402 -0.21798413187232951 0 -0.36618434151059132 -0.22140301050070069 0 -0.36005221778385998 -0.20440096667511021 0 -0.3523657406095359 -0.20966052928845641 0 -0.34534632330101622 -0.2032582556082419 0 -0.36005221778385998 -0.20440096667511021 0 -0.35956526354828361 -0.21299876299814391 0 -0.3523657406095359 -0.20966052928845641 0 -0.3523657406095359 -0.20966052928845641 0 -0.34534632330101622 -0.2032582556082419 0 -0.34449915780498402 -0.21798413187232951 0 -0.34449915780498402 -0.21798413187232951 0 -0.35413538695721408 -0.22734526041597411 0 -0.3406573787672369 -0.2347347241145874 0 -0.34449915780498402 -0.21798413187232951 0 -0.35413538695721408 -0.22734526041597411 0 -0.36618434151059132 -0.22140301050070069 0 -0.35413538695721408 -0.22734526041597411 0 -0.36368689367734419 -0.2367928187915668 0 -0.3406573787672369 -0.2347347241145874 0 -0.34449915780498402 -0.21798413187232951 0 -0.36618434151059132 -0.22140301050070069 0 -0.36618434151059132 -0.22140301050070069 0 -0.36666999903678799 -0.2370594120430978 0 -0.36368689367734419 -0.2367928187915668 0 -0.36618434151059132 -0.22140301050070069 0 -0.36666999903678799 -0.2370594120430978 0 -0.37909914072473783 -0.238680451824519 0 -0.36618434151059132 -0.22140301050070069 0 -0.36368689367734419 -0.2367928187915668 0 -0.35413538695721408 -0.22734526041597411 0 -0.36618434151059132 -0.22140301050070069 0 -0.36368689367734419 -0.2367928187915668 0 -0.36095548195748128 -0.25362436264706378 0 -0.36744040811277451 -0.24659334707129699 0 -0.36368689367734419 -0.2367928187915668 0 -0.36095548195748128 -0.25362436264706378 0 -0.36368689367734419 -0.2367928187915668 0 -0.36744040811277451 -0.24659334707129699 0 -0.36666999903678799 -0.2370594120430978 0 -0.37909914072473783 -0.238680451824519 0 -0.36744040811277451 -0.24659334707129699 0 -0.36666999903678799 -0.2370594120430978 0 -0.36368689367734419 -0.2367928187915668 0 -0.36666999903678799 -0.2370594120430978 0 -0.36368689367734419 -0.2367928187915668 0 -0.36095548195748128 -0.25362436264706378 0 -0.35071525358356731 -0.2461037434752176 0 -0.36368689367734419 -0.2367928187915668 0 -0.3406573787672369 -0.2347347241145874 0 -0.36368689367734419 -0.2367928187915668 0 -0.35071525358356731 -0.2461037434752176 0 -0.3406573787672369 -0.2347347241145874 0 -0.36095548195748128 -0.25362436264706378 0 -0.36368689367734419 -0.2367928187915668 0 -0.35071525358356731 -0.2461037434752176 0 -0.35071525358356731 -0.2461037434752176 0 -0.3406573787672369 -0.2347347241145874 0 -0.35071525358356731 -0.2461037434752176 0 -0.33735618903199571 -0.24751717438331339 0 -0.33448372473673371 -0.2341829988808036 0 -0.35071525358356731 -0.2461037434752176 0 -0.3406573787672369 -0.2347347241145874 0 -0.33448372473673371 -0.2341829988808036 0 -0.35071525358356731 -0.2461037434752176 0 -0.33448372473673371 -0.2341829988808036 0 -0.33735618903199571 -0.24751717438331339 0 -0.33448372473673371 -0.2341829988808036 0 -0.32479312107020503 -0.24904071669932959 0 -0.3406573787672369 -0.2347347241145874 0 -0.33448372473673371 -0.2341829988808036 0 -0.32281397409937618 -0.21456525324396089 0 -0.3406573787672369 -0.2347347241145874 0 -0.32281397409937618 -0.21456525324396089 0 -0.34449915780498402 -0.21798413187232951 0 -0.3406573787672369 -0.2347347241145874 0 -0.32281397409937618 -0.21456525324396089 0 -0.3406573787672369 -0.2347347241145874 0 -0.33448372473673371 -0.2341829988808036 0 -0.33448372473673371 -0.2341829988808036 0 -0.31860757482294583 -0.22252325135789491 0 -0.3093005505405762 -0.2319324366364478 0 -0.33448372473673371 -0.2341829988808036 0 -0.31860757482294583 -0.22252325135789491 0 -0.32281397409937618 -0.21456525324396089 0 -0.33448372473673371 -0.2341829988808036 0 -0.31860757482294583 -0.22252325135789491 0 -0.3093005505405762 -0.2319324366364478 0 -0.33448372473673371 -0.2341829988808036 0 -0.31504917971357688 -0.21334105842322079 0 -0.3135535780935807 -0.22440143216467451 0 -0.31504917971357688 -0.21334105842322079 0 -0.31860757482294583 -0.22252325135789491 0 -0.3135535780935807 -0.22440143216467451 0 -0.3093005505405762 -0.2319324366364478 0 -0.31860757482294583 -0.22252325135789491 0 -0.3135535780935807 -0.22440143216467451 0 -0.30795773519465919 -0.25381458906647419 0 -0.3093005505405762 -0.2319324366364478 0 -0.32479312107020503 -0.24904071669932959 0 -0.3093005505405762 -0.2319324366364478 0 -0.33448372473673371 -0.2341829988808036 0 -0.32479312107020503 -0.24904071669932959 0 -0.42067324302288123 -0.23102845913695261 0 -0.44570822278707722 -0.24202495304851401 0 -0.42933896999383259 -0.24913933364668489 0 -0.42067324302288123 -0.23102845913695261 0 -0.41772787251651178 -0.24780639585967709 0 -0.42933896999383259 -0.24913933364668489 0 -0.42067324302288123 -0.23102845913695261 0 -0.44570822278707722 -0.24202495304851401 0 -0.42067324302288123 -0.23102845913695261 0 -0.43957565115114111 -0.21788493810174631 0 -0.44570822278707722 -0.24202495304851401 0 -0.42067324302288123 -0.23102845913695261 0 -0.41293186555365258 -0.21465675755378399 0 -0.43957565115114111 -0.21788493810174631 0 -0.42067324302288123 -0.23102845913695261 0 -0.39563826325868368 -0.22003196522539439 0 -0.42067324302288123 -0.23102845913695261 0 -0.40429525010634049 -0.23310851273133529 0 -0.40178404082806651 -0.22701564688990819 0 -0.42067324302288123 -0.23102845913695261 0 -0.39563826325868368 -0.22003196522539439 0 -0.41293186555365258 -0.21465675755378399 0 -0.41065935976163948 -0.23916252369100491 0 -0.40829689960347881 -0.244967098553731 0 -0.40261825545653068 -0.23948164972542471 0 -0.42067324302288123 -0.23102845913695261 0 -0.41065935976163948 -0.23916252369100491 0 -0.40429525010634049 -0.23310851273133529 0 -0.42067324302288123 -0.23102845913695261 0 -0.41065935976163948 -0.23916252369100491 0 -0.41772787251651178 -0.24780639585967709 0 -0.41065935976163948 -0.23916252369100491 0 -0.41772787251651178 -0.24780639585967709 0 -0.40829689960347881 -0.244967098553731 0 -0.40957277933576608 -0.25183864413063539 0 -0.41772787251651178 -0.24780639585967709 0 -0.40829689960347881 -0.244967098553731 0 -0.40957277933576608 -0.25183864413063539 0 -0.40829689960347881 -0.244967098553731 0 -0.40090623094694627 -0.2465462793619129 0 -0.39752955424204278 -0.25059308814801001 0 -0.40261825545653068 -0.23948164972542471 0 -0.39601415613117102 -0.22610596884677281 0 -0.39752955424204278 -0.25059308814801001 0 -0.37909914072473783 -0.238680451824519 0 -0.39601415613117102 -0.22610596884677281 0 -0.39752955424204278 -0.25059308814801001 0 -0.40090623094694627 -0.2465462793619129 0 -0.40261825545653068 -0.23948164972542471 0 -0.39752955424204278 -0.25059308814801001 0 -0.39601415613117102 -0.22610596884677281 0 -0.40829689960347881 -0.244967098553731 0 -0.40090623094694627 -0.2465462793619129 0 -0.40261825545653068 -0.23948164972542471 0 -0.41065935976163948 -0.23916252369100491 0 -0.40261825545653068 -0.23948164972542471 0 -0.40429525010634049 -0.23310851273133529 0 -0.3807563853150594 -0.25032788433723541 0 -0.39752955424204278 -0.25059308814801001 0 -0.37909914072473783 -0.238680451824519 0 -0.3807563853150594 -0.25032788433723541 0 -0.36744040811277451 -0.24659334707129699 0 -0.37909914072473783 -0.238680451824519 0 -0.36618434151059132 -0.22140301050070069 0 -0.39601415613117102 -0.22610596884677281 0 -0.39563826325868368 -0.22003196522539439 0 -0.36618434151059132 -0.22140301050070069 0 -0.37909914072473783 -0.238680451824519 0 -0.39601415613117102 -0.22610596884677281 0 -0.36618434151059132 -0.22140301050070069 0 -0.39601415613117102 -0.22610596884677281 0 -0.42067324302288123 -0.23102845913695261 0 -0.39563826325868368 -0.22003196522539439 0 -0.40178404082806651 -0.22701564688990819 0 -0.39601415613117102 -0.22610596884677281 0 -0.39563826325868368 -0.22003196522539439 0 -0.39601415613117102 -0.22610596884677281 0 -0.39563826325868368 -0.22003196522539439 0 -0.40178404082806651 -0.22701564688990819 0 -0.40261825545653068 -0.23948164972542471 0 -0.39601415613117102 -0.22610596884677281 0 -0.40429525010634049 -0.23310851273133529 0 -0.39601415613117102 -0.22610596884677281 0 -0.40429525010634049 -0.23310851273133529 0 -0.40178404082806651 -0.22701564688990819 0 -0.39601415613117102 -0.22610596884677281 0 -0.40178404082806651 -0.22701564688990819 0 -0.39563826325868368 -0.22003196522539439 0 -0.39437045317688341 -0.1995455884103261 0 -0.41293186555365258 -0.21465675755378399 0 -0.39563826325868368 -0.22003196522539439 0 -0.39437045317688341 -0.1995455884103261 0 -0.39563826325868368 -0.22003196522539439 0 -0.38305159219524731 -0.2025422795423501 0 -0.39437045317688341 -0.1995455884103261 0 -0.36835182259138211 -0.20804652798946921 0 -0.36618434151059132 -0.22140301050070069 0 -0.39563826325868368 -0.22003196522539439 0 -0.36835182259138211 -0.20804652798946921 0 -0.39563826325868368 -0.22003196522539439 0 -0.38305159219524731 -0.2025422795423501 0 -0.36835182259138211 -0.20804652798946921 0 -0.39563826325868368 -0.22003196522539439 0 -0.38468438854884368 -0.19186967175280131 0 -0.39437045317688341 -0.1995455884103261 0 -0.39042038852240979 -0.1819565293971856 0 -0.37468689411984901 -0.19130437901972611 0 -0.36835182259138211 -0.20804652798946921 0 -0.38305159219524731 -0.2025422795423501 0 -0.37468689411984901 -0.19130437901972611 0 -0.38468438854884368 -0.19186967175280131 0 -0.37920193184453499 -0.1845188436691253 0 -0.37468689411984901 -0.19130437901972611 0 -0.38305159219524731 -0.2025422795423501 0 -0.38468438854884368 -0.19186967175280131 0 -0.37468689411984901 -0.19130437901972611 0 -0.37124400512613698 -0.19022427994908231 0 -0.37920193184453499 -0.1845188436691253 0 -0.38305159219524731 -0.2025422795423501 0 -0.38468438854884368 -0.19186967175280131 0 -0.39437045317688341 -0.1995455884103261 0 -0.39437045317688341 -0.1995455884103261 0 -0.40840809975100878 -0.1827484292434173 0 -0.39042038852240979 -0.1819565293971856 0 -0.42399187545107497 -0.20031668367258179 0 -0.40840809975100878 -0.1827484292434173 0 -0.39437045317688341 -0.1995455884103261 0 -0.42399187545107497 -0.20031668367258179 0 -0.40840809975100878 -0.1827484292434173 0 -0.39437045317688341 -0.1995455884103261 0 -0.41293186555365258 -0.21465675755378399 0 -0.42399187545107497 -0.20031668367258179 0 -0.41293186555365258 -0.21465675755378399 0 -0.42399187545107497 -0.20031668367258179 0 -0.43957565115114111 -0.21788493810174631 0 -0.42399187545107497 -0.20031668367258179 0 -0.43957565115114111 -0.21788493810174631 0 -0.42399187545107497 -0.20031668367258179 0 -0.42765345890582152 -0.1787071634390785 0 -0.45104476203650951 -0.1957243200994005 0 -0.42765345890582152 -0.1787071634390785 0 -0.42363856964206231 -0.15981562742280231 0 -0.44690053296274029 -0.16812907512907491 0 -0.42363856964206231 -0.15981562742280231 0 -0.43377070591067318 -0.1492069037065854 0 -0.44690053296274029 -0.16812907512907491 0 -0.42363856964206231 -0.15981562742280231 0 -0.44690053296274029 -0.16812907512907491 0 -0.42765345890582152 -0.1787071634390785 0 -0.42363856964206231 -0.15981562742280231 0 -0.41186736950402902 -0.16728876174197529 0 -0.42363856964206231 -0.15981562742280231 0 -0.41186736950402902 -0.16728876174197529 0 -0.41169427454756391 -0.15498694502921559 0 -0.41186736950402902 -0.16728876174197529 0 -0.40107732294335818 -0.15588641657960031 0 -0.41169427454756391 -0.15498694502921559 0 -0.42765345890582152 -0.1787071634390785 0 -0.41186736950402902 -0.16728876174197529 0 -0.40840809975100878 -0.1827484292434173 0 -0.42399187545107497 -0.20031668367258179 0 -0.42765345890582152 -0.1787071634390785 0 -0.40840809975100878 -0.1827484292434173 0 -0.40840809975100878 -0.1827484292434173 0 -0.39042038852240979 -0.1819565293971856 0 -0.39655202571264658 -0.16739904485201371 0 -0.41186736950402902 -0.16728876174197529 0 -0.40840809975100878 -0.1827484292434173 0 -0.39655202571264658 -0.16739904485201371 0 -0.37497398290543532 -0.1672393582268307 0 -0.39042038852240979 -0.1819565293971856 0 -0.39655202571264658 -0.16739904485201371 0 -0.37497398290543532 -0.1672393582268307 0 -0.37124400512613698 -0.19022427994908231 0 -0.37920193184453499 -0.1845188436691253 0 -0.38468438854884368 -0.19186967175280131 0 -0.39042038852240979 -0.1819565293971856 0 -0.37920193184453499 -0.1845188436691253 0 -0.37497398290543532 -0.1672393582268307 0 -0.39042038852240979 -0.1819565293971856 0 -0.37920193184453499 -0.1845188436691253 0 -0.36755111874268631 -0.15413462722283369 0 -0.37497398290543532 -0.1672393582268307 0 -0.38837174790671619 -0.1510633323233361 0 -0.37497398290543532 -0.1672393582268307 0 -0.39655202571264658 -0.16739904485201371 0 -0.38837174790671619 -0.1510633323233361 0 -0.39655202571264658 -0.16739904485201371 0 -0.40107732294335818 -0.15588641657960031 0 -0.38837174790671619 -0.1510633323233361 0 -0.41186736950402902 -0.16728876174197529 0 -0.39655202571264658 -0.16739904485201371 0 -0.40107732294335818 -0.15588641657960031 0 -0.40107732294335818 -0.15588641657960031 0 -0.40095761745675029 -0.1444957092111922 0 -0.41169427454756391 -0.15498694502921559 0 -0.40095761745675029 -0.1444957092111922 0 -0.38837174790671619 -0.1510633323233361 0 -0.38737252973919162 -0.13789947899637431 0 -0.40107732294335818 -0.15588641657960031 0 -0.40095761745675029 -0.1444957092111922 0 -0.38837174790671619 -0.1510633323233361 0 -0.37033414846551499 -0.13933301809991741 0 -0.36755111874268631 -0.15413462722283369 0 -0.38837174790671619 -0.1510633323233361 0 -0.37033414846551499 -0.13933301809991741 0 -0.38837174790671619 -0.1510633323233361 0 -0.38737252973919162 -0.13789947899637431 0 -0.38034207896725769 -0.1263442640507923 0 -0.38737252973919162 -0.13789947899637431 0 -0.39674500839390447 -0.12919603823647469 0 -0.37033414846551499 -0.13933301809991741 0 -0.38034207896725769 -0.1263442640507923 0 -0.38737252973919162 -0.13789947899637431 0 -0.40095761745675029 -0.1444957092111922 0 -0.39674500839390447 -0.12919603823647469 0 -0.41247571955367351 -0.1372695527898517 0 -0.40095761745675029 -0.1444957092111922 0 -0.38737252973919162 -0.13789947899637431 0 -0.39674500839390447 -0.12919603823647469 0 -0.39674500839390447 -0.12919603823647469 0 -0.41247571955367351 -0.1372695527898517 0 -0.41079002616290999 -0.12487598626748569 0 -0.41247571955367351 -0.1372695527898517 0 -0.43031786685282142 -0.1285395965676599 0 -0.41079002616290999 -0.12487598626748569 0 -0.41247571955367351 -0.1372695527898517 0 -0.41169427454756391 -0.15498694502921559 0 -0.42557922578777813 -0.13995335281233731 0 -0.40095761745675029 -0.1444957092111922 0 -0.41247571955367351 -0.1372695527898517 0 -0.41169427454756391 -0.15498694502921559 0 -0.41169427454756391 -0.15498694502921559 0 -0.43377070591067318 -0.1492069037065854 0 -0.42557922578777813 -0.13995335281233731 0 -0.42363856964206231 -0.15981562742280231 0 -0.41169427454756391 -0.15498694502921559 0 -0.43377070591067318 -0.1492069037065854 0 -0.41169427454756391 -0.15498694502921559 0 -0.43377070591067318 -0.1492069037065854 0 -0.43377070591067318 -0.1492069037065854 0 -0.42557922578777813 -0.13995335281233731 0 -0.44240676187411571 -0.1371420153964005 0 -0.41247571955367351 -0.1372695527898517 0 -0.42557922578777813 -0.13995335281233731 0 -0.43031786685282142 -0.1285395965676599 0 -0.42557922578777813 -0.13995335281233731 0 -0.43031786685282142 -0.1285395965676599 0 -0.44240676187411571 -0.1371420153964005 0 -0.44240676187411571 -0.1371420153964005 0 -0.45584713727378262 -0.1434268623839553 0 -0.45354524456854778 -0.12517749467285719 0 -0.43031786685282142 -0.1285395965676599 0 -0.45354524456854778 -0.12517749467285719 0 -0.43031786685282142 -0.1285395965676599 0 -0.44240676187411571 -0.1371420153964005 0 -0.45354524456854778 -0.12517749467285719 0 -0.43377070591067318 -0.1492069037065854 0 -0.44240676187411571 -0.1371420153964005 0 -0.45584713727378262 -0.1434268623839553 0 -0.43377070591067318 -0.1492069037065854 0 -0.45584713727378262 -0.1434268623839553 0 -0.43377070591067318 -0.1492069037065854 0 -0.44685778253824437 -0.15414235271279639 0 -0.45584713727378262 -0.1434268623839553 0 -0.44685778253824437 -0.15414235271279639 0 -0.46769062288948893 -0.1558323652821503 0 -0.45584713727378262 -0.1434268623839553 0 -0.46769062288948893 -0.1558323652821503 0 -0.45584713727378262 -0.1434268623839553 0 -0.47792356863689189 -0.13764682106132509 0 -0.45584713727378262 -0.1434268623839553 0 -0.4660669364029007 -0.1315956325419613 0 -0.47792356863689189 -0.13764682106132509 0 -0.45354524456854778 -0.12517749467285719 0 -0.4660669364029007 -0.1315956325419613 0 -0.47677262228427431 -0.1218153927780545 0 -0.45584713727378262 -0.1434268623839553 0 -0.45354524456854778 -0.12517749467285719 0 -0.4660669364029007 -0.1315956325419613 0 -0.45584713727378262 -0.1434268623839553 0 -0.47792356863689189 -0.13764682106132509 0 -0.47792356863689189 -0.13764682106132509 0 -0.48867404773029149 -0.12744557111533139 0 -0.47677262228427431 -0.1218153927780545 0 -0.4660669364029007 -0.1315956325419613 0 -0.47792356863689189 -0.13764682106132509 0 -0.47677262228427431 -0.1218153927780545 0 -0.47792356863689189 -0.13764682106132509 0 -0.50000000000000133 -0.1318667797386946 0 -0.48598724783999331 -0.15003893689165509 0 -0.47792356863689189 -0.13764682106132509 0 -0.50000000000000133 -0.1318667797386946 0 -0.47792356863689189 -0.13764682106132509 0 -0.48867404773029149 -0.12744557111533139 0 -0.50000000000000133 -0.1318667797386946 0 -0.48867404773029149 -0.12744557111533139 0 -0.50000000000000133 -0.1318667797386946 0 -0.50000000000000078 -0.1184532908832516 0 -0.50000000000000133 -0.1318667797386946 0 -0.48598724783999331 -0.15003893689165509 0 -0.5 -0.15948637078580061 0 -0.46769062288948893 -0.1558323652821503 0 -0.47792356863689189 -0.13764682106132509 0 -0.48598724783999331 -0.15003893689165509 0 -0.46769062288948893 -0.1558323652821503 0 -0.48432204767358572 -0.16536234759030499 0 -0.47016249628341827 -0.17644252283534759 0 -0.46769062288948893 -0.1558323652821503 0 -0.48598724783999331 -0.15003893689165509 0 -0.48432204767358572 -0.16536234759030499 0 -0.48598724783999331 -0.15003893689165509 0 -0.48432204767358572 -0.16536234759030499 0 -0.5 -0.15948637078580061 0 -0.48432204767358572 -0.16536234759030499 0 -0.5 -0.15948637078580061 0 -0.49345017558665188 -0.18059649186452831 0 -0.5 -0.15948637078580061 0 -0.49345017558665188 -0.18059649186452831 0 -0.49999999999999922 -0.18710596183290659 0 -0.49345017558665188 -0.18059649186452831 0 -0.49342445960409548 -0.1847559705416226 0 -0.47016249628341827 -0.17644252283534759 0 -0.49345017558665188 -0.18059649186452831 0 -0.49342445960409548 -0.1847559705416226 0 -0.49345017558665188 -0.18059649186452831 0 -0.49342445960409548 -0.1847559705416226 0 -0.49999999999999922 -0.18710596183290659 0 -0.49342445960409548 -0.1847559705416226 0 -0.49999999999999922 -0.18710596183290659 0 -0.49342445960409548 -0.1847559705416226 0 -0.47016249628341827 -0.17644252283534759 0 -0.49342445960409548 -0.1847559705416226 0 -0.47016249628341827 -0.17644252283534759 0 -0.47683884438111779 -0.19446286961288281 0 -0.48432204767358572 -0.16536234759030499 0 -0.49345017558665188 -0.18059649186452831 0 -0.47016249628341827 -0.17644252283534759 0 -0.47016249628341827 -0.17644252283534759 0 -0.44690053296274029 -0.16812907512907491 0 -0.45104476203650951 -0.1957243200994005 0 -0.47016249628341827 -0.17644252283534759 0 -0.44690053296274029 -0.16812907512907491 0 -0.46769062288948893 -0.1558323652821503 0 -0.47016249628341827 -0.17644252283534759 0 -0.44690053296274029 -0.16812907512907491 0 -0.44685778253824437 -0.15414235271279639 0 -0.46769062288948893 -0.1558323652821503 0 -0.44690053296274029 -0.16812907512907491 0 -0.43377070591067318 -0.1492069037065854 0 -0.44685778253824437 -0.15414235271279639 0 -0.44690053296274029 -0.16812907512907491 0 -0.42765345890582152 -0.1787071634390785 0 -0.44690053296274029 -0.16812907512907491 0 -0.45104476203650951 -0.1957243200994005 0 -0.45104476203650951 -0.1957243200994005 0 -0.43957565115114111 -0.21788493810174631 0 -0.45609495092426811 -0.2188027104586335 0 -0.42399187545107497 -0.20031668367258179 0 -0.45104476203650951 -0.1957243200994005 0 -0.43957565115114111 -0.21788493810174631 0 -0.45104476203650951 -0.1957243200994005 0 -0.46869608425764259 -0.20954376385372309 0 -0.45609495092426811 -0.2188027104586335 0 -0.47016249628341827 -0.17644252283534759 0 -0.45104476203650951 -0.1957243200994005 0 -0.47683884438111779 -0.19446286961288281 0 -0.45104476203650951 -0.1957243200994005 0 -0.46869608425764259 -0.20954376385372309 0 -0.47683884438111779 -0.19446286961288281 0 -0.49342445960409548 -0.1847559705416226 0 -0.49326368108970542 -0.21076138568941311 0 -0.49342445960409548 -0.1847559705416226 0 -0.49999999999999922 -0.18710596183290659 0 -0.49326368108970542 -0.21076138568941311 0 -0.49342445960409548 -0.1847559705416226 0 -0.47683884438111779 -0.19446286961288281 0 -0.49326368108970542 -0.21076138568941311 0 -0.49999999999999922 -0.18710596183290659 0 -0.5 -0.21336142585292939 0 -0.49326368108970542 -0.21076138568941311 0 -0.46869608425764259 -0.20954376385372309 0 -0.47683884438111779 -0.19446286961288281 0 -0.49326368108970542 -0.21076138568941311 0 -0.46869608425764259 -0.20954376385372309 0 -0.49326368108970542 -0.21076138568941311 0 -0.47346666084555422 -0.22818413598513559 0 -0.49326368108970542 -0.21076138568941311 0 -0.49310290257531619 -0.23676680083720381 0 -0.5 -0.21336142585292939 0 -0.5 -0.23961688987295221 0 -0.49310290257531619 -0.23676680083720381 0 -0.5 -0.21336142585292939 0 -0.49326368108970542 -0.21076138568941311 0 -0.49310290257531619 -0.23676680083720381 0 -0.49326368108970542 -0.21076138568941311 0 -0.47346666084555422 -0.22818413598513559 0 -0.49310290257531619 -0.23676680083720381 0 -0.49294212406092791 -0.26277221598499451 0 -0.5 -0.23961688987295221 0 -0.49310290257531619 -0.23676680083720381 0 -0.49294212406092791 -0.26277221598499451 0 -0.49310290257531619 -0.23676680083720381 0 -0.47074320255127322 -0.25302144696007528 0 -0.47346666084555422 -0.22818413598513559 0 -0.49310290257531619 -0.23676680083720381 0 -0.47074320255127322 -0.25302144696007528 0 -0.45515942685120719 -0.23545319253091071 0 -0.44570822278707722 -0.24202495304851401 0 -0.47074320255127322 -0.25302144696007528 0 -0.47346666084555422 -0.22818413598513559 0 -0.45515942685120719 -0.23545319253091071 0 -0.47074320255127322 -0.25302144696007528 0 -0.44570822278707722 -0.24202495304851401 0 -0.47074320255127322 -0.25302144696007528 0 -0.45515942685120719 -0.23545319253091071 0 -0.47346666084555422 -0.22818413598513559 0 -0.45515942685120719 -0.23545319253091071 0 -0.45609495092426811 -0.2188027104586335 0 -0.46869608425764259 -0.20954376385372309 0 -0.47346666084555422 -0.22818413598513559 0 -0.45609495092426811 -0.2188027104586335 0 -0.43957565115114111 -0.21788493810174631 0 -0.45515942685120719 -0.23545319253091071 0 -0.44570822278707722 -0.24202495304851401 0 -0.43957565115114111 -0.21788493810174631 0 -0.45515942685120719 -0.23545319253091071 0 -0.45609495092426811 -0.2188027104586335 0 -0.43957565115114111 -0.21788493810174631 0 -0.45515942685120719 -0.23545319253091071 0 -0.42080809412439962 -0.036074575055265359 0 -0.40721526295937782 -0.048610728589030858 0 -0.40365094664180667 -0.029594182317999179 0 -0.42080809412439962 -0.036074575055265359 0 -0.40721526295937782 -0.048610728589030858 0 -0.41823854165411373 -0.05511846823280022 0 -0.40721526295937782 -0.048610728589030858 0 -0.40845227329419348 -0.059015821578059589 0 -0.41823854165411373 -0.05511846823280022 0 -0.40845227329419348 -0.059015821578059589 0 -0.41823854165411373 -0.05511846823280022 0 -0.41567555128031142 -0.069122680286697019 0 -0.42080809412439962 -0.036074575055265359 0 -0.41823854165411373 -0.05511846823280022 0 -0.43354428434009168 -0.058866823887497248 0 -0.41823854165411373 -0.05511846823280022 0 -0.43354428434009168 -0.058866823887497248 0 -0.41567555128031142 -0.069122680286697019 0 -0.42080809412439962 -0.036074575055265359 0 -0.43354428434009168 -0.058866823887497248 0 -0.42080809412439962 -0.036074575055265359 0 -0.43354428434009168 -0.058866823887497248 0 -0.44385615549893392 -0.031964777972236257 0 -0.42080809412439962 -0.036074575055265359 0 -0.43456929112995568 -0.02147919602406749 0 -0.44385615549893392 -0.031964777972236257 0 -0.42080809412439962 -0.036074575055265359 0 -0.43456929112995568 -0.02147919602406749 0 -0.42440182997007891 -0.01184508931083491 0 -0.42440182997007891 -0.01184508931083491 0 -0.43931634419082582 -0.0085987782005039481 0 -0.43525668636307951 0.00038330375819188139 0 -0.43456929112995568 -0.02147919602406749 0 -0.42440182997007891 -0.01184508931083491 0 -0.43931634419082582 -0.0085987782005039481 0 -0.42440182997007891 -0.01184508931083491 0 -0.42411198325617849 -0.001150248148406384 0 -0.43525668636307951 0.00038330375819188139 0 -0.42440182997007891 -0.01184508931083491 0 -0.41547656231415919 -0.0050128807054608416 0 -0.4080719039087074 -0.01328232622303346 0 -0.42411198325617849 -0.001150248148406384 0 -0.41547656231415919 -0.0050128807054608416 0 -0.41772199918986802 0.004723125048957966 0 -0.42440182997007891 -0.01184508931083491 0 -0.42411198325617849 -0.001150248148406384 0 -0.41547656231415919 -0.0050128807054608416 0 -0.41547656231415919 -0.0050128807054608416 0 -0.40587735948277459 -0.0014428404637955451 0 -0.41772199918986802 0.004723125048957966 0 -0.41547656231415919 -0.0050128807054608416 0 -0.4080719039087074 -0.01328232622303346 0 -0.40587735948277459 -0.0014428404637955451 0 -0.42080809412439962 -0.036074575055265359 0 -0.4080719039087074 -0.01328232622303346 0 -0.42080809412439962 -0.036074575055265359 0 -0.4080719039087074 -0.01328232622303346 0 -0.40365094664180667 -0.029594182317999179 0 -0.42080809412439962 -0.036074575055265359 0 -0.42440182997007891 -0.01184508931083491 0 -0.4080719039087074 -0.01328232622303346 0 -0.40365094664180667 -0.029594182317999179 0 -0.39080588872940131 -0.018374098677925079 0 -0.39474608591880078 -0.040651725489547118 0 -0.4080719039087074 -0.01328232622303346 0 -0.40365094664180667 -0.029594182317999179 0 -0.39080588872940131 -0.018374098677925079 0 -0.39080588872940131 -0.018374098677925079 0 -0.39474608591880078 -0.040651725489547118 0 -0.4080719039087074 -0.01328232622303346 0 -0.39533571369301518 0.0095099226091984457 0 -0.4080719039087074 -0.01328232622303346 0 -0.40587735948277459 -0.0014428404637955451 0 -0.39533571369301518 0.0095099226091984457 0 -0.4080719039087074 -0.01328232622303346 0 -0.39543429768942018 -0.00027052773220046102 0 -0.39533571369301518 0.0095099226091984457 0 -0.4080719039087074 -0.01328232622303346 0 -0.39080588872940131 -0.018374098677925079 0 -0.39520064655000497 -0.0062707300448226269 0 -0.39080588872940131 -0.018374098677925079 0 -0.39520064655000497 -0.0062707300448226269 0 -0.38704313812526581 0.0029002563136639671 0 -0.4080719039087074 -0.01328232622303346 0 -0.39543429768942018 -0.00027052773220046102 0 -0.39520064655000497 -0.0062707300448226269 0 -0.39080588872940131 -0.018374098677925079 0 -0.39520064655000497 -0.0062707300448226269 0 -0.39543429768942018 -0.00027052773220046102 0 -0.39520064655000497 -0.0062707300448226269 0 -0.38704313812526581 0.0029002563136639671 0 -0.36968045282994472 -0.021553285365267918 0 -0.38130901083635682 -0.0010913206990655409 0 -0.39080588872940131 -0.018374098677925079 0 -0.38130901083635682 -0.0010913206990655409 0 -0.38704313812526581 0.0029002563136639671 0 -0.36968045282994472 -0.021553285365267918 0 -0.39080588872940131 -0.018374098677925079 0 -0.38130901083635682 -0.0010913206990655409 0 -0.39080588872940131 -0.018374098677925079 0 -0.38704313812526581 0.0029002563136639671 0 -0.36968045282994472 -0.021553285365267918 0 -0.39080588872940131 -0.018374098677925079 0 -0.38461094223354048 -0.035435271138945283 0 -0.39080588872940131 -0.018374098677925079 0 -0.38461094223354048 -0.035435271138945283 0 -0.37242176172479219 -0.038602561064218867 0 -0.38461094223354048 -0.035435271138945283 0 -0.37841599573768031 -0.052496443599965727 0 -0.37242176172479219 -0.038602561064218867 0 -0.36968045282994472 -0.021553285365267918 0 -0.38461094223354048 -0.035435271138945283 0 -0.39080588872940131 -0.018374098677925079 0 -0.38461094223354048 -0.035435271138945283 0 -0.39474608591880078 -0.040651725489547118 0 -0.38461094223354048 -0.035435271138945283 0 -0.39474608591880078 -0.040651725489547118 0 -0.37841599573768031 -0.052496443599965727 0 -0.38461094223354048 -0.035435271138945283 0 -0.37841599573768031 -0.052496443599965727 0 -0.40721526295937782 -0.048610728589030858 0 -0.40365094664180667 -0.029594182317999179 0 -0.39474608591880078 -0.040651725489547118 0 -0.40721526295937782 -0.048610728589030858 0 -0.39474608591880078 -0.040651725489547118 0 -0.39868628310820081 -0.062929352301169167 0 -0.39474608591880078 -0.040651725489547118 0 -0.39868628310820081 -0.062929352301169167 0 -0.40845227329419348 -0.059015821578059589 0 -0.40076438745680742 -0.063998931263927056 0 -0.39868628310820081 -0.062929352301169167 0 -0.40721526295937782 -0.048610728589030858 0 -0.40845227329419348 -0.059015821578059589 0 -0.39868628310820081 -0.062929352301169167 0 -0.39474608591880078 -0.040651725489547118 0 -0.37841599573768031 -0.052496443599965727 0 -0.39868628310820081 -0.062929352301169167 0 -0.37841599573768031 -0.052496443599965727 0 -0.39868628310820081 -0.062929352301169167 0 -0.37841599573768031 -0.052496443599965727 0 -0.38610179693901769 -0.06914454153611603 0 -0.39868628310820081 -0.062929352301169167 0 -0.36840710195405918 -0.080061405315211526 0 -0.38610179693901769 -0.06914454153611603 0 -0.37774874928737529 -0.080423923801911157 0 -0.36840710195405918 -0.080061405315211526 0 -0.37841599573768031 -0.052496443599965727 0 -0.38610179693901769 -0.06914454153611603 0 -0.38610179693901769 -0.06914454153611603 0 -0.37774874928737529 -0.080423923801911157 0 -0.38620431841762048 -0.080641476996558506 0 -0.38610179693901769 -0.06914454153611603 0 -0.38620431841762048 -0.080641476996558506 0 -0.39287713973676658 -0.075581590973971352 0 -0.37774874928737529 -0.080423923801911157 0 -0.38255888383713033 -0.092502536681813657 0 -0.38620431841762048 -0.080641476996558506 0 -0.36827312834293391 -0.093812665564109526 0 -0.37774874928737529 -0.080423923801911157 0 -0.38255888383713033 -0.092502536681813657 0 -0.38255888383713033 -0.092502536681813657 0 -0.39300624737962081 -0.084927824652997877 0 -0.39261082089878729 -0.094121094881663384 0 -0.38255888383713033 -0.092502536681813657 0 -0.38620431841762048 -0.080641476996558506 0 -0.39300624737962081 -0.084927824652997877 0 -0.39300624737962081 -0.084927824652997877 0 -0.40052008206592737 -0.079797710316775294 0 -0.39287713973676658 -0.075581590973971352 0 -0.38620431841762048 -0.080641476996558506 0 -0.39300624737962081 -0.084927824652997877 0 -0.39287713973676658 -0.075581590973971352 0 -0.39300624737962081 -0.084927824652997877 0 -0.40130071824299163 -0.089815819125510246 0 -0.40052008206592737 -0.079797710316775294 0 -0.39300624737962081 -0.084927824652997877 0 -0.40130071824299163 -0.089815819125510246 0 -0.39261082089878729 -0.094121094881663384 0 -0.40052008206592737 -0.079797710316775294 0 -0.40580750701898061 -0.074780333824473605 0 -0.41049874442742451 -0.082663324025247648 0 -0.40130071824299163 -0.089815819125510246 0 -0.40052008206592737 -0.079797710316775294 0 -0.41049874442742451 -0.082663324025247648 0 -0.40052008206592737 -0.079797710316775294 0 -0.40580750701898061 -0.074780333824473605 0 -0.4000546696579626 -0.070666123692120886 0 -0.40580750701898061 -0.074780333824473605 0 -0.4000546696579626 -0.070666123692120886 0 -0.40615087774165121 -0.067516778129055641 0 -0.40845227329419348 -0.059015821578059589 0 -0.40615087774165121 -0.067516778129055641 0 -0.40076438745680742 -0.063998931263927056 0 -0.4000546696579626 -0.070666123692120886 0 -0.40076438745680742 -0.063998931263927056 0 -0.39868628310820081 -0.062929352301169167 0 -0.40076438745680742 -0.063998931263927056 0 -0.39868628310820081 -0.062929352301169167 0 -0.4000546696579626 -0.070666123692120886 0 -0.40615087774165121 -0.067516778129055641 0 -0.40076438745680742 -0.063998931263927056 0 -0.4000546696579626 -0.070666123692120886 0 -0.39868628310820081 -0.062929352301169167 0 -0.38610179693901769 -0.06914454153611603 0 -0.39868628310820081 -0.062929352301169167 0 -0.39442997236048671 -0.069580402125844376 0 -0.4000546696579626 -0.070666123692120886 0 -0.39868628310820081 -0.062929352301169167 0 -0.39442997236048671 -0.069580402125844376 0 -0.40052008206592737 -0.079797710316775294 0 -0.4000546696579626 -0.070666123692120886 0 -0.39287713973676658 -0.075581590973971352 0 -0.38610179693901769 -0.06914454153611603 0 -0.39442997236048671 -0.069580402125844376 0 -0.39287713973676658 -0.075581590973971352 0 -0.4000546696579626 -0.070666123692120886 0 -0.39442997236048671 -0.069580402125844376 0 -0.39287713973676658 -0.075581590973971352 0 -0.38034207896725769 -0.1263442640507923 0 -0.39674500839390447 -0.12919603823647469 0 -0.38820763105645228 -0.1162680784765628 0 -0.37300257255490549 -0.1111697193622338 0 -0.38820763105645228 -0.1162680784765628 0 -0.38938527535659478 -0.104288553744507 0 -0.37300257255490549 -0.1111697193622338 0 -0.38034207896725769 -0.1263442640507923 0 -0.38820763105645228 -0.1162680784765628 0 -0.37300257255490549 -0.1111697193622338 0 -0.38255888383713033 -0.092502536681813657 0 -0.38938527535659478 -0.104288553744507 0 -0.38255888383713033 -0.092502536681813657 0 -0.38938527535659478 -0.104288553744507 0 -0.39261082089878729 -0.094121094881663384 0 -0.40130071824299163 -0.089815819125510246 0 -0.39261082089878729 -0.094121094881663384 0 -0.3995442938236286 -0.099627745417784672 0 -0.38938527535659478 -0.104288553744507 0 -0.39261082089878729 -0.094121094881663384 0 -0.3995442938236286 -0.099627745417784672 0 -0.40130071824299163 -0.089815819125510246 0 -0.3995442938236286 -0.099627745417784672 0 -0.41299477793557648 -0.098035718065740893 0 -0.3995442938236286 -0.099627745417784672 0 -0.40175810704168002 -0.1123206502541319 0 -0.41299477793557648 -0.098035718065740893 0 -0.38938527535659478 -0.104288553744507 0 -0.3995442938236286 -0.099627745417784672 0 -0.40175810704168002 -0.1123206502541319 0 -0.39674500839390447 -0.12919603823647469 0 -0.38820763105645228 -0.1162680784765628 0 -0.40175810704168002 -0.1123206502541319 0 -0.39674500839390447 -0.12919603823647469 0 -0.40175810704168002 -0.1123206502541319 0 -0.41079002616290999 -0.12487598626748569 0 -0.38820763105645228 -0.1162680784765628 0 -0.38938527535659478 -0.104288553744507 0 -0.40175810704168002 -0.1123206502541319 0 -0.43031786685282142 -0.1285395965676599 0 -0.4179929036411501 -0.1142900052896926 0 -0.41079002616290999 -0.12487598626748569 0 -0.40175810704168002 -0.1123206502541319 0 -0.4179929036411501 -0.1142900052896926 0 -0.41079002616290999 -0.12487598626748569 0 -0.40175810704168002 -0.1123206502541319 0 -0.4179929036411501 -0.1142900052896926 0 -0.41299477793557648 -0.098035718065740893 0 -0.4179929036411501 -0.1142900052896926 0 -0.41299477793557648 -0.098035718065740893 0 -0.43462308701927621 -0.1050922653563138 0 -0.41299477793557648 -0.098035718065740893 0 -0.43462308701927621 -0.1050922653563138 0 -0.42557721826032818 -0.082968482290179169 0 -0.43031786685282142 -0.1285395965676599 0 -0.4179929036411501 -0.1142900052896926 0 -0.43462308701927621 -0.1050922653563138 0 -0.43031786685282142 -0.1285395965676599 0 -0.43462308701927621 -0.1050922653563138 0 -0.44165426045941147 -0.1176726603470083 0 -0.40845227329419348 -0.059015821578059589 0 -0.40615087774165121 -0.067516778129055641 0 -0.41567555128031142 -0.069122680286697019 0 -0.40580750701898061 -0.074780333824473605 0 -0.40615087774165121 -0.067516778129055641 0 -0.41567555128031142 -0.069122680286697019 0 -0.40580750701898061 -0.074780333824473605 0 -0.41567555128031142 -0.069122680286697019 0 -0.41049874442742451 -0.082663324025247648 0 -0.40130071824299163 -0.089815819125510246 0 -0.41299477793557648 -0.098035718065740893 0 -0.41049874442742451 -0.082663324025247648 0 -0.41299477793557648 -0.098035718065740893 0 -0.41049874442742451 -0.082663324025247648 0 -0.42557721826032818 -0.082968482290179169 0 -0.41567555128031142 -0.069122680286697019 0 -0.41049874442742451 -0.082663324025247648 0 -0.42557721826032818 -0.082968482290179169 0 -0.43462308701927621 -0.1050922653563138 0 -0.42557721826032818 -0.082968482290179169 0 -0.44628047455578379 -0.081659072719729164 0 -0.43354428434009168 -0.058866823887497248 0 -0.42557721826032818 -0.082968482290179169 0 -0.44628047455578379 -0.081659072719729164 0 -0.43354428434009168 -0.058866823887497248 0 -0.41567555128031142 -0.069122680286697019 0 -0.42557721826032818 -0.082968482290179169 0 -0.43354428434009168 -0.058866823887497248 0 -0.44628047455578379 -0.081659072719729164 0 -0.45429464624660498 -0.061848647635388651 0 -0.43354428434009168 -0.058866823887497248 0 -0.44628047455578379 -0.081659072719729164 0 -0.44628047455578379 -0.081659072719729164 0 -0.45901666477147601 -0.104451321551961 0 -0.44628047455578379 -0.081659072719729164 0 -0.47487755147364541 -0.071594919821690806 0 -0.47263183725959362 -0.093416570260945159 0 -0.44628047455578379 -0.081659072719729164 0 -0.45901666477147601 -0.104451321551961 0 -0.47263183725959362 -0.093416570260945159 0 -0.44628047455578379 -0.081659072719729164 0 -0.47487755147364541 -0.071594919821690806 0 -0.45429464624660498 -0.061848647635388651 0 -0.43031786685282142 -0.1285395965676599 0 -0.45354524456854778 -0.12517749467285719 0 -0.44165426045941147 -0.1176726603470083 0 -0.45354524456854778 -0.12517749467285719 0 -0.44165426045941147 -0.1176726603470083 0 -0.45901666477147601 -0.104451321551961 0 -0.43462308701927621 -0.1050922653563138 0 -0.44628047455578379 -0.081659072719729164 0 -0.45901666477147601 -0.104451321551961 0 -0.43462308701927621 -0.1050922653563138 0 -0.44165426045941147 -0.1176726603470083 0 -0.45901666477147601 -0.104451321551961 0 -0.45901666477147601 -0.104451321551961 0 -0.47170183429193963 -0.1088648364907806 0 -0.47263183725959362 -0.093416570260945159 0 -0.45354524456854778 -0.12517749467285719 0 -0.47677262228427431 -0.1218153927780545 0 -0.47170183429193963 -0.1088648364907806 0 -0.45354524456854778 -0.12517749467285719 0 -0.47677262228427431 -0.1218153927780545 0 -0.45354524456854778 -0.12517749467285719 0 -0.45901666477147601 -0.104451321551961 0 -0.47170183429193963 -0.1088648364907806 0 -0.47677262228427431 -0.1218153927780545 0 -0.47170183429193963 -0.1088648364907806 0 -0.48439229629920821 -0.1065543608985685 0 -0.47170183429193963 -0.1088648364907806 0 -0.48439229629920821 -0.1065543608985685 0 -0.47263183725959362 -0.093416570260945159 0 -0.48439229629920821 -0.1065543608985685 0 -0.50000000000000078 -0.1184532908832516 0 -0.5 -0.090720796125734027 0 -0.48439229629920821 -0.1065543608985685 0 -0.47263183725959362 -0.093416570260945159 0 -0.5 -0.090720796125734027 0 -0.47677262228427431 -0.1218153927780545 0 -0.48439229629920821 -0.1065543608985685 0 -0.50000000000000078 -0.1184532908832516 0 -0.48867404773029149 -0.12744557111533139 0 -0.47677262228427431 -0.1218153927780545 0 -0.50000000000000078 -0.1184532908832516 0 -0.47677262228427431 -0.1218153927780545 0 -0.50000000000000078 -0.1184532908832516 0 -0.47487755147364541 -0.071594919821690806 0 -0.47263183725959362 -0.093416570260945159 0 -0.5 -0.090720796125734027 0 -0.47487755147364541 -0.071594919821690806 0 -0.5 -0.090720796125734027 0 -0.5 -0.062988301368216537 0 -0.5 -0.062988301368216537 0 -0.48600847228944938 -0.047860058210379287 0 -0.5 -0.035255806610698943 0 -0.47487755147364541 -0.071594919821690806 0 -0.5 -0.062988301368216537 0 -0.48600847228944938 -0.047860058210379287 0 -0.5 -0.035255806610698943 0 -0.48898795280113622 -0.035057008094814129 0 -0.49683896475706901 -0.029096798634237159 0 -0.48600847228944938 -0.047860058210379287 0 -0.5 -0.035255806610698943 0 -0.48898795280113622 -0.035057008094814129 0 -0.48600847228944938 -0.047860058210379287 0 -0.47551954839239269 -0.032209036587914068 0 -0.46723420032090418 -0.049450080788632778 0 -0.48600847228944938 -0.047860058210379287 0 -0.48898795280113622 -0.035057008094814129 0 -0.47551954839239269 -0.032209036587914068 0 -0.47487755147364541 -0.071594919821690806 0 -0.48600847228944938 -0.047860058210379287 0 -0.46723420032090418 -0.049450080788632778 0 -0.47487755147364541 -0.071594919821690806 0 -0.45429464624660498 -0.061848647635388651 0 -0.46723420032090418 -0.049450080788632778 0 -0.45429464624660498 -0.061848647635388651 0 -0.46723420032090418 -0.049450080788632778 0 -0.45178030980455253 -0.047637991816423073 0 -0.47551954839239269 -0.032209036587914068 0 -0.46723420032090418 -0.049450080788632778 0 -0.4599722626162282 -0.036059628798360388 0 -0.46723420032090418 -0.049450080788632778 0 -0.4599722626162282 -0.036059628798360388 0 -0.45178030980455253 -0.047637991816423073 0 -0.4599722626162282 -0.036059628798360388 0 -0.44385615549893392 -0.031964777972236257 0 -0.45178030980455253 -0.047637991816423073 0 -0.43354428434009168 -0.058866823887497248 0 -0.44385615549893392 -0.031964777972236257 0 -0.45178030980455253 -0.047637991816423073 0 -0.43354428434009168 -0.058866823887497248 0 -0.45429464624660498 -0.061848647635388651 0 -0.45178030980455253 -0.047637991816423073 0 -0.44889191567381281 -0.01254136296990541 0 -0.4450997529900188 -0.00012849009732438359 0 -0.45460061289039311 0.00097675914791782036 0 -0.44889191567381281 -0.01254136296990541 0 -0.4450997529900188 -0.00012849009732438359 0 -0.43931634419082582 -0.0085987782005039481 0 -0.4450997529900188 -0.00012849009732438359 0 -0.43931634419082582 -0.0085987782005039481 0 -0.43525668636307951 0.00038330375819188139 0 -0.43456929112995568 -0.02147919602406749 0 -0.44889191567381281 -0.01254136296990541 0 -0.43931634419082582 -0.0085987782005039481 0 -0.44385615549893392 -0.031964777972236257 0 -0.44889191567381281 -0.01254136296990541 0 -0.46171016803234177 -0.020877152634979902 0 -0.43456929112995568 -0.02147919602406749 0 -0.44385615549893392 -0.031964777972236257 0 -0.44889191567381281 -0.01254136296990541 0 -0.4599722626162282 -0.036059628798360388 0 -0.44385615549893392 -0.031964777972236257 0 -0.46171016803234177 -0.020877152634979902 0 -0.47551954839239269 -0.032209036587914068 0 -0.4599722626162282 -0.036059628798360388 0 -0.46171016803234177 -0.020877152634979902 0 -0.46171016803234177 -0.020877152634979902 0 -0.46309108498422069 -0.0057179050081437206 0 -0.47239338106715018 -0.01307555134394134 0 -0.46309108498422069 -0.0057179050081437206 0 -0.47239338106715018 -0.01307555134394134 0 -0.47068402366974649 0.0039225664184212132 0 -0.44889191567381281 -0.01254136296990541 0 -0.46171016803234177 -0.020877152634979902 0 -0.46309108498422069 -0.0057179050081437206 0 -0.46309108498422069 -0.0057179050081437206 0 -0.45460061289039311 0.00097675914791782036 0 -0.46138646552445689 0.0022823970218126531 0 -0.44889191567381281 -0.01254136296990541 0 -0.46309108498422069 -0.0057179050081437206 0 -0.45460061289039311 0.00097675914791782036 0 -0.48376149421340769 -0.01258711610790799 0 -0.47068402366974649 0.0039225664184212132 0 -0.48376149421340769 -0.01258711610790799 0 -0.47880327656304339 0.0064544685457847608 0 -0.47068402366974649 0.0039225664184212132 0 -0.47239338106715018 -0.01307555134394134 0 -0.48376149421340769 -0.01258711610790799 0 -0.47068402366974649 0.0039225664184212132 0 -0.47551954839239269 -0.032209036587914068 0 -0.46171016803234177 -0.020877152634979902 0 -0.47239338106715018 -0.01307555134394134 0 -0.47551954839239269 -0.032209036587914068 0 -0.47239338106715018 -0.01307555134394134 0 -0.48440723335070712 -0.02511542597803168 0 -0.47239338106715018 -0.01307555134394134 0 -0.48376149421340769 -0.01258711610790799 0 -0.48440723335070712 -0.02511542597803168 0 -0.48898795280113622 -0.035057008094814129 0 -0.47551954839239269 -0.032209036587914068 0 -0.48440723335070712 -0.02511542597803168 0 -0.48376149421340769 -0.01258711610790799 0 -0.48440723335070712 -0.02511542597803168 0 -0.49683896475706901 -0.029096798634237159 0 -0.5 -0.035255806610698943 0 -0.49683896475706901 -0.029096798634237159 0 -0.50000000000000144 -0.0075233118531813368 0 -0.48376149421340769 -0.01258711610790799 0 -0.49683896475706901 -0.029096798634237159 0 -0.48376149421340769 -0.01258711610790799 0 -0.49683896475706901 -0.029096798634237159 0 -0.50000000000000144 -0.0075233118531813368 0 -0.48898795280113622 -0.035057008094814129 0 -0.48440723335070712 -0.02511542597803168 0 -0.49683896475706901 -0.029096798634237159 0 -0.48376149421340769 -0.01258711610790799 0 -0.50000000000000144 -0.0075233118531813368 0 -0.47880327656304339 0.0064544685457847608 0 -0.50000000000000144 -0.0075233118531813368 0 -0.47880327656304339 0.0064544685457847608 0 -0.49999999999999978 -0.0049998575947891666 0 -0.50000000000000144 -0.0075233118531813368 0 -0.47880327656304339 0.0064544685457847608 0 -0.49999999999999978 -0.0049998575947891666 0 -0.5 0.023800533356784611 0 -0.48174252076349677 0.015951474442734929 0 -0.49999999999999978 -0.0049998575947891666 0 -0.48174252076349677 0.015951474442734929 0 -0.47880327656304339 0.0064544685457847608 0 -0.49999999999999978 -0.0049998575947891666 0 -0.48174252076349677 0.015951474442734929 0 -0.5 0.023800533356784611 0 -0.48174252076349677 0.015951474442734929 0 -0.48201034925041059 0.032823340938974113 0 -0.48174252076349677 0.015951474442734929 0 -0.46348504152699488 0.036902806480260182 0 -0.48174252076349677 0.015951474442734929 0 -0.48201034925041059 0.032823340938974113 0 -0.46348504152699488 0.036902806480260182 0 -0.47880327656304339 0.0064544685457847608 0 -0.47068402366974649 0.0039225664184212132 0 -0.457606553126085 0.020432248944750351 0 -0.48174252076349677 0.015951474442734929 0 -0.47880327656304339 0.0064544685457847608 0 -0.457606553126085 0.020432248944750351 0 -0.5 0.052600924308358443 0 -0.49035246424649892 0.048705583125362828 0 -0.48967027761566589 0.064289772438493584 0 -0.5 0.023800533356784611 0 -0.5 0.052600924308358443 0 -0.49035246424649892 0.048705583125362828 0 -0.5 0.023800533356784611 0 -0.49035246424649892 0.048705583125362828 0 -0.48201034925041059 0.032823340938974113 0 -0.49035246424649892 0.048705583125362828 0 -0.46348504152699488 0.036902806480260182 0 -0.49035246424649892 0.048705583125362828 0 -0.48201034925041059 0.032823340938974113 0 -0.46348504152699488 0.036902806480260182 0 -0.49035246424649892 0.048705583125362828 0 -0.47271759403157759 0.052084599174810432 0 -0.46348504152699488 0.036902806480260182 0 -0.49035246424649892 0.048705583125362828 0 -0.47271759403157759 0.052084599174810432 0 -0.48967027761566589 0.064289772438493584 0 -0.47271759403157759 0.052084599174810432 0 -0.47478482279965839 0.068954059100715823 0 -0.48967027761566589 0.064289772438493584 0 -0.47271759403157759 0.052084599174810432 0 -0.46092891465224212 0.055775519490319843 0 -0.47478482279965839 0.068954059100715823 0 -0.47271759403157759 0.052084599174810432 0 -0.46092891465224212 0.055775519490319843 0 -0.45683666178751131 0.044532140717975531 0 -0.46092891465224212 0.055775519490319843 0 -0.45027789984917821 0.06258741896801194 0 -0.47478482279965839 0.068954059100715823 0 -0.46092891465224212 0.055775519490319843 0 -0.45002759479328469 0.05071937949008546 0 -0.45027789984917821 0.06258741896801194 0 -0.46092891465224212 0.055775519490319843 0 -0.45683666178751131 0.044532140717975531 0 -0.45002759479328469 0.05071937949008546 0 -0.47271759403157759 0.052084599174810432 0 -0.45683666178751131 0.044532140717975531 0 -0.46348504152699488 0.036902806480260182 0 -0.45683666178751131 0.044532140717975531 0 -0.46348504152699488 0.036902806480260182 0 -0.46348504152699488 0.036902806480260182 0 -0.44944544727005531 0.03073525565365226 0 -0.45683666178751131 0.044532140717975531 0 -0.46348504152699488 0.036902806480260182 0 -0.44944544727005531 0.03073525565365226 0 -0.44944544727005531 0.03073525565365226 0 -0.43657783130451411 0.037166066632374962 0 -0.43466547935553762 0.049394259870358677 0 -0.44944544727005531 0.03073525565365226 0 -0.43466547935553762 0.049394259870358677 0 -0.44774379580159718 0.043845258933017953 0 -0.44944544727005531 0.03073525565365226 0 -0.43466547935553762 0.049394259870358677 0 -0.44944544727005531 0.03073525565365226 0 -0.43602176819642602 0.032483071001377588 0 -0.43657783130451411 0.037166066632374962 0 -0.45683666178751131 0.044532140717975531 0 -0.44774379580159718 0.043845258933017953 0 -0.44944544727005531 0.03073525565365226 0 -0.45683666178751131 0.044532140717975531 0 -0.44774379580159718 0.043845258933017953 0 -0.45002759479328469 0.05071937949008546 0 -0.42577097689869792 0.056220778835308037 0 -0.45027789984917821 0.06258741896801194 0 -0.45002759479328469 0.05071937949008546 0 -0.43466547935553762 0.049394259870358677 0 -0.45027789984917821 0.06258741896801194 0 -0.44774379580159718 0.043845258933017953 0 -0.45002759479328469 0.05071937949008546 0 -0.43466547935553762 0.049394259870358677 0 -0.47880327656304339 0.0064544685457847608 0 -0.457606553126085 0.020432248944750351 0 -0.47068402366974649 0.0039225664184212132 0 -0.45717014055346761 0.0099481675290553039 0 -0.457606553126085 0.020432248944750351 0 -0.47068402366974649 0.0039225664184212132 0 -0.457606553126085 0.020432248944750351 0 -0.45717014055346761 0.0099481675290553039 0 -0.457606553126085 0.020432248944750351 0 -0.44856046214620171 0.015612310790457129 0 -0.45717014055346761 0.0099481675290553039 0 -0.45460061289039311 0.00097675914791782036 0 -0.46138646552445689 0.0022823970218126531 0 -0.45717014055346761 0.0099481675290553039 0 -0.45460061289039311 0.00097675914791782036 0 -0.44922817503882939 0.0072996019531977796 0 -0.47068402366974649 0.0039225664184212132 0 -0.45717014055346761 0.0099481675290553039 0 -0.46138646552445689 0.0022823970218126531 0 -0.46309108498422069 -0.0057179050081437206 0 -0.47068402366974649 0.0039225664184212132 0 -0.46138646552445689 0.0022823970218126531 0 -0.48174252076349677 0.015951474442734929 0 -0.46348504152699488 0.036902806480260182 0 -0.457606553126085 0.020432248944750351 0 -0.46348504152699488 0.036902806480260182 0 -0.457606553126085 0.020432248944750351 0 -0.44944544727005531 0.03073525565365226 0 -0.457606553126085 0.020432248944750351 0 -0.44944544727005531 0.03073525565365226 0 -0.457606553126085 0.020432248944750351 0 -0.4494277531504029 0.02582560468329885 0 -0.4453533836348374 0.02177101477450304 0 -0.4494277531504029 0.02582560468329885 0 -0.44856046214620171 0.015612310790457129 0 -0.44944544727005531 0.03073525565365226 0 -0.42849425274902209 0.02672570232690594 0 -0.43602176819642602 0.032483071001377588 0 -0.457606553126085 0.020432248944750351 0 -0.4494277531504029 0.02582560468329885 0 -0.44856046214620171 0.015612310790457129 0 -0.457606553126085 0.020432248944750351 0 -0.4494277531504029 0.02582560468329885 0 -0.44944544727005531 0.03073525565365226 0 -0.4453533836348374 0.02177101477450304 0 -0.4494277531504029 0.02582560468329885 0 -0.44944544727005531 0.03073525565365226 0 -0.4453533836348374 0.02177101477450304 0 -0.44944544727005531 0.03073525565365226 0 -0.43834794228959018 0.020666229757094531 0 -0.4453533836348374 0.02177101477450304 0 -0.43834794228959018 0.020666229757094531 0 -0.44098531331793722 0.016015672988012559 0 -0.4453533836348374 0.02177101477450304 0 -0.44098531331793722 0.016015672988012559 0 -0.44856046214620171 0.015612310790457129 0 -0.44098531331793722 0.016015672988012559 0 -0.43989583860303227 0.0092818418187661945 0 -0.43279846442449799 0.01433933717462676 0 -0.44098531331793722 0.016015672988012559 0 -0.43989583860303227 0.0092818418187661945 0 -0.44856046214620171 0.015612310790457129 0 -0.43989583860303227 0.0092818418187661945 0 -0.44856046214620171 0.015612310790457129 0 -0.44922817503882939 0.0072996019531977796 0 -0.45717014055346761 0.0099481675290553039 0 -0.44856046214620171 0.015612310790457129 0 -0.44922817503882939 0.0072996019531977796 0 -0.4450997529900188 -0.00012849009732438359 0 -0.45460061289039311 0.00097675914791782036 0 -0.44922817503882939 0.0072996019531977796 0 -0.4450997529900188 -0.00012849009732438359 0 -0.43989583860303227 0.0092818418187661945 0 -0.43525668636307951 0.00038330375819188139 0 -0.4450997529900188 -0.00012849009732438359 0 -0.43989583860303227 0.0092818418187661945 0 -0.44922817503882939 0.0072996019531977796 0 -0.43989583860303227 0.0092818418187661945 0 -0.43525668636307951 0.00038330375819188139 0 -0.42910397056211319 0.0070338126822099226 0 -0.43989583860303227 0.0092818418187661945 0 -0.43279846442449799 0.01433933717462676 0 -0.42910397056211319 0.0070338126822099226 0 -0.43279846442449799 0.01433933717462676 0 -0.42381960475047881 0.01127670963609915 0 -0.42910397056211319 0.0070338126822099226 0 -0.43279846442449799 0.01433933717462676 0 -0.42381960475047881 0.01127670963609915 0 -0.42453962851733118 0.019794205632936639 0 -0.42411198325617849 -0.001150248148406384 0 -0.42910397056211319 0.0070338126822099226 0 -0.41772199918986802 0.004723125048957966 0 -0.42381960475047881 0.01127670963609915 0 -0.42910397056211319 0.0070338126822099226 0 -0.41772199918986802 0.004723125048957966 0 -0.42411198325617849 -0.001150248148406384 0 -0.43525668636307951 0.00038330375819188139 0 -0.42910397056211319 0.0070338126822099226 0 -0.41493396105858338 0.01049306764176447 0 -0.42453962851733118 0.019794205632936639 0 -0.39963380976460711 0.0088531556122211641 0 -0.42453962851733118 0.019794205632936639 0 -0.39963380976460711 0.0088531556122211641 0 -0.42381960475047881 0.01127670963609915 0 -0.41772199918986802 0.004723125048957966 0 -0.41493396105858338 0.01049306764176447 0 -0.42381960475047881 0.01127670963609915 0 -0.41493396105858338 0.01049306764176447 0 -0.42453962851733118 0.019794205632936639 0 -0.41493396105858338 0.01049306764176447 0 -0.40885627456412599 0.0058505917459658703 0 -0.39963380976460711 0.0088531556122211641 0 -0.41772199918986802 0.004723125048957966 0 -0.41493396105858338 0.01049306764176447 0 -0.40885627456412599 0.0058505917459658703 0 -0.40587735948277459 -0.0014428404637955451 0 -0.41772199918986802 0.004723125048957966 0 -0.40885627456412599 0.0058505917459658703 0 -0.40725510789069119 0.029306378522210359 0 -0.41251104340283168 0.02059175948260443 0 -0.42849425274902209 0.02672570232690594 0 -0.40725510789069119 0.029306378522210359 0 -0.42849425274902209 0.02672570232690594 0 -0.41251104340283168 0.02059175948260443 0 -0.42453962851733118 0.019794205632936639 0 -0.39963380976460711 0.0088531556122211641 0 -0.40725510789069119 0.029306378522210359 0 -0.42849425274902209 0.02672570232690594 0 -0.42204520312173499 0.037107760758566102 0 -0.41251104340283168 0.02059175948260443 0 -0.42849425274902209 0.02672570232690594 0 -0.42453962851733118 0.019794205632936639 0 -0.40725510789069119 0.029306378522210359 0 -0.41251104340283168 0.02059175948260443 0 -0.40263241809250688 0.018279355318748029 0 -0.44944544727005531 0.03073525565365226 0 -0.42849425274902209 0.02672570232690594 0 -0.42453962851733118 0.019794205632936639 0 -0.44944544727005531 0.03073525565365226 0 -0.43834794228959018 0.020666229757094531 0 -0.42453962851733118 0.019794205632936639 0 -0.44944544727005531 0.03073525565365226 0 -0.42453962851733118 0.019794205632936639 0 -0.43834794228959018 0.020666229757094531 0 -0.44098531331793722 0.016015672988012559 0 -0.43279846442449799 0.01433933717462676 0 -0.43834794228959018 0.020666229757094531 0 -0.43279846442449799 0.01433933717462676 0 -0.42453962851733118 0.019794205632936639 0 -0.42849425274902209 0.02672570232690594 0 -0.43602176819642602 0.032483071001377588 0 -0.42956954146211263 0.035305259392577351 0 -0.43602176819642602 0.032483071001377588 0 -0.43657783130451411 0.037166066632374962 0 -0.42956954146211263 0.035305259392577351 0 -0.43657783130451411 0.037166066632374962 0 -0.42968722021363548 0.040923873865961087 0 -0.42956954146211263 0.035305259392577351 0 -0.43657783130451411 0.037166066632374962 0 -0.42968722021363548 0.040923873865961087 0 -0.43466547935553762 0.049394259870358677 0 -0.42557804582427811 0.045646022675928377 0 -0.42968722021363548 0.040923873865961087 0 -0.43466547935553762 0.049394259870358677 0 -0.42557804582427811 0.045646022675928377 0 -0.42968722021363548 0.040923873865961087 0 -0.42204520312173499 0.037107760758566102 0 -0.42849425274902209 0.02672570232690594 0 -0.42204520312173499 0.037107760758566102 0 -0.42956954146211263 0.035305259392577351 0 -0.42968722021363548 0.040923873865961087 0 -0.42204520312173499 0.037107760758566102 0 -0.42956954146211263 0.035305259392577351 0 -0.43466547935553762 0.049394259870358677 0 -0.42577097689869792 0.056220778835308037 0 -0.45027789984917821 0.06258741896801194 0 -0.42557804582427811 0.045646022675928377 0 -0.43466547935553762 0.049394259870358677 0 -0.42577097689869792 0.056220778835308037 0 -0.42577097689869792 0.056220778835308037 0 -0.41288492062386828 0.043361494262469609 0 -0.40126405394821729 0.049854138702605091 0 -0.42577097689869792 0.056220778835308037 0 -0.41947225575865282 0.062178668370271653 0 -0.40126405394821729 0.049854138702605091 0 -0.42577097689869792 0.056220778835308037 0 -0.40126405394821729 0.049854138702605091 0 -0.41947225575865282 0.062178668370271653 0 -0.40126405394821729 0.049854138702605091 0 -0.41947225575865282 0.062178668370271653 0 -0.40126405394821729 0.049854138702605091 0 -0.40734847271455621 0.062886443679058865 0 -0.42557804582427811 0.045646022675928377 0 -0.42577097689869792 0.056220778835308037 0 -0.41288492062386828 0.043361494262469609 0 -0.42557804582427811 0.045646022675928377 0 -0.42204520312173499 0.037107760758566102 0 -0.41288492062386828 0.043361494262469609 0 -0.40725510789069119 0.029306378522210359 0 -0.42204520312173499 0.037107760758566102 0 -0.41288492062386828 0.043361494262469609 0 -0.40725510789069119 0.029306378522210359 0 -0.39468131396007911 0.039986873982000772 0 -0.39013980082667388 0.036503956118350167 0 -0.40126405394821729 0.049854138702605091 0 -0.38307446342927037 0.037542206402683062 0 -0.39468131396007911 0.039986873982000772 0 -0.40126405394821729 0.049854138702605091 0 -0.38307446342927037 0.037542206402683062 0 -0.40126405394821729 0.049854138702605091 0 -0.38307446342927037 0.037542206402683062 0 -0.38907039848070007 0.046686355606344827 0 -0.40725510789069119 0.029306378522210359 0 -0.38601596303236002 0.031887054717513602 0 -0.39013980082667388 0.036503956118350167 0 -0.41288492062386828 0.043361494262469609 0 -0.39468131396007911 0.039986873982000772 0 -0.40126405394821729 0.049854138702605091 0 -0.40725510789069119 0.029306378522210359 0 -0.41288492062386828 0.043361494262469609 0 -0.39468131396007911 0.039986873982000772 0 -0.3986379462642774 0.061814500485865731 0 -0.40126405394821729 0.049854138702605091 0 -0.40734847271455621 0.062886443679058865 0 -0.40126405394821729 0.049854138702605091 0 -0.39187194197058262 0.055665261132325762 0 -0.38907039848070007 0.046686355606344827 0 -0.40126405394821729 0.049854138702605091 0 -0.38907039848070007 0.046686355606344827 0 -0.3986379462642774 0.061814500485865731 0 -0.39187194197058262 0.055665261132325762 0 -0.38903759375437269 0.065080009460077901 0 -0.3986379462642774 0.061814500485865731 0 -0.40126405394821729 0.049854138702605091 0 -0.39187194197058262 0.055665261132325762 0 -0.38307446342927037 0.037542206402683062 0 -0.37221351552981768 0.050888614758005497 0 -0.37136538221014131 0.060053387542604843 0 -0.38307446342927037 0.037542206402683062 0 -0.37136538221014131 0.060053387542604843 0 -0.38377565698794103 0.055476192188355977 0 -0.38307446342927037 0.037542206402683062 0 -0.37136538221014131 0.060053387542604843 0 -0.39187194197058262 0.055665261132325762 0 -0.38377565698794103 0.055476192188355977 0 -0.38903759375437269 0.065080009460077901 0 -0.38377565698794103 0.055476192188355977 0 -0.38087255268076547 0.066788427207968529 0 -0.38903759375437269 0.065080009460077901 0 -0.39187194197058262 0.055665261132325762 0 -0.38377565698794103 0.055476192188355977 0 -0.38907039848070007 0.046686355606344827 0 -0.38377565698794103 0.055476192188355977 0 -0.38087255268076547 0.066788427207968529 0 -0.37136538221014131 0.060053387542604843 0 -0.38377565698794103 0.055476192188355977 0 -0.38307446342927037 0.037542206402683062 0 -0.38907039848070007 0.046686355606344827 0 -0.39468131396007911 0.039986873982000772 0 -0.38307446342927037 0.037542206402683062 0 -0.39013980082667388 0.036503956118350167 0 -0.38307446342927037 0.037542206402683062 0 -0.38601596303236002 0.031887054717513602 0 -0.39013980082667388 0.036503956118350167 0 -0.38307446342927037 0.037542206402683062 0 -0.38601596303236002 0.031887054717513602 0 -0.38307446342927037 0.037542206402683062 0 -0.38601596303236002 0.031887054717513602 0 -0.38259952347732379 0.032302171441430813 0 -0.38601596303236002 0.031887054717513602 0 -0.38259952347732379 0.032302171441430813 0 -0.3806053218906551 0.035870926148703512 0 -0.37221351552981768 0.050888614758005497 0 -0.38307446342927037 0.037542206402683062 0 -0.3806053218906551 0.035870926148703512 0 -0.37221351552981768 0.050888614758005497 0 -0.3806053218906551 0.035870926148703512 0 -0.37339704843748373 0.041375637354966938 0 -0.37221351552981768 0.050888614758005497 0 -0.3806053218906551 0.035870926148703512 0 -0.37643878611317899 0.033050735866564353 0 -0.37339704843748373 0.041375637354966938 0 -0.38307446342927037 0.037542206402683062 0 -0.3806053218906551 0.035870926148703512 0 -0.38259952347732379 0.032302171441430813 0 -0.38307446342927037 0.037542206402683062 0 -0.3806053218906551 0.035870926148703512 0 -0.3806053218906551 0.035870926148703512 0 -0.38259952347732379 0.032302171441430813 0 -0.37643878611317899 0.033050735866564353 0 -0.38259952347732379 0.032302171441430813 0 -0.37643878611317899 0.033050735866564353 0 -0.3806053218906551 0.035870926148703512 0 -0.38259952347732379 0.032302171441430813 0 -0.3806053218906551 0.035870926148703512 0 -0.37643878611317899 0.033050735866564353 0 -0.38259952347732379 0.032302171441430813 0 -0.38328038752113008 0.024174611305253009 0 -0.39533571369301518 0.0095099226091984457 0 -0.37756954655671388 0.028023453724104131 0 -0.38328038752113008 0.024174611305253009 0 -0.37529474423918152 0.021738631409773449 0 -0.38259952347732379 0.032302171441430813 0 -0.37756954655671388 0.028023453724104131 0 -0.38328038752113008 0.024174611305253009 0 -0.38259952347732379 0.032302171441430813 0 -0.37643878611317899 0.033050735866564353 0 -0.37756954655671388 0.028023453724104131 0 -0.38259952347732379 0.032302171441430813 0 -0.39533571369301518 0.0095099226091984457 0 -0.38259952347732379 0.032302171441430813 0 -0.39533571369301518 0.0095099226091984457 0 -0.39363697057986718 0.017235360177177441 0 -0.38601596303236002 0.031887054717513602 0 -0.38259952347732379 0.032302171441430813 0 -0.39363697057986718 0.017235360177177441 0 -0.38601596303236002 0.031887054717513602 0 -0.39363697057986718 0.017235360177177441 0 -0.38328038752113008 0.024174611305253009 0 -0.37529474423918152 0.021738631409773449 0 -0.37925283366226159 0.01351163360444637 0 -0.37529474423918152 0.021738631409773449 0 -0.37925283366226159 0.01351163360444637 0 -0.37168742558907247 0.01236927880737582 0 -0.38328038752113008 0.024174611305253009 0 -0.38704313812526581 0.0029002563136639671 0 -0.38328038752113008 0.024174611305253009 0 -0.37925283366226159 0.01351163360444637 0 -0.38704313812526581 0.0029002563136639671 0 -0.38328038752113008 0.024174611305253009 0 -0.38704313812526581 0.0029002563136639671 0 -0.39062958480375048 0.0081390436411252053 0 -0.38328038752113008 0.024174611305253009 0 -0.39062958480375048 0.0081390436411252053 0 -0.39533571369301518 0.0095099226091984457 0 -0.37925283366226159 0.01351163360444637 0 -0.37895847283665818 0.0063753901861656158 0 -0.37168742558907247 0.01236927880737582 0 -0.37925283366226159 0.01351163360444637 0 -0.37895847283665818 0.0063753901861656158 0 -0.38704313812526581 0.0029002563136639671 0 -0.38130901083635682 -0.0010913206990655409 0 -0.37895847283665818 0.0063753901861656158 0 -0.38704313812526581 0.0029002563136639671 0 -0.38130901083635682 -0.0010913206990655409 0 -0.37895847283665818 0.0063753901861656158 0 -0.37307081250001728 0.0043801736117486277 0 -0.39533571369301518 0.0095099226091984457 0 -0.39825169566672458 0.01420060334639159 0 -0.39963380976460711 0.0088531556122211641 0 -0.39533571369301518 0.0095099226091984457 0 -0.39825169566672458 0.01420060334639159 0 -0.39363697057986718 0.017235360177177441 0 -0.39543429768942018 -0.00027052773220046102 0 -0.39062958480375048 0.0081390436411252053 0 -0.39533571369301518 0.0095099226091984457 0 -0.39543429768942018 -0.00027052773220046102 0 -0.38704313812526581 0.0029002563136639671 0 -0.39062958480375048 0.0081390436411252053 0 -0.40587735948277459 -0.0014428404637955451 0 -0.39533571369301518 0.0095099226091984457 0 -0.40242578937613072 0.0056927073758974833 0 -0.40885627456412599 0.0058505917459658703 0 -0.40242578937613072 0.0056927073758974833 0 -0.39963380976460711 0.0088531556122211641 0 -0.40587735948277459 -0.0014428404637955451 0 -0.40885627456412599 0.0058505917459658703 0 -0.40242578937613072 0.0056927073758974833 0 -0.39825169566672458 0.01420060334639159 0 -0.39963380976460711 0.0088531556122211641 0 -0.40263241809250688 0.018279355318748029 0 -0.39533571369301518 0.0095099226091984457 0 -0.40242578937613072 0.0056927073758974833 0 -0.39963380976460711 0.0088531556122211641 0 -0.41251104340283168 0.02059175948260443 0 -0.39963380976460711 0.0088531556122211641 0 -0.40263241809250688 0.018279355318748029 0 -0.40725510789069119 0.029306378522210359 0 -0.38601596303236002 0.031887054717513602 0 -0.39363697057986718 0.017235360177177441 0 -0.40725510789069119 0.029306378522210359 0 -0.38601596303236002 0.031887054717513602 0 -0.40725510789069119 0.029306378522210359 0 -0.40263241809250688 0.018279355318748029 0 -0.39363697057986718 0.017235360177177441 0 -0.39825169566672458 0.01420060334639159 0 -0.40263241809250688 0.018279355318748029 0 -0.39363697057986718 0.017235360177177441 0 -0.39393251371540322 0.1014174921082746 0 -0.38428033213699891 0.092384837611189458 0 -0.40048973208734412 0.09220181445464587 0 -0.39393251371540322 0.1014174921082746 0 -0.39348953090315097 0.1124810498013893 0 -0.38458991378504143 0.1059553467003993 0 -0.39393251371540322 0.1014174921082746 0 -0.39348953090315097 0.1124810498013893 0 -0.40681305966448028 0.1040644119737489 0 -0.39393251371540322 0.1014174921082746 0 -0.40048973208734412 0.09220181445464587 0 -0.40681305966448028 0.1040644119737489 0 -0.40681305966448028 0.1040644119737489 0 -0.3958226763824943 0.12796341742527079 0 -0.40681305966448028 0.1040644119737489 0 -0.40646054046023961 0.1214422129747609 0 -0.3958226763824943 0.12796341742527079 0 -0.39348953090315097 0.1124810498013893 0 -0.40681305966448028 0.1040644119737489 0 -0.3958226763824943 0.12796341742527079 0 -0.39348953090315097 0.1124810498013893 0 -0.38955173101803708 0.1208915186452328 0 -0.3958226763824943 0.12796341742527079 0 -0.39348953090315097 0.1124810498013893 0 -0.38696791955935078 0.11355057590789611 0 -0.38955173101803708 0.1208915186452328 0 -0.39348953090315097 0.1124810498013893 0 -0.38696791955935078 0.11355057590789611 0 -0.38458991378504143 0.1059553467003993 0 -0.38955173101803708 0.1208915186452328 0 -0.38056257019442291 0.11797064620599371 0 -0.39080347407612498 0.13531425893852081 0 -0.38696791955935078 0.11355057590789611 0 -0.38056257019442291 0.11797064620599371 0 -0.38458991378504143 0.1059553467003993 0 -0.38696791955935078 0.11355057590789611 0 -0.38955173101803708 0.1208915186452328 0 -0.38056257019442291 0.11797064620599371 0 -0.38056257019442291 0.11797064620599371 0 -0.38193942842029999 0.12811118696371451 0 -0.37390022369158532 0.1222057060986861 0 -0.38056257019442291 0.11797064620599371 0 -0.38458991378504143 0.1059553467003993 0 -0.3703216663127199 0.1006270334734672 0 -0.38056257019442291 0.11797064620599371 0 -0.3703216663127199 0.1006270334734672 0 -0.39393251371540322 0.1014174921082746 0 -0.38458991378504143 0.1059553467003993 0 -0.38428033213699891 0.092384837611189458 0 -0.38458991378504143 0.1059553467003993 0 -0.38428033213699891 0.092384837611189458 0 -0.3703216663127199 0.1006270334734672 0 -0.37565769277846039 0.088083777040234679 0 -0.38428033213699891 0.092384837611189458 0 -0.3703216663127199 0.1006270334734672 0 -0.37605207241779792 0.078417952266938012 0 -0.38428033213699891 0.092384837611189458 0 -0.40048973208734412 0.09220181445464587 0 -0.37565769277846039 0.088083777040234679 0 -0.37605207241779792 0.078417952266938012 0 -0.38428033213699891 0.092384837611189458 0 -0.37605207241779792 0.078417952266938012 0 -0.39131099135685549 0.079527990411403793 0 -0.40048973208734412 0.09220181445464587 0 -0.37605207241779792 0.078417952266938012 0 -0.40048973208734412 0.09220181445464587 0 -0.37605207241779792 0.078417952266938012 0 -0.38087255268076547 0.066788427207968529 0 -0.37136538221014131 0.060053387542604843 0 -0.37605207241779792 0.078417952266938012 0 -0.38087255268076547 0.066788427207968529 0 -0.3866122965198292 0.072381780811939161 0 -0.37605207241779792 0.078417952266938012 0 -0.3866122965198292 0.072381780811939161 0 -0.39131099135685549 0.079527990411403793 0 -0.38087255268076547 0.066788427207968529 0 -0.3866122965198292 0.072381780811939161 0 -0.38903759375437269 0.065080009460077901 0 -0.3866122965198292 0.072381780811939161 0 -0.38903759375437269 0.065080009460077901 0 -0.39524118261577051 0.07174018812680738 0 -0.3986379462642774 0.061814500485865731 0 -0.38903759375437269 0.065080009460077901 0 -0.39524118261577051 0.07174018812680738 0 -0.3866122965198292 0.072381780811939161 0 -0.39524118261577051 0.07174018812680738 0 -0.39131099135685549 0.079527990411403793 0 -0.39524118261577051 0.07174018812680738 0 -0.39131099135685549 0.079527990411403793 0 -0.40021187915063527 0.079039708607713352 0 -0.40444243048648088 0.070775373743695649 0 -0.40021187915063527 0.079039708607713352 0 -0.40957505920672538 0.08095317630201404 0 -0.39524118261577051 0.07174018812680738 0 -0.40444243048648088 0.070775373743695649 0 -0.40021187915063527 0.079039708607713352 0 -0.3986379462642774 0.061814500485865731 0 -0.39524118261577051 0.07174018812680738 0 -0.40444243048648088 0.070775373743695649 0 -0.3986379462642774 0.061814500485865731 0 -0.40444243048648088 0.070775373743695649 0 -0.40734847271455621 0.062886443679058865 0 -0.39131099135685549 0.079527990411403793 0 -0.40021187915063527 0.079039708607713352 0 -0.40048973208734412 0.09220181445464587 0 -0.40021187915063527 0.079039708607713352 0 -0.40048973208734412 0.09220181445464587 0 -0.40957505920672538 0.08095317630201404 0 -0.40048973208734412 0.09220181445464587 0 -0.40957505920672538 0.08095317630201404 0 -0.42255069101833548 0.090832008897072283 0 -0.42017399027978147 0.075678341151790424 0 -0.42255069101833548 0.090832008897072283 0 -0.40957505920672538 0.08095317630201404 0 -0.42017399027978147 0.075678341151790424 0 -0.42255069101833548 0.090832008897072283 0 -0.41947225575865282 0.062178668370271653 0 -0.40734847271455621 0.062886443679058865 0 -0.41292567711515238 0.069809537092856214 0 -0.40444243048648088 0.070775373743695649 0 -0.40734847271455621 0.062886443679058865 0 -0.41292567711515238 0.069809537092856214 0 -0.40444243048648088 0.070775373743695649 0 -0.40957505920672538 0.08095317630201404 0 -0.41292567711515238 0.069809537092856214 0 -0.40957505920672538 0.08095317630201404 0 -0.41292567711515238 0.069809537092856214 0 -0.42017399027978147 0.075678341151790424 0 -0.41947225575865282 0.062178668370271653 0 -0.41292567711515238 0.069809537092856214 0 -0.42017399027978147 0.075678341151790424 0 -0.41947225575865282 0.062178668370271653 0 -0.43768045756908891 0.074503198037937313 0 -0.42577097689869792 0.056220778835308037 0 -0.41947225575865282 0.062178668370271653 0 -0.43768045756908891 0.074503198037937313 0 -0.41947225575865282 0.062178668370271653 0 -0.42017399027978147 0.075678341151790424 0 -0.43768045756908891 0.074503198037937313 0 -0.42017399027978147 0.075678341151790424 0 -0.42939074600797639 0.081996000198462218 0 -0.43768045756908891 0.074503198037937313 0 -0.42939074600797639 0.081996000198462218 0 -0.44372183692042949 0.095274741791683493 0 -0.43768045756908891 0.074503198037937313 0 -0.42255069101833548 0.090832008897072283 0 -0.42939074600797639 0.081996000198462218 0 -0.44372183692042949 0.095274741791683493 0 -0.42017399027978147 0.075678341151790424 0 -0.42255069101833548 0.090832008897072283 0 -0.42939074600797639 0.081996000198462218 0 -0.42255069101833548 0.090832008897072283 0 -0.42492739175688998 0.105985676642354 0 -0.44372183692042949 0.095274741791683493 0 -0.42255069101833548 0.090832008897072283 0 -0.42492739175688998 0.105985676642354 0 -0.40048973208734412 0.09220181445464587 0 -0.42492739175688998 0.105985676642354 0 -0.40681305966448028 0.1040644119737489 0 -0.40048973208734412 0.09220181445464587 0 -0.42255069101833548 0.090832008897072283 0 -0.42492739175688998 0.105985676642354 0 -0.40048973208734412 0.09220181445464587 0 -0.42492739175688998 0.105985676642354 0 -0.42492739175688998 0.105985676642354 0 -0.40681305966448028 0.1040644119737489 0 -0.41483617717996818 0.1208077877150906 0 -0.40681305966448028 0.1040644119737489 0 -0.40646054046023961 0.1214422129747609 0 -0.41483617717996818 0.1208077877150906 0 -0.42492739175688998 0.105985676642354 0 -0.41483617717996818 0.1208077877150906 0 -0.42946566619025389 0.13492137804746959 0 -0.42492739175688998 0.105985676642354 0 -0.44979796285638229 0.1200137189835848 0 -0.42946566619025389 0.13492137804746959 0 -0.42492739175688998 0.105985676642354 0 -0.42946566619025389 0.13492137804746959 0 -0.42492739175688998 0.105985676642354 0 -0.44979796285638229 0.1200137189835848 0 -0.44372183692042949 0.095274741791683493 0 -0.46632910603236438 0.1140491076286433 0 -0.47596612271260502 0.096787452453593256 0 -0.42492739175688998 0.105985676642354 0 -0.44979796285638229 0.1200137189835848 0 -0.44372183692042949 0.095274741791683493 0 -0.44979796285638229 0.1200137189835848 0 -0.44372183692042949 0.095274741791683493 0 -0.46632910603236438 0.1140491076286433 0 -0.44979796285638229 0.1200137189835848 0 -0.46632910603236438 0.1140491076286433 0 -0.47466853395587438 0.13404176132481599 0 -0.44372183692042949 0.095274741791683493 0 -0.456486227970192 0.07962137407038837 0 -0.47596612271260502 0.096787452453593256 0 -0.42577097689869792 0.056220778835308037 0 -0.43768045756908891 0.074503198037937313 0 -0.45027789984917821 0.06258741896801194 0 -0.43768045756908891 0.074503198037937313 0 -0.45027789984917821 0.06258741896801194 0 -0.456486227970192 0.07962137407038837 0 -0.44372183692042949 0.095274741791683493 0 -0.43768045756908891 0.074503198037937313 0 -0.456486227970192 0.07962137407038837 0 -0.45027789984917821 0.06258741896801194 0 -0.456486227970192 0.07962137407038837 0 -0.47478482279965839 0.068954059100715823 0 -0.45027789984917821 0.06258741896801194 0 -0.47478482279965839 0.068954059100715823 0 -0.456486227970192 0.07962137407038837 0 -0.47478482279965839 0.068954059100715823 0 -0.47596612271260502 0.096787452453593256 0 -0.47478482279965839 0.068954059100715823 0 -0.5 0.08140131525993255 0 -0.47596612271260502 0.096787452453593256 0 -0.47478482279965839 0.068954059100715823 0 -0.5 0.08140131525993255 0 -0.48967027761566589 0.064289772438493584 0 -0.5 0.052600924308358443 0 -0.5 0.08140131525993255 0 -0.48967027761566589 0.064289772438493584 0 -0.46632910603236438 0.1140491076286433 0 -0.48376532719256532 0.1192992830138926 0 -0.47466853395587438 0.13404176132481599 0 -0.46632910603236438 0.1140491076286433 0 -0.48376532719256532 0.1192992830138926 0 -0.47596612271260502 0.096787452453593256 0 -0.5 0.08140131525993255 0 -0.47596612271260502 0.096787452453593256 0 -0.5 0.1102017062115067 0 -0.48376532719256532 0.1192992830138926 0 -0.47596612271260502 0.096787452453593256 0 -0.5 0.1102017062115067 0 -0.48376532719256532 0.1192992830138926 0 -0.5 0.1102017062115067 0 -0.5 0.13900209716308071 0 -0.5 0.13900209716308071 0 -0.47466853395587438 0.13404176132481599 0 -0.5 0.14806980366604719 0 -0.48376532719256532 0.1192992830138926 0 -0.5 0.13900209716308071 0 -0.47466853395587438 0.13404176132481599 0 -0.47466853395587438 0.13404176132481599 0 -0.47897083358218662 0.15547490098250791 0 -0.46206584612615659 0.15863459700698221 0 -0.47897083358218662 0.15547490098250791 0 -0.5 0.14806980366604719 0 -0.49081967565663082 0.15960029383244409 0 -0.47466853395587438 0.13404176132481599 0 -0.47897083358218662 0.15547490098250791 0 -0.5 0.14806980366604719 0 -0.47466853395587438 0.13404176132481599 0 -0.5 0.14806980366604719 0 -0.5 0.14806980366604719 0 -0.5 0.16780248811465481 0 -0.49081967565663082 0.15960029383244409 0 -0.5 0.16780248811465481 0 -0.49081967565663082 0.15960029383244409 0 -0.47972099600338741 0.1773227043961812 0 -0.5 0.16780248811465481 0 -0.47972099600338741 0.1773227043961812 0 -0.5 0.1966028790662287 0 -0.47897083358218662 0.15547490098250791 0 -0.47972099600338741 0.1773227043961812 0 -0.46206584612615659 0.15863459700698221 0 -0.47897083358218662 0.15547490098250791 0 -0.49081967565663082 0.15960029383244409 0 -0.47972099600338741 0.1773227043961812 0 -0.47972099600338741 0.1773227043961812 0 -0.46206584612615659 0.15863459700698221 0 -0.45508856537640929 0.17862198996565251 0 -0.47972099600338741 0.1773227043961812 0 -0.45508856537640929 0.17862198996565251 0 -0.46140074274686788 0.19952559332949871 0 -0.45508856537640929 0.17862198996565251 0 -0.4385422150569831 0.19279278085770049 0 -0.43400394062361852 0.16385707945258501 0 -0.46206584612615659 0.15863459700698221 0 -0.45508856537640929 0.17862198996565251 0 -0.43400394062361852 0.16385707945258501 0 -0.46206584612615659 0.15863459700698221 0 -0.44994220721546369 0.1424891459201505 0 -0.43400394062361852 0.16385707945258501 0 -0.44994220721546369 0.1424891459201505 0 -0.42946566619025389 0.13492137804746959 0 -0.43400394062361852 0.16385707945258501 0 -0.44979796285638229 0.1200137189835848 0 -0.44994220721546369 0.1424891459201505 0 -0.42946566619025389 0.13492137804746959 0 -0.44979796285638229 0.1200137189835848 0 -0.47466853395587438 0.13404176132481599 0 -0.44994220721546369 0.1424891459201505 0 -0.44979796285638229 0.1200137189835848 0 -0.47466853395587438 0.13404176132481599 0 -0.47466853395587438 0.13404176132481599 0 -0.46206584612615659 0.15863459700698221 0 -0.44994220721546369 0.1424891459201505 0 -0.48564723922501901 0.23723790733276631 0 -0.46706786538544731 0.24730017438542959 0 -0.48477689619124198 0.25401214588668991 0 -0.48564723922501901 0.23723790733276631 0 -0.46924395170856148 0.22834000892558101 0 -0.46706786538544731 0.24730017438542959 0 -0.48564723922501901 0.23723790733276631 0 -0.48477689619124198 0.25401214588668991 0 -0.5 0.25420366096937652 0 -0.48564723922501901 0.23723790733276631 0 -0.5 0.22540327001780261 0 -0.5 0.25420366096937652 0 -0.48564723922501901 0.23723790733276631 0 -0.5 0.22540327001780261 0 -0.48016133774130582 0.20947912353118039 0 -0.48564723922501901 0.23723790733276631 0 -0.46924395170856148 0.22834000892558101 0 -0.48016133774130582 0.20947912353118039 0 -0.47972099600338741 0.1773227043961812 0 -0.48016133774130582 0.20947912353118039 0 -0.5 0.1966028790662287 0 -0.47972099600338741 0.1773227043961812 0 -0.48016133774130582 0.20947912353118039 0 -0.46140074274686788 0.19952559332949871 0 -0.46924395170856148 0.22834000892558101 0 -0.48016133774130582 0.20947912353118039 0 -0.46055816081325768 0.21815655250284191 0 -0.5 0.22540327001780261 0 -0.48016133774130582 0.20947912353118039 0 -0.5 0.1966028790662287 0 -0.47972099600338741 0.1773227043961812 0 -0.46140074274686788 0.19952559332949871 0 -0.45508856537640929 0.17862198996565251 0 -0.46140074274686788 0.19952559332949871 0 -0.4385422150569831 0.19279278085770049 0 -0.46140074274686788 0.19952559332949871 0 -0.44308048949034817 0.22172848226281591 0 -0.46140074274686788 0.19952559332949871 0 -0.4385422150569831 0.19279278085770049 0 -0.44308048949034817 0.22172848226281591 0 -0.4385422150569831 0.19279278085770049 0 -0.44308048949034817 0.22172848226281591 0 -0.46140074274686788 0.19952559332949871 0 -0.46055816081325768 0.21815655250284191 0 -0.44308048949034817 0.22172848226281591 0 -0.48016133774130582 0.20947912353118039 0 -0.46140074274686788 0.19952559332949871 0 -0.46055816081325768 0.21815655250284191 0 -0.46055816081325768 0.21815655250284191 0 -0.45622708656260852 0.2321952552632012 0 -0.44308048949034817 0.22172848226281591 0 -0.46924395170856148 0.22834000892558101 0 -0.46055816081325768 0.21815655250284191 0 -0.45622708656260852 0.2321952552632012 0 -0.45622708656260852 0.2321952552632012 0 -0.44308048949034817 0.22172848226281591 0 -0.4468537577718848 0.24578656114699779 0 -0.44308048949034817 0.22172848226281591 0 -0.4468537577718848 0.24578656114699779 0 -0.44308048949034817 0.22172848226281591 0 -0.4468537577718848 0.24578656114699779 0 -0.43122832758572438 0.2360924886279826 0 -0.4468537577718848 0.24578656114699779 0 -0.43122832758572438 0.2360924886279826 0 -0.4359761124487716 0.25737820880338202 0 -0.46924395170856148 0.22834000892558101 0 -0.45622708656260852 0.2321952552632012 0 -0.46706786538544731 0.24730017438542959 0 -0.45622708656260852 0.2321952552632012 0 -0.4468537577718848 0.24578656114699779 0 -0.46706786538544731 0.24730017438542959 0 -0.41881121939287302 0.2387466630996502 0 -0.43122832758572438 0.2360924886279826 0 -0.41279186945260171 0.25843620989219313 0 -0.41120729079074531 0.244333338263414 0 -0.40201382394766128 0.2425875868555146 0 -0.41279186945260171 0.25843620989219313 0 -0.41120729079074531 0.244333338263414 0 -0.41881121939287302 0.2387466630996502 0 -0.41279186945260171 0.25843620989219313 0 -0.41010784733696132 0.23779431442549009 0 -0.41881121939287302 0.2387466630996502 0 -0.41298789413747827 0.22924951945193059 0 -0.41120729079074531 0.244333338263414 0 -0.41010784733696132 0.23779431442549009 0 -0.40201382394766128 0.2425875868555146 0 -0.41120729079074531 0.244333338263414 0 -0.41010784733696132 0.23779431442549009 0 -0.41881121939287302 0.2387466630996502 0 -0.43122832758572438 0.2360924886279826 0 -0.4359761124487716 0.25737820880338202 0 -0.43122832758572438 0.2360924886279826 0 -0.41279186945260171 0.25843620989219313 0 -0.41881121939287302 0.2387466630996502 0 -0.43122832758572438 0.2360924886279826 0 -0.42131425450856419 0.22836268790898109 0 -0.43122832758572438 0.2360924886279826 0 -0.42767427371944899 0.22015861667124489 0 -0.42131425450856419 0.22836268790898109 0 -0.43122832758572438 0.2360924886279826 0 -0.42767427371944899 0.22015861667124489 0 -0.44308048949034817 0.22172848226281591 0 -0.43122832758572438 0.2360924886279826 0 -0.42767427371944899 0.22015861667124489 0 -0.44308048949034817 0.22172848226281591 0 -0.43122832758572438 0.2360924886279826 0 -0.42767427371944899 0.22015861667124489 0 -0.42131425450856419 0.22836268790898109 0 -0.4158695577072975 0.21756615169409821 0 -0.42131425450856419 0.22836268790898109 0 -0.41298789413747827 0.22924951945193059 0 -0.4158695577072975 0.21756615169409821 0 -0.41881121939287302 0.2387466630996502 0 -0.42131425450856419 0.22836268790898109 0 -0.41298789413747827 0.22924951945193059 0 -0.41010784733696132 0.23779431442549009 0 -0.41298789413747827 0.22924951945193059 0 -0.40346965788813499 0.2313372060740746 0 -0.41298789413747827 0.22924951945193059 0 -0.4039334185785009 0.2217089988276465 0 -0.40346965788813499 0.2313372060740746 0 -0.41298789413747827 0.22924951945193059 0 -0.4158695577072975 0.21756615169409821 0 -0.4039334185785009 0.2217089988276465 0 -0.4158695577072975 0.21756615169409821 0 -0.42544245259016322 0.20527356019366649 0 -0.41114630395948082 0.2018260055918297 0 -0.4158695577072975 0.21756615169409821 0 -0.41114630395948082 0.2018260055918297 0 -0.40578540021107018 0.21233568139004319 0 -0.4158695577072975 0.21756615169409821 0 -0.40578540021107018 0.21233568139004319 0 -0.4039334185785009 0.2217089988276465 0 -0.42767427371944899 0.22015861667124489 0 -0.4158695577072975 0.21756615169409821 0 -0.42544245259016322 0.20527356019366649 0 -0.4385422150569831 0.19279278085770049 0 -0.44308048949034817 0.22172848226281591 0 -0.42544245259016322 0.20527356019366649 0 -0.44308048949034817 0.22172848226281591 0 -0.42767427371944899 0.22015861667124489 0 -0.42544245259016322 0.20527356019366649 0 -0.4385422150569831 0.19279278085770049 0 -0.42544245259016322 0.20527356019366649 0 -0.4188765019150294 0.18371843155497011 0 -0.41114630395948082 0.2018260055918297 0 -0.4051771110941596 0.19029435899683469 0 -0.4188765019150294 0.18371843155497011 0 -0.42544245259016322 0.20527356019366649 0 -0.41114630395948082 0.2018260055918297 0 -0.4188765019150294 0.18371843155497011 0 -0.41114630395948082 0.2018260055918297 0 -0.4051771110941596 0.19029435899683469 0 -0.39968039090765889 0.2036220258499763 0 -0.4051771110941596 0.19029435899683469 0 -0.39292895889351959 0.19237363606777719 0 -0.39968039090765889 0.2036220258499763 0 -0.39292895889351959 0.19237363606777719 0 -0.38762796817934181 0.20498389653189061 0 -0.39968039090765889 0.2036220258499763 0 -0.37864064895668309 0.19837989903975889 0 -0.38762796817934181 0.20498389653189061 0 -0.38402015791595973 0.18322882924494679 0 -0.39292895889351959 0.19237363606777719 0 -0.38762796817934181 0.20498389653189061 0 -0.38402015791595973 0.18322882924494679 0 -0.38762796817934181 0.20498389653189061 0 -0.38402015791595973 0.18322882924494679 0 -0.37864064895668309 0.19837989903975889 0 -0.38402015791595973 0.18322882924494679 0 -0.3704555555390836 0.19211962862246479 0 -0.38762796817934181 0.20498389653189061 0 -0.38329283157865002 0.2150592236849308 0 -0.39123577844272339 0.2267389638188344 0 -0.38762796817934181 0.20498389653189061 0 -0.39123577844272339 0.2267389638188344 0 -0.38762796817934181 0.20498389653189061 0 -0.37945395089533751 0.207517412808953 0 -0.38329283157865002 0.2150592236849308 0 -0.37864064895668309 0.19837989903975889 0 -0.38762796817934181 0.20498389653189061 0 -0.37945395089533751 0.207517412808953 0 -0.37864064895668309 0.19837989903975889 0 -0.37945395089533751 0.207517412808953 0 -0.37145183611379129 0.20404661419699729 0 -0.37945395089533751 0.207517412808953 0 -0.38329283157865002 0.2150592236849308 0 -0.37350329825249279 0.2150731898125457 0 -0.38762796817934181 0.20498389653189061 0 -0.39739102448081609 0.21381241768777201 0 -0.39123577844272339 0.2267389638188344 0 -0.38762796817934181 0.20498389653189061 0 -0.39739102448081609 0.21381241768777201 0 -0.39968039090765889 0.2036220258499763 0 -0.39739102448081609 0.21381241768777201 0 -0.39968039090765889 0.2036220258499763 0 -0.40578540021107018 0.21233568139004319 0 -0.41114630395948082 0.2018260055918297 0 -0.39968039090765889 0.2036220258499763 0 -0.40578540021107018 0.21233568139004319 0 -0.39739102448081609 0.21381241768777201 0 -0.40578540021107018 0.21233568139004319 0 -0.4039334185785009 0.2217089988276465 0 -0.40346965788813499 0.2313372060740746 0 -0.39123577844272339 0.2267389638188344 0 -0.40201382394766128 0.2425875868555146 0 -0.4039334185785009 0.2217089988276465 0 -0.40346965788813499 0.2313372060740746 0 -0.39123577844272339 0.2267389638188344 0 -0.39123577844272339 0.2267389638188344 0 -0.39324031971491158 0.23882633179893931 0 -0.39739102448081609 0.21381241768777201 0 -0.4039334185785009 0.2217089988276465 0 -0.39123577844272339 0.2267389638188344 0 -0.38329283157865002 0.2150592236849308 0 -0.39123577844272339 0.2267389638188344 0 -0.38329283157865002 0.2150592236849308 0 -0.39123577844272339 0.2267389638188344 0 -0.37565668076706632 0.22879299734290351 0 -0.38329283157865002 0.2150592236849308 0 -0.37565668076706632 0.22879299734290351 0 -0.37350329825249279 0.2150731898125457 0 -0.39123577844272339 0.2267389638188344 0 -0.37565668076706632 0.22879299734290351 0 -0.38487056722633772 0.2347835915239587 0 -0.39123577844272339 0.2267389638188344 0 -0.38487056722633772 0.2347835915239587 0 -0.39324031971491158 0.23882633179893931 0 -0.37565668076706632 0.22879299734290351 0 -0.38487056722633772 0.2347835915239587 0 -0.38029180335294221 0.24586642203902559 0 -0.38487056722633772 0.2347835915239587 0 -0.38029180335294221 0.24586642203902559 0 -0.39324031971491158 0.23882633179893931 0 -0.38029180335294221 0.24586642203902559 0 -0.39294454383724442 0.2479356906039622 0 -0.39324031971491158 0.23882633179893931 0 -0.39123577844272339 0.2267389638188344 0 -0.39324031971491158 0.23882633179893931 0 -0.40201382394766128 0.2425875868555146 0 -0.39123577844272339 0.2267389638188344 0 -0.40201382394766128 0.2425875868555146 0 -0.39294454383724442 0.2479356906039622 0 -0.39324031971491158 0.23882633179893931 0 -0.40201382394766128 0.2425875868555146 0 -0.41010784733696132 0.23779431442549009 0 -0.40346965788813499 0.2313372060740746 0 -0.40201382394766128 0.2425875868555146 0 -0.39294454383724442 0.2479356906039622 0 -0.40201382394766128 0.2425875868555146 0 -0.4010632208850578 0.25428521508771351 0 -0.40792016555059701 0.1485615235137534 0 -0.42946566619025389 0.13492137804746959 0 -0.4175206763244288 0.16119103480064001 0 -0.41483617717996818 0.1208077877150906 0 -0.40837024861401577 0.1329332347849333 0 -0.42946566619025389 0.13492137804746959 0 -0.40792016555059701 0.1485615235137534 0 -0.40837024861401577 0.1329332347849333 0 -0.42946566619025389 0.13492137804746959 0 -0.40646054046023961 0.1214422129747609 0 -0.41483617717996818 0.1208077877150906 0 -0.40837024861401577 0.1329332347849333 0 -0.42946566619025389 0.13492137804746959 0 -0.43400394062361852 0.16385707945258501 0 -0.42946566619025389 0.13492137804746959 0 -0.43400394062361852 0.16385707945258501 0 -0.4175206763244288 0.16119103480064001 0 -0.43400394062361852 0.16385707945258501 0 -0.4188765019150294 0.18371843155497011 0 -0.4175206763244288 0.16119103480064001 0 -0.4385422150569831 0.19279278085770049 0 -0.43400394062361852 0.16385707945258501 0 -0.4385422150569831 0.19279278085770049 0 -0.43400394062361852 0.16385707945258501 0 -0.4188765019150294 0.18371843155497011 0 -0.4051771110941596 0.19029435899683469 0 -0.4188765019150294 0.18371843155497011 0 -0.40108326281261641 0.16971457982235319 0 -0.4188765019150294 0.18371843155497011 0 -0.4175206763244288 0.16119103480064001 0 -0.40108326281261641 0.16971457982235319 0 -0.40792016555059701 0.1485615235137534 0 -0.4175206763244288 0.16119103480064001 0 -0.40108326281261641 0.16971457982235319 0 -0.40792016555059701 0.1485615235137534 0 -0.40108326281261641 0.16971457982235319 0 -0.39732089012652833 0.15261257377966209 0 -0.40108326281261641 0.16971457982235319 0 -0.38483229310050771 0.1518624228767923 0 -0.39732089012652833 0.15261257377966209 0 -0.40108326281261641 0.16971457982235319 0 -0.38483229310050771 0.1518624228767923 0 -0.39292895889351959 0.19237363606777719 0 -0.40108326281261641 0.16971457982235319 0 -0.38402015791595973 0.18322882924494679 0 -0.4051771110941596 0.19029435899683469 0 -0.39292895889351959 0.19237363606777719 0 -0.40108326281261641 0.16971457982235319 0 -0.38402015791595973 0.18322882924494679 0 -0.38041234765257559 0.16147376195800339 0 -0.37101691200486098 0.18190449326217289 0 -0.38402015791595973 0.18322882924494679 0 -0.38041234765257559 0.16147376195800339 0 -0.38402015791595973 0.18322882924494679 0 -0.37101691200486098 0.18190449326217289 0 -0.3704555555390836 0.19211962862246479 0 -0.40108326281261641 0.16971457982235319 0 -0.38402015791595973 0.18322882924494679 0 -0.38041234765257559 0.16147376195800339 0 -0.38041234765257559 0.16147376195800339 0 -0.37101691200486098 0.18190449326217289 0 -0.40108326281261641 0.16971457982235319 0 -0.38041234765257559 0.16147376195800339 0 -0.38483229310050771 0.1518624228767923 0 -0.38041234765257559 0.16147376195800339 0 -0.38483229310050771 0.1518624228767923 0 -0.38041234765257559 0.16147376195800339 0 -0.37747878107045107 0.14378437872390501 0 -0.38483229310050771 0.1518624228767923 0 -0.38041234765257559 0.16147376195800339 0 -0.37747878107045107 0.14378437872390501 0 -0.38041234765257559 0.16147376195800339 0 -0.37747878107045107 0.14378437872390501 0 -0.36942484112729951 0.1540534382229756 0 -0.38483229310050771 0.1518624228767923 0 -0.39080347407612498 0.13531425893852081 0 -0.38249144571906663 0.13695413661165751 0 -0.37747878107045107 0.14378437872390501 0 -0.38483229310050771 0.1518624228767923 0 -0.38249144571906663 0.13695413661165751 0 -0.37747878107045107 0.14378437872390501 0 -0.38483229310050771 0.1518624228767923 0 -0.38483229310050771 0.1518624228767923 0 -0.39868466981856931 0.14266411637854121 0 -0.3958226763824943 0.12796341742527079 0 -0.38483229310050771 0.1518624228767923 0 -0.39732089012652833 0.15261257377966209 0 -0.39868466981856931 0.14266411637854121 0 -0.40792016555059701 0.1485615235137534 0 -0.40837024861401577 0.1329332347849333 0 -0.39868466981856931 0.14266411637854121 0 -0.40792016555059701 0.1485615235137534 0 -0.39732089012652833 0.15261257377966209 0 -0.39868466981856931 0.14266411637854121 0 -0.40646054046023961 0.1214422129747609 0 -0.40837024861401577 0.1329332347849333 0 -0.3958226763824943 0.12796341742527079 0 -0.40837024861401577 0.1329332347849333 0 -0.39868466981856931 0.14266411637854121 0 -0.3958226763824943 0.12796341742527079 0 -0.38955173101803708 0.1208915186452328 0 -0.39080347407612498 0.13531425893852081 0 -0.3958226763824943 0.12796341742527079 0 -0.38483229310050771 0.1518624228767923 0 -0.39080347407612498 0.13531425893852081 0 -0.3958226763824943 0.12796341742527079 0 -0.38483229310050771 0.1518624228767923 0 -0.3958226763824943 0.12796341742527079 0 -0.38056257019442291 0.11797064620599371 0 -0.39080347407612498 0.13531425893852081 0 -0.38193942842029999 0.12811118696371451 0 -0.37747878107045107 0.14378437872390501 0 -0.38249144571906663 0.13695413661165751 0 -0.37390022369158532 0.1222057060986861 0 -0.38056257019442291 0.11797064620599371 0 -0.39080347407612498 0.13531425893852081 0 -0.37747878107045107 0.14378437872390501 0 -0.37390022369158532 0.1222057060986861 0 -0.39080347407612498 0.13531425893852081 0 -0.38249144571906663 0.13695413661165751 0 -0.38193942842029999 0.12811118696371451 0 -0.38249144571906663 0.13695413661165751 0 -0.38193942842029999 0.12811118696371451 0 -0.37390022369158532 0.1222057060986861 0 -0.37747878107045107 0.14378437872390501 0 -0.3616757251158621 0.12642426790475991 0 -0.37747878107045107 0.14378437872390501 0 -0.3616757251158621 0.12642426790475991 0 -0.37390022369158532 0.1222057060986861 0 -0.37747878107045107 0.14378437872390501 0 -0.3616757251158621 0.12642426790475991 0 -0.35821238267705607 0.14562181663839829 0 -0.35200747485442851 0.1274103739483739 0 -0.35821238267705607 0.14562181663839829 0 -0.3616757251158621 0.12642426790475991 0 -0.35200747485442851 0.1274103739483739 0 -0.35821238267705607 0.14562181663839829 0 -0.35200747485442851 0.1274103739483739 0 -0.35821238267705607 0.14562181663839829 0 -0.34361917399200992 0.1414874166310166 0 -0.35821238267705607 0.14562181663839829 0 -0.36185791195927042 0.16469695290212141 0 -0.34416825931320633 0.15786867608720179 0 -0.35821238267705607 0.14562181663839829 0 -0.34416825931320633 0.15786867608720179 0 -0.34361917399200992 0.1414874166310166 0 -0.35821238267705607 0.14562181663839829 0 -0.36942484112729951 0.1540534382229756 0 -0.36185791195927042 0.16469695290212141 0 -0.37747878107045107 0.14378437872390501 0 -0.35821238267705607 0.14562181663839829 0 -0.36942484112729951 0.1540534382229756 0 -0.38041234765257559 0.16147376195800339 0 -0.36185791195927042 0.16469695290212141 0 -0.37101691200486098 0.18190449326217289 0 -0.38041234765257559 0.16147376195800339 0 -0.36942484112729951 0.1540534382229756 0 -0.36185791195927042 0.16469695290212141 0 -0.36185791195927042 0.16469695290212141 0 -0.37101691200486098 0.18190449326217289 0 -0.35689960129818488 0.17980925830125391 0 -0.37101691200486098 0.18190449326217289 0 -0.35689960129818488 0.17980925830125391 0 -0.36034162450920998 0.193659924254378 0 -0.35689960129818488 0.17980925830125391 0 -0.34646227175291477 0.1710837547357078 0 -0.34099203748117662 0.19014499088785561 0 -0.36185791195927042 0.16469695290212141 0 -0.34646227175291477 0.1710837547357078 0 -0.34416825931320633 0.15786867608720179 0 -0.36185791195927042 0.16469695290212141 0 -0.35689960129818488 0.17980925830125391 0 -0.34646227175291477 0.1710837547357078 0 -0.34416825931320633 0.15786867608720179 0 -0.33134359267051428 0.17227294322401429 0 -0.32351422282747261 0.1520491723919524 0 -0.34646227175291477 0.1710837547357078 0 -0.34416825931320633 0.15786867608720179 0 -0.33134359267051428 0.17227294322401429 0 -0.33134359267051428 0.17227294322401429 0 -0.34099203748117662 0.19014499088785561 0 -0.31845860852012919 0.19186954912095799 0 -0.34646227175291477 0.1710837547357078 0 -0.33134359267051428 0.17227294322401429 0 -0.34099203748117662 0.19014499088785561 0 -0.33134359267051428 0.17227294322401429 0 -0.31845860852012919 0.19186954912095799 0 -0.31237005072530721 0.17347429295875391 0 -0.32351422282747261 0.1520491723919524 0 -0.30261532748196651 0.1629102665937707 0 -0.31237005072530721 0.17347429295875391 0 -0.33134359267051428 0.17227294322401429 0 -0.32351422282747261 0.1520491723919524 0 -0.31237005072530721 0.17347429295875391 0 -0.32351422282747261 0.1520491723919524 0 -0.31237005072530721 0.17347429295875391 0 -0.32351422282747261 0.1520491723919524 0 -0.31515948897435409 0.14158971913247231 0 -0.334658394929638 0.13062405182515091 0 -0.32351422282747261 0.1520491723919524 0 -0.31515948897435409 0.14158971913247231 0 -0.30477353587736578 0.149645030277474 0 -0.31833074637889308 0.1296133023468129 0 -0.334658394929638 0.13062405182515091 0 -0.32353886662367859 0.1209842734201287 0 -0.31515948897435409 0.14158971913247231 0 -0.31833074637889308 0.1296133023468129 0 -0.334658394929638 0.13062405182515091 0 -0.31515948897435409 0.14158971913247231 0 -0.31833074637889308 0.1296133023468129 0 -0.3090503483835022 0.13398498222008451 0 -0.35200747485442851 0.1274103739483739 0 -0.334658394929638 0.13062405182515091 0 -0.34361917399200992 0.1414874166310166 0 -0.32351422282747261 0.1520491723919524 0 -0.334658394929638 0.13062405182515091 0 -0.34416825931320633 0.15786867608720179 0 -0.32351422282747261 0.1520491723919524 0 -0.34361917399200992 0.1414874166310166 0 -0.32351422282747261 0.1520491723919524 0 -0.334658394929638 0.13062405182515091 0 -0.34361917399200992 0.1414874166310166 0 -0.36502312147435351 0.24619534276921981 0 -0.34079662044490161 0.23168150955542949 0 -0.34884269561760822 0.25954676056681569 0 -0.37565668076706632 0.22879299734290351 0 -0.38029180335294221 0.24586642203902559 0 -0.36502312147435351 0.24619534276921981 0 -0.36502312147435351 0.24619534276921981 0 -0.36268237299178169 0.219927633511799 0 -0.37565668076706632 0.22879299734290351 0 -0.36502312147435351 0.24619534276921981 0 -0.36268237299178169 0.219927633511799 0 -0.37565668076706632 0.22879299734290351 0 -0.36268237299178169 0.219927633511799 0 -0.37350329825249279 0.2150731898125457 0 -0.36268237299178169 0.219927633511799 0 -0.34693050549554733 0.20866401174560431 0 -0.34079662044490161 0.23168150955542949 0 -0.36502312147435351 0.24619534276921981 0 -0.36268237299178169 0.219927633511799 0 -0.34079662044490161 0.23168150955542949 0 -0.36268237299178169 0.219927633511799 0 -0.34693050549554733 0.20866401174560431 0 -0.36034162450920998 0.193659924254378 0 -0.36268237299178169 0.219927633511799 0 -0.37350329825249279 0.2150731898125457 0 -0.37145183611379129 0.20404661419699729 0 -0.36268237299178169 0.219927633511799 0 -0.36034162450920998 0.193659924254378 0 -0.36268237299178169 0.219927633511799 0 -0.37145183611379129 0.20404661419699729 0 -0.36034162450920998 0.193659924254378 0 -0.37945395089533751 0.207517412808953 0 -0.37350329825249279 0.2150731898125457 0 -0.37145183611379129 0.20404661419699729 0 -0.37145183611379129 0.20404661419699729 0 -0.3704555555390836 0.19211962862246479 0 -0.36034162450920998 0.193659924254378 0 -0.37864064895668309 0.19837989903975889 0 -0.37145183611379129 0.20404661419699729 0 -0.3704555555390836 0.19211962862246479 0 -0.37101691200486098 0.18190449326217289 0 -0.3704555555390836 0.19211962862246479 0 -0.36034162450920998 0.193659924254378 0 -0.35689960129818488 0.17980925830125391 0 -0.36034162450920998 0.193659924254378 0 -0.34099203748117662 0.19014499088785561 0 -0.34693050549554733 0.20866401174560431 0 -0.36034162450920998 0.193659924254378 0 -0.34099203748117662 0.19014499088785561 0 -0.34099203748117662 0.19014499088785561 0 -0.31845860852012919 0.19186954912095799 0 -0.32767935787808877 0.2108386437450146 0 -0.31845860852012919 0.19186954912095799 0 -0.32767935787808877 0.2108386437450146 0 -0.3054939798685945 0.21864656439864891 0 -0.34693050549554733 0.20866401174560431 0 -0.34099203748117662 0.19014499088785561 0 -0.32767935787808877 0.2108386437450146 0 -0.34693050549554733 0.20866401174560431 0 -0.32767935787808877 0.2108386437450146 0 -0.34079662044490161 0.23168150955542949 0 -0.32767935787808877 0.2108386437450146 0 -0.34079662044490161 0.23168150955542949 0 -0.32406078547265232 0.22733820868681109 0 -0.32767935787808877 0.2108386437450146 0 -0.32406078547265232 0.22733820868681109 0 -0.3054939798685945 0.21864656439864891 0 -0.32406078547265232 0.22733820868681109 0 -0.31446442801379021 0.24011835057568609 0 -0.3054939798685945 0.21864656439864891 0 -0.31446442801379021 0.24011835057568609 0 -0.33117357873461722 0.2499228471262179 0 -0.31486817053965671 0.259311730800519 0 -0.32406078547265232 0.22733820868681109 0 -0.31446442801379021 0.24011835057568609 0 -0.33117357873461722 0.2499228471262179 0 -0.34079662044490161 0.23168150955542949 0 -0.33117357873461722 0.2499228471262179 0 -0.34884269561760822 0.25954676056681569 0 -0.34079662044490161 0.23168150955542949 0 -0.32406078547265232 0.22733820868681109 0 -0.33117357873461722 0.2499228471262179 0 -0.29608417921845082 0.24557422084738381 0 -0.2850787007666703 0.2297156934959512 0 -0.27420087427913759 0.25212895866241708 0 -0.31446442801379021 0.24011835057568609 0 -0.29608417921845082 0.24557422084738381 0 -0.3054939798685945 0.21864656439864891 0 -0.31446442801379021 0.24011835057568609 0 -0.29608417921845082 0.24557422084738381 0 -0.31486817053965671 0.259311730800519 0 -0.29608417921845082 0.24557422084738381 0 -0.2850787007666703 0.2297156934959512 0 -0.3054939798685945 0.21864656439864891 0 -0.2850787007666703 0.2297156934959512 0 -0.28170888117771231 0.21148308108312769 0 -0.3054939798685945 0.21864656439864891 0 -0.28170888117771231 0.21148308108312769 0 -0.3054939798685945 0.21864656439864891 0 -0.29697750946982482 0.1933303255960524 0 -0.31845860852012919 0.19186954912095799 0 -0.3054939798685945 0.21864656439864891 0 -0.29697750946982482 0.1933303255960524 0 -0.28170888117771231 0.21148308108312769 0 -0.29697750946982482 0.1933303255960524 0 -0.27434273592015568 0.189396293642524 0 -0.28170888117771231 0.21148308108312769 0 -0.27434273592015568 0.189396293642524 0 -0.2623399943966378 0.2074572994922125 0 -0.27434273592015568 0.189396293642524 0 -0.2623399943966378 0.2074572994922125 0 -0.24625838967984681 0.181395420132927 0 -0.28170888117771231 0.21148308108312769 0 -0.2623399943966378 0.2074572994922125 0 -0.2660203666443911 0.23035230987337721 0 -0.2850787007666703 0.2297156934959512 0 -0.28170888117771231 0.21148308108312769 0 -0.2660203666443911 0.23035230987337721 0 -0.2623399943966378 0.2074572994922125 0 -0.2660203666443911 0.23035230987337721 0 -0.24252528348747809 0.22916606022967431 0 -0.2660203666443911 0.23035230987337721 0 -0.2531312179692447 0.24693268900981011 0 -0.27420087427913759 0.25212895866241708 0 -0.2660203666443911 0.23035230987337721 0 -0.2531312179692447 0.24693268900981011 0 -0.24252528348747809 0.22916606022967431 0 -0.2850787007666703 0.2297156934959512 0 -0.2660203666443911 0.23035230987337721 0 -0.27420087427913759 0.25212895866241708 0 -0.29230633043244691 0.15322403008629129 0 -0.2817408233713109 0.14577996464035611 0 -0.27005306044314842 0.15157933961078229 0 -0.29500282952645063 0.14350272785757881 0 -0.29230633043244691 0.15322403008629129 0 -0.28887222896253328 0.14355796826303821 0 -0.29500282952645063 0.14350272785757881 0 -0.28887222896253328 0.14355796826303821 0 -0.28999819187614889 0.139395092452163 0 -0.29230633043244691 0.15322403008629129 0 -0.2817408233713109 0.14577996464035611 0 -0.28887222896253328 0.14355796826303821 0 -0.28887222896253328 0.14355796826303821 0 -0.28384921670847008 0.14057195054326219 0 -0.28999819187614889 0.139395092452163 0 -0.2817408233713109 0.14577996464035611 0 -0.28887222896253328 0.14355796826303821 0 -0.28384921670847008 0.14057195054326219 0 -0.29809352627904651 0.13747165351035029 0 -0.28211707011644038 0.1240764000657079 0 -0.29336068829918638 0.12106823902018619 0 -0.29809352627904651 0.13747165351035029 0 -0.27366981837973858 0.1215369207226151 0 -0.28318426638040411 0.1336386931251394 0 -0.29809352627904651 0.13747165351035029 0 -0.27366981837973858 0.1215369207226151 0 -0.29809352627904651 0.13747165351035029 0 -0.27366981837973858 0.1215369207226151 0 -0.28211707011644038 0.1240764000657079 0 -0.28384921670847008 0.14057195054326219 0 -0.28318426638040411 0.1336386931251394 0 -0.28999819187614889 0.139395092452163 0 -0.29500282952645063 0.14350272785757881 0 -0.28999819187614889 0.139395092452163 0 -0.29809352627904651 0.13747165351035029 0 -0.28318426638040411 0.1336386931251394 0 -0.28999819187614889 0.139395092452163 0 -0.29809352627904651 0.13747165351035029 0 -0.29500282952645063 0.14350272785757881 0 -0.29809352627904651 0.13747165351035029 0 -0.29809352627904651 0.13747165351035029 0 -0.30266518468369569 0.14045433555745099 0 -0.3090503483835022 0.13398498222008451 0 -0.29500282952645063 0.14350272785757881 0 -0.29809352627904651 0.13747165351035029 0 -0.30266518468369569 0.14045433555745099 0 -0.29809352627904651 0.13747165351035029 0 -0.3090503483835022 0.13398498222008451 0 -0.30883371973111939 0.1165136267616633 0 -0.31833074637889308 0.1296133023468129 0 -0.3090503483835022 0.13398498222008451 0 -0.30883371973111939 0.1165136267616633 0 -0.29809352627904651 0.13747165351035029 0 -0.29336068829918638 0.12106823902018619 0 -0.30883371973111939 0.1165136267616633 0 -0.29809352627904651 0.13747165351035029 0 -0.30883371973111939 0.1165136267616633 0 -0.29809352627904651 0.13747165351035029 0 -0.30266518468369569 0.14045433555745099 0 -0.31515948897435409 0.14158971913247231 0 -0.30266518468369569 0.14045433555745099 0 -0.3090503483835022 0.13398498222008451 0 -0.32351422282747261 0.1520491723919524 0 -0.30477353587736578 0.149645030277474 0 -0.30261532748196651 0.1629102665937707 0 -0.31515948897435409 0.14158971913247231 0 -0.30266518468369569 0.14045433555745099 0 -0.30477353587736578 0.149645030277474 0 -0.29500282952645063 0.14350272785757881 0 -0.30266518468369569 0.14045433555745099 0 -0.30477353587736578 0.149645030277474 0 -0.29500282952645063 0.14350272785757881 0 -0.29230633043244691 0.15322403008629129 0 -0.30477353587736578 0.149645030277474 0 -0.29230633043244691 0.15322403008629129 0 -0.30477353587736578 0.149645030277474 0 -0.30261532748196651 0.1629102665937707 0 -0.30261532748196651 0.1629102665937707 0 -0.31237005072530721 0.17347429295875391 0 -0.29009887615105601 0.17547572910353429 0 -0.31845860852012919 0.19186954912095799 0 -0.29697750946982482 0.1933303255960524 0 -0.31237005072530721 0.17347429295875391 0 -0.29697750946982482 0.1933303255960524 0 -0.31237005072530721 0.17347429295875391 0 -0.29009887615105601 0.17547572910353429 0 -0.29697750946982482 0.1933303255960524 0 -0.27434273592015568 0.189396293642524 0 -0.29009887615105601 0.17547572910353429 0 -0.29230633043244691 0.15322403008629129 0 -0.29009887615105601 0.17547572910353429 0 -0.26928236005614692 0.16730972510960909 0 -0.29230633043244691 0.15322403008629129 0 -0.30261532748196651 0.1629102665937707 0 -0.29009887615105601 0.17547572910353429 0 -0.29230633043244691 0.15322403008629129 0 -0.26928236005614692 0.16730972510960909 0 -0.27005306044314842 0.15157933961078229 0 -0.29230633043244691 0.15322403008629129 0 -0.26928236005614692 0.16730972510960909 0 -0.27434273592015568 0.189396293642524 0 -0.29009887615105601 0.17547572910353429 0 -0.26928236005614692 0.16730972510960909 0 -0.27434273592015568 0.189396293642524 0 -0.26928236005614692 0.16730972510960909 0 -0.24625838967984681 0.181395420132927 0 -0.26928236005614692 0.16730972510960909 0 -0.24625838967984681 0.181395420132927 0 -0.26928236005614692 0.16730972510960909 0 -0.27005306044314842 0.15157933961078229 0 -0.24009106869969429 0.15802268964771349 0 -0.26928236005614692 0.16730972510960909 0 -0.24009106869969429 0.15802268964771349 0 -0.24625838967984681 0.181395420132927 0 -0.27005306044314842 0.15157933961078229 0 -0.25688044353971651 0.13977980518516439 0 -0.24009106869969429 0.15802268964771349 0 -0.27005306044314842 0.15157933961078229 0 -0.27545057295195341 0.14048803423561421 0 -0.25688044353971651 0.13977980518516439 0 -0.2817408233713109 0.14577996464035611 0 -0.27005306044314842 0.15157933961078229 0 -0.27545057295195341 0.14048803423561421 0 -0.2817408233713109 0.14577996464035611 0 -0.28384921670847008 0.14057195054326219 0 -0.27545057295195341 0.14048803423561421 0 -0.27545057295195341 0.14048803423561421 0 -0.27283031897086979 0.1330258452896585 0 -0.25688044353971651 0.13977980518516439 0 -0.27283031897086979 0.1330258452896585 0 -0.25688044353971651 0.13977980518516439 0 -0.27366981837973858 0.1215369207226151 0 -0.28318426638040411 0.1336386931251394 0 -0.27283031897086979 0.1330258452896585 0 -0.27366981837973858 0.1215369207226151 0 -0.28318426638040411 0.1336386931251394 0 -0.27545057295195341 0.14048803423561421 0 -0.27283031897086979 0.1330258452896585 0 -0.28384921670847008 0.14057195054326219 0 -0.28318426638040411 0.1336386931251394 0 -0.27545057295195341 0.14048803423561421 0 -0.25688044353971651 0.13977980518516439 0 -0.27366981837973858 0.1215369207226151 0 -0.24904366568778949 0.12297968893121029 0 -0.25688044353971651 0.13977980518516439 0 -0.27366981837973858 0.1215369207226151 0 -0.25096589504962769 0.1067242250831951 0 -0.27366981837973858 0.1215369207226151 0 -0.24904366568778949 0.12297968893121029 0 -0.26340843163657129 0.1098467724110959 0 -0.25096589504962769 0.1067242250831951 0 -0.27366981837973858 0.1215369207226151 0 -0.25096589504962769 0.1067242250831951 0 -0.27366981837973858 0.1215369207226151 0 -0.25117752100816348 0.097584187418704199 0 -0.25914460312670862 0.099702102766160511 0 -0.25704971966588719 0.09142976905552154 0 -0.25117752100816348 0.097584187418704199 0 -0.25384145955287618 0.10207045342164239 0 -0.25914460312670862 0.099702102766160511 0 -0.26340843163657129 0.1098467724110959 0 -0.25659216648426808 0.1040929022886484 0 -0.25096589504962769 0.1067242250831951 0 -0.25117752100816348 0.097584187418704199 0 -0.25384145955287618 0.10207045342164239 0 -0.25096589504962769 0.1067242250831951 0 -0.25659216648426808 0.1040929022886484 0 -0.25384145955287618 0.10207045342164239 0 -0.25914460312670862 0.099702102766160511 0 -0.25659216648426808 0.1040929022886484 0 -0.25384145955287618 0.10207045342164239 0 -0.25096589504962769 0.1067242250831951 0 -0.26279213770107518 0.1044659261700743 0 -0.25914460312670862 0.099702102766160511 0 -0.26841809126467148 0.10216576743800421 0 -0.26340843163657129 0.1098467724110959 0 -0.25659216648426808 0.1040929022886484 0 -0.26279213770107518 0.1044659261700743 0 -0.26340843163657129 0.1098467724110959 0 -0.26279213770107518 0.1044659261700743 0 -0.2662963839579251 0.10797973918418489 0 -0.25659216648426808 0.1040929022886484 0 -0.26279213770107518 0.1044659261700743 0 -0.25914460312670862 0.099702102766160511 0 -0.26505512416828148 0.095065426452622614 0 -0.25914460312670862 0.099702102766160511 0 -0.26841809126467148 0.10216576743800421 0 -0.26505512416828148 0.095065426452622614 0 -0.25914460312670862 0.099702102766160511 0 -0.25704971966588719 0.09142976905552154 0 -0.26505512416828148 0.095065426452622614 0 -0.27295632718692092 0.094046172841933853 0 -0.26841809126467148 0.10216576743800421 0 -0.27295632718692092 0.094046172841933853 0 -0.26841809126467148 0.10216576743800421 0 -0.2754074737158253 0.100352418363765 0 -0.26841809126467148 0.10216576743800421 0 -0.27566715936015812 0.1066560388907969 0 -0.2754074737158253 0.100352418363765 0 -0.26279213770107518 0.1044659261700743 0 -0.26841809126467148 0.10216576743800421 0 -0.2662963839579251 0.10797973918418489 0 -0.26841809126467148 0.10216576743800421 0 -0.2662963839579251 0.10797973918418489 0 -0.27082488729726878 0.1090959766809227 0 -0.26841809126467148 0.10216576743800421 0 -0.27082488729726878 0.1090959766809227 0 -0.27566715936015812 0.1066560388907969 0 -0.27566715936015812 0.1066560388907969 0 -0.28135382032949507 0.11227964415039771 0 -0.28267013093392612 0.1044533184395328 0 -0.27566715936015812 0.1066560388907969 0 -0.2754074737158253 0.100352418363765 0 -0.28267013093392612 0.1044533184395328 0 -0.2754074737158253 0.100352418363765 0 -0.28267013093392612 0.1044533184395328 0 -0.28160826529532601 0.094657105446939643 0 -0.27295632718692092 0.094046172841933853 0 -0.2754074737158253 0.100352418363765 0 -0.28160826529532601 0.094657105446939643 0 -0.27013418824679358 0.1142809210178579 0 -0.27390886426498151 0.1166438049668458 0 -0.27366981837973858 0.1215369207226151 0 -0.26340843163657129 0.1098467724110959 0 -0.27013418824679358 0.1142809210178579 0 -0.27366981837973858 0.1215369207226151 0 -0.2662963839579251 0.10797973918418489 0 -0.27082488729726878 0.1090959766809227 0 -0.27013418824679358 0.1142809210178579 0 -0.26340843163657129 0.1098467724110959 0 -0.2662963839579251 0.10797973918418489 0 -0.27013418824679358 0.1142809210178579 0 -0.27082488729726878 0.1090959766809227 0 -0.27013418824679358 0.1142809210178579 0 -0.27471821157450232 0.1129619857551553 0 -0.27013418824679358 0.1142809210178579 0 -0.27390886426498151 0.1166438049668458 0 -0.27471821157450232 0.1129619857551553 0 -0.27390886426498151 0.1166438049668458 0 -0.27471821157450232 0.1129619857551553 0 -0.2771132388588915 0.1177953923717549 0 -0.27566715936015812 0.1066560388907969 0 -0.27471821157450232 0.1129619857551553 0 -0.28135382032949507 0.11227964415039771 0 -0.27082488729726878 0.1090959766809227 0 -0.27566715936015812 0.1066560388907969 0 -0.27471821157450232 0.1129619857551553 0 -0.2771132388588915 0.1177953923717549 0 -0.2813642444565968 0.1187179975601852 0 -0.28135382032949507 0.11227964415039771 0 -0.27471821157450232 0.1129619857551553 0 -0.2771132388588915 0.1177953923717549 0 -0.28135382032949507 0.11227964415039771 0 -0.27864881912193479 0.1206157030193697 0 -0.27366981837973858 0.1215369207226151 0 -0.28211707011644038 0.1240764000657079 0 -0.27864881912193479 0.1206157030193697 0 -0.2771132388588915 0.1177953923717549 0 -0.2813642444565968 0.1187179975601852 0 -0.27864881912193479 0.1206157030193697 0 -0.2771132388588915 0.1177953923717549 0 -0.27366981837973858 0.1215369207226151 0 -0.27390886426498151 0.1166438049668458 0 -0.2771132388588915 0.1177953923717549 0 -0.27366981837973858 0.1215369207226151 0 -0.2771132388588915 0.1177953923717549 0 -0.27366981837973858 0.1215369207226151 0 -0.27864881912193479 0.1206157030193697 0 -0.28211707011644038 0.1240764000657079 0 -0.2813642444565968 0.1187179975601852 0 -0.28211707011644038 0.1240764000657079 0 -0.28599993141107571 0.1172095616790599 0 -0.29336068829918638 0.12106823902018619 0 -0.28211707011644038 0.1240764000657079 0 -0.2813642444565968 0.1187179975601852 0 -0.28599993141107571 0.1172095616790599 0 -0.28599993141107571 0.1172095616790599 0 -0.29336068829918638 0.12106823902018619 0 -0.29175629172775069 0.1102309327609016 0 -0.28599993141107571 0.1172095616790599 0 -0.29175629172775069 0.1102309327609016 0 -0.28135382032949507 0.11227964415039771 0 -0.2813642444565968 0.1187179975601852 0 -0.28599993141107571 0.1172095616790599 0 -0.28135382032949507 0.11227964415039771 0 -0.29175629172775069 0.1102309327609016 0 -0.28135382032949507 0.11227964415039771 0 -0.28267013093392612 0.1044533184395328 0 -0.28267013093392612 0.1044533184395328 0 -0.28160826529532601 0.094657105446939643 0 -0.29669539822419089 0.098858159176072935 0 -0.29175629172775069 0.1102309327609016 0 -0.28267013093392612 0.1044533184395328 0 -0.29669539822419089 0.098858159176072935 0 -0.29175629172775069 0.1102309327609016 0 -0.29669539822419089 0.098858159176072935 0 -0.30883371973111939 0.1165136267616633 0 -0.29669539822419089 0.098858159176072935 0 -0.30883371973111939 0.1165136267616633 0 -0.31957391318318978 0.095555600012975028 0 -0.29336068829918638 0.12106823902018619 0 -0.29175629172775069 0.1102309327609016 0 -0.30883371973111939 0.1165136267616633 0 -0.30854958912112201 0.071068293349567949 0 -0.30427551132657549 0.083804892254008681 0 -0.29552041768859832 0.069822192707915495 0 -0.30854958912112201 0.071068293349567949 0 -0.29552041768859832 0.069822192707915495 0 -0.30551316177856908 0.059237953287580893 0 -0.30854958912112201 0.071068293349567949 0 -0.30551316177856908 0.059237953287580893 0 -0.31926891213487257 0.06554120859545555 0 -0.30854958912112201 0.071068293349567949 0 -0.30427551132657549 0.083804892254008681 0 -0.31816994267699428 0.076935219902879187 0 -0.29669539822419089 0.098858159176072935 0 -0.30427551132657549 0.083804892254008681 0 -0.31957391318318978 0.095555600012975028 0 -0.30427551132657549 0.083804892254008681 0 -0.28914494326432122 0.084207413565497075 0 -0.29552041768859832 0.069822192707915495 0 -0.28160826529532601 0.094657105446939643 0 -0.29669539822419089 0.098858159176072935 0 -0.28914494326432122 0.084207413565497075 0 -0.29669539822419089 0.098858159176072935 0 -0.30427551132657549 0.083804892254008681 0 -0.28914494326432122 0.084207413565497075 0 -0.28160826529532601 0.094657105446939643 0 -0.28914494326432122 0.084207413565497075 0 -0.2760883309312504 0.08514698785226521 0 -0.28914494326432122 0.084207413565497075 0 -0.28068173611998659 0.072955143955780594 0 -0.2760883309312504 0.08514698785226521 0 -0.29552041768859832 0.069822192707915495 0 -0.28068173611998659 0.072955143955780594 0 -0.28857975710105982 0.053851411808675823 0 -0.28914494326432122 0.084207413565497075 0 -0.29552041768859832 0.069822192707915495 0 -0.28068173611998659 0.072955143955780594 0 -0.28068173611998659 0.072955143955780594 0 -0.26778925883045113 0.074144500244708714 0 -0.27292346205668011 0.058126945311303399 0 -0.28068173611998659 0.072955143955780594 0 -0.26778925883045113 0.074144500244708714 0 -0.2760883309312504 0.08514698785226521 0 -0.27295632718692092 0.094046172841933853 0 -0.28160826529532601 0.094657105446939643 0 -0.2760883309312504 0.08514698785226521 0 -0.26778925883045113 0.074144500244708714 0 -0.2760883309312504 0.08514698785226521 0 -0.26583414078984963 0.086555606315837752 0 -0.26505512416828148 0.095065426452622614 0 -0.27295632718692092 0.094046172841933853 0 -0.26583414078984963 0.086555606315837752 0 -0.27295632718692092 0.094046172841933853 0 -0.2760883309312504 0.08514698785226521 0 -0.26583414078984963 0.086555606315837752 0 -0.26505512416828148 0.095065426452622614 0 -0.26583414078984963 0.086555606315837752 0 -0.25704971966588719 0.09142976905552154 0 -0.26583414078984963 0.086555606315837752 0 -0.25575636728774542 0.079115484991206964 0 -0.25704971966588719 0.09142976905552154 0 -0.26778925883045113 0.074144500244708714 0 -0.26583414078984963 0.086555606315837752 0 -0.25575636728774542 0.079115484991206964 0 -0.25575636728774542 0.079115484991206964 0 -0.25704971966588719 0.09142976905552154 0 -0.2453305616145752 0.090555806388597324 0 -0.25117752100816348 0.097584187418704199 0 -0.25704971966588719 0.09142976905552154 0 -0.2453305616145752 0.090555806388597324 0 -0.26778925883045113 0.074144500244708714 0 -0.25592661339345901 0.062396704574867443 0 -0.27292346205668011 0.058126945311303399 0 -0.25575636728774542 0.079115484991206964 0 -0.25592661339345901 0.062396704574867443 0 -0.24370472515519279 0.073126728262141005 0 -0.26778925883045113 0.074144500244708714 0 -0.25575636728774542 0.079115484991206964 0 -0.25592661339345901 0.062396704574867443 0 -0.25592661339345901 0.062396704574867443 0 -0.26124958229098821 0.044027292205806097 0 -0.27292346205668011 0.058126945311303399 0 -0.25592661339345901 0.062396704574867443 0 -0.26124958229098821 0.044027292205806097 0 -0.242602603959445 0.044785963142970918 0 -0.26124958229098821 0.044027292205806097 0 -0.25150930774064451 0.031920585626659392 0 -0.26469673370801122 0.028226865783964741 0 -0.26124958229098821 0.044027292205806097 0 -0.25150930774064451 0.031920585626659392 0 -0.242602603959445 0.044785963142970918 0 -0.26124958229098821 0.044027292205806097 0 -0.27982886900830312 0.036453922798635241 0 -0.26469673370801122 0.028226865783964741 0 -0.26124958229098821 0.044027292205806097 0 -0.27982886900830312 0.036453922798635241 0 -0.27292346205668011 0.058126945311303399 0 -0.27982886900830312 0.036453922798635241 0 -0.27292346205668011 0.058126945311303399 0 -0.28857975710105982 0.053851411808675823 0 -0.28068173611998659 0.072955143955780594 0 -0.27292346205668011 0.058126945311303399 0 -0.28857975710105982 0.053851411808675823 0 -0.25976749961366202 -0.0010753608270254731 0 -0.2517249179826993 0.017253337104544519 0 -0.27451879381727817 0.0142177016775887 0 -0.2517249179826993 0.017253337104544519 0 -0.26469673370801122 0.028226865783964741 0 -0.27451879381727817 0.0142177016775887 0 -0.25150930774064451 0.031920585626659392 0 -0.2517249179826993 0.017253337104544519 0 -0.26469673370801122 0.028226865783964741 0 -0.27982886900830312 0.036453922798635241 0 -0.26469673370801122 0.028226865783964741 0 -0.27451879381727817 0.0142177016775887 0 -0.25976749961366202 -0.0010753608270254731 0 -0.286468818953594 -0.0051721761543546442 0 -0.27451879381727817 0.0142177016775887 0 -0.286468818953594 -0.0051721761543546442 0 -0.29334899475142179 0.017869861329843261 0 -0.30622626610694459 0.00024583799610343368 0 -0.286468818953594 -0.0051721761543546442 0 -0.27451879381727817 0.0142177016775887 0 -0.29334899475142179 0.017869861329843261 0 -0.27982886900830312 0.036453922798635241 0 -0.27451879381727817 0.0142177016775887 0 -0.29334899475142179 0.017869861329843261 0 -0.29334899475142179 0.017869861329843261 0 -0.30277676134417619 0.04000258705291216 0 -0.31251632593707779 0.014555129536796911 0 -0.29334899475142179 0.017869861329843261 0 -0.30622626610694459 0.00024583799610343368 0 -0.31251632593707779 0.014555129536796911 0 -0.29552041768859832 0.069822192707915495 0 -0.28857975710105982 0.053851411808675823 0 -0.30551316177856908 0.059237953287580893 0 -0.27982886900830312 0.036453922798635241 0 -0.28857975710105982 0.053851411808675823 0 -0.30277676134417619 0.04000258705291216 0 -0.27982886900830312 0.036453922798635241 0 -0.29334899475142179 0.017869861329843261 0 -0.30277676134417619 0.04000258705291216 0 -0.30277676134417619 0.04000258705291216 0 -0.30551316177856908 0.059237953287580893 0 -0.31588376610906049 0.05224899372123995 0 -0.28857975710105982 0.053851411808675823 0 -0.30277676134417619 0.04000258705291216 0 -0.30551316177856908 0.059237953287580893 0 -0.30551316177856908 0.059237953287580893 0 -0.31588376610906049 0.05224899372123995 0 -0.31926891213487257 0.06554120859545555 0 -0.31588376610906049 0.05224899372123995 0 -0.32273207080306399 0.03957640545699595 0 -0.32912792448462042 0.056886814213255213 0 -0.31588376610906049 0.05224899372123995 0 -0.32912792448462042 0.056886814213255213 0 -0.31926891213487257 0.06554120859545555 0 -0.32912792448462042 0.056886814213255213 0 -0.31926891213487257 0.06554120859545555 0 -0.32926322043717871 0.064776852208998953 0 -0.30277676134417619 0.04000258705291216 0 -0.32273207080306399 0.03957640545699595 0 -0.31251632593707779 0.014555129536796911 0 -0.30277676134417619 0.04000258705291216 0 -0.31588376610906049 0.05224899372123995 0 -0.32273207080306399 0.03957640545699595 0 -0.32273207080306399 0.03957640545699595 0 -0.3421499408321651 0.052916450268518912 0 -0.34958542845812141 0.036313570661779621 0 -0.32273207080306399 0.03957640545699595 0 -0.33558484642367598 0.02082429776176772 0 -0.34958542845812141 0.036313570661779621 0 -0.32273207080306399 0.03957640545699595 0 -0.34958542845812141 0.036313570661779621 0 -0.32273207080306399 0.03957640545699595 0 -0.3421499408321651 0.052916450268518912 0 -0.32912792448462042 0.056886814213255213 0 -0.3421499408321651 0.052916450268518912 0 -0.32912792448462042 0.056886814213255213 0 -0.33912760102122358 0.063643532877121461 0 -0.32912792448462042 0.056886814213255213 0 -0.32926322043717871 0.064776852208998953 0 -0.33912760102122358 0.063643532877121461 0 -0.32385765207493478 -0.0078489795256403549 0 -0.31251632593707779 0.014555129536796911 0 -0.32977592091503111 0.0063646395929695329 0 -0.32385765207493478 -0.0078489795256403549 0 -0.31251632593707779 0.014555129536796911 0 -0.32385765207493478 -0.0078489795256403549 0 -0.30622626610694459 0.00024583799610343368 0 -0.31251632593707779 0.014555129536796911 0 -0.31251632593707779 0.014555129536796911 0 -0.33558484642367598 0.02082429776176772 0 -0.32977592091503111 0.0063646395929695329 0 -0.32273207080306399 0.03957640545699595 0 -0.31251632593707779 0.014555129536796911 0 -0.33558484642367598 0.02082429776176772 0 -0.33558484642367598 0.02082429776176772 0 -0.3413382638878204 0.0063593465364551686 0 -0.32977592091503111 0.0063646395929695329 0 -0.33558484642367598 0.02082429776176772 0 -0.3413382638878204 0.0063593465364551686 0 -0.34912838349469849 0.014501017268910911 0 -0.33548568050220218 -0.0024615781636486839 0 -0.3413382638878204 0.0063593465364551686 0 -0.32977592091503111 0.0063646395929695329 0 -0.3556439998422094 -0.00520968311981758 0 -0.3591266599220081 0.002314006955012288 0 -0.3515305953768067 0.0043846640713042723 0 -0.3591266599220081 0.002314006955012288 0 -0.3515305953768067 0.0043846640713042723 0 -0.35902522480120191 0.010023194999438351 0 -0.3457554037342303 -0.0046582507321048317 0 -0.3413382638878204 0.0063593465364551686 0 -0.3515305953768067 0.0043846640713042723 0 -0.3413382638878204 0.0063593465364551686 0 -0.3515305953768067 0.0043846640713042723 0 -0.34912838349469849 0.014501017268910911 0 -0.34912838349469849 0.014501017268910911 0 -0.35902522480120191 0.010023194999438351 0 -0.3581246372366077 0.01928944322311453 0 -0.3515305953768067 0.0043846640713042723 0 -0.34912838349469849 0.014501017268910911 0 -0.35902522480120191 0.010023194999438351 0 -0.34912838349469849 0.014501017268910911 0 -0.3581246372366077 0.01928944322311453 0 -0.35046313381200428 0.024093099865263961 0 -0.33558484642367598 0.02082429776176772 0 -0.34912838349469849 0.014501017268910911 0 -0.35046313381200428 0.024093099865263961 0 -0.33558484642367598 0.02082429776176772 0 -0.35046313381200428 0.024093099865263961 0 -0.34958542845812141 0.036313570661779621 0 -0.35046313381200428 0.024093099865263961 0 -0.3598923734469181 0.02953717041074699 0 -0.34958542845812141 0.036313570661779621 0 -0.3581246372366077 0.01928944322311453 0 -0.35046313381200428 0.024093099865263961 0 -0.3598923734469181 0.02953717041074699 0 -0.37643878611317899 0.033050735866564353 0 -0.3598923734469181 0.02953717041074699 0 -0.37023429143275538 0.028851118597499621 0 -0.3598923734469181 0.02953717041074699 0 -0.37023429143275538 0.028851118597499621 0 -0.36677231548532357 0.021062989944186591 0 -0.37529474423918152 0.021738631409773449 0 -0.37023429143275538 0.028851118597499621 0 -0.36677231548532357 0.021062989944186591 0 -0.37643878611317899 0.033050735866564353 0 -0.37023429143275538 0.028851118597499621 0 -0.37643878611317899 0.033050735866564353 0 -0.37756954655671388 0.028023453724104131 0 -0.37023429143275538 0.028851118597499621 0 -0.37756954655671388 0.028023453724104131 0 -0.37529474423918152 0.021738631409773449 0 -0.37023429143275538 0.028851118597499621 0 -0.36677231548532357 0.021062989944186591 0 -0.36457120957828371 0.014109770601456699 0 -0.37168742558907247 0.01236927880737582 0 -0.37529474423918152 0.021738631409773449 0 -0.36677231548532357 0.021062989944186591 0 -0.37168742558907247 0.01236927880737582 0 -0.3581246372366077 0.01928944322311453 0 -0.3598923734469181 0.02953717041074699 0 -0.36677231548532357 0.021062989944186591 0 -0.3581246372366077 0.01928944322311453 0 -0.36677231548532357 0.021062989944186591 0 -0.36457120957828371 0.014109770601456699 0 -0.36557867523590631 -0.0021662686662354169 0 -0.38130901083635682 -0.0010913206990655409 0 -0.37307081250001728 0.0043801736117486277 0 -0.35902522480120191 0.010023194999438351 0 -0.3581246372366077 0.01928944322311453 0 -0.36457120957828371 0.014109770601456699 0 -0.35902522480120191 0.010023194999438351 0 -0.36457120957828371 0.014109770601456699 0 -0.36558802200096818 0.0068388928028632933 0 -0.37168742558907247 0.01236927880737582 0 -0.37307081250001728 0.0043801736117486277 0 -0.36558802200096818 0.0068388928028632933 0 -0.36457120957828371 0.014109770601456699 0 -0.37168742558907247 0.01236927880737582 0 -0.36558802200096818 0.0068388928028632933 0 -0.37895847283665818 0.0063753901861656158 0 -0.37168742558907247 0.01236927880737582 0 -0.37307081250001728 0.0043801736117486277 0 -0.36557867523590631 -0.0021662686662354169 0 -0.37307081250001728 0.0043801736117486277 0 -0.36558802200096818 0.0068388928028632933 0 -0.36557867523590631 -0.0021662686662354169 0 -0.3591266599220081 0.002314006955012288 0 -0.36558802200096818 0.0068388928028632933 0 -0.3591266599220081 0.002314006955012288 0 -0.35902522480120191 0.010023194999438351 0 -0.36558802200096818 0.0068388928028632933 0 -0.3421499408321651 0.052916450268518912 0 -0.35782058306272557 0.052117869278103413 0 -0.35654562088485842 0.061070602885465751 0 -0.3421499408321651 0.052916450268518912 0 -0.35782058306272557 0.052117869278103413 0 -0.34958542845812141 0.036313570661779621 0 -0.3421499408321651 0.052916450268518912 0 -0.35654562088485842 0.061070602885465751 0 -0.35090312091158848 0.06774050947552282 0 -0.3421499408321651 0.052916450268518912 0 -0.35090312091158848 0.06774050947552282 0 -0.3421499408321651 0.052916450268518912 0 -0.35090312091158848 0.06774050947552282 0 -0.33912760102122358 0.063643532877121461 0 -0.35782058306272557 0.052117869278103413 0 -0.34958542845812141 0.036313570661779621 0 -0.36589107232026552 0.042749285583883738 0 -0.37643878611317899 0.033050735866564353 0 -0.34958542845812141 0.036313570661779621 0 -0.36589107232026552 0.042749285583883738 0 -0.37643878611317899 0.033050735866564353 0 -0.3598923734469181 0.02953717041074699 0 -0.34958542845812141 0.036313570661779621 0 -0.37643878611317899 0.033050735866564353 0 -0.34958542845812141 0.036313570661779621 0 -0.37643878611317899 0.033050735866564353 0 -0.36589107232026552 0.042749285583883738 0 -0.37339704843748373 0.041375637354966938 0 -0.36589107232026552 0.042749285583883738 0 -0.37339704843748373 0.041375637354966938 0 -0.37221351552981768 0.050888614758005497 0 -0.35782058306272557 0.052117869278103413 0 -0.36589107232026552 0.042749285583883738 0 -0.37221351552981768 0.050888614758005497 0 -0.35782058306272557 0.052117869278103413 0 -0.37221351552981768 0.050888614758005497 0 -0.3638217091689806 0.065906303367307656 0 -0.35782058306272557 0.052117869278103413 0 -0.35654562088485842 0.061070602885465751 0 -0.3638217091689806 0.065906303367307656 0 -0.37221351552981768 0.050888614758005497 0 -0.37136538221014131 0.060053387542604843 0 -0.3638217091689806 0.065906303367307656 0 -0.37221351552981768 0.050888614758005497 0 -0.3638217091689806 0.065906303367307656 0 -0.37136538221014131 0.060053387542604843 0 -0.35965630099101209 0.082564568682526554 0 -0.37136538221014131 0.060053387542604843 0 -0.3638217091689806 0.065906303367307656 0 -0.35965630099101209 0.082564568682526554 0 -0.37605207241779792 0.078417952266938012 0 -0.37136538221014131 0.060053387542604843 0 -0.36753462105050028 0.083821172636848601 0 -0.37136538221014131 0.060053387542604843 0 -0.35965630099101209 0.082564568682526554 0 -0.36753462105050028 0.083821172636848601 0 -0.3638217091689806 0.065906303367307656 0 -0.35090312091158848 0.06774050947552282 0 -0.35965630099101209 0.082564568682526554 0 -0.35090312091158848 0.06774050947552282 0 -0.35965630099101209 0.082564568682526554 0 -0.34276747925966422 0.07739581824142823 0 -0.35654562088485842 0.061070602885465751 0 -0.3638217091689806 0.065906303367307656 0 -0.35090312091158848 0.06774050947552282 0 -0.35090312091158848 0.06774050947552282 0 -0.35965630099101209 0.082564568682526554 0 -0.35090312091158848 0.06774050947552282 0 -0.34276747925966422 0.07739581824142823 0 -0.34031219762363563 0.070381990476198586 0 -0.34661297485088932 0.093471324567792391 0 -0.35965630099101209 0.082564568682526554 0 -0.34276747925966422 0.07739581824142823 0 -0.37565769277846039 0.088083777040234679 0 -0.36753462105050028 0.083821172636848601 0 -0.3703216663127199 0.1006270334734672 0 -0.35965630099101209 0.082564568682526554 0 -0.36753462105050028 0.083821172636848601 0 -0.3703216663127199 0.1006270334734672 0 -0.36753462105050028 0.083821172636848601 0 -0.3703216663127199 0.1006270334734672 0 -0.35965630099101209 0.082564568682526554 0 -0.3703216663127199 0.1006270334734672 0 -0.37565769277846039 0.088083777040234679 0 -0.37605207241779792 0.078417952266938012 0 -0.36753462105050028 0.083821172636848601 0 -0.3703216663127199 0.1006270334734672 0 -0.36349498517655371 0.1134441490521767 0 -0.34587266916127363 0.1090641570856144 0 -0.3703216663127199 0.1006270334734672 0 -0.37390022369158532 0.1222057060986861 0 -0.36349498517655371 0.1134441490521767 0 -0.38056257019442291 0.11797064620599371 0 -0.3703216663127199 0.1006270334734672 0 -0.37390022369158532 0.1222057060986861 0 -0.3703216663127199 0.1006270334734672 0 -0.37390022369158532 0.1222057060986861 0 -0.3616757251158621 0.12642426790475991 0 -0.37390022369158532 0.1222057060986861 0 -0.36349498517655371 0.1134441490521767 0 -0.3616757251158621 0.12642426790475991 0 -0.36349498517655371 0.1134441490521767 0 -0.34587266916127363 0.1090641570856144 0 -0.3616757251158621 0.12642426790475991 0 -0.35200747485442851 0.1274103739483739 0 -0.34587266916127363 0.1090641570856144 0 -0.35200747485442851 0.1274103739483739 0 -0.334658394929638 0.13062405182515091 0 -0.34587266916127363 0.1090641570856144 0 -0.3616757251158621 0.12642426790475991 0 -0.34587266916127363 0.1090641570856144 0 -0.35200747485442851 0.1274103739483739 0 -0.34587266916127363 0.1090641570856144 0 -0.35965630099101209 0.082564568682526554 0 -0.34587266916127363 0.1090641570856144 0 -0.34661297485088932 0.093471324567792391 0 -0.34587266916127363 0.1090641570856144 0 -0.33908117824447781 0.089471613754723706 0 -0.35965630099101209 0.082564568682526554 0 -0.3703216663127199 0.1006270334734672 0 -0.34587266916127363 0.1090641570856144 0 -0.34661297485088932 0.093471324567792391 0 -0.35965630099101209 0.082564568682526554 0 -0.34587266916127363 0.1090641570856144 0 -0.33739571323153411 0.1062623085863746 0 -0.33093071681072661 0.100494509730697 0 -0.33908117824447781 0.089471613754723706 0 -0.34587266916127363 0.1090641570856144 0 -0.33739571323153411 0.1062623085863746 0 -0.33908117824447781 0.089471613754723706 0 -0.34587266916127363 0.1090641570856144 0 -0.33908117824447781 0.089471613754723706 0 -0.33093071681072661 0.100494509730697 0 -0.31957391318318978 0.095555600012975028 0 -0.33908117824447781 0.089471613754723706 0 -0.34587266916127363 0.1090641570856144 0 -0.34138074798469392 0.10923830856123221 0 -0.33739571323153411 0.1062623085863746 0 -0.33739571323153411 0.1062623085863746 0 -0.33093071681072661 0.100494509730697 0 -0.32530680396109268 0.10936475487434109 0 -0.334658394929638 0.13062405182515091 0 -0.34587266916127363 0.1090641570856144 0 -0.33986678794103931 0.1127050068506311 0 -0.334658394929638 0.13062405182515091 0 -0.34587266916127363 0.1090641570856144 0 -0.334658394929638 0.13062405182515091 0 -0.33986678794103931 0.1127050068506311 0 -0.33169784574960509 0.1160637780193805 0 -0.33739571323153411 0.1062623085863746 0 -0.33986678794103931 0.1127050068506311 0 -0.33169784574960509 0.1160637780193805 0 -0.34587266916127363 0.1090641570856144 0 -0.33986678794103931 0.1127050068506311 0 -0.34340060165756792 0.11003432969648851 0 -0.34587266916127363 0.1090641570856144 0 -0.34138074798469392 0.10923830856123221 0 -0.34340060165756792 0.11003432969648851 0 -0.34138074798469392 0.10923830856123221 0 -0.33986678794103931 0.1127050068506311 0 -0.34340060165756792 0.11003432969648851 0 -0.34138074798469392 0.10923830856123221 0 -0.33739571323153411 0.1062623085863746 0 -0.33986678794103931 0.1127050068506311 0 -0.33739571323153411 0.1062623085863746 0 -0.33169784574960509 0.1160637780193805 0 -0.32530680396109268 0.10936475487434109 0 -0.334658394929638 0.13062405182515091 0 -0.33169784574960509 0.1160637780193805 0 -0.32353886662367859 0.1209842734201287 0 -0.30883371973111939 0.1165136267616633 0 -0.32353886662367859 0.1209842734201287 0 -0.32530680396109268 0.10936475487434109 0 -0.33169784574960509 0.1160637780193805 0 -0.32353886662367859 0.1209842734201287 0 -0.32530680396109268 0.10936475487434109 0 -0.31833074637889308 0.1296133023468129 0 -0.30883371973111939 0.1165136267616633 0 -0.32353886662367859 0.1209842734201287 0 -0.30883371973111939 0.1165136267616633 0 -0.31957391318318978 0.095555600012975028 0 -0.30883371973111939 0.1165136267616633 0 -0.32530680396109268 0.10936475487434109 0 -0.31957391318318978 0.095555600012975028 0 -0.33093071681072661 0.100494509730697 0 -0.32530680396109268 0.10936475487434109 0 -0.31957391318318978 0.095555600012975028 0 -0.31957391318318978 0.095555600012975028 0 -0.33031410663526017 0.074597573264286815 0 -0.31957391318318978 0.095555600012975028 0 -0.31816994267699428 0.076935219902879187 0 -0.33031410663526017 0.074597573264286815 0 -0.30427551132657549 0.083804892254008681 0 -0.31957391318318978 0.095555600012975028 0 -0.31816994267699428 0.076935219902879187 0 -0.30854958912112201 0.071068293349567949 0 -0.31816994267699428 0.076935219902879187 0 -0.31926891213487257 0.06554120859545555 0 -0.31926891213487257 0.06554120859545555 0 -0.32580326128728859 0.069663883177897873 0 -0.32926322043717871 0.064776852208998953 0 -0.31816994267699428 0.076935219902879187 0 -0.32580326128728859 0.069663883177897873 0 -0.33031410663526017 0.074597573264286815 0 -0.31816994267699428 0.076935219902879187 0 -0.31926891213487257 0.06554120859545555 0 -0.32580326128728859 0.069663883177897873 0 -0.33031410663526017 0.074597573264286815 0 -0.33247510989093698 0.070082762434778373 0 -0.33908117824447781 0.089471613754723706 0 -0.32580326128728859 0.069663883177897873 0 -0.33031410663526017 0.074597573264286815 0 -0.33247510989093698 0.070082762434778373 0 -0.32926322043717871 0.064776852208998953 0 -0.33247510989093698 0.070082762434778373 0 -0.33912760102122358 0.063643532877121461 0 -0.32580326128728859 0.069663883177897873 0 -0.32926322043717871 0.064776852208998953 0 -0.33247510989093698 0.070082762434778373 0 -0.35090312091158848 0.06774050947552282 0 -0.33912760102122358 0.063643532877121461 0 -0.34031219762363563 0.070381990476198586 0 -0.33247510989093698 0.070082762434778373 0 -0.33912760102122358 0.063643532877121461 0 -0.34031219762363563 0.070381990476198586 0 -0.33247510989093698 0.070082762434778373 0 -0.34276747925966422 0.07739581824142823 0 -0.34031219762363563 0.070381990476198586 0 -0.34661297485088932 0.093471324567792391 0 -0.34276747925966422 0.07739581824142823 0 -0.33908117824447781 0.089471613754723706 0 -0.33247510989093698 0.070082762434778373 0 -0.34276747925966422 0.07739581824142823 0 -0.33908117824447781 0.089471613754723706 0 -0.33247510989093698 0.070082762434778373 0 -0.33908117824447781 0.089471613754723706 0 -0.31957391318318978 0.095555600012975028 0 -0.33031410663526017 0.074597573264286815 0 -0.33908117824447781 0.089471613754723706 0 -0.38994456060692972 0.47859320478212042 0 -0.39897640288933578 0.45225685944611949 0 -0.41221418913678948 0.47612842972305891 0 -0.40286913177459588 0.5 0 -0.38028628816494942 0.5 0 -0.38994456060692972 0.47859320478212042 0 -0.40286913177459588 0.5 0 -0.38994456060692972 0.47859320478212042 0 -0.41221418913678948 0.47612842972305891 0 -0.38028628816494942 0.5 0 -0.38994456060692972 0.47859320478212042 0 -0.36895250336195812 0.48018069852897333 0 -0.38994456060692972 0.47859320478212042 0 -0.37672577201781232 0.46165919154240009 0 -0.36895250336195812 0.48018069852897333 0 -0.38994456060692972 0.47859320478212042 0 -0.37672577201781232 0.46165919154240009 0 -0.39897640288933578 0.45225685944611949 0 -0.37801150627797953 0.43762868522352921 0 -0.39897640288933578 0.45225685944611949 0 -0.38573861664188208 0.42838528916918012 0 -0.37672577201781232 0.46165919154240009 0 -0.37801150627797953 0.43762868522352921 0 -0.39897640288933578 0.45225685944611949 0 -0.37672577201781232 0.46165919154240009 0 -0.37801150627797953 0.43762868522352921 0 -0.39897640288933578 0.45225685944611949 0 -0.39897211659538329 0.4366529975825888 0 -0.38573861664188208 0.42838528916918012 0 -0.39897640288933578 0.45225685944611949 0 -0.41186748155673208 0.43091961563800762 0 -0.39897211659538329 0.4366529975825888 0 -0.39897640288933578 0.45225685944611949 0 -0.38573861664188208 0.42838528916918012 0 -0.39897640288933578 0.45225685944611949 0 -0.41221418913678948 0.47612842972305891 0 -0.39897640288933578 0.45225685944611949 0 -0.42148397523504039 0.45087351955631227 0 -0.41221418913678948 0.47612842972305891 0 -0.39897640288933578 0.45225685944611949 0 -0.42148397523504039 0.45087351955631227 0 -0.41186748155673208 0.43091961563800762 0 -0.42148397523504039 0.45087351955631227 0 -0.43688458905191391 0.4478551281267058 0 -0.42937546736499799 0.42773344441368721 0 -0.42148397523504039 0.45087351955631227 0 -0.43688458905191391 0.4478551281267058 0 -0.43909861520635962 0.47152489321054109 0 -0.42148397523504039 0.45087351955631227 0 -0.41221418913678948 0.47612842972305891 0 -0.43909861520635962 0.47152489321054109 0 -0.41221418913678948 0.47612842972305891 0 -0.42545197538424251 0.49999999999999872 0 -0.43909861520635962 0.47152489321054109 0 -0.41221418913678948 0.47612842972305891 0 -0.42545197538424251 0.49999999999999872 0 -0.40286913177459588 0.5 0 -0.41221418913678948 0.47612842972305891 0 -0.42545197538424251 0.49999999999999872 0 -0.42545197538424251 0.49999999999999872 0 -0.44876491947482011 0.5 0 -0.43909861520635962 0.47152489321054109 0 -0.44876491947482011 0.5 0 -0.43909861520635962 0.47152489321054109 0 -0.46123491467253008 0.47598529044449023 0 -0.46123491467253008 0.47598529044449023 0 -0.47207786356539772 0.4999999999999995 0 -0.44876491947482011 0.5 0 -0.46123491467253008 0.47598529044449023 0 -0.47207786356539772 0.4999999999999995 0 -0.5 0.5 0 -0.48459691475750633 0.48643413252197659 0 -0.50000000000000733 0.44402395292296998 0 -0.46123491467253008 0.47598529044449023 0 -0.47207786356539772 0.4999999999999995 0 -0.48459691475750633 0.48643413252197659 0 -0.48459691475750633 0.48643413252197659 0 -0.48031664886418368 0.4591434744442846 0 -0.46123491467253008 0.47598529044449023 0 -0.48459691475750633 0.48643413252197659 0 -0.48031664886418368 0.4591434744442846 0 -0.47207786356539772 0.4999999999999995 0 -0.5 0.5 0 -0.48459691475750633 0.48643413252197659 0 -0.48459691475750633 0.48643413252197659 0 -0.50000000000000733 0.44402395292296998 0 -0.48031664886418368 0.4591434744442846 0 -0.50000000000000733 0.44402395292296998 0 -0.47603638297085632 0.43185281636659317 0 -0.50000000000000733 0.44402395292296998 0 -0.48031664886418368 0.4591434744442846 0 -0.47603638297085632 0.43185281636659317 0 -0.46123491467253008 0.47598529044449023 0 -0.48031664886418368 0.4591434744442846 0 -0.46735871639919557 0.44719480871738099 0 -0.48031664886418368 0.4591434744442846 0 -0.46735871639919557 0.44719480871738099 0 -0.47603638297085632 0.43185281636659317 0 -0.48031664886418368 0.4591434744442846 0 -0.47603638297085632 0.43185281636659317 0 -0.45037156299481518 0.45197979300761443 0 -0.46516635124536793 0.42633192023717831 0 -0.46735871639919557 0.44719480871738099 0 -0.45037156299481518 0.45197979300761443 0 -0.46516635124536793 0.42633192023717831 0 -0.46123491467253008 0.47598529044449023 0 -0.46735871639919557 0.44719480871738099 0 -0.45037156299481518 0.45197979300761443 0 -0.46123491467253008 0.47598529044449023 0 -0.45037156299481518 0.45197979300761443 0 -0.43909861520635962 0.47152489321054109 0 -0.46123491467253008 0.47598529044449023 0 -0.45037156299481518 0.45197979300761443 0 -0.43688458905191391 0.4478551281267058 0 -0.43909861520635962 0.47152489321054109 0 -0.45037156299481518 0.45197979300761443 0 -0.43688458905191391 0.4478551281267058 0 -0.45037156299481518 0.45197979300761443 0 -0.44325115800821518 0.43615528688387672 0 -0.45037156299481518 0.45197979300761443 0 -0.44325115800821518 0.43615528688387672 0 -0.46516635124536793 0.42633192023717831 0 -0.45037156299481518 0.45197979300761443 0 -0.44325115800821518 0.43615528688387672 0 -0.44325115800821518 0.43615528688387672 0 -0.44224115264259339 0.41468819706981408 0 -0.46516635124536793 0.42633192023717831 0 -0.44325115800821518 0.43615528688387672 0 -0.44224115264259339 0.41468819706981408 0 -0.42937546736499799 0.42773344441368721 0 -0.46516635124536793 0.42633192023717831 0 -0.47303189347952362 0.41269641406596919 0 -0.45708357873601207 0.4051444038251299 0 -0.44224115264259339 0.41468819706981408 0 -0.46516635124536793 0.42633192023717831 0 -0.44224115264259339 0.41468819706981408 0 -0.46516635124536793 0.42633192023717831 0 -0.45708357873601207 0.4051444038251299 0 -0.47603638297085632 0.43185281636659317 0 -0.47303189347952362 0.41269641406596919 0 -0.47603638297085632 0.43185281636659317 0 -0.47303189347952362 0.41269641406596919 0 -0.48639588919525423 0.42211934553995539 0 -0.46516635124536793 0.42633192023717831 0 -0.47603638297085632 0.43185281636659317 0 -0.47303189347952362 0.41269641406596919 0 -0.46735871639919557 0.44719480871738099 0 -0.46516635124536793 0.42633192023717831 0 -0.47603638297085632 0.43185281636659317 0 -0.46516635124536793 0.42633192023717831 0 -0.47603638297085632 0.43185281636659317 0 -0.46516635124536793 0.42633192023717831 0 -0.47303189347952362 0.41269641406596919 0 -0.47303189347952362 0.41269641406596919 0 -0.48429043368729968 0.40806136273122878 0 -0.48639588919525423 0.42211934553995539 0 -0.48429043368729968 0.40806136273122878 0 -0.5 0.4179976962634363 0 -0.49102130201272731 0.3979157311554446 0 -0.48429043368729968 0.40806136273122878 0 -0.5 0.4179976962634363 0 -0.48639588919525423 0.42211934553995539 0 -0.50000000000000733 0.44402395292296998 0 -0.47603638297085632 0.43185281636659317 0 -0.48639588919525423 0.42211934553995539 0 -0.50000000000000733 0.44402395292296998 0 -0.5 0.4179976962634363 0 -0.48639588919525423 0.42211934553995539 0 -0.4913330232466902 0.38097003583909678 0 -0.5 0.39197143960390268 0 -0.49102130201272731 0.3979157311554446 0 -0.4913330232466902 0.38097003583909678 0 -0.5 0.39197143960390268 0 -0.49999999999999961 0.36594518294436901 0 -0.4913330232466902 0.38097003583909678 0 -0.48266604649338279 0.39599488873382571 0 -0.5 0.4179976962634363 0 -0.5 0.39197143960390268 0 -0.49102130201272731 0.3979157311554446 0 -0.4913330232466902 0.38097003583909678 0 -0.49102130201272731 0.3979157311554446 0 -0.48266604649338279 0.39599488873382571 0 -0.48429043368729968 0.40806136273122878 0 -0.49102130201272731 0.3979157311554446 0 -0.48266604649338279 0.39599488873382571 0 -0.49102130201272731 0.3979157311554446 0 -0.48266604649338279 0.39599488873382571 0 -0.47303189347952362 0.41269641406596919 0 -0.46995407204031048 0.39307245270114521 0 -0.47303189347952362 0.41269641406596919 0 -0.48266604649338279 0.39599488873382571 0 -0.46995407204031048 0.39307245270114521 0 -0.47303189347952362 0.41269641406596919 0 -0.48266604649338279 0.39599488873382571 0 -0.47303189347952362 0.41269641406596919 0 -0.48429043368729968 0.40806136273122878 0 -0.48266604649338279 0.39599488873382571 0 -0.48266604649338279 0.39599488873382571 0 -0.46995407204031048 0.39307245270114521 0 -0.47789728247798469 0.3876295877245024 0 -0.48266604649338279 0.39599488873382571 0 -0.46995407204031048 0.39307245270114521 0 -0.46995407204031048 0.39307245270114521 0 -0.47059236627121892 0.38135602650114031 0 -0.46606562761397258 0.36828001925469922 0 -0.47789728247798469 0.3876295877245024 0 -0.47946399107746002 0.37998519070201497 0 -0.47059236627121892 0.38135602650114031 0 -0.46995407204031048 0.39307245270114521 0 -0.47789728247798469 0.3876295877245024 0 -0.47059236627121892 0.38135602650114031 0 -0.4913330232466902 0.38097003583909678 0 -0.48266604649338279 0.39599488873382571 0 -0.47789728247798469 0.3876295877245024 0 -0.4913330232466902 0.38097003583909678 0 -0.47789728247798469 0.3876295877245024 0 -0.47946399107746002 0.37998519070201497 0 -0.47946399107746002 0.37998519070201497 0 -0.47059236627121892 0.38135602650114031 0 -0.48106516323304233 0.37248194431931858 0 -0.4913330232466902 0.38097003583909678 0 -0.47946399107746002 0.37998519070201497 0 -0.48106516323304233 0.37248194431931858 0 -0.46995407204031048 0.39307245270114521 0 -0.45409912555785931 0.37251609701658178 0 -0.46606562761397258 0.36828001925469922 0 -0.46995407204031048 0.39307245270114521 0 -0.44180807139670919 0.38660179098290642 0 -0.45409912555785931 0.37251609701658178 0 -0.46995407204031048 0.39307245270114521 0 -0.44180807139670919 0.38660179098290642 0 -0.46995407204031048 0.39307245270114521 0 -0.46606562761397258 0.36828001925469922 0 -0.47303189347952362 0.41269641406596919 0 -0.46995407204031048 0.39307245270114521 0 -0.45708357873601207 0.4051444038251299 0 -0.46995407204031048 0.39307245270114521 0 -0.45708357873601207 0.4051444038251299 0 -0.44180807139670919 0.38660179098290642 0 -0.44224115264259339 0.41468819706981408 0 -0.45708357873601207 0.4051444038251299 0 -0.44180807139670919 0.38660179098290642 0 -0.44180807139670919 0.38660179098290642 0 -0.44161403625861628 0.36935028640995959 0 -0.45409912555785931 0.37251609701658178 0 -0.44180807139670919 0.38660179098290642 0 -0.41366207075310801 0.38013112926466752 0 -0.41931595403982058 0.40304447390244652 0 -0.44180807139670919 0.38660179098290642 0 -0.41366207075310801 0.38013112926466752 0 -0.44180807139670919 0.38660179098290642 0 -0.42657611411825919 0.37047806135317107 0 -0.44161403625861628 0.36935028640995959 0 -0.44180807139670919 0.38660179098290642 0 -0.41366207075310801 0.38013112926466752 0 -0.42657611411825919 0.37047806135317107 0 -0.41366207075310801 0.38013112926466752 0 -0.41931595403982058 0.40304447390244652 0 -0.4011969300199093 0.38515951154556732 0 -0.41931595403982058 0.40304447390244652 0 -0.39639075543704771 0.39140075073507918 0 -0.44224115264259339 0.41468819706981408 0 -0.44180807139670919 0.38660179098290642 0 -0.41931595403982058 0.40304447390244652 0 -0.44224115264259339 0.41468819706981408 0 -0.41931595403982058 0.40304447390244652 0 -0.42937546736499799 0.42773344441368721 0 -0.44224115264259339 0.41468819706981408 0 -0.41931595403982058 0.40304447390244652 0 -0.43688458905191391 0.4478551281267058 0 -0.44325115800821518 0.43615528688387672 0 -0.42937546736499799 0.42773344441368721 0 -0.42148397523504039 0.45087351955631227 0 -0.42937546736499799 0.42773344441368721 0 -0.41186748155673208 0.43091961563800762 0 -0.41931595403982058 0.40304447390244652 0 -0.42937546736499799 0.42773344441368721 0 -0.41186748155673208 0.43091961563800762 0 -0.41931595403982058 0.40304447390244652 0 -0.41186748155673208 0.43091961563800762 0 -0.39887609785539391 0.4162559878404537 0 -0.39887609785539391 0.4162559878404537 0 -0.37929724053814667 0.41359817890465828 0 -0.39639075543704771 0.39140075073507918 0 -0.39887609785539391 0.4162559878404537 0 -0.39897211659538329 0.4366529975825888 0 -0.38573861664188208 0.42838528916918012 0 -0.41186748155673208 0.43091961563800762 0 -0.39887609785539391 0.4162559878404537 0 -0.39897211659538329 0.4366529975825888 0 -0.37801150627797953 0.43762868522352921 0 -0.37929724053814667 0.41359817890465828 0 -0.37801150627797953 0.43762868522352921 0 -0.38573861664188208 0.42838528916918012 0 -0.37929724053814667 0.41359817890465828 0 -0.39887609785539391 0.4162559878404537 0 -0.38573861664188208 0.42838528916918012 0 -0.37929724053814667 0.41359817890465828 0 -0.37929724053814667 0.41359817890465828 0 -0.38090570125532941 0.38353588172139069 0 -0.39639075543704771 0.39140075073507918 0 -0.37929724053814667 0.41359817890465828 0 -0.38090570125532941 0.38353588172139069 0 -0.36970578379049829 0.39768042913919738 0 -0.37929724053814667 0.41359817890465828 0 -0.39639075543704771 0.39140075073507918 0 -0.37929724053814667 0.41359817890465828 0 -0.38090570125532941 0.38353588172139069 0 -0.38090570125532941 0.38353588172139069 0 -0.38104664642588693 0.38090160190425959 0 -0.38554514415946101 0.37855162830390621 0 -0.38090570125532941 0.38353588172139069 0 -0.37753484361741813 0.377041935452195 0 -0.38104664642588693 0.38090160190425959 0 -0.38090570125532941 0.38353588172139069 0 -0.38104664642588693 0.38090160190425959 0 -0.37753484361741813 0.377041935452195 0 -0.38104664642588693 0.38090160190425959 0 -0.38209402797395742 0.37453103974075469 0 -0.38554514415946101 0.37855162830390621 0 -0.39181527510122321 0.38152966310586017 0 -0.38798254534652649 0.37142630971721852 0 -0.38090570125532941 0.38353588172139069 0 -0.38554514415946101 0.37855162830390621 0 -0.39181527510122321 0.38152966310586017 0 -0.38104664642588693 0.38090160190425959 0 -0.38554514415946101 0.37855162830390621 0 -0.38209402797395742 0.37453103974075469 0 -0.38090570125532941 0.38353588172139069 0 -0.39639075543704771 0.39140075073507918 0 -0.38090570125532941 0.38353588172139069 0 -0.39181527510122321 0.38152966310586017 0 -0.39639075543704771 0.39140075073507918 0 -0.39181527510122321 0.38152966310586017 0 -0.4011969300199093 0.38515951154556732 0 -0.39639075543704771 0.39140075073507918 0 -0.39181527510122321 0.38152966310586017 0 -0.39806192341106922 0.37893022050157438 0 -0.38798254534652649 0.37142630971721852 0 -0.39181527510122321 0.38152966310586017 0 -0.39806192341106922 0.37893022050157438 0 -0.4011969300199093 0.38515951154556732 0 -0.41366207075310801 0.38013112926466752 0 -0.39806192341106922 0.37893022050157438 0 -0.4011969300199093 0.38515951154556732 0 -0.41366207075310801 0.38013112926466752 0 -0.39806192341106922 0.37893022050157438 0 -0.40065516451802152 0.37245662537139618 0 -0.4011969300199093 0.38515951154556732 0 -0.39639075543704771 0.39140075073507918 0 -0.41931595403982058 0.40304447390244652 0 -0.4011969300199093 0.38515951154556732 0 -0.39639075543704771 0.39140075073507918 0 -0.41931595403982058 0.40304447390244652 0 -0.39887609785539391 0.4162559878404537 0 -0.39639075543704771 0.39140075073507918 0 -0.40222098893500752 0.35093595816721701 0 -0.38777829799555058 0.3571586746182196 0 -0.39043405663679231 0.34868666895968597 0 -0.38746136325204888 0.34545698678576298 0 -0.39043405663679231 0.34868666895968597 0 -0.39581306140456363 0.34160685965576121 0 -0.40222098893500752 0.35093595816721701 0 -0.39043405663679231 0.34868666895968597 0 -0.39581306140456363 0.34160685965576121 0 -0.40222098893500752 0.35093595816721701 0 -0.40065516451802152 0.37245662537139618 0 -0.38798254534652649 0.37142630971721852 0 -0.40222098893500752 0.35093595816721701 0 -0.38798254534652649 0.37142630971721852 0 -0.38777829799555058 0.3571586746182196 0 -0.40222098893500752 0.35093595816721701 0 -0.40065516451802152 0.37245662537139618 0 -0.4111625370348147 0.36922883567794063 0 -0.40222098893500752 0.35093595816721701 0 -0.38798254534652649 0.37142630971721852 0 -0.39806192341106922 0.37893022050157438 0 -0.40065516451802152 0.37245662537139618 0 -0.38798254534652649 0.37142630971721852 0 -0.38798254534652649 0.37142630971721852 0 -0.38195022053672101 0.36369850436434781 0 -0.38777829799555058 0.3571586746182196 0 -0.38798254534652649 0.37142630971721852 0 -0.38233532934160142 0.36994315160021501 0 -0.38195022053672101 0.36369850436434781 0 -0.38554514415946101 0.37855162830390621 0 -0.38798254534652649 0.37142630971721852 0 -0.38209402797395742 0.37453103974075469 0 -0.38798254534652649 0.37142630971721852 0 -0.38209402797395742 0.37453103974075469 0 -0.38233532934160142 0.36994315160021501 0 -0.38209402797395742 0.37453103974075469 0 -0.38233532934160142 0.36994315160021501 0 -0.37731452350920092 0.37011675257853899 0 -0.37753484361741813 0.377041935452195 0 -0.38209402797395742 0.37453103974075469 0 -0.37731452350920092 0.37011675257853899 0 -0.38233532934160142 0.36994315160021501 0 -0.37731452350920092 0.37011675257853899 0 -0.38195022053672101 0.36369850436434781 0 -0.38195022053672101 0.36369850436434781 0 -0.38217728412184571 0.35533149627705668 0 -0.37405279921090617 0.36042118382240212 0 -0.37731452350920092 0.37011675257853899 0 -0.38195022053672101 0.36369850436434781 0 -0.37405279921090617 0.36042118382240212 0 -0.38217728412184571 0.35533149627705668 0 -0.381792279499097 0.34471796632877222 0 -0.37405279921090617 0.36042118382240212 0 -0.381792279499097 0.34471796632877222 0 -0.3735027008302661 0.35039121556722208 0 -0.37405279921090617 0.36042118382240212 0 -0.381792279499097 0.34471796632877222 0 -0.37405279921090617 0.36042118382240212 0 -0.38195022053672101 0.36369850436434781 0 -0.38217728412184571 0.35533149627705668 0 -0.38777829799555058 0.3571586746182196 0 -0.38777829799555058 0.3571586746182196 0 -0.39043405663679231 0.34868666895968597 0 -0.38531282336695383 0.35066115225154182 0 -0.38217728412184571 0.35533149627705668 0 -0.38777829799555058 0.3571586746182196 0 -0.38531282336695383 0.35066115225154182 0 -0.38217728412184571 0.35533149627705668 0 -0.38531282336695383 0.35066115225154182 0 -0.381792279499097 0.34471796632877222 0 -0.38746136325204888 0.34545698678576298 0 -0.39043405663679231 0.34868666895968597 0 -0.38531282336695383 0.35066115225154182 0 -0.38746136325204888 0.34545698678576298 0 -0.38531282336695383 0.35066115225154182 0 -0.381792279499097 0.34471796632877222 0 -0.38746136325204888 0.34545698678576298 0 -0.381792279499097 0.34471796632877222 0 -0.38395459535283782 0.34161228673305361 0 -0.381792279499097 0.34471796632877222 0 -0.38395459535283782 0.34161228673305361 0 -0.3735027008302661 0.35039121556722208 0 -0.38130693483014549 0.33178041827072358 0 -0.38395459535283782 0.34161228673305361 0 -0.37258292089269951 0.336967954967481 0 -0.38130693483014549 0.33178041827072358 0 -0.37476590451375608 0.32701692364975959 0 -0.37258292089269951 0.336967954967481 0 -0.38130693483014549 0.33178041827072358 0 -0.38395459535283782 0.34161228673305361 0 -0.39121805430475592 0.3279919490529537 0 -0.38746136325204888 0.34545698678576298 0 -0.38395459535283782 0.34161228673305361 0 -0.39581306140456363 0.34160685965576121 0 -0.38130693483014549 0.33178041827072358 0 -0.3836038676988755 0.32400273701045479 0 -0.37476590451375608 0.32701692364975959 0 -0.38000983554838652 0.31397780595800662 0 -0.3836038676988755 0.32400273701045479 0 -0.37476590451375608 0.32701692364975959 0 -0.3836038676988755 0.32400273701045479 0 -0.39032567531542772 0.31757319206978252 0 -0.39121805430475592 0.3279919490529537 0 -0.38130693483014549 0.33178041827072358 0 -0.3836038676988755 0.32400273701045479 0 -0.39121805430475592 0.3279919490529537 0 -0.38000983554838652 0.31397780595800662 0 -0.3836038676988755 0.32400273701045479 0 -0.39032567531542772 0.31757319206978252 0 -0.39121805430475592 0.3279919490529537 0 -0.39881520831017608 0.31983507775678699 0 -0.40732623573240312 0.32578377090013338 0 -0.39032567531542772 0.31757319206978252 0 -0.39881520831017608 0.31983507775678699 0 -0.39843420718447609 0.31183591161758489 0 -0.39032567531542772 0.31757319206978252 0 -0.39121805430475592 0.3279919490529537 0 -0.39881520831017608 0.31983507775678699 0 -0.39881520831017608 0.31983507775678699 0 -0.40637893503191191 0.31431716909243218 0 -0.40732623573240312 0.32578377090013338 0 -0.39881520831017608 0.31983507775678699 0 -0.40637893503191191 0.31431716909243218 0 -0.39843420718447609 0.31183591161758489 0 -0.38395459535283782 0.34161228673305361 0 -0.39581306140456363 0.34160685965576121 0 -0.40732623573240312 0.32578377090013338 0 -0.39581306140456363 0.34160685965576121 0 -0.40445806231370701 0.33694320921406062 0 -0.40732623573240312 0.32578377090013338 0 -0.38395459535283782 0.34161228673305361 0 -0.39121805430475592 0.3279919490529537 0 -0.40732623573240312 0.32578377090013338 0 -0.38395459535283782 0.34161228673305361 0 -0.40732623573240312 0.32578377090013338 0 -0.40222098893500752 0.35093595816721701 0 -0.39581306140456363 0.34160685965576121 0 -0.40445806231370701 0.33694320921406062 0 -0.40222098893500752 0.35093595816721701 0 -0.41645943252348833 0.33044560661721539 0 -0.41856471717383248 0.3405458803283114 0 -0.40222098893500752 0.35093595816721701 0 -0.40445806231370701 0.33694320921406062 0 -0.41645943252348833 0.33044560661721539 0 -0.40222098893500752 0.35093595816721701 0 -0.41645943252348833 0.33044560661721539 0 -0.40445806231370701 0.33694320921406062 0 -0.41645943252348833 0.33044560661721539 0 -0.40732623573240312 0.32578377090013338 0 -0.41645943252348833 0.33044560661721539 0 -0.41856471717383248 0.3405458803283114 0 -0.42607362565205209 0.33048084803899219 0 -0.40732623573240312 0.32578377090013338 0 -0.43069787611196869 0.30995525506721361 0 -0.41492688735176259 0.30989202038942032 0 -0.40637893503191191 0.31431716909243218 0 -0.40732623573240312 0.32578377090013338 0 -0.41492688735176259 0.30989202038942032 0 -0.41645943252348833 0.33044560661721539 0 -0.40732623573240312 0.32578377090013338 0 -0.43069787611196869 0.30995525506721361 0 -0.40732623573240312 0.32578377090013338 0 -0.43069787611196869 0.30995525506721361 0 -0.41645943252348833 0.33044560661721539 0 -0.42607362565205209 0.33048084803899219 0 -0.43069787611196869 0.30995525506721361 0 -0.41645943252348833 0.33044560661721539 0 -0.43069787611196869 0.30995525506721361 0 -0.43547453970888328 0.32846670644337522 0 -0.43998746187175541 0.31678352185396302 0 -0.43069787611196869 0.30995525506721361 0 -0.42607362565205209 0.33048084803899219 0 -0.43547453970888328 0.32846670644337522 0 -0.43069787611196869 0.30995525506721361 0 -0.41856471717383248 0.3405458803283114 0 -0.42789986840770111 0.3404890790519246 0 -0.42607362565205209 0.33048084803899219 0 -0.42789986840770111 0.3404890790519246 0 -0.42607362565205209 0.33048084803899219 0 -0.43547453970888328 0.32846670644337522 0 -0.42789986840770111 0.3404890790519246 0 -0.43547453970888328 0.32846670644337522 0 -0.44081671892432239 0.33926770337685702 0 -0.42789986840770111 0.3404890790519246 0 -0.43401938087355751 0.35518224855447439 0 -0.44081671892432239 0.33926770337685702 0 -0.43401938087355751 0.35518224855447439 0 -0.42016967035091313 0.35037790976620781 0 -0.4177724849656872 0.36110874989693159 0 -0.41856471717383248 0.3405458803283114 0 -0.42789986840770111 0.3404890790519246 0 -0.42016967035091313 0.35037790976620781 0 -0.42789986840770111 0.3404890790519246 0 -0.43401938087355751 0.35518224855447439 0 -0.42016967035091313 0.35037790976620781 0 -0.40222098893500752 0.35093595816721701 0 -0.41856471717383248 0.3405458803283114 0 -0.42016967035091313 0.35037790976620781 0 -0.40222098893500752 0.35093595816721701 0 -0.42016967035091313 0.35037790976620781 0 -0.4177724849656872 0.36110874989693159 0 -0.40222098893500752 0.35093595816721701 0 -0.4111625370348147 0.36922883567794063 0 -0.4177724849656872 0.36110874989693159 0 -0.41366207075310801 0.38013112926466752 0 -0.40065516451802152 0.37245662537139618 0 -0.4111625370348147 0.36922883567794063 0 -0.4111625370348147 0.36922883567794063 0 -0.4177724849656872 0.36110874989693159 0 -0.42657611411825919 0.37047806135317107 0 -0.41366207075310801 0.38013112926466752 0 -0.4111625370348147 0.36922883567794063 0 -0.42657611411825919 0.37047806135317107 0 -0.43401938087355751 0.35518224855447439 0 -0.4177724849656872 0.36110874989693159 0 -0.42657611411825919 0.37047806135317107 0 -0.43401938087355751 0.35518224855447439 0 -0.42657611411825919 0.37047806135317107 0 -0.44161403625861628 0.36935028640995959 0 -0.43401938087355751 0.35518224855447439 0 -0.44161403625861628 0.36935028640995959 0 -0.44846050410924088 0.36041896343866747 0 -0.44161403625861628 0.36935028640995959 0 -0.44846050410924088 0.36041896343866747 0 -0.45409912555785931 0.37251609701658178 0 -0.43401938087355751 0.35518224855447439 0 -0.44762160784828681 0.34995429827918512 0 -0.44081671892432239 0.33926770337685702 0 -0.43401938087355751 0.35518224855447439 0 -0.44846050410924088 0.36041896343866747 0 -0.44762160784828681 0.34995429827918512 0 -0.44846050410924088 0.36041896343866747 0 -0.44762160784828681 0.34995429827918512 0 -0.45905047884334582 0.36082740047222778 0 -0.46606562761397258 0.36828001925469922 0 -0.46217718318763468 0.34348758580825323 0 -0.44762160784828681 0.34995429827918512 0 -0.45905047884334582 0.36082740047222778 0 -0.45334655622331838 0.33525503266401668 0 -0.45905047884334582 0.36082740047222778 0 -0.46217718318763468 0.34348758580825323 0 -0.45334655622331838 0.33525503266401668 0 -0.45905047884334582 0.36082740047222778 0 -0.46606562761397258 0.36828001925469922 0 -0.46217718318763468 0.34348758580825323 0 -0.46606562761397258 0.36828001925469922 0 -0.46955867942752888 0.35807080140649861 0 -0.46217718318763468 0.34348758580825323 0 -0.45905047884334582 0.36082740047222778 0 -0.45334655622331838 0.33525503266401668 0 -0.46955867942752888 0.35807080140649861 0 -0.47154934940696791 0.35112753287731258 0 -0.46217718318763468 0.34348758580825323 0 -0.47054607860932818 0.34604069273931481 0 -0.47154934940696791 0.35112753287731258 0 -0.46217718318763468 0.34348758580825323 0 -0.45409912555785931 0.37251609701658178 0 -0.45905047884334582 0.36082740047222778 0 -0.46606562761397258 0.36828001925469922 0 -0.44846050410924088 0.36041896343866747 0 -0.45409912555785931 0.37251609701658178 0 -0.45905047884334582 0.36082740047222778 0 -0.47059236627121892 0.38135602650114031 0 -0.47969588324503271 0.35698316301528199 0 -0.47059236627121892 0.38135602650114031 0 -0.48106516323304233 0.37248194431931858 0 -0.47969588324503271 0.35698316301528199 0 -0.47059236627121892 0.38135602650114031 0 -0.46606562761397258 0.36828001925469922 0 -0.47969588324503271 0.35698316301528199 0 -0.48106516323304233 0.37248194431931858 0 -0.47969588324503271 0.35698316301528199 0 -0.48580393535945032 0.36412640442904232 0 -0.47969588324503271 0.35698316301528199 0 -0.48514744697345852 0.35824158229594022 0 -0.48580393535945032 0.36412640442904232 0 -0.46606562761397258 0.36828001925469922 0 -0.46955867942752888 0.35807080140649861 0 -0.47382102524886782 0.35710366354199369 0 -0.46606562761397258 0.36828001925469922 0 -0.47382102524886782 0.35710366354199369 0 -0.47969588324503271 0.35698316301528199 0 -0.47969588324503271 0.35698316301528199 0 -0.47773955903022519 0.35279734632378662 0 -0.48879940021884632 0.33261029952942373 0 -0.47969588324503271 0.35698316301528199 0 -0.48879940021884632 0.33261029952942373 0 -0.46955867942752888 0.35807080140649861 0 -0.47382102524886782 0.35710366354199369 0 -0.47154934940696791 0.35112753287731258 0 -0.47382102524886782 0.35710366354199369 0 -0.47154934940696791 0.35112753287731258 0 -0.47773955903022519 0.35279734632378662 0 -0.47054607860932818 0.34604069273931481 0 -0.47154934940696791 0.35112753287731258 0 -0.47436704650926192 0.34793618847874908 0 -0.47154934940696791 0.35112753287731258 0 -0.47436704650926192 0.34793618847874908 0 -0.47773955903022519 0.35279734632378662 0 -0.47436704650926192 0.34793618847874908 0 -0.47763295029998443 0.3430582999408015 0 -0.47358143269210051 0.34355099194518868 0 -0.47054607860932818 0.34604069273931481 0 -0.47436704650926192 0.34793618847874908 0 -0.47358143269210051 0.34355099194518868 0 -0.47436704650926192 0.34793618847874908 0 -0.47773955903022519 0.35279734632378662 0 -0.47763295029998443 0.3430582999408015 0 -0.47382102524886782 0.35710366354199369 0 -0.47969588324503271 0.35698316301528199 0 -0.47773955903022519 0.35279734632378662 0 -0.47969588324503271 0.35698316301528199 0 -0.48514744697345852 0.35824158229594022 0 -0.48610305414219962 0.35450218077745421 0 -0.47969588324503271 0.35698316301528199 0 -0.48610305414219962 0.35450218077745421 0 -0.48879324238520672 0.34649456020112002 0 -0.49107496270973727 0.35611117740930431 0 -0.49999999999999961 0.36594518294436901 0 -0.5 0.33829813926989621 0 -0.48610305414219962 0.35450218077745421 0 -0.49107496270973727 0.35611117740930431 0 -0.48879324238520672 0.34649456020112002 0 -0.48514744697345852 0.35824158229594022 0 -0.48610305414219962 0.35450218077745421 0 -0.49107496270973727 0.35611117740930431 0 -0.47969588324503271 0.35698316301528199 0 -0.48879324238520672 0.34649456020112002 0 -0.48879940021884632 0.33261029952942373 0 -0.49107496270973727 0.35611117740930431 0 -0.48879324238520672 0.34649456020112002 0 -0.5 0.33829813926989621 0 -0.49107496270973727 0.35611117740930431 0 -0.49999999999999961 0.36594518294436901 0 -0.48580393535945032 0.36412640442904232 0 -0.4913330232466902 0.38097003583909678 0 -0.48106516323304233 0.37248194431931858 0 -0.48580393535945032 0.36412640442904232 0 -0.4913330232466902 0.38097003583909678 0 -0.49999999999999961 0.36594518294436901 0 -0.48580393535945032 0.36412640442904232 0 -0.4913330232466902 0.38097003583909678 0 -0.49999999999999961 0.36594518294436901 0 -0.48514744697345852 0.35824158229594022 0 -0.49107496270973727 0.35611117740930431 0 -0.48580393535945032 0.36412640442904232 0 -0.48879940021884632 0.33261029952942373 0 -0.49790291719266 0.30823743604356552 0 -0.48879940021884632 0.33261029952942373 0 -0.5 0.31065109559542331 0 -0.49790291719266 0.30823743604356552 0 -0.49109208568352247 0.31900015707523971 0 -0.48515970602014979 0.32953291485617459 0 -0.49257985301007451 0.3062684833885625 0 -0.49109208568352247 0.31900015707523971 0 -0.48879940021884632 0.33261029952942373 0 -0.49790291719266 0.30823743604356552 0 -0.5 0.33829813926989621 0 -0.48879940021884632 0.33261029952942373 0 -0.5 0.31065109559542331 0 -0.48676251807563797 0.31563160876692892 0 -0.48515970602014979 0.32953291485617459 0 -0.49257985301007451 0.3062684833885625 0 -0.48515970602014979 0.32953291485617459 0 -0.49257985301007451 0.3062684833885625 0 -0.49109208568352247 0.31900015707523971 0 -0.48879940021884632 0.33261029952942373 0 -0.48515970602014979 0.32953291485617459 0 -0.48676251807563797 0.31563160876692892 0 -0.48515970602014979 0.32953291485617459 0 -0.48412689795032321 0.32286082952929968 0 -0.48676251807563797 0.31563160876692892 0 -0.48412689795032321 0.32286082952929968 0 -0.48282315951638538 0.31953226957214859 0 -0.48879324238520672 0.34649456020112002 0 -0.5 0.33829813926989621 0 -0.48879940021884632 0.33261029952942373 0 -0.48515970602014979 0.32953291485617459 0 -0.47831719045196119 0.33519345876878037 0 -0.47763295029998443 0.3430582999408015 0 -0.48515970602014979 0.32953291485617459 0 -0.48044371774050909 0.33091578698083612 0 -0.48049360330601709 0.32718544195459831 0 -0.48515970602014979 0.32953291485617459 0 -0.47831719045196119 0.33519345876878037 0 -0.48044371774050909 0.33091578698083612 0 -0.47773955903022519 0.35279734632378662 0 -0.48515970602014979 0.32953291485617459 0 -0.47773955903022519 0.35279734632378662 0 -0.48879940021884632 0.33261029952942373 0 -0.48515970602014979 0.32953291485617459 0 -0.47773955903022519 0.35279734632378662 0 -0.48515970602014979 0.32953291485617459 0 -0.47763295029998443 0.3430582999408015 0 -0.47831719045196119 0.33519345876878037 0 -0.47660053861770152 0.33106808898669171 0 -0.48044371774050909 0.33091578698083612 0 -0.47660053861770152 0.33106808898669171 0 -0.48044371774050909 0.33091578698083612 0 -0.48049360330601709 0.32718544195459831 0 -0.47831719045196119 0.33519345876878037 0 -0.47763295029998443 0.3430582999408015 0 -0.47539379537150761 0.33986417069114089 0 -0.47358143269210051 0.34355099194518868 0 -0.47539379537150761 0.33986417069114089 0 -0.46996729267042009 0.34085560787593711 0 -0.47763295029998443 0.3430582999408015 0 -0.47358143269210051 0.34355099194518868 0 -0.47539379537150761 0.33986417069114089 0 -0.47831719045196119 0.33519345876878037 0 -0.47539379537150761 0.33986417069114089 0 -0.47178323650301851 0.33508170710000018 0 -0.47539379537150761 0.33986417069114089 0 -0.46996729267042009 0.34085560787593711 0 -0.47178323650301851 0.33508170710000018 0 -0.46996729267042009 0.34085560787593711 0 -0.47178323650301851 0.33508170710000018 0 -0.46720901425667172 0.33775757296591752 0 -0.47054607860932818 0.34604069273931481 0 -0.47358143269210051 0.34355099194518868 0 -0.46996729267042009 0.34085560787593711 0 -0.47660053861770152 0.33106808898669171 0 -0.47023593538107511 0.32876043830011131 0 -0.4751970802791543 0.32571336865676942 0 -0.47660053861770152 0.33106808898669171 0 -0.47178323650301851 0.33508170710000018 0 -0.47023593538107511 0.32876043830011131 0 -0.47831719045196119 0.33519345876878037 0 -0.47660053861770152 0.33106808898669171 0 -0.47178323650301851 0.33508170710000018 0 -0.47178323650301851 0.33508170710000018 0 -0.47023593538107511 0.32876043830011131 0 -0.46490834466561359 0.33160539107947951 0 -0.47023593538107511 0.32876043830011131 0 -0.47046205128952812 0.32317656997204608 0 -0.46600122320645881 0.32407112442960989 0 -0.47023593538107511 0.32876043830011131 0 -0.47046205128952812 0.32317656997204608 0 -0.4751970802791543 0.32571336865676942 0 -0.47046205128952812 0.32317656997204608 0 -0.4751970802791543 0.32571336865676942 0 -0.47405805432090742 0.31901812329562912 0 -0.4751970802791543 0.32571336865676942 0 -0.4795160637198862 0.32235969688619093 0 -0.47405805432090742 0.31901812329562912 0 -0.4751970802791543 0.32571336865676942 0 -0.4795160637198862 0.32235969688619093 0 -0.48049360330601709 0.32718544195459831 0 -0.47660053861770152 0.33106808898669171 0 -0.4751970802791543 0.32571336865676942 0 -0.48049360330601709 0.32718544195459831 0 -0.4795160637198862 0.32235969688619093 0 -0.48412689795032321 0.32286082952929968 0 -0.48282315951638538 0.31953226957214859 0 -0.4795160637198862 0.32235969688619093 0 -0.48412689795032321 0.32286082952929968 0 -0.48049360330601709 0.32718544195459831 0 -0.48515970602014979 0.32953291485617459 0 -0.48412689795032321 0.32286082952929968 0 -0.48049360330601709 0.32718544195459831 0 -0.48676251807563797 0.31563160876692892 0 -0.48088715831969447 0.31727694310617532 0 -0.48157427746908471 0.31123273865840539 0 -0.48676251807563797 0.31563160876692892 0 -0.48282315951638538 0.31953226957214859 0 -0.48088715831969447 0.31727694310617532 0 -0.4795160637198862 0.32235969688619093 0 -0.48282315951638538 0.31953226957214859 0 -0.48088715831969447 0.31727694310617532 0 -0.48088715831969447 0.31727694310617532 0 -0.47608579824138891 0.31330512602762528 0 -0.47405805432090742 0.31901812329562912 0 -0.4795160637198862 0.32235969688619093 0 -0.48088715831969447 0.31727694310617532 0 -0.47405805432090742 0.31901812329562912 0 -0.48088715831969447 0.31727694310617532 0 -0.47608579824138891 0.31330512602762528 0 -0.48157427746908471 0.31123273865840539 0 -0.47608579824138891 0.31330512602762528 0 -0.47405805432090742 0.31901812329562912 0 -0.46955767687213418 0.31221518581994828 0 -0.47405805432090742 0.31901812329562912 0 -0.46681796326004438 0.3183197951781106 0 -0.46955767687213418 0.31221518581994828 0 -0.47046205128952812 0.32317656997204608 0 -0.47405805432090742 0.31901812329562912 0 -0.46681796326004438 0.3183197951781106 0 -0.46681796326004438 0.3183197951781106 0 -0.45828873876129678 0.31869515236180729 0 -0.46235444846455381 0.31023031803401291 0 -0.45828873876129678 0.31869515236180729 0 -0.45334655622331838 0.33525503266401668 0 -0.45155487699519858 0.31543543985732619 0 -0.46681796326004438 0.3183197951781106 0 -0.46235444846455381 0.31023031803401291 0 -0.46955767687213418 0.31221518581994828 0 -0.46600122320645881 0.32407112442960989 0 -0.45828873876129678 0.31869515236180729 0 -0.46490834466561359 0.33160539107947951 0 -0.47046205128952812 0.32317656997204608 0 -0.46681796326004438 0.3183197951781106 0 -0.46600122320645881 0.32407112442960989 0 -0.46681796326004438 0.3183197951781106 0 -0.46600122320645881 0.32407112442960989 0 -0.45828873876129678 0.31869515236180729 0 -0.45828873876129678 0.31869515236180729 0 -0.46217718318763468 0.34348758580825323 0 -0.46490834466561359 0.33160539107947951 0 -0.45828873876129678 0.31869515236180729 0 -0.46217718318763468 0.34348758580825323 0 -0.45334655622331838 0.33525503266401668 0 -0.45828873876129678 0.31869515236180729 0 -0.46217718318763468 0.34348758580825323 0 -0.46217718318763468 0.34348758580825323 0 -0.46720901425667172 0.33775757296591752 0 -0.46490834466561359 0.33160539107947951 0 -0.47054607860932818 0.34604069273931481 0 -0.46996729267042009 0.34085560787593711 0 -0.46217718318763468 0.34348758580825323 0 -0.46996729267042009 0.34085560787593711 0 -0.46217718318763468 0.34348758580825323 0 -0.46720901425667172 0.33775757296591752 0 -0.47178323650301851 0.33508170710000018 0 -0.46720901425667172 0.33775757296591752 0 -0.46490834466561359 0.33160539107947951 0 -0.47023593538107511 0.32876043830011131 0 -0.46600122320645881 0.32407112442960989 0 -0.46490834466561359 0.33160539107947951 0 -0.44762160784828681 0.34995429827918512 0 -0.45334655622331838 0.33525503266401668 0 -0.44081671892432239 0.33926770337685702 0 -0.45334655622331838 0.33525503266401668 0 -0.44081671892432239 0.33926770337685702 0 -0.44345358206631441 0.32589112583880342 0 -0.43547453970888328 0.32846670644337522 0 -0.44081671892432239 0.33926770337685702 0 -0.44345358206631441 0.32589112583880342 0 -0.45334655622331838 0.33525503266401668 0 -0.45155487699519858 0.31543543985732619 0 -0.44764263360329171 0.30968266485580542 0 -0.45334655622331838 0.33525503266401668 0 -0.44764263360329171 0.30968266485580542 0 -0.45334655622331838 0.33525503266401668 0 -0.44345358206631441 0.32589112583880342 0 -0.44764263360329171 0.30968266485580542 0 -0.44345358206631441 0.32589112583880342 0 -0.43998746187175541 0.31678352185396302 0 -0.44764263360329171 0.30968266485580542 0 -0.45155487699519858 0.31543543985732619 0 -0.44764263360329171 0.30968266485580542 0 -0.43547453970888328 0.32846670644337522 0 -0.44345358206631441 0.32589112583880342 0 -0.43998746187175541 0.31678352185396302 0 -0.44547168217486238 0.29994964915418137 0 -0.44764263360329171 0.30968266485580542 0 -0.45440029433495671 0.29390271891536179 0 -0.44018855146410202 0.30960840748935092 0 -0.44242623426939098 0.30201218818042158 0 -0.43069787611196869 0.30995525506721361 0 -0.45155487699519858 0.31543543985732619 0 -0.44764263360329171 0.30968266485580542 0 -0.45440029433495671 0.29390271891536179 0 -0.43998746187175541 0.31678352185396302 0 -0.44018855146410202 0.30960840748935092 0 -0.44764263360329171 0.30968266485580542 0 -0.44018855146410202 0.30960840748935092 0 -0.44242623426939098 0.30201218818042158 0 -0.44764263360329171 0.30968266485580542 0 -0.44242623426939098 0.30201218818042158 0 -0.44764263360329171 0.30968266485580542 0 -0.44242623426939098 0.30201218818042158 0 -0.44547168217486238 0.29994964915418137 0 -0.44764263360329171 0.30968266485580542 0 -0.43935528408589519 0.29749649636966591 0 -0.44242623426939098 0.30201218818042158 0 -0.43935528408589519 0.29749649636966591 0 -0.44242623426939098 0.30201218818042158 0 -0.44547168217486238 0.29994964915418137 0 -0.44242623426939098 0.30201218818042158 0 -0.44547168217486238 0.29994964915418137 0 -0.44547168217486238 0.29994964915418137 0 -0.45440029433495671 0.29390271891536179 0 -0.44547168217486238 0.29994964915418137 0 -0.44764263360329171 0.30968266485580542 0 -0.44547168217486238 0.29994964915418137 0 -0.45440029433495671 0.29390271891536179 0 -0.44072389731181633 0.27866392897878178 0 -0.44547168217486238 0.29994964915418137 0 -0.44072389731181633 0.27866392897878178 0 -0.43935528408589519 0.29749649636966591 0 -0.44547168217486238 0.29994964915418137 0 -0.44072389731181633 0.27866392897878178 0 -0.45440029433495671 0.29390271891536179 0 -0.45062702605342192 0.26984464003117969 0 -0.45440029433495671 0.29390271891536179 0 -0.47507785254627721 0.27989877857490503 0 -0.45440029433495671 0.29390271891536179 0 -0.46504914140317499 0.29476575470598643 0 -0.47507785254627721 0.27989877857490503 0 -0.45828873876129678 0.31869515236180729 0 -0.45440029433495671 0.29390271891536179 0 -0.45828873876129678 0.31869515236180729 0 -0.45440029433495671 0.29390271891536179 0 -0.46235444846455381 0.31023031803401291 0 -0.45440029433495671 0.29390271891536179 0 -0.46443347989492711 0.30438253781571079 0 -0.46235444846455381 0.31023031803401291 0 -0.45828873876129678 0.31869515236180729 0 -0.45155487699519858 0.31543543985732619 0 -0.45440029433495671 0.29390271891536179 0 -0.45440029433495671 0.29390271891536179 0 -0.46504914140317499 0.29476575470598643 0 -0.46443347989492711 0.30438253781571079 0 -0.46504914140317499 0.29476575470598643 0 -0.46443347989492711 0.30438253781571079 0 -0.47133267816251839 0.2970023550909156 0 -0.46443347989492711 0.30438253781571079 0 -0.46235444846455381 0.31023031803401291 0 -0.46955767687213418 0.31221518581994828 0 -0.46443347989492711 0.30438253781571079 0 -0.46955767687213418 0.31221518581994828 0 -0.47506191556510757 0.30616406616927799 0 -0.47608579824138891 0.31330512602762528 0 -0.46955767687213418 0.31221518581994828 0 -0.47506191556510757 0.30616406616927799 0 -0.47608579824138891 0.31330512602762528 0 -0.47506191556510757 0.30616406616927799 0 -0.48157427746908471 0.31123273865840539 0 -0.47506191556510757 0.30616406616927799 0 -0.48261911622184278 0.30508883768052258 0 -0.48157427746908471 0.31123273865840539 0 -0.48261911622184278 0.30508883768052258 0 -0.48157427746908471 0.31123273865840539 0 -0.48603099200225103 0.30811587435781013 0 -0.47506191556510757 0.30616406616927799 0 -0.48261911622184278 0.30508883768052258 0 -0.48019583848184172 0.29737774542178957 0 -0.48261911622184278 0.30508883768052258 0 -0.48019583848184172 0.29737774542178957 0 -0.48661919523461489 0.30235770329463091 0 -0.47506191556510757 0.30616406616927799 0 -0.48019583848184172 0.29737774542178957 0 -0.47133267816251839 0.2970023550909156 0 -0.46443347989492711 0.30438253781571079 0 -0.47506191556510757 0.30616406616927799 0 -0.47133267816251839 0.2970023550909156 0 -0.48019583848184172 0.29737774542178957 0 -0.47133267816251839 0.2970023550909156 0 -0.47507785254627721 0.27989877857490503 0 -0.46504914140317499 0.29476575470598643 0 -0.47133267816251839 0.2970023550909156 0 -0.47507785254627721 0.27989877857490503 0 -0.48019583848184172 0.29737774542178957 0 -0.48967201006847938 0.29312359978237729 0 -0.47507785254627721 0.27989877857490503 0 -0.49999999999999961 0.28300405192095052 0 -0.49257985301007451 0.3062684833885625 0 -0.49999999999999961 0.28300405192095052 0 -0.48967201006847938 0.29312359978237729 0 -0.47507785254627721 0.27989877857490503 0 -0.49999999999999961 0.28300405192095052 0 -0.48967201006847938 0.29312359978237729 0 -0.49257985301007451 0.3062684833885625 0 -0.49999999999999961 0.28300405192095052 0 -0.5 0.31065109559542331 0 -0.49790291719266 0.30823743604356552 0 -0.49999999999999961 0.28300405192095052 0 -0.49790291719266 0.30823743604356552 0 -0.49257985301007451 0.3062684833885625 0 -0.49109208568352247 0.31900015707523971 0 -0.49790291719266 0.30823743604356552 0 -0.49257985301007451 0.3062684833885625 0 -0.48676251807563797 0.31563160876692892 0 -0.49257985301007451 0.3062684833885625 0 -0.48603099200225103 0.30811587435781013 0 -0.49257985301007451 0.3062684833885625 0 -0.48603099200225103 0.30811587435781013 0 -0.48661919523461489 0.30235770329463091 0 -0.48676251807563797 0.31563160876692892 0 -0.48157427746908471 0.31123273865840539 0 -0.48603099200225103 0.30811587435781013 0 -0.48261911622184278 0.30508883768052258 0 -0.48603099200225103 0.30811587435781013 0 -0.48661919523461489 0.30235770329463091 0 -0.48967201006847938 0.29312359978237729 0 -0.49257985301007451 0.3062684833885625 0 -0.48661919523461489 0.30235770329463091 0 -0.48019583848184172 0.29737774542178957 0 -0.48967201006847938 0.29312359978237729 0 -0.48661919523461489 0.30235770329463091 0 -0.48477689619124198 0.25401214588668991 0 -0.49575541075759832 0.26589483823444882 0 -0.47466101018679729 0.2633901154225306 0 -0.48477689619124198 0.25401214588668991 0 -0.5 0.25420366096937652 0 -0.49575541075759832 0.26589483823444882 0 -0.49575541075759832 0.26589483823444882 0 -0.47507785254627721 0.27989877857490503 0 -0.49999999999999961 0.28300405192095052 0 -0.5 0.25420366096937652 0 -0.49575541075759832 0.26589483823444882 0 -0.49999999999999961 0.28300405192095052 0 -0.49575541075759832 0.26589483823444882 0 -0.47507785254627721 0.27989877857490503 0 -0.49575541075759832 0.26589483823444882 0 -0.47507785254627721 0.27989877857490503 0 -0.47466101018679729 0.2633901154225306 0 -0.46706786538544731 0.24730017438542959 0 -0.48477689619124198 0.25401214588668991 0 -0.47466101018679729 0.2633901154225306 0 -0.4468537577718848 0.24578656114699779 0 -0.46706786538544731 0.24730017438542959 0 -0.45062702605342192 0.26984464003117969 0 -0.46706786538544731 0.24730017438542959 0 -0.47466101018679729 0.2633901154225306 0 -0.45062702605342192 0.26984464003117969 0 -0.45440029433495671 0.29390271891536179 0 -0.47507785254627721 0.27989877857490503 0 -0.45062702605342192 0.26984464003117969 0 -0.47507785254627721 0.27989877857490503 0 -0.47466101018679729 0.2633901154225306 0 -0.45062702605342192 0.26984464003117969 0 -0.45440029433495671 0.29390271891536179 0 -0.45062702605342192 0.26984464003117969 0 -0.44072389731181633 0.27866392897878178 0 -0.45062702605342192 0.26984464003117969 0 -0.44072389731181633 0.27866392897878178 0 -0.4359761124487716 0.25737820880338202 0 -0.44072389731181633 0.27866392897878178 0 -0.4359761124487716 0.25737820880338202 0 -0.4468537577718848 0.24578656114699779 0 -0.45062702605342192 0.26984464003117969 0 -0.4468537577718848 0.24578656114699779 0 -0.45062702605342192 0.26984464003117969 0 -0.4359761124487716 0.25737820880338202 0 -0.4359761124487716 0.25737820880338202 0 -0.41279186945260171 0.25843620989219313 0 -0.42607357676924712 0.27796635313093038 0 -0.43122832758572438 0.2360924886279826 0 -0.4359761124487716 0.25737820880338202 0 -0.41279186945260171 0.25843620989219313 0 -0.40201382394766128 0.2425875868555146 0 -0.41279186945260171 0.25843620989219313 0 -0.41279186945260171 0.25843620989219313 0 -0.40940585731017087 0.26253982409842791 0 -0.41279186945260171 0.25843620989219313 0 -0.40940585731017087 0.26253982409842791 0 -0.40590008595623472 0.25965527838812952 0 -0.41279186945260171 0.25843620989219313 0 -0.4010632208850578 0.25428521508771351 0 -0.40590008595623472 0.25965527838812952 0 -0.41279186945260171 0.25843620989219313 0 -0.42607357676924712 0.27796635313093038 0 -0.41279186945260171 0.25843620989219313 0 -0.40940585731017087 0.26253982409842791 0 -0.42607357676924712 0.27796635313093038 0 -0.410379294460471 0.27541382395923703 0 -0.42607357676924712 0.27796635313093038 0 -0.41146689013019622 0.28762687211163079 0 -0.40940585731017087 0.26253982409842791 0 -0.410379294460471 0.27541382395923703 0 -0.42607357676924712 0.27796635313093038 0 -0.410379294460471 0.27541382395923703 0 -0.41146689013019622 0.28762687211163079 0 -0.40205150620777308 0.2803460247235674 0 -0.40940585731017087 0.26253982409842791 0 -0.410379294460471 0.27541382395923703 0 -0.40398882774078099 0.27073504605987903 0 -0.44072389731181633 0.27866392897878178 0 -0.4359761124487716 0.25737820880338202 0 -0.42607357676924712 0.27796635313093038 0 -0.43935528408589519 0.29749649636966591 0 -0.44072389731181633 0.27866392897878178 0 -0.42607357676924712 0.27796635313093038 0 -0.43935528408589519 0.29749649636966591 0 -0.42607357676924712 0.27796635313093038 0 -0.42217567653732341 0.29741658993259429 0 -0.43935528408589519 0.29749649636966591 0 -0.42607357676924712 0.27796635313093038 0 -0.43069787611196869 0.30995525506721361 0 -0.42217567653732341 0.29741658993259429 0 -0.41492688735176259 0.30989202038942032 0 -0.43935528408589519 0.29749649636966591 0 -0.43069787611196869 0.30995525506721361 0 -0.42217567653732341 0.29741658993259429 0 -0.44242623426939098 0.30201218818042158 0 -0.43069787611196869 0.30995525506721361 0 -0.43998746187175541 0.31678352185396302 0 -0.44018855146410202 0.30960840748935092 0 -0.43069787611196869 0.30995525506721361 0 -0.43935528408589519 0.29749649636966591 0 -0.44242623426939098 0.30201218818042158 0 -0.43069787611196869 0.30995525506721361 0 -0.43935528408589519 0.29749649636966591 0 -0.43069787611196869 0.30995525506721361 0 -0.42217567653732341 0.29741658993259429 0 -0.41492688735176259 0.30989202038942032 0 -0.40805571334520568 0.30198731695472752 0 -0.40637893503191191 0.31431716909243218 0 -0.41492688735176259 0.30989202038942032 0 -0.40805571334520568 0.30198731695472752 0 -0.42607357676924712 0.27796635313093038 0 -0.42217567653732341 0.29741658993259429 0 -0.41146689013019622 0.28762687211163079 0 -0.42217567653732341 0.29741658993259429 0 -0.40805571334520568 0.30198731695472752 0 -0.41146689013019622 0.28762687211163079 0 -0.40805571334520568 0.30198731695472752 0 -0.41146689013019622 0.28762687211163079 0 -0.40122786332483212 0.29243841761458977 0 -0.40122786332483212 0.29243841761458977 0 -0.39401444806115971 0.28693240703912198 0 -0.40205150620777308 0.2803460247235674 0 -0.41146689013019622 0.28762687211163079 0 -0.40122786332483212 0.29243841761458977 0 -0.40205150620777308 0.2803460247235674 0 -0.40122786332483212 0.29243841761458977 0 -0.39641884540067629 0.30066457186373158 0 -0.38874607019068852 0.2945882955123022 0 -0.40122786332483212 0.29243841761458977 0 -0.39401444806115971 0.28693240703912198 0 -0.38874607019068852 0.2945882955123022 0 -0.39401444806115971 0.28693240703912198 0 -0.3841882631730888 0.28101888772512179 0 -0.39371104488885722 0.27901329122678969 0 -0.39401444806115971 0.28693240703912198 0 -0.40205150620777308 0.2803460247235674 0 -0.39371104488885722 0.27901329122678969 0 -0.40637893503191191 0.31431716909243218 0 -0.40805571334520568 0.30198731695472752 0 -0.39843420718447609 0.31183591161758489 0 -0.40805571334520568 0.30198731695472752 0 -0.39641884540067629 0.30066457186373158 0 -0.39843420718447609 0.31183591161758489 0 -0.40805571334520568 0.30198731695472752 0 -0.40122786332483212 0.29243841761458977 0 -0.39641884540067629 0.30066457186373158 0 -0.39641884540067629 0.30066457186373158 0 -0.38860362560423323 0.30570886943674369 0 -0.38874607019068852 0.2945882955123022 0 -0.39641884540067629 0.30066457186373158 0 -0.39843420718447609 0.31183591161758489 0 -0.38860362560423323 0.30570886943674369 0 -0.39032567531542772 0.31757319206978252 0 -0.39843420718447609 0.31183591161758489 0 -0.38860362560423323 0.30570886943674369 0 -0.38000983554838652 0.31397780595800662 0 -0.38860362560423323 0.30570886943674369 0 -0.37768711998574511 0.29561343959905451 0 -0.38000983554838652 0.31397780595800662 0 -0.37768711998574511 0.29561343959905451 0 -0.36807777967912431 0.30722481019911768 0 -0.38000983554838652 0.31397780595800662 0 -0.39032567531542772 0.31757319206978252 0 -0.38860362560423323 0.30570886943674369 0 -0.38860362560423323 0.30570886943674369 0 -0.38874607019068852 0.2945882955123022 0 -0.37768711998574511 0.29561343959905451 0 -0.37768711998574511 0.29561343959905451 0 -0.3841882631730888 0.28101888772512179 0 -0.36736386995692522 0.27246305202664078 0 -0.39401444806115971 0.28693240703912198 0 -0.38874607019068852 0.2945882955123022 0 -0.3841882631730888 0.28101888772512179 0 -0.38874607019068852 0.2945882955123022 0 -0.37768711998574511 0.29561343959905451 0 -0.3841882631730888 0.28101888772512179 0 -0.38864882391967892 0.27107703769164521 0 -0.3885222847737122 0.25859143765315629 0 -0.36736386995692522 0.27246305202664078 0 -0.3841882631730888 0.28101888772512179 0 -0.38864882391967892 0.27107703769164521 0 -0.36736386995692522 0.27246305202664078 0 -0.3841882631730888 0.28101888772512179 0 -0.38864882391967892 0.27107703769164521 0 -0.39371104488885722 0.27901329122678969 0 -0.38029180335294221 0.24586642203902559 0 -0.3885222847737122 0.25859143765315629 0 -0.36736386995692522 0.27246305202664078 0 -0.38029180335294221 0.24586642203902559 0 -0.39294454383724442 0.2479356906039622 0 -0.3885222847737122 0.25859143765315629 0 -0.40201382394766128 0.2425875868555146 0 -0.41279186945260171 0.25843620989219313 0 -0.4010632208850578 0.25428521508771351 0 -0.3885222847737122 0.25859143765315629 0 -0.4010632208850578 0.25428521508771351 0 -0.40033939617710812 0.26335986447418319 0 -0.38864882391967892 0.27107703769164521 0 -0.3885222847737122 0.25859143765315629 0 -0.40033939617710812 0.26335986447418319 0 -0.39294454383724442 0.2479356906039622 0 -0.3885222847737122 0.25859143765315629 0 -0.4010632208850578 0.25428521508771351 0 -0.40940585731017087 0.26253982409842791 0 -0.40033939617710812 0.26335986447418319 0 -0.40590008595623472 0.25965527838812952 0 -0.4010632208850578 0.25428521508771351 0 -0.40033939617710812 0.26335986447418319 0 -0.40590008595623472 0.25965527838812952 0 -0.40940585731017087 0.26253982409842791 0 -0.40033939617710812 0.26335986447418319 0 -0.40398882774078099 0.27073504605987903 0 -0.40033939617710812 0.26335986447418319 0 -0.40398882774078099 0.27073504605987903 0 -0.39776808454838192 0.2720156930439796 0 -0.410379294460471 0.27541382395923703 0 -0.40398882774078099 0.27073504605987903 0 -0.40205150620777308 0.2803460247235674 0 -0.40398882774078099 0.27073504605987903 0 -0.40205150620777308 0.2803460247235674 0 -0.39776808454838192 0.2720156930439796 0 -0.40205150620777308 0.2803460247235674 0 -0.39371104488885722 0.27901329122678969 0 -0.39776808454838192 0.2720156930439796 0 -0.38864882391967892 0.27107703769164521 0 -0.39371104488885722 0.27901329122678969 0 -0.39776808454838192 0.2720156930439796 0 -0.38864882391967892 0.27107703769164521 0 -0.40033939617710812 0.26335986447418319 0 -0.39776808454838192 0.2720156930439796 0 -0.34931857204819211 0.28077777402051401 0 -0.34884269561760822 0.25954676056681569 0 -0.3338480683394196 0.27243977245121498 0 -0.34931857204819211 0.28077777402051401 0 -0.34884269561760822 0.25954676056681569 0 -0.36736386995692522 0.27246305202664078 0 -0.36502312147435351 0.24619534276921981 0 -0.36736386995692522 0.27246305202664078 0 -0.38029180335294221 0.24586642203902559 0 -0.36502312147435351 0.24619534276921981 0 -0.36736386995692522 0.27246305202664078 0 -0.36502312147435351 0.24619534276921981 0 -0.34884269561760822 0.25954676056681569 0 -0.36736386995692522 0.27246305202664078 0 -0.37768711998574511 0.29561343959905451 0 -0.36736386995692522 0.27246305202664078 0 -0.35774753283300142 0.29729499185912578 0 -0.37768711998574511 0.29561343959905451 0 -0.36807777967912431 0.30722481019911768 0 -0.35774753283300142 0.29729499185912578 0 -0.36807777967912431 0.30722481019911768 0 -0.35811079941862262 0.31118637516556608 0 -0.36683361060986602 0.31805143841383549 0 -0.36807777967912431 0.30722481019911768 0 -0.35811079941862262 0.31118637516556608 0 -0.35774753283300142 0.29729499185912578 0 -0.35811079941862262 0.31118637516556608 0 -0.35774753283300142 0.29729499185912578 0 -0.33986075297096008 0.31269084051936707 0 -0.34931857204819211 0.28077777402051401 0 -0.35774753283300142 0.29729499185912578 0 -0.32761800087276038 0.29785520883101968 0 -0.34931857204819211 0.28077777402051401 0 -0.36736386995692522 0.27246305202664078 0 -0.35774753283300142 0.29729499185912578 0 -0.32761800087276038 0.29785520883101968 0 -0.3338480683394196 0.27243977245121498 0 -0.34931857204819211 0.28077777402051401 0 -0.32761800087276038 0.29785520883101968 0 -0.3338480683394196 0.27243977245121498 0 -0.32761800087276038 0.29785520883101968 0 -0.32138793340610128 0.32327064521082433 0 -0.33986075297096008 0.31269084051936707 0 -0.35774753283300142 0.29729499185912578 0 -0.32761800087276038 0.29785520883101968 0 -0.33986075297096008 0.31269084051936707 0 -0.32761800087276038 0.29785520883101968 0 -0.32138793340610128 0.32327064521082433 0 -0.32761800087276038 0.29785520883101968 0 -0.30367480185376622 0.29039850083883129 0 -0.30867142476971993 0.3086490850675685 0 -0.32761800087276038 0.29785520883101968 0 -0.30867142476971993 0.3086490850675685 0 -0.32138793340610128 0.32327064521082433 0 -0.32761800087276038 0.29785520883101968 0 -0.31604946208254181 0.27722995520626192 0 -0.3338480683394196 0.27243977245121498 0 -0.32761800087276038 0.29785520883101968 0 -0.31604946208254181 0.27722995520626192 0 -0.30367480185376622 0.29039850083883129 0 -0.31604946208254181 0.27722995520626192 0 -0.3338480683394196 0.27243977245121498 0 -0.31486817053965671 0.259311730800519 0 -0.33117357873461722 0.2499228471262179 0 -0.34884269561760822 0.25954676056681569 0 -0.3338480683394196 0.27243977245121498 0 -0.33117357873461722 0.2499228471262179 0 -0.3338480683394196 0.27243977245121498 0 -0.31486817053965671 0.259311730800519 0 -0.29608417921845082 0.24557422084738381 0 -0.31486817053965671 0.259311730800519 0 -0.29607781357945739 0.26642128740226201 0 -0.31604946208254181 0.27722995520626192 0 -0.29607781357945739 0.26642128740226201 0 -0.30367480185376622 0.29039850083883129 0 -0.31604946208254181 0.27722995520626192 0 -0.31486817053965671 0.259311730800519 0 -0.29607781357945739 0.26642128740226201 0 -0.29607781357945739 0.26642128740226201 0 -0.27767608640152408 0.27172981114115341 0 -0.28388312348519018 0.28896752958644639 0 -0.29607781357945739 0.26642128740226201 0 -0.27420087427913759 0.25212895866241708 0 -0.27767608640152408 0.27172981114115341 0 -0.29608417921845082 0.24557422084738381 0 -0.29607781357945739 0.26642128740226201 0 -0.27420087427913759 0.25212895866241708 0 -0.27420087427913759 0.25212895866241708 0 -0.27767608640152408 0.27172981114115341 0 -0.26082075272945171 0.26696602463187541 0 -0.27767608640152408 0.27172981114115341 0 -0.26082075272945171 0.26696602463187541 0 -0.26502408822317519 0.28694872128125593 0 -0.26082075272945171 0.26696602463187541 0 -0.26502408822317519 0.28694872128125593 0 -0.24960952125621569 0.27943640906458961 0 -0.26082075272945171 0.26696602463187541 0 -0.24190654726470731 0.26223585525212378 0 -0.24960952125621569 0.27943640906458961 0 -0.2531312179692447 0.24693268900981011 0 -0.26082075272945171 0.26696602463187541 0 -0.24190654726470731 0.26223585525212378 0 -0.2531312179692447 0.24693268900981011 0 -0.27420087427913759 0.25212895866241708 0 -0.26082075272945171 0.26696602463187541 0 -0.25106380979670567 0.30125546960525051 0 -0.27042162876619152 0.30569306745762659 0 -0.2574293782486276 0.32176370381274449 0 -0.25106380979670567 0.30125546960525051 0 -0.26502408822317519 0.28694872128125593 0 -0.27042162876619152 0.30569306745762659 0 -0.25106380979670567 0.30125546960525051 0 -0.26502408822317519 0.28694872128125593 0 -0.24960952125621569 0.27943640906458961 0 -0.27767608640152408 0.27172981114115341 0 -0.26502408822317519 0.28694872128125593 0 -0.28388312348519018 0.28896752958644639 0 -0.26502408822317519 0.28694872128125593 0 -0.27042162876619152 0.30569306745762659 0 -0.28388312348519018 0.28896752958644639 0 -0.27042162876619152 0.30569306745762659 0 -0.28967326919033942 0.31009131037354959 0 -0.28388312348519018 0.28896752958644639 0 -0.29607781357945739 0.26642128740226201 0 -0.28388312348519018 0.28896752958644639 0 -0.30367480185376622 0.29039850083883129 0 -0.28967326919033942 0.31009131037354959 0 -0.28388312348519018 0.28896752958644639 0 -0.30367480185376622 0.29039850083883129 0 -0.28967326919033942 0.31009131037354959 0 -0.30367480185376622 0.29039850083883129 0 -0.30867142476971993 0.3086490850675685 0 -0.30867142476971993 0.3086490850675685 0 -0.30141717587858141 0.32639476749506402 0 -0.32138793340610128 0.32327064521082433 0 -0.28967326919033942 0.31009131037354959 0 -0.30867142476971993 0.3086490850675685 0 -0.30141717587858141 0.32639476749506402 0 -0.30141717587858141 0.32639476749506402 0 -0.29396395639409179 0.34460140573434261 0 -0.31515786593944378 0.34868608159062953 0 -0.27277004684873968 0.34051672987805581 0 -0.29396395639409179 0.34460140573434261 0 -0.30141717587858141 0.32639476749506402 0 -0.27760631134672259 0.32365313592770578 0 -0.29396395639409179 0.34460140573434261 0 -0.27760631134672259 0.32365313592770578 0 -0.27277004684873968 0.34051672987805581 0 -0.29396395639409179 0.34460140573434261 0 -0.28967326919033942 0.31009131037354959 0 -0.30141717587858141 0.32639476749506402 0 -0.27760631134672259 0.32365313592770578 0 -0.27042162876619152 0.30569306745762659 0 -0.28967326919033942 0.31009131037354959 0 -0.27760631134672259 0.32365313592770578 0 -0.27042162876619152 0.30569306745762659 0 -0.27760631134672259 0.32365313592770578 0 -0.2574293782486276 0.32176370381274449 0 -0.27760631134672259 0.32365313592770578 0 -0.27277004684873968 0.34051672987805581 0 -0.2574293782486276 0.32176370381274449 0 -0.27277004684873968 0.34051672987805581 0 -0.25157613730338768 0.3364320540217689 0 -0.27277004684873968 0.34051672987805581 0 -0.25157613730338768 0.3364320540217689 0 -0.2574293782486276 0.32176370381274449 0 -0.26662436826969332 0.35779387230755128 0 -0.27585863340831501 0.37363676860449357 0 -0.25380087848459781 0.38063160829692472 0 -0.26662436826969332 0.35779387230755128 0 -0.25380087848459781 0.38063160829692472 0 -0.249114704749196 0.3569469431542493 0 -0.25157613730338768 0.3364320540217689 0 -0.26662436826969332 0.35779387230755128 0 -0.249114704749196 0.3569469431542493 0 -0.27277004684873968 0.34051672987805581 0 -0.25157613730338768 0.3364320540217689 0 -0.26662436826969332 0.35779387230755128 0 -0.27277004684873968 0.34051672987805581 0 -0.26662436826969332 0.35779387230755128 0 -0.28134100215347352 0.35336707181013899 0 -0.26662436826969332 0.35779387230755128 0 -0.27585863340831501 0.37363676860449357 0 -0.28134100215347352 0.35336707181013899 0 -0.27585863340831501 0.37363676860449357 0 -0.29435599599358753 0.36245032372330072 0 -0.2918860081143686 0.37997608933648452 0 -0.27585863340831501 0.37363676860449357 0 -0.29435599599358753 0.36245032372330072 0 -0.28134100215347352 0.35336707181013899 0 -0.29435599599358753 0.36245032372330072 0 -0.28134100215347352 0.35336707181013899 0 -0.29396395639409179 0.34460140573434261 0 -0.27277004684873968 0.34051672987805581 0 -0.28134100215347352 0.35336707181013899 0 -0.29396395639409179 0.34460140573434261 0 -0.29396395639409179 0.34460140573434261 0 -0.31515786593944378 0.34868608159062953 0 -0.29435599599358753 0.36245032372330072 0 -0.29396395639409179 0.34460140573434261 0 -0.31515786593944378 0.34868608159062953 0 -0.30890779001438418 0.37418314207871411 0 -0.31515786593944378 0.34868608159062953 0 -0.29435599599358753 0.36245032372330072 0 -0.30890779001438418 0.37418314207871411 0 -0.2918860081143686 0.37997608933648452 0 -0.29435599599358753 0.36245032372330072 0 -0.30890779001438418 0.37418314207871411 0 -0.31515786593944378 0.34868608159062953 0 -0.30890779001438418 0.37418314207871411 0 -0.331537207553941 0.36591090863466191 0 -0.33296821774916502 0.38126200566806601 0 -0.30890779001438418 0.37418314207871411 0 -0.331537207553941 0.36591090863466191 0 -0.31515786593944378 0.34868608159062953 0 -0.331537207553941 0.36591090863466191 0 -0.3463344936097662 0.37147410460121433 0 -0.34650500258920258 0.3600319169217801 0 -0.331537207553941 0.36591090863466191 0 -0.33787041045635791 0.35306344207829982 0 -0.34650500258920258 0.3600319169217801 0 -0.331537207553941 0.36591090863466191 0 -0.3463344936097662 0.37147410460121433 0 -0.33296821774916502 0.38126200566806601 0 -0.33787041045635791 0.35306344207829982 0 -0.33944512692308049 0.33421651780484563 0 -0.35140148370920787 0.34496101913459443 0 -0.331537207553941 0.36591090863466191 0 -0.33787041045635791 0.35306344207829982 0 -0.31515786593944378 0.34868608159062953 0 -0.33787041045635791 0.35306344207829982 0 -0.31515786593944378 0.34868608159062953 0 -0.33944512692308049 0.33421651780484563 0 -0.33787041045635791 0.35306344207829982 0 -0.31515786593944378 0.34868608159062953 0 -0.31515786593944378 0.34868608159062953 0 -0.32138793340610128 0.32327064521082433 0 -0.33944512692308049 0.33421651780484563 0 -0.30141717587858141 0.32639476749506402 0 -0.31515786593944378 0.34868608159062953 0 -0.32138793340610128 0.32327064521082433 0 -0.31515786593944378 0.34868608159062953 0 -0.32138793340610128 0.32327064521082433 0 -0.32138793340610128 0.32327064521082433 0 -0.33986075297096008 0.31269084051936707 0 -0.33944512692308049 0.33421651780484563 0 -0.33944512692308049 0.33421651780484563 0 -0.35545214486597748 0.33490513799591132 0 -0.35368377003694812 0.32242246919647111 0 -0.33944512692308049 0.33421651780484563 0 -0.35545214486597748 0.33490513799591132 0 -0.35140148370920787 0.34496101913459443 0 -0.35545214486597748 0.33490513799591132 0 -0.35368377003694812 0.32242246919647111 0 -0.3647709351345032 0.32883458068130972 0 -0.3588558516928434 0.34060146980375949 0 -0.36392998719954911 0.34460684724513141 0 -0.35140148370920787 0.34496101913459443 0 -0.35545214486597748 0.33490513799591132 0 -0.3588558516928434 0.34060146980375949 0 -0.35140148370920787 0.34496101913459443 0 -0.33986075297096008 0.31269084051936707 0 -0.33944512692308049 0.33421651780484563 0 -0.35368377003694812 0.32242246919647111 0 -0.35811079941862262 0.31118637516556608 0 -0.33986075297096008 0.31269084051936707 0 -0.35368377003694812 0.32242246919647111 0 -0.35811079941862262 0.31118637516556608 0 -0.35368377003694812 0.32242246919647111 0 -0.36683361060986602 0.31805143841383549 0 -0.35368377003694812 0.32242246919647111 0 -0.36683361060986602 0.31805143841383549 0 -0.3647709351345032 0.32883458068130972 0 -0.36683361060986602 0.31805143841383549 0 -0.37476590451375608 0.32701692364975959 0 -0.3647709351345032 0.32883458068130972 0 -0.38000983554838652 0.31397780595800662 0 -0.36807777967912431 0.30722481019911768 0 -0.36683361060986602 0.31805143841383549 0 -0.38000983554838652 0.31397780595800662 0 -0.36683361060986602 0.31805143841383549 0 -0.37476590451375608 0.32701692364975959 0 -0.38395459535283782 0.34161228673305361 0 -0.37258292089269951 0.336967954967481 0 -0.36392998719954911 0.34460684724513141 0 -0.35545214486597748 0.33490513799591132 0 -0.3588558516928434 0.34060146980375949 0 -0.36463979099663918 0.33793287483940099 0 -0.36463979099663918 0.33793287483940099 0 -0.37258292089269951 0.336967954967481 0 -0.36392998719954911 0.34460684724513141 0 -0.3588558516928434 0.34060146980375949 0 -0.36463979099663918 0.33793287483940099 0 -0.36392998719954911 0.34460684724513141 0 -0.36463979099663918 0.33793287483940099 0 -0.3647709351345032 0.32883458068130972 0 -0.36918988788439949 0.33268808353448781 0 -0.35545214486597748 0.33490513799591132 0 -0.36463979099663918 0.33793287483940099 0 -0.3647709351345032 0.32883458068130972 0 -0.37476590451375608 0.32701692364975959 0 -0.3647709351345032 0.32883458068130972 0 -0.36918988788439949 0.33268808353448781 0 -0.36463979099663918 0.33793287483940099 0 -0.36918988788439949 0.33268808353448781 0 -0.37258292089269951 0.336967954967481 0 -0.37476590451375608 0.32701692364975959 0 -0.36918988788439949 0.33268808353448781 0 -0.37258292089269951 0.336967954967481 0 -0.38395459535283782 0.34161228673305361 0 -0.36058295497327147 0.35744080256597238 0 -0.38395459535283782 0.34161228673305361 0 -0.36392998719954911 0.34460684724513141 0 -0.36058295497327147 0.35744080256597238 0 -0.38395459535283782 0.34161228673305361 0 -0.3735027008302661 0.35039121556722208 0 -0.36058295497327147 0.35744080256597238 0 -0.3735027008302661 0.35039121556722208 0 -0.36058295497327147 0.35744080256597238 0 -0.36360498659759932 0.35802323496648619 0 -0.36058295497327147 0.35744080256597238 0 -0.36360498659759932 0.35802323496648619 0 -0.36140639251279061 0.35970352684053603 0 -0.36058295497327147 0.35744080256597238 0 -0.36360498659759932 0.35802323496648619 0 -0.36058295497327147 0.35744080256597238 0 -0.36140639251279061 0.35970352684053603 0 -0.35758652915458661 0.35947014123210841 0 -0.36360498659759932 0.35802323496648619 0 -0.37042407261040122 0.35672863843346497 0 -0.36795867484321182 0.36004187077055538 0 -0.3735027008302661 0.35039121556722208 0 -0.36360498659759932 0.35802323496648619 0 -0.37042407261040122 0.35672863843346497 0 -0.3735027008302661 0.35039121556722208 0 -0.37042407261040122 0.35672863843346497 0 -0.37405279921090617 0.36042118382240212 0 -0.37042407261040122 0.35672863843346497 0 -0.37405279921090617 0.36042118382240212 0 -0.36795867484321182 0.36004187077055538 0 -0.37731452350920092 0.37011675257853899 0 -0.37405279921090617 0.36042118382240212 0 -0.3663133189227154 0.37612440131603192 0 -0.37405279921090617 0.36042118382240212 0 -0.3663133189227154 0.37612440131603192 0 -0.37405279921090617 0.36042118382240212 0 -0.36795867484321182 0.36004187077055538 0 -0.36585684404547869 0.36516271165491943 0 -0.37405279921090617 0.36042118382240212 0 -0.36585684404547869 0.36516271165491943 0 -0.3663133189227154 0.37612440131603192 0 -0.37753484361741813 0.377041935452195 0 -0.37731452350920092 0.37011675257853899 0 -0.3663133189227154 0.37612440131603192 0 -0.36292520330862221 0.37056201011002382 0 -0.36585684404547869 0.36516271165491943 0 -0.3663133189227154 0.37612440131603192 0 -0.36292520330862221 0.37056201011002382 0 -0.36277348992759573 0.37432651988463761 0 -0.3663133189227154 0.37612440131603192 0 -0.36292520330862221 0.37056201011002382 0 -0.36585684404547869 0.36516271165491943 0 -0.36237155390377568 0.36613317406179852 0 -0.36292520330862221 0.37056201011002382 0 -0.36237155390377568 0.36613317406179852 0 -0.35731080974354568 0.37106324363273141 0 -0.36292520330862221 0.37056201011002382 0 -0.36277348992759573 0.37432651988463761 0 -0.35731080974354568 0.37106324363273141 0 -0.36360498659759932 0.35802323496648619 0 -0.36795867484321182 0.36004187077055538 0 -0.36424396615190952 0.36110042959600808 0 -0.36795867484321182 0.36004187077055538 0 -0.36424396615190952 0.36110042959600808 0 -0.36585684404547869 0.36516271165491943 0 -0.36424396615190952 0.36110042959600808 0 -0.36585684404547869 0.36516271165491943 0 -0.36337147244693752 0.36371983528870783 0 -0.36585684404547869 0.36516271165491943 0 -0.36337147244693752 0.36371983528870783 0 -0.36237155390377568 0.36613317406179852 0 -0.36337147244693752 0.36371983528870783 0 -0.36237155390377568 0.36613317406179852 0 -0.36101352568658612 0.36248302584210512 0 -0.36237155390377568 0.36613317406179852 0 -0.36101352568658612 0.36248302584210512 0 -0.35542334710006029 0.36500179334408839 0 -0.36424396615190952 0.36110042959600808 0 -0.36337147244693752 0.36371983528870783 0 -0.36101352568658612 0.36248302584210512 0 -0.36424396615190952 0.36110042959600808 0 -0.36101352568658612 0.36248302584210512 0 -0.36140639251279061 0.35970352684053603 0 -0.36360498659759932 0.35802323496648619 0 -0.36424396615190952 0.36110042959600808 0 -0.36140639251279061 0.35970352684053603 0 -0.36101352568658612 0.36248302584210512 0 -0.36140639251279061 0.35970352684053603 0 -0.35758652915458661 0.35947014123210841 0 -0.36101352568658612 0.36248302584210512 0 -0.35758652915458661 0.35947014123210841 0 -0.35542334710006029 0.36500179334408839 0 -0.35758652915458661 0.35947014123210841 0 -0.35542334710006029 0.36500179334408839 0 -0.34650500258920258 0.3600319169217801 0 -0.35731080974354568 0.37106324363273141 0 -0.3463344936097662 0.37147410460121433 0 -0.35412798806189061 0.37922684941034412 0 -0.36277348992759573 0.37432651988463761 0 -0.35731080974354568 0.37106324363273141 0 -0.35412798806189061 0.37922684941034412 0 -0.35542334710006029 0.36500179334408839 0 -0.35731080974354568 0.37106324363273141 0 -0.3463344936097662 0.37147410460121433 0 -0.36237155390377568 0.36613317406179852 0 -0.35542334710006029 0.36500179334408839 0 -0.35731080974354568 0.37106324363273141 0 -0.35542334710006029 0.36500179334408839 0 -0.3463344936097662 0.37147410460121433 0 -0.34650500258920258 0.3600319169217801 0 -0.33787041045635791 0.35306344207829982 0 -0.36058295497327147 0.35744080256597238 0 -0.33787041045635791 0.35306344207829982 0 -0.36058295497327147 0.35744080256597238 0 -0.35140148370920787 0.34496101913459443 0 -0.33787041045635791 0.35306344207829982 0 -0.36058295497327147 0.35744080256597238 0 -0.34650500258920258 0.3600319169217801 0 -0.36392998719954911 0.34460684724513141 0 -0.36058295497327147 0.35744080256597238 0 -0.35140148370920787 0.34496101913459443 0 -0.36058295497327147 0.35744080256597238 0 -0.35758652915458661 0.35947014123210841 0 -0.34650500258920258 0.3600319169217801 0 -0.36058295497327147 0.35744080256597238 0 -0.35758652915458661 0.35947014123210841 0 -0.35526669057772509 0.39853774187810609 0 -0.34422006223273471 0.42095108244018042 0 -0.33877455646616789 0.39912092951273231 0 -0.35526669057772509 0.39853774187810609 0 -0.35412798806189061 0.37922684941034412 0 -0.33877455646616789 0.39912092951273231 0 -0.35526669057772509 0.39853774187810609 0 -0.35412798806189061 0.37922684941034412 0 -0.3663133189227154 0.37612440131603192 0 -0.3463344936097662 0.37147410460121433 0 -0.35412798806189061 0.37922684941034412 0 -0.33296821774916502 0.38126200566806601 0 -0.35526669057772509 0.39853774187810609 0 -0.3663133189227154 0.37612440131603192 0 -0.38090570125532941 0.38353588172139069 0 -0.3663133189227154 0.37612440131603192 0 -0.36970578379049829 0.39768042913919738 0 -0.36277348992759573 0.37432651988463761 0 -0.35412798806189061 0.37922684941034412 0 -0.3663133189227154 0.37612440131603192 0 -0.36277348992759573 0.37432651988463761 0 -0.3663133189227154 0.37612440131603192 0 -0.38090570125532941 0.38353588172139069 0 -0.3663133189227154 0.37612440131603192 0 -0.38090570125532941 0.38353588172139069 0 -0.37753484361741813 0.377041935452195 0 -0.3663133189227154 0.37612440131603192 0 -0.35526669057772509 0.39853774187810609 0 -0.3663133189227154 0.37612440131603192 0 -0.36970578379049829 0.39768042913919738 0 -0.35526669057772509 0.39853774187810609 0 -0.36970578379049829 0.39768042913919738 0 -0.3616648325953653 0.41567330411890779 0 -0.37929724053814667 0.41359817890465828 0 -0.3616648325953653 0.41567330411890779 0 -0.3665098065971315 0.43020378331415138 0 -0.37929724053814667 0.41359817890465828 0 -0.36970578379049829 0.39768042913919738 0 -0.3616648325953653 0.41567330411890779 0 -0.3616648325953653 0.41567330411890779 0 -0.3665098065971315 0.43020378331415138 0 -0.35244884430435058 0.43260229015870671 0 -0.37801150627797953 0.43762868522352921 0 -0.37929724053814667 0.41359817890465828 0 -0.3665098065971315 0.43020378331415138 0 -0.37929724053814667 0.41359817890465828 0 -0.3665098065971315 0.43020378331415138 0 -0.3665098065971315 0.43020378331415138 0 -0.35244884430435058 0.43260229015870671 0 -0.35372237265611622 0.44680938772364448 0 -0.3616648325953653 0.41567330411890779 0 -0.35244884430435058 0.43260229015870671 0 -0.34422006223273471 0.42095108244018042 0 -0.35526669057772509 0.39853774187810609 0 -0.3616648325953653 0.41567330411890779 0 -0.34422006223273471 0.42095108244018042 0 -0.35526669057772509 0.39853774187810609 0 -0.34422006223273471 0.42095108244018042 0 -0.34422006223273471 0.42095108244018042 0 -0.32516616431115258 0.40845593129774099 0 -0.33877455646616789 0.39912092951273231 0 -0.34422006223273471 0.42095108244018042 0 -0.3262311683023511 0.42567797593164991 0 -0.32516616431115258 0.40845593129774099 0 -0.34422006223273471 0.42095108244018042 0 -0.3262311683023511 0.42567797593164991 0 -0.33317343388774429 0.44336442300225481 0 -0.34422006223273471 0.42095108244018042 0 -0.33317343388774429 0.44336442300225481 0 -0.35244884430435058 0.43260229015870671 0 -0.34422006223273471 0.42095108244018042 0 -0.33317343388774429 0.44336442300225481 0 -0.31581321982707461 0.43662351433797453 0 -0.3262311683023511 0.42567797593164991 0 -0.31278296125304961 0.41899492858009851 0 -0.31581321982707461 0.43662351433797453 0 -0.3262311683023511 0.42567797593164991 0 -0.33317343388774429 0.44336442300225481 0 -0.32516616431115258 0.40845593129774099 0 -0.31278296125304961 0.41899492858009851 0 -0.30265771408932612 0.39968020256679898 0 -0.3262311683023511 0.42567797593164991 0 -0.32516616431115258 0.40845593129774099 0 -0.31278296125304961 0.41899492858009851 0 -0.32516616431115258 0.40845593129774099 0 -0.32049944239096723 0.39319673022968399 0 -0.30265771408932612 0.39968020256679898 0 -0.32516616431115258 0.40845593129774099 0 -0.30265771408932612 0.39968020256679898 0 -0.32049944239096723 0.39319673022968399 0 -0.33877455646616789 0.39912092951273231 0 -0.33296821774916502 0.38126200566806601 0 -0.32516616431115258 0.40845593129774099 0 -0.32049944239096723 0.39319673022968399 0 -0.33877455646616789 0.39912092951273231 0 -0.35412798806189061 0.37922684941034412 0 -0.33877455646616789 0.39912092951273231 0 -0.33296821774916502 0.38126200566806601 0 -0.30890779001438418 0.37418314207871411 0 -0.32049944239096723 0.39319673022968399 0 -0.33296821774916502 0.38126200566806601 0 -0.30890779001438418 0.37418314207871411 0 -0.30265771408932612 0.39968020256679898 0 -0.30890779001438418 0.37418314207871411 0 -0.30265771408932612 0.39968020256679898 0 -0.2918860081143686 0.37997608933648452 0 -0.30890779001438418 0.37418314207871411 0 -0.32049944239096723 0.39319673022968399 0 -0.30265771408932612 0.39968020256679898 0 -0.30265771408932612 0.39968020256679898 0 -0.27764990706623038 0.38993000970911479 0 -0.28975766940601633 0.40714857089892759 0 -0.27764990706623038 0.38993000970911479 0 -0.28090671389302529 0.41955358990616931 0 -0.28975766940601633 0.40714857089892759 0 -0.30265771408932612 0.39968020256679898 0 -0.27764990706623038 0.38993000970911479 0 -0.27585863340831501 0.37363676860449357 0 -0.2918860081143686 0.37997608933648452 0 -0.27764990706623038 0.38993000970911479 0 -0.30265771408932612 0.39968020256679898 0 -0.2918860081143686 0.37997608933648452 0 -0.27764990706623038 0.38993000970911479 0 -0.27585863340831501 0.37363676860449357 0 -0.27764990706623038 0.38993000970911479 0 -0.27585863340831501 0.37363676860449357 0 -0.27764990706623038 0.38993000970911479 0 -0.25380087848459781 0.38063160829692472 0 -0.27764990706623038 0.38993000970911479 0 -0.25380087848459781 0.38063160829692472 0 -0.27764990706623038 0.38993000970911479 0 -0.28090671389302529 0.41955358990616931 0 -0.27764990706623038 0.38993000970911479 0 -0.25873736150193488 0.40700006509544262 0 -0.28090671389302529 0.41955358990616931 0 -0.25380087848459781 0.38063160829692472 0 -0.25873736150193488 0.40700006509544262 0 -0.24556990850205021 0.39657954597392908 0 -0.27764990706623038 0.38993000970911479 0 -0.25380087848459781 0.38063160829692472 0 -0.25873736150193488 0.40700006509544262 0 -0.26359883702550041 0.4250495928908361 0 -0.27134104319856189 0.43665102019146329 0 -0.2569592489759962 0.43872134694419129 0 -0.26359883702550041 0.4250495928908361 0 -0.25004981755798378 0.42332194231691411 0 -0.2569592489759962 0.43872134694419129 0 -0.26359883702550041 0.4250495928908361 0 -0.25004981755798378 0.42332194231691411 0 -0.25873736150193488 0.40700006509544262 0 -0.26359883702550041 0.4250495928908361 0 -0.25873736150193488 0.40700006509544262 0 -0.28090671389302529 0.41955358990616931 0 -0.26359883702550041 0.4250495928908361 0 -0.28090671389302529 0.41955358990616931 0 -0.27134104319856189 0.43665102019146329 0 -0.28090671389302529 0.41955358990616931 0 -0.27134104319856189 0.43665102019146329 0 -0.28416352071981987 0.44917717010322389 0 -0.28090671389302529 0.41955358990616931 0 -0.28896538706249231 0.43183550042086888 0 -0.28416352071981987 0.44917717010322389 0 -0.28896538706249231 0.43183550042086888 0 -0.29781634257548351 0.41943048141362721 0 -0.29297497106164061 0.43918076026045538 0 -0.28090671389302529 0.41955358990616931 0 -0.28896538706249231 0.43183550042086888 0 -0.29781634257548351 0.41943048141362721 0 -0.28090671389302529 0.41955358990616931 0 -0.28416352071981987 0.44917717010322389 0 -0.29781634257548351 0.41943048141362721 0 -0.29297497106164061 0.43918076026045538 0 -0.28090671389302529 0.41955358990616931 0 -0.28975766940601633 0.40714857089892759 0 -0.29781634257548351 0.41943048141362721 0 -0.30265771408932612 0.39968020256679898 0 -0.28975766940601633 0.40714857089892759 0 -0.29781634257548351 0.41943048141362721 0 -0.31278296125304961 0.41899492858009851 0 -0.30265771408932612 0.39968020256679898 0 -0.29781634257548351 0.41943048141362721 0 -0.30265771408932612 0.39968020256679898 0 -0.29781634257548351 0.41943048141362721 0 -0.29781634257548351 0.41943048141362721 0 -0.30346237316451841 0.43252260376760399 0 -0.29297497106164061 0.43918076026045538 0 -0.31581321982707461 0.43662351433797453 0 -0.31278296125304961 0.41899492858009851 0 -0.30346237316451841 0.43252260376760399 0 -0.31278296125304961 0.41899492858009851 0 -0.29781634257548351 0.41943048141362721 0 -0.30346237316451841 0.43252260376760399 0 -0.30346237316451841 0.43252260376760399 0 -0.30088919269026709 0.45158928802752951 0 -0.29297497106164061 0.43918076026045538 0 -0.31581321982707461 0.43662351433797453 0 -0.30346237316451841 0.43252260376760399 0 -0.30088919269026709 0.45158928802752951 0 -0.31581321982707461 0.43662351433797453 0 -0.30088919269026709 0.45158928802752951 0 -0.31680117933123292 0.45064420026363222 0 -0.30088919269026709 0.45158928802752951 0 -0.30454513526728688 0.46537593593914628 0 -0.31680117933123292 0.45064420026363222 0 -0.30088919269026709 0.45158928802752951 0 -0.29711869130211888 0.46061491927310538 0 -0.30454513526728688 0.46537593593914628 0 -0.29711869130211888 0.46061491927310538 0 -0.30454513526728688 0.46537593593914628 0 -0.29471453791860053 0.46939665363099059 0 -0.28813359954779783 0.4589310391072835 0 -0.28416352071981987 0.44917717010322389 0 -0.2874203275466144 0.47880075030027808 0 -0.28416352071981987 0.44917717010322389 0 -0.2874203275466144 0.47880075030027808 0 -0.28416352071981987 0.44917717010322389 0 -0.2766768142058082 0.46420198288389558 0 -0.2874203275466144 0.47880075030027808 0 -0.29711869130211888 0.46061491927310538 0 -0.28813359954779783 0.4589310391072835 0 -0.29471453791860053 0.46939665363099059 0 -0.30088919269026709 0.45158928802752951 0 -0.29711869130211888 0.46061491927310538 0 -0.28813359954779783 0.4589310391072835 0 -0.30088919269026709 0.45158928802752951 0 -0.28813359954779783 0.4589310391072835 0 -0.29297497106164061 0.43918076026045538 0 -0.28896538706249231 0.43183550042086888 0 -0.29297497106164061 0.43918076026045538 0 -0.28416352071981987 0.44917717010322389 0 -0.28813359954779783 0.4589310391072835 0 -0.29297497106164061 0.43918076026045538 0 -0.28416352071981987 0.44917717010322389 0 -0.28813359954779783 0.4589310391072835 0 -0.29297497106164061 0.43918076026045538 0 -0.27134104319856189 0.43665102019146329 0 -0.28416352071981987 0.44917717010322389 0 -0.26771590574324722 0.45195170441935001 0 -0.28416352071981987 0.44917717010322389 0 -0.26771590574324722 0.45195170441935001 0 -0.2766768142058082 0.46420198288389558 0 -0.2766768142058082 0.46420198288389558 0 -0.2671528961386016 0.46555759053981999 0 -0.27437857100973351 0.475416736458181 0 -0.26771590574324722 0.45195170441935001 0 -0.2766768142058082 0.46420198288389558 0 -0.2671528961386016 0.46555759053981999 0 -0.26771590574324722 0.45195170441935001 0 -0.2671528961386016 0.46555759053981999 0 -0.24502346138557951 0.45900341231781822 0 -0.2671528961386016 0.46555759053981999 0 -0.26034436315537213 0.4762375013964314 0 -0.24502346138557951 0.45900341231781822 0 -0.26771590574324722 0.45195170441935001 0 -0.2569592489759962 0.43872134694419129 0 -0.24502346138557951 0.45900341231781822 0 -0.27134104319856189 0.43665102019146329 0 -0.26771590574324722 0.45195170441935001 0 -0.2569592489759962 0.43872134694419129 0 -0.25800633759813929 0.5 0 -0.26740663604594739 0.48624378741079483 0 -0.24884138707773029 0.48349773454732548 0 -0.26034436315537213 0.4762375013964314 0 -0.26740663604594739 0.48624378741079483 0 -0.24884138707773029 0.48349773454732548 0 -0.26034436315537213 0.4762375013964314 0 -0.24884138707773029 0.48349773454732548 0 -0.24502346138557951 0.45900341231781822 0 -0.26034436315537213 0.4762375013964314 0 -0.27437857100973351 0.475416736458181 0 -0.26740663604594739 0.48624378741079483 0 -0.2671528961386016 0.46555759053981999 0 -0.26034436315537213 0.4762375013964314 0 -0.27437857100973351 0.475416736458181 0 -0.2766768142058082 0.46420198288389558 0 -0.27437857100973351 0.475416736458181 0 -0.2874203275466144 0.47880075030027808 0 -0.27437857100973351 0.475416736458181 0 -0.27963354227640791 0.4853882665832146 0 -0.2874203275466144 0.47880075030027808 0 -0.27437857100973351 0.475416736458181 0 -0.27963354227640791 0.4853882665832146 0 -0.26740663604594739 0.48624378741079483 0 -0.25800633759813929 0.5 0 -0.26740663604594739 0.48624378741079483 0 -0.28163319400246661 0.5 0 -0.27963354227640791 0.4853882665832146 0 -0.26740663604594739 0.48624378741079483 0 -0.28163319400246661 0.5 0 -0.28163319400246661 0.5 0 -0.28876445196314082 0.4867903731984855 0 -0.29642539260374201 0.49230700772818758 0 -0.28163319400246661 0.5 0 -0.29642539260374201 0.49230700772818758 0 -0.30526005040679388 0.50000000000000644 0 -0.27963354227640791 0.4853882665832146 0 -0.28163319400246661 0.5 0 -0.28876445196314082 0.4867903731984855 0 -0.28876445196314082 0.4867903731984855 0 -0.29642539260374201 0.49230700772818758 0 -0.29725146563495608 0.48661716705021751 0 -0.28813359954779783 0.4589310391072835 0 -0.2874203275466144 0.47880075030027808 0 -0.29471453791860053 0.46939665363099059 0 -0.27963354227640791 0.4853882665832146 0 -0.28876445196314082 0.4867903731984855 0 -0.2874203275466144 0.47880075030027808 0 -0.28876445196314082 0.4867903731984855 0 -0.2874203275466144 0.47880075030027808 0 -0.29273584077517822 0.47918018314779331 0 -0.28876445196314082 0.4867903731984855 0 -0.29273584077517822 0.47918018314779331 0 -0.29725146563495608 0.48661716705021751 0 -0.29273584077517822 0.47918018314779331 0 -0.29471453791860053 0.46939665363099059 0 -0.29878948695329399 0.47342326524329242 0 -0.2874203275466144 0.47880075030027808 0 -0.29273584077517822 0.47918018314779331 0 -0.29471453791860053 0.46939665363099059 0 -0.29273584077517822 0.47918018314779331 0 -0.31108017719776232 0.48819110412640271 0 -0.30454513526728688 0.46537593593914628 0 -0.305105212538473 0.47670034614653828 0 -0.32212680554275391 0.46577776356432898 0 -0.29273584077517822 0.47918018314779331 0 -0.305105212538473 0.47670034614653828 0 -0.31108017719776232 0.48819110412640271 0 -0.30454513526728688 0.46537593593914628 0 -0.29471453791860053 0.46939665363099059 0 -0.29878948695329399 0.47342326524329242 0 -0.30454513526728688 0.46537593593914628 0 -0.29878948695329399 0.47342326524329242 0 -0.305105212538473 0.47670034614653828 0 -0.29273584077517822 0.47918018314779331 0 -0.29878948695329399 0.47342326524329242 0 -0.305105212538473 0.47670034614653828 0 -0.29273584077517822 0.47918018314779331 0 -0.29725146563495608 0.48661716705021751 0 -0.31108017719776232 0.48819110412640271 0 -0.29642539260374201 0.49230700772818758 0 -0.31108017719776232 0.48819110412640271 0 -0.30526005040679388 0.50000000000000644 0 -0.29642539260374201 0.49230700772818758 0 -0.29725146563495608 0.48661716705021751 0 -0.31108017719776232 0.48819110412640271 0 -0.31108017719776232 0.48819110412640271 0 -0.30526005040679388 0.50000000000000644 0 -0.31108017719776232 0.48819110412640271 0 -0.3351206009456561 0.50000000000000067 0 -0.33164833646059361 0.48174046282198257 0 -0.31108017719776232 0.48819110412640271 0 -0.30526005040679388 0.50000000000000644 0 -0.3351206009456561 0.50000000000000067 0 -0.31108017719776232 0.48819110412640271 0 -0.3351206009456561 0.50000000000000067 0 -0.3351206009456561 0.50000000000000067 0 -0.33164833646059361 0.48174046282198257 0 -0.34891227571351641 0.47872606670668238 0 -0.33164833646059361 0.48174046282198257 0 -0.34150169388295382 0.46176944009043741 0 -0.34891227571351641 0.47872606670668238 0 -0.33164833646059361 0.48174046282198257 0 -0.32212680554275391 0.46577776356432898 0 -0.34150169388295382 0.46176944009043741 0 -0.305105212538473 0.47670034614653828 0 -0.31108017719776232 0.48819110412640271 0 -0.32212680554275391 0.46577776356432898 0 -0.31108017719776232 0.48819110412640271 0 -0.33164833646059361 0.48174046282198257 0 -0.32212680554275391 0.46577776356432898 0 -0.31108017719776232 0.48819110412640271 0 -0.32212680554275391 0.46577776356432898 0 -0.32212680554275391 0.46577776356432898 0 -0.31680117933123292 0.45064420026363222 0 -0.33317343388774429 0.44336442300225481 0 -0.30454513526728688 0.46537593593914628 0 -0.32212680554275391 0.46577776356432898 0 -0.31680117933123292 0.45064420026363222 0 -0.32212680554275391 0.46577776356432898 0 -0.33317343388774429 0.44336442300225481 0 -0.31581321982707461 0.43662351433797453 0 -0.31680117933123292 0.45064420026363222 0 -0.33317343388774429 0.44336442300225481 0 -0.33317343388774429 0.44336442300225481 0 -0.34150169388295382 0.46176944009043741 0 -0.35372237265611622 0.44680938772364448 0 -0.32212680554275391 0.46577776356432898 0 -0.33317343388774429 0.44336442300225481 0 -0.34150169388295382 0.46176944009043741 0 -0.34150169388295382 0.46176944009043741 0 -0.36014267911323861 0.46210572814263717 0 -0.34891227571351641 0.47872606670668238 0 -0.34150169388295382 0.46176944009043741 0 -0.35372237265611622 0.44680938772364448 0 -0.36014267911323861 0.46210572814263717 0 -0.35244884430435058 0.43260229015870671 0 -0.33317343388774429 0.44336442300225481 0 -0.35372237265611622 0.44680938772364448 0 -0.3665098065971315 0.43020378331415138 0 -0.35372237265611622 0.44680938772364448 0 -0.37801150627797953 0.43762868522352921 0 -0.3665098065971315 0.43020378331415138 0 -0.3670224273324556 0.44768135518927238 0 -0.3665098065971315 0.43020378331415138 0 -0.35372237265611622 0.44680938772364448 0 -0.3670224273324556 0.44768135518927238 0 -0.37672577201781232 0.46165919154240009 0 -0.37801150627797953 0.43762868522352921 0 -0.3670224273324556 0.44768135518927238 0 -0.35372237265611622 0.44680938772364448 0 -0.3670224273324556 0.44768135518927238 0 -0.36014267911323861 0.46210572814263717 0 -0.37672577201781232 0.46165919154240009 0 -0.3670224273324556 0.44768135518927238 0 -0.36014267911323861 0.46210572814263717 0 -0.37672577201781232 0.46165919154240009 0 -0.36014267911323861 0.46210572814263717 0 -0.36895250336195812 0.48018069852897333 0 -0.38028628816494942 0.5 0 -0.36895250336195812 0.48018069852897333 0 -0.35770344455530267 0.5 0 -0.36895250336195812 0.48018069852897333 0 -0.35770344455530267 0.5 0 -0.34891227571351641 0.47872606670668238 0 -0.3351206009456561 0.50000000000000067 0 -0.35770344455530267 0.5 0 -0.34891227571351641 0.47872606670668238 0 -0.36014267911323861 0.46210572814263717 0 -0.36895250336195812 0.48018069852897333 0 -0.34891227571351641 0.47872606670668238 0 -0.14367823897321499 0.47650424227132437 0 -0.15258370833655141 0.4629887397467829 0 -0.16283502925658211 0.47883504704658358 0 -0.14367823897321499 0.47650424227132437 0 -0.15218743921689301 0.5 0 -0.16283502925658211 0.47883504704658358 0 -0.14367823897321499 0.47650424227132437 0 -0.15218743921689301 0.5 0 -0.13040624056921249 0.48649431507048269 0 -0.15218743921689301 0.5 0 -0.13040624056921249 0.48649431507048269 0 -0.12290484643059719 0.5 0 -0.14367823897321499 0.47650424227132437 0 -0.13970975914717021 0.45842441105845833 0 -0.1243472573128805 0.47228294070563881 0 -0.14367823897321499 0.47650424227132437 0 -0.13040624056921249 0.48649431507048269 0 -0.1243472573128805 0.47228294070563881 0 -0.13970975914717021 0.45842441105845833 0 -0.1243472573128805 0.47228294070563881 0 -0.13970975914717021 0.45842441105845833 0 -0.1309883998487279 0.45056556980610168 0 -0.1243472573128805 0.47228294070563881 0 -0.13970975914717021 0.45842441105845833 0 -0.1309883998487279 0.45056556980610168 0 -0.1464060991167295 0.45085738557633132 0 -0.1309883998487279 0.45056556980610168 0 -0.14813556475957829 0.43350236486043131 0 -0.1344079064153553 0.43015461968810442 0 -0.1309883998487279 0.45056556980610168 0 -0.14813556475957829 0.43350236486043131 0 -0.1309883998487279 0.45056556980610168 0 -0.1344079064153553 0.43015461968810442 0 -0.1241883904025063 0.43876471153149899 0 -0.1309883998487279 0.45056556980610168 0 -0.1215155981663168 0.44755177654886852 0 -0.1241883904025063 0.43876471153149899 0 -0.1309883998487279 0.45056556980610168 0 -0.1464060991167295 0.45085738557633132 0 -0.14813556475957829 0.43350236486043131 0 -0.1464060991167295 0.45085738557633132 0 -0.16061306349161991 0.4488058424098828 0 -0.14813556475957829 0.43350236486043131 0 -0.14367823897321499 0.47650424227132437 0 -0.13970975914717021 0.45842441105845833 0 -0.15258370833655141 0.4629887397467829 0 -0.13970975914717021 0.45842441105845833 0 -0.1464060991167295 0.45085738557633132 0 -0.15258370833655141 0.4629887397467829 0 -0.1464060991167295 0.45085738557633132 0 -0.15258370833655141 0.4629887397467829 0 -0.16061306349161991 0.4488058424098828 0 -0.15258370833655141 0.4629887397467829 0 -0.17781686124673879 0.46190871554290269 0 -0.16283502925658211 0.47883504704658358 0 -0.15258370833655141 0.4629887397467829 0 -0.16061306349161991 0.4488058424098828 0 -0.17781686124673879 0.46190871554290269 0 -0.16061306349161991 0.4488058424098828 0 -0.17467378570222741 0.44537957818808688 0 -0.17781686124673879 0.46190871554290269 0 -0.16061306349161991 0.4488058424098828 0 -0.1658824131824454 0.43393015979210531 0 -0.14813556475957829 0.43350236486043131 0 -0.16061306349161991 0.4488058424098828 0 -0.17467378570222741 0.44537957818808688 0 -0.1658824131824454 0.43393015979210531 0 -0.17467378570222741 0.44537957818808688 0 -0.17781686124673879 0.46190871554290269 0 -0.189291888028044 0.44312306488759901 0 -0.17781686124673879 0.46190871554290269 0 -0.16283502925658211 0.47883504704658358 0 -0.19133640587609521 0.48254259355922052 0 -0.15218743921689301 0.5 0 -0.16283502925658211 0.47883504704658358 0 -0.18147003200318881 0.5 0 -0.16283502925658211 0.47883504704658358 0 -0.18147003200318881 0.5 0 -0.19133640587609521 0.48254259355922052 0 -0.18147003200318881 0.5 0 -0.19133640587609521 0.48254259355922052 0 -0.21075262478948459 0.5 0 -0.17781686124673879 0.46190871554290269 0 -0.19133640587609521 0.48254259355922052 0 -0.20287105670753811 0.47065226071036947 0 -0.19133640587609521 0.48254259355922052 0 -0.20287105670753811 0.47065226071036947 0 -0.21131207961777329 0.4813156320482217 0 -0.20287105670753811 0.47065226071036947 0 -0.21131207961777329 0.4813156320482217 0 -0.2191006597789408 0.46167085097783273 0 -0.21131207961777329 0.4813156320482217 0 -0.21075262478948459 0.5 0 -0.22788804308753211 0.47950170615890908 0 -0.19133640587609521 0.48254259355922052 0 -0.21131207961777329 0.4813156320482217 0 -0.21075262478948459 0.5 0 -0.21075262478948459 0.5 0 -0.22788804308753211 0.47950170615890908 0 -0.23437948119381191 0.5 0 -0.21075262478948459 0.5 0 -0.22788804308753211 0.47950170615890908 0 -0.21131207961777329 0.4813156320482217 0 -0.22788804308753211 0.47950170615890908 0 -0.2191006597789408 0.46167085097783273 0 -0.22788804308753211 0.47950170615890908 0 -0.24502346138557951 0.45900341231781822 0 -0.22788804308753211 0.47950170615890908 0 -0.24884138707773029 0.48349773454732548 0 -0.24502346138557951 0.45900341231781822 0 -0.25800633759813929 0.5 0 -0.24884138707773029 0.48349773454732548 0 -0.23437948119381191 0.5 0 -0.22788804308753211 0.47950170615890908 0 -0.24884138707773029 0.48349773454732548 0 -0.23437948119381191 0.5 0 -0.2569592489759962 0.43872134694419129 0 -0.24502346138557951 0.45900341231781822 0 -0.23313413960374271 0.43904504670090749 0 -0.22788804308753211 0.47950170615890908 0 -0.24502346138557951 0.45900341231781822 0 -0.2191006597789408 0.46167085097783273 0 -0.24502346138557951 0.45900341231781822 0 -0.2191006597789408 0.46167085097783273 0 -0.23313413960374271 0.43904504670090749 0 -0.2191006597789408 0.46167085097783273 0 -0.23313413960374271 0.43904504670090749 0 -0.20750311120147791 0.44126073534834498 0 -0.2191006597789408 0.46167085097783273 0 -0.20750311120147791 0.44126073534834498 0 -0.19913426897889461 0.45559050301758142 0 -0.20287105670753811 0.47065226071036947 0 -0.2191006597789408 0.46167085097783273 0 -0.19913426897889461 0.45559050301758142 0 -0.17781686124673879 0.46190871554290269 0 -0.20287105670753811 0.47065226071036947 0 -0.19913426897889461 0.45559050301758142 0 -0.17781686124673879 0.46190871554290269 0 -0.19913426897889461 0.45559050301758142 0 -0.189291888028044 0.44312306488759901 0 -0.20750311120147791 0.44126073534834498 0 -0.19913426897889461 0.45559050301758142 0 -0.189291888028044 0.44312306488759901 0 -0.20750311120147791 0.44126073534834498 0 -0.189291888028044 0.44312306488759901 0 -0.19612553156276291 0.42854362276743352 0 -0.189291888028044 0.44312306488759901 0 -0.19612553156276291 0.42854362276743352 0 -0.1808289714756901 0.42376138535931152 0 -0.19612553156276291 0.42854362276743352 0 -0.19131967019754359 0.41397284193456912 0 -0.1808289714756901 0.42376138535931152 0 -0.19612553156276291 0.42854362276743352 0 -0.19131967019754359 0.41397284193456912 0 -0.21025127768028021 0.4205904850248563 0 -0.21025127768028021 0.4205904850248563 0 -0.23485729313458589 0.41587776217208339 0 -0.2090643975631222 0.39904239368436228 0 -0.19131967019754359 0.41397284193456912 0 -0.21025127768028021 0.4205904850248563 0 -0.2090643975631222 0.39904239368436228 0 -0.20750311120147791 0.44126073534834498 0 -0.19612553156276291 0.42854362276743352 0 -0.21025127768028021 0.4205904850248563 0 -0.23313413960374271 0.43904504670090749 0 -0.20750311120147791 0.44126073534834498 0 -0.21025127768028021 0.4205904850248563 0 -0.23313413960374271 0.43904504670090749 0 -0.21025127768028021 0.4205904850248563 0 -0.23485729313458589 0.41587776217208339 0 -0.25873736150193488 0.40700006509544262 0 -0.23485729313458589 0.41587776217208339 0 -0.24556990850205021 0.39657954597392908 0 -0.25004981755798378 0.42332194231691411 0 -0.25873736150193488 0.40700006509544262 0 -0.23485729313458589 0.41587776217208339 0 -0.25004981755798378 0.42332194231691411 0 -0.2569592489759962 0.43872134694419129 0 -0.23313413960374271 0.43904504670090749 0 -0.25004981755798378 0.42332194231691411 0 -0.23313413960374271 0.43904504670090749 0 -0.23485729313458589 0.41587776217208339 0 -0.25380087848459781 0.38063160829692472 0 -0.23070479020113879 0.38889775114942932 0 -0.22995184990296549 0.37133320688473392 0 -0.25380087848459781 0.38063160829692472 0 -0.22995184990296549 0.37133320688473392 0 -0.25380087848459781 0.38063160829692472 0 -0.24556990850205021 0.39657954597392908 0 -0.23070479020113879 0.38889775114942932 0 -0.23485729313458589 0.41587776217208339 0 -0.24556990850205021 0.39657954597392908 0 -0.23070479020113879 0.38889775114942932 0 -0.23485729313458589 0.41587776217208339 0 -0.23070479020113879 0.38889775114942932 0 -0.2090643975631222 0.39904239368436228 0 -0.23485729313458589 0.41587776217208339 0 -0.23070479020113879 0.38889775114942932 0 -0.23070479020113879 0.38889775114942932 0 -0.22655228726769169 0.36191774012677541 0 -0.23070479020113879 0.38889775114942932 0 -0.21205909639116349 0.37795795430473939 0 -0.22655228726769169 0.36191774012677541 0 -0.21205909639116349 0.37795795430473939 0 -0.2090643975631222 0.39904239368436228 0 -0.1963161059285079 0.38158800037194512 0 -0.23070479020113879 0.38889775114942932 0 -0.21205909639116349 0.37795795430473939 0 -0.2090643975631222 0.39904239368436228 0 -0.2090643975631222 0.39904239368436228 0 -0.1963161059285079 0.38158800037194512 0 -0.18636511323297861 0.39546000485669119 0 -0.19131967019754359 0.41397284193456912 0 -0.2090643975631222 0.39904239368436228 0 -0.18636511323297861 0.39546000485669119 0 -0.1963161059285079 0.38158800037194512 0 -0.17792190282453951 0.37990452673527292 0 -0.19490826227140129 0.36479778934928231 0 -0.1963161059285079 0.38158800037194512 0 -0.17792190282453951 0.37990452673527292 0 -0.18636511323297861 0.39546000485669119 0 -0.17792190282453951 0.37990452673527292 0 -0.1608320551619479 0.38379686412737452 0 -0.1661782171439741 0.3726025200677634 0 -0.17792190282453951 0.37990452673527292 0 -0.1608320551619479 0.38379686412737452 0 -0.16488596957553789 0.39758486130607379 0 -0.1608320551619479 0.38379686412737452 0 -0.15494604949072521 0.37545147114451571 0 -0.1661782171439741 0.3726025200677634 0 -0.1608320551619479 0.38379686412737452 0 -0.16488596957553789 0.39758486130607379 0 -0.14929335132984459 0.39123184809818401 0 -0.16488596957553789 0.39758486130607379 0 -0.18636511323297861 0.39546000485669119 0 -0.16528272967042801 0.41643915991475999 0 -0.18636511323297861 0.39546000485669119 0 -0.16528272967042801 0.41643915991475999 0 -0.17792190282453951 0.37990452673527292 0 -0.16488596957553789 0.39758486130607379 0 -0.18636511323297861 0.39546000485669119 0 -0.19131967019754359 0.41397284193456912 0 -0.1808289714756901 0.42376138535931152 0 -0.16528272967042801 0.41643915991475999 0 -0.19131967019754359 0.41397284193456912 0 -0.18636511323297861 0.39546000485669119 0 -0.16528272967042801 0.41643915991475999 0 -0.1808289714756901 0.42376138535931152 0 -0.16528272967042801 0.41643915991475999 0 -0.17467378570222741 0.44537957818808688 0 -0.189291888028044 0.44312306488759901 0 -0.1808289714756901 0.42376138535931152 0 -0.17467378570222741 0.44537957818808688 0 -0.1808289714756901 0.42376138535931152 0 -0.1658824131824454 0.43393015979210531 0 -0.1808289714756901 0.42376138535931152 0 -0.1658824131824454 0.43393015979210531 0 -0.16528272967042801 0.41643915991475999 0 -0.16528272967042801 0.41643915991475999 0 -0.14813556475957829 0.43350236486043131 0 -0.1658824131824454 0.43393015979210531 0 -0.16528272967042801 0.41643915991475999 0 -0.14813556475957829 0.43350236486043131 0 -0.16488596957553789 0.39758486130607379 0 -0.16528272967042801 0.41643915991475999 0 -0.14205241680653721 0.40549776391258818 0 -0.16528272967042801 0.41643915991475999 0 -0.1441725395297494 0.41997000804686269 0 -0.14205241680653721 0.40549776391258818 0 -0.16528272967042801 0.41643915991475999 0 -0.14205241680653721 0.40549776391258818 0 -0.16528272967042801 0.41643915991475999 0 -0.1441725395297494 0.41997000804686269 0 -0.14813556475957829 0.43350236486043131 0 -0.1441725395297494 0.41997000804686269 0 -0.14813556475957829 0.43350236486043131 0 -0.1344079064153553 0.43015461968810442 0 -0.1344079064153553 0.43015461968810442 0 -0.13098407999684841 0.4142561318584298 0 -0.1219826263572617 0.42544113180991988 0 -0.1344079064153553 0.43015461968810442 0 -0.1219826263572617 0.42544113180991988 0 -0.1241883904025063 0.43876471153149899 0 -0.1441725395297494 0.41997000804686269 0 -0.1344079064153553 0.43015461968810442 0 -0.13098407999684841 0.4142561318584298 0 -0.1441725395297494 0.41997000804686269 0 -0.13098407999684841 0.4142561318584298 0 -0.14205241680653721 0.40549776391258818 0 -0.13679524465885329 0.39258984570920391 0 -0.14205241680653721 0.40549776391258818 0 -0.118822103942645 0.39455636791041943 0 -0.13679524465885329 0.39258984570920391 0 -0.13069806257389191 0.38508591269685633 0 -0.118822103942645 0.39455636791041943 0 -0.14205241680653721 0.40549776391258818 0 -0.118822103942645 0.39455636791041943 0 -0.13098407999684841 0.4142561318584298 0 -0.14205241680653721 0.40549776391258818 0 -0.118822103942645 0.39455636791041943 0 -0.13069806257389191 0.38508591269685633 0 -0.13127260941300259 0.3746433260741861 0 -0.1205246004680459 0.38450984139923239 0 -0.13069806257389191 0.38508591269685633 0 -0.14257402120513729 0.37561545748329123 0 -0.13069806257389191 0.38508591269685633 0 -0.14257402120513729 0.37561545748329123 0 -0.13127260941300259 0.3746433260741861 0 -0.13069806257389191 0.38508591269685633 0 -0.14078325816156631 0.38293505761909358 0 -0.14257402120513729 0.37561545748329123 0 -0.13679524465885329 0.39258984570920391 0 -0.13069806257389191 0.38508591269685633 0 -0.14078325816156631 0.38293505761909358 0 -0.13679524465885329 0.39258984570920391 0 -0.14078325816156631 0.38293505761909358 0 -0.14929335132984459 0.39123184809818401 0 -0.14078325816156631 0.38293505761909358 0 -0.14887391641662731 0.38124402952331338 0 -0.14929335132984459 0.39123184809818401 0 -0.14078325816156631 0.38293505761909358 0 -0.14257402120513729 0.37561545748329123 0 -0.14887391641662731 0.38124402952331338 0 -0.14078325816156631 0.38293505761909358 0 -0.14257402120513729 0.37561545748329123 0 -0.1608320551619479 0.38379686412737452 0 -0.15494604949072521 0.37545147114451571 0 -0.14887391641662731 0.38124402952331338 0 -0.14257402120513729 0.37561545748329123 0 -0.15494604949072521 0.37545147114451571 0 -0.14887391641662731 0.38124402952331338 0 -0.1608320551619479 0.38379686412737452 0 -0.14887391641662731 0.38124402952331338 0 -0.14929335132984459 0.39123184809818401 0 -0.16488596957553789 0.39758486130607379 0 -0.14929335132984459 0.39123184809818401 0 -0.14205241680653721 0.40549776391258818 0 -0.13679524465885329 0.39258984570920391 0 -0.14929335132984459 0.39123184809818401 0 -0.14205241680653721 0.40549776391258818 0 -0.14537204291228131 0.36417876844666008 0 -0.15256259541108641 0.33478796253532961 0 -0.16348082019417701 0.34777703139765048 0 -0.14537204291228131 0.36417876844666008 0 -0.16348082019417701 0.34777703139765048 0 -0.15673753675370061 0.36432079539880502 0 -0.1410055389236719 0.36117741783832452 0 -0.13958554258740261 0.3448301523931655 0 -0.15256259541108641 0.33478796253532961 0 -0.14537204291228131 0.36417876844666008 0 -0.15256259541108641 0.33478796253532961 0 -0.14537204291228131 0.36417876844666008 0 -0.1410055389236719 0.36117741783832452 0 -0.15256259541108641 0.33478796253532961 0 -0.1410055389236719 0.36117741783832452 0 -0.15256259541108641 0.33478796253532961 0 -0.14537204291228131 0.36417876844666008 0 -0.15673753675370061 0.36432079539880502 0 -0.14257402120513729 0.37561545748329123 0 -0.15673753675370061 0.36432079539880502 0 -0.14257402120513729 0.37561545748329123 0 -0.15494604949072521 0.37545147114451571 0 -0.15673753675370061 0.36432079539880502 0 -0.14257402120513729 0.37561545748329123 0 -0.14537204291228131 0.36417876844666008 0 -0.14257402120513729 0.37561545748329123 0 -0.14537204291228131 0.36417876844666008 0 -0.15673753675370061 0.36432079539880502 0 -0.14537204291228131 0.36417876844666008 0 -0.13127260941300259 0.3746433260741861 0 -0.1171943199056569 0.3638266503448902 0 -0.14537204291228131 0.36417876844666008 0 -0.1171943199056569 0.3638266503448902 0 -0.14537204291228131 0.36417876844666008 0 -0.1410055389236719 0.36117741783832452 0 -0.1171943199056569 0.3638266503448902 0 -0.1410055389236719 0.36117741783832452 0 -0.12950843241589069 0.35583734230918612 0 -0.1171943199056569 0.3638266503448902 0 -0.14257402120513729 0.37561545748329123 0 -0.14537204291228131 0.36417876844666008 0 -0.13127260941300259 0.3746433260741861 0 -0.13544001290695051 0.35273598136354151 0 -0.13958554258740261 0.3448301523931655 0 -0.12317788072287331 0.34502536834736691 0 -0.1410055389236719 0.36117741783832452 0 -0.13544001290695051 0.35273598136354151 0 -0.13958554258740261 0.3448301523931655 0 -0.1410055389236719 0.36117741783832452 0 -0.12950843241589069 0.35583734230918612 0 -0.13544001290695051 0.35273598136354151 0 -0.12950843241589069 0.35583734230918612 0 -0.13544001290695051 0.35273598136354151 0 -0.12317788072287331 0.34502536834736691 0 -0.13958554258740261 0.3448301523931655 0 -0.13778411656299039 0.33419570611491589 0 -0.12317788072287331 0.34502536834736691 0 -0.13778411656299039 0.33419570611491589 0 -0.1291614415400914 0.32622408634984429 0 -0.12317788072287331 0.34502536834736691 0 -0.1291614415400914 0.32622408634984429 0 -0.12317788072287331 0.34502536834736691 0 -0.1291614415400914 0.32622408634984429 0 -0.1407527271454907 0.30914409934355541 0 -0.1291614415400914 0.32622408634984429 0 -0.1342709581019709 0.31016918782278619 0 -0.12355625625981111 0.3169603400801449 0 -0.1291614415400914 0.32622408634984429 0 -0.1407527271454907 0.30914409934355541 0 -0.1342709581019709 0.31016918782278619 0 -0.1291614415400914 0.32622408634984429 0 -0.14344603336977449 0.32344509445783731 0 -0.1407527271454907 0.30914409934355541 0 -0.1291614415400914 0.32622408634984429 0 -0.1342709581019709 0.31016918782278619 0 -0.13778411656299039 0.33419570611491589 0 -0.1291614415400914 0.32622408634984429 0 -0.14344603336977449 0.32344509445783731 0 -0.15256259541108641 0.33478796253532961 0 -0.15806037723821259 0.31231622080884119 0 -0.14344603336977449 0.32344509445783731 0 -0.15256259541108641 0.33478796253532961 0 -0.15806037723821259 0.31231622080884119 0 -0.14693437020000219 0.31389719961286239 0 -0.14344603336977449 0.32344509445783731 0 -0.1407527271454907 0.30914409934355541 0 -0.14693437020000219 0.31389719961286239 0 -0.14344603336977449 0.32344509445783731 0 -0.15806037723821259 0.31231622080884119 0 -0.13958554258740261 0.3448301523931655 0 -0.13778411656299039 0.33419570611491589 0 -0.15256259541108641 0.33478796253532961 0 -0.13778411656299039 0.33419570611491589 0 -0.14344603336977449 0.32344509445783731 0 -0.15256259541108641 0.33478796253532961 0 -0.1663713762410074 0.32931801842749298 0 -0.18148380629833449 0.33476056063008419 0 -0.16348082019417701 0.34777703139765048 0 -0.15256259541108641 0.33478796253532961 0 -0.1663713762410074 0.32931801842749298 0 -0.16348082019417701 0.34777703139765048 0 -0.15256259541108641 0.33478796253532961 0 -0.161048372693015 0.31541148544217879 0 -0.15256259541108641 0.33478796253532961 0 -0.161048372693015 0.31541148544217879 0 -0.15806037723821259 0.31231622080884119 0 -0.15256259541108641 0.33478796253532961 0 -0.1663713762410074 0.32931801842749298 0 -0.161048372693015 0.31541148544217879 0 -0.1663713762410074 0.32931801842749298 0 -0.161048372693015 0.31541148544217879 0 -0.1757058618268085 0.31642648538983997 0 -0.1757058618268085 0.31642648538983997 0 -0.18148380629833449 0.33476056063008419 0 -0.19131121813272839 0.31903128800167402 0 -0.1663713762410074 0.32931801842749298 0 -0.1757058618268085 0.31642648538983997 0 -0.18148380629833449 0.33476056063008419 0 -0.1757058618268085 0.31642648538983997 0 -0.19131121813272839 0.31903128800167402 0 -0.1849913674579855 0.30453868341725288 0 -0.18148380629833449 0.33476056063008419 0 -0.1772223988137718 0.34997390742283119 0 -0.19168488183034621 0.350416287515114 0 -0.18148380629833449 0.33476056063008419 0 -0.1772223988137718 0.34997390742283119 0 -0.16348082019417701 0.34777703139765048 0 -0.1772223988137718 0.34997390742283119 0 -0.17582289951255101 0.36455929237404378 0 -0.19168488183034621 0.350416287515114 0 -0.1772223988137718 0.34997390742283119 0 -0.16512110476622069 0.35763533885102361 0 -0.17582289951255101 0.36455929237404378 0 -0.16512110476622069 0.35763533885102361 0 -0.16348082019417701 0.34777703139765048 0 -0.15673753675370061 0.36432079539880502 0 -0.1772223988137718 0.34997390742283119 0 -0.16512110476622069 0.35763533885102361 0 -0.16348082019417701 0.34777703139765048 0 -0.16512110476622069 0.35763533885102361 0 -0.15673753675370061 0.36432079539880502 0 -0.17582289951255101 0.36455929237404378 0 -0.15673753675370061 0.36432079539880502 0 -0.17582289951255101 0.36455929237404378 0 -0.15673753675370061 0.36432079539880502 0 -0.1661782171439741 0.3726025200677634 0 -0.17582289951255101 0.36455929237404378 0 -0.15494604949072521 0.37545147114451571 0 -0.15673753675370061 0.36432079539880502 0 -0.1661782171439741 0.3726025200677634 0 -0.16512110476622069 0.35763533885102361 0 -0.15673753675370061 0.36432079539880502 0 -0.17582289951255101 0.36455929237404378 0 -0.19490826227140129 0.36479778934928231 0 -0.19168488183034621 0.350416287515114 0 -0.17792190282453951 0.37990452673527292 0 -0.1661782171439741 0.3726025200677634 0 -0.17582289951255101 0.36455929237404378 0 -0.17582289951255101 0.36455929237404378 0 -0.19490826227140129 0.36479778934928231 0 -0.17792190282453951 0.37990452673527292 0 -0.17582289951255101 0.36455929237404378 0 -0.19490826227140129 0.36479778934928231 0 -0.21205909639116349 0.37795795430473939 0 -0.1963161059285079 0.38158800037194512 0 -0.19490826227140129 0.36479778934928231 0 -0.19168488183034621 0.350416287515114 0 -0.20958009531857941 0.35072037402532991 0 -0.20232928751447399 0.33563802004795212 0 -0.19490826227140129 0.36479778934928231 0 -0.19168488183034621 0.350416287515114 0 -0.20958009531857941 0.35072037402532991 0 -0.20958009531857941 0.35072037402532991 0 -0.21077493531220901 0.36384846445153168 0 -0.22655228726769169 0.36191774012677541 0 -0.19490826227140129 0.36479778934928231 0 -0.20958009531857941 0.35072037402532991 0 -0.21077493531220901 0.36384846445153168 0 -0.21205909639116349 0.37795795430473939 0 -0.19490826227140129 0.36479778934928231 0 -0.21077493531220901 0.36384846445153168 0 -0.21205909639116349 0.37795795430473939 0 -0.21077493531220901 0.36384846445153168 0 -0.22655228726769169 0.36191774012677541 0 -0.23070479020113879 0.38889775114942932 0 -0.22995184990296549 0.37133320688473392 0 -0.22655228726769169 0.36191774012677541 0 -0.22995184990296549 0.37133320688473392 0 -0.22655228726769169 0.36191774012677541 0 -0.23904797934911051 0.36350225048793922 0 -0.22655228726769169 0.36191774012677541 0 -0.23582017634110139 0.34668175397701267 0 -0.2223997843342447 0.33493772910412151 0 -0.22655228726769169 0.36191774012677541 0 -0.23582017634110139 0.34668175397701267 0 -0.23904797934911051 0.36350225048793922 0 -0.20958009531857941 0.35072037402532991 0 -0.22655228726769169 0.36191774012677541 0 -0.2223997843342447 0.33493772910412151 0 -0.22655228726769169 0.36191774012677541 0 -0.2223997843342447 0.33493772910412151 0 -0.25157613730338768 0.3364320540217689 0 -0.249114704749196 0.3569469431542493 0 -0.23582017634110139 0.34668175397701267 0 -0.249114704749196 0.3569469431542493 0 -0.23582017634110139 0.34668175397701267 0 -0.23904797934911051 0.36350225048793922 0 -0.25380087848459781 0.38063160829692472 0 -0.249114704749196 0.3569469431542493 0 -0.23904797934911051 0.36350225048793922 0 -0.25380087848459781 0.38063160829692472 0 -0.22995184990296549 0.37133320688473392 0 -0.23904797934911051 0.36350225048793922 0 -0.25106380979670567 0.30125546960525051 0 -0.2574293782486276 0.32176370381274449 0 -0.24120355521739581 0.31483035875778959 0 -0.2574293782486276 0.32176370381274449 0 -0.24120355521739581 0.31483035875778959 0 -0.23736415846125031 0.32996511104101478 0 -0.24120355521739581 0.31483035875778959 0 -0.23736415846125031 0.32996511104101478 0 -0.230198923919955 0.31844453838426001 0 -0.24120355521739581 0.31483035875778959 0 -0.230198923919955 0.31844453838426001 0 -0.23177984018608661 0.30453177493690642 0 -0.25157613730338768 0.3364320540217689 0 -0.2574293782486276 0.32176370381274449 0 -0.23736415846125031 0.32996511104101478 0 -0.25157613730338768 0.3364320540217689 0 -0.23582017634110139 0.34668175397701267 0 -0.23736415846125031 0.32996511104101478 0 -0.23582017634110139 0.34668175397701267 0 -0.23736415846125031 0.32996511104101478 0 -0.2223997843342447 0.33493772910412151 0 -0.23736415846125031 0.32996511104101478 0 -0.2223997843342447 0.33493772910412151 0 -0.230198923919955 0.31844453838426001 0 -0.2223997843342447 0.33493772910412151 0 -0.2182472814007976 0.30795771808146771 0 -0.2223997843342447 0.33493772910412151 0 -0.230198923919955 0.31844453838426001 0 -0.2182472814007976 0.30795771808146771 0 -0.2223997843342447 0.33493772910412151 0 -0.20718588227434889 0.31962349218574698 0 -0.2182472814007976 0.30795771808146771 0 -0.20958009531857941 0.35072037402532991 0 -0.2223997843342447 0.33493772910412151 0 -0.20232928751447399 0.33563802004795212 0 -0.2223997843342447 0.33493772910412151 0 -0.20718588227434889 0.31962349218574698 0 -0.20232928751447399 0.33563802004795212 0 -0.18148380629833449 0.33476056063008419 0 -0.20232928751447399 0.33563802004795212 0 -0.19131121813272839 0.31903128800167402 0 -0.18148380629833449 0.33476056063008419 0 -0.19168488183034621 0.350416287515114 0 -0.20232928751447399 0.33563802004795212 0 -0.20718588227434889 0.31962349218574698 0 -0.20232928751447399 0.33563802004795212 0 -0.19131121813272839 0.31903128800167402 0 -0.20718588227434889 0.31962349218574698 0 -0.19131121813272839 0.31903128800167402 0 -0.19705388317610081 0.30835290169682761 0 -0.19131121813272839 0.31903128800167402 0 -0.19705388317610081 0.30835290169682761 0 -0.1849913674579855 0.30453868341725288 0 -0.19705388317610081 0.30835290169682761 0 -0.1928375881539964 0.29492741841960879 0 -0.20894335986144491 0.30364362645985521 0 -0.19705388317610081 0.30835290169682761 0 -0.1928375881539964 0.29492741841960879 0 -0.1849913674579855 0.30453868341725288 0 -0.18887913169546669 0.28375841140140451 0 -0.1928375881539964 0.29492741841960879 0 -0.19835773275794649 0.27697991937419658 0 -0.1928375881539964 0.29492741841960879 0 -0.20894335986144491 0.30364362645985521 0 -0.19835773275794649 0.27697991937419658 0 -0.18887913169546669 0.28375841140140451 0 -0.1928375881539964 0.29492741841960879 0 -0.18305981644880559 0.29240294515278342 0 -0.2182472814007976 0.30795771808146771 0 -0.2140947784673505 0.2809777070588137 0 -0.20894335986144491 0.30364362645985521 0 -0.2140947784673505 0.2809777070588137 0 -0.19835773275794649 0.27697991937419658 0 -0.20894335986144491 0.30364362645985521 0 -0.19835773275794649 0.27697991937419658 0 -0.20718588227434889 0.31962349218574698 0 -0.19705388317610081 0.30835290169682761 0 -0.20894335986144491 0.30364362645985521 0 -0.20894335986144491 0.30364362645985521 0 -0.2182472814007976 0.30795771808146771 0 -0.2140947784673505 0.2809777070588137 0 -0.20718588227434889 0.31962349218574698 0 -0.20894335986144491 0.30364362645985521 0 -0.2182472814007976 0.30795771808146771 0 -0.230198923919955 0.31844453838426001 0 -0.2182472814007976 0.30795771808146771 0 -0.23177984018608661 0.30453177493690642 0 -0.2182472814007976 0.30795771808146771 0 -0.23177984018608661 0.30453177493690642 0 -0.2269571986624758 0.29244977266371242 0 -0.2182472814007976 0.30795771808146771 0 -0.2269571986624758 0.29244977266371242 0 -0.2140947784673505 0.2809777070588137 0 -0.2269571986624758 0.29244977266371242 0 -0.23192906085716061 0.27778678418325348 0 -0.2140947784673505 0.2809777070588137 0 -0.2269571986624758 0.29244977266371242 0 -0.23873503240098351 0.2909948790581206 0 -0.23192906085716061 0.27778678418325348 0 -0.23177984018608661 0.30453177493690642 0 -0.2269571986624758 0.29244977266371242 0 -0.23873503240098351 0.2909948790581206 0 -0.23873503240098351 0.2909948790581206 0 -0.24960952125621569 0.27943640906458961 0 -0.23192906085716061 0.27778678418325348 0 -0.25106380979670567 0.30125546960525051 0 -0.23873503240098351 0.2909948790581206 0 -0.24960952125621569 0.27943640906458961 0 -0.25106380979670567 0.30125546960525051 0 -0.24120355521739581 0.31483035875778959 0 -0.23177984018608661 0.30453177493690642 0 -0.25106380979670567 0.30125546960525051 0 -0.23177984018608661 0.30453177493690642 0 -0.23873503240098351 0.2909948790581206 0 -0.2531312179692447 0.24693268900981011 0 -0.24190654726470731 0.26223585525212378 0 -0.23118763321222849 0.24810935190821529 0 -0.24190654726470731 0.26223585525212378 0 -0.24960952125621569 0.27943640906458961 0 -0.23192906085716061 0.27778678418325348 0 -0.24190654726470731 0.26223585525212378 0 -0.23192906085716061 0.27778678418325348 0 -0.22581205906707 0.2646214788877132 0 -0.23192906085716061 0.27778678418325348 0 -0.22581205906707 0.2646214788877132 0 -0.2140947784673505 0.2809777070588137 0 -0.24190654726470731 0.26223585525212378 0 -0.22581205906707 0.2646214788877132 0 -0.23118763321222849 0.24810935190821529 0 -0.22581205906707 0.2646214788877132 0 -0.20994227553390341 0.25399769603615968 0 -0.23118763321222849 0.24810935190821529 0 -0.22581205906707 0.2646214788877132 0 -0.20994227553390341 0.25399769603615968 0 -0.2140947784673505 0.2809777070588137 0 -0.20994227553390341 0.25399769603615968 0 -0.2140947784673505 0.2809777070588137 0 -0.20994227553390341 0.25399769603615968 0 -0.2140947784673505 0.2809777070588137 0 -0.19835773275794649 0.27697991937419658 0 -0.19835773275794649 0.27697991937419658 0 -0.18825019662349909 0.2738775722891254 0 -0.1877721056544481 0.25031621228853818 0 -0.18887913169546669 0.28375841140140451 0 -0.19835773275794649 0.27697991937419658 0 -0.18825019662349909 0.2738775722891254 0 -0.19835773275794649 0.27697991937419658 0 -0.1877721056544481 0.25031621228853818 0 -0.20994227553390341 0.25399769603615968 0 -0.19835773275794649 0.27697991937419658 0 -0.1877721056544481 0.25031621228853818 0 -0.1877721056544481 0.25031621228853818 0 -0.16905594089246581 0.26737273735586459 0 -0.18124760175955129 0.26928843904305372 0 -0.1877721056544481 0.25031621228853818 0 -0.16905594089246581 0.26737273735586459 0 -0.17614683834927691 0.23838926342601621 0 -0.16905594089246581 0.26737273735586459 0 -0.17614683834927691 0.23838926342601621 0 -0.18825019662349909 0.2738775722891254 0 -0.1877721056544481 0.25031621228853818 0 -0.18124760175955129 0.26928843904305372 0 -0.16905594089246581 0.26737273735586459 0 -0.1640617627792666 0.24981997117292951 0 -0.14848436726826189 0.24606264326291691 0 -0.16905594089246581 0.26737273735586459 0 -0.1640617627792666 0.24981997117292951 0 -0.17614683834927691 0.23838926342601621 0 -0.16905594089246581 0.26737273735586459 0 -0.15437227985194579 0.25891579609779358 0 -0.14848436726826189 0.24606264326291691 0 -0.16905594089246581 0.26737273735586459 0 -0.14848436726826189 0.24606264326291691 0 -0.15829975633299229 0.26567097790808858 0 -0.16905594089246581 0.26737273735586459 0 -0.15437227985194579 0.25891579609779358 0 -0.1579838256580732 0.27584161727201062 0 -0.16905594089246581 0.26737273735586459 0 -0.1635581590653386 0.28984447908235278 0 -0.16905594089246581 0.26737273735586459 0 -0.17801992725687241 0.27665853125587708 0 -0.1635581590653386 0.28984447908235278 0 -0.16905594089246581 0.26737273735586459 0 -0.1635581590653386 0.28984447908235278 0 -0.1579838256580732 0.27584161727201062 0 -0.15829975633299229 0.26567097790808858 0 -0.16905594089246581 0.26737273735586459 0 -0.17801992725687241 0.27665853125587708 0 -0.1810395725986724 0.27978658200865908 0 -0.16905594089246581 0.26737273735586459 0 -0.17801992725687241 0.27665853125587708 0 -0.18124760175955129 0.26928843904305372 0 -0.16905594089246581 0.26737273735586459 0 -0.17801992725687241 0.27665853125587708 0 -0.17801992725687241 0.27665853125587708 0 -0.18124760175955129 0.26928843904305372 0 -0.18825019662349909 0.2738775722891254 0 -0.18124760175955129 0.26928843904305372 0 -0.18287877222869409 0.27469782001096599 0 -0.18887913169546669 0.28375841140140451 0 -0.18825019662349909 0.2738775722891254 0 -0.1810395725986724 0.27978658200865908 0 -0.17801992725687241 0.27665853125587708 0 -0.18124760175955129 0.26928843904305372 0 -0.18287877222869409 0.27469782001096599 0 -0.17801992725687241 0.27665853125587708 0 -0.1810395725986724 0.27978658200865908 0 -0.18287877222869409 0.27469782001096599 0 -0.18825019662349909 0.2738775722891254 0 -0.1810395725986724 0.27978658200865908 0 -0.18287877222869409 0.27469782001096599 0 -0.17801992725687241 0.27665853125587708 0 -0.1810395725986724 0.27978658200865908 0 -0.16953414997494379 0.29603500834902802 0 -0.1810395725986724 0.27978658200865908 0 -0.18305981644880559 0.29240294515278342 0 -0.16953414997494379 0.29603500834902802 0 -0.17801992725687241 0.27665853125587708 0 -0.16953414997494379 0.29603500834902802 0 -0.18887913169546669 0.28375841140140451 0 -0.1810395725986724 0.27978658200865908 0 -0.18305981644880559 0.29240294515278342 0 -0.1757058618268085 0.31642648538983997 0 -0.1849913674579855 0.30453868341725288 0 -0.16953414997494379 0.29603500834902802 0 -0.1928375881539964 0.29492741841960879 0 -0.18305981644880559 0.29240294515278342 0 -0.1849913674579855 0.30453868341725288 0 -0.18305981644880559 0.29240294515278342 0 -0.1849913674579855 0.30453868341725288 0 -0.16953414997494379 0.29603500834902802 0 -0.15806037723821259 0.31231622080884119 0 -0.16953414997494379 0.29603500834902802 0 -0.1635581590653386 0.28984447908235278 0 -0.161048372693015 0.31541148544217879 0 -0.15806037723821259 0.31231622080884119 0 -0.16953414997494379 0.29603500834902802 0 -0.15806037723821259 0.31231622080884119 0 -0.1635581590653386 0.28984447908235278 0 -0.161048372693015 0.31541148544217879 0 -0.16953414997494379 0.29603500834902802 0 -0.161048372693015 0.31541148544217879 0 -0.1757058618268085 0.31642648538983997 0 -0.16953414997494379 0.29603500834902802 0 -0.15806037723821259 0.31231622080884119 0 -0.1635581590653386 0.28984447908235278 0 -0.14918512919115909 0.29707547504612658 0 -0.17801992725687241 0.27665853125587708 0 -0.16953414997494379 0.29603500834902802 0 -0.1635581590653386 0.28984447908235278 0 -0.1579838256580732 0.27584161727201062 0 -0.1635581590653386 0.28984447908235278 0 -0.14810108559139271 0.28249972723862932 0 -0.1635581590653386 0.28984447908235278 0 -0.14810108559139271 0.28249972723862932 0 -0.14918512919115909 0.29707547504612658 0 -0.14810108559139271 0.28249972723862932 0 -0.14918512919115909 0.29707547504612658 0 -0.14052456901460089 0.28844769651877428 0 -0.14918512919115909 0.29707547504612658 0 -0.14052456901460089 0.28844769651877428 0 -0.14041691136613349 0.2965737093711544 0 -0.14810108559139271 0.28249972723862932 0 -0.13903161377875259 0.28146188356033619 0 -0.14052456901460089 0.28844769651877428 0 -0.14693437020000219 0.31389719961286239 0 -0.15806037723821259 0.31231622080884119 0 -0.14793487929612009 0.30784182648963698 0 -0.15806037723821259 0.31231622080884119 0 -0.14918512919115909 0.29707547504612658 0 -0.14793487929612009 0.30784182648963698 0 -0.14918512919115909 0.29707547504612658 0 -0.14267554653478279 0.30281494544505633 0 -0.14041691136613349 0.2965737093711544 0 -0.14918512919115909 0.29707547504612658 0 -0.14267554653478279 0.30281494544505633 0 -0.14793487929612009 0.30784182648963698 0 -0.14267554653478279 0.30281494544505633 0 -0.14793487929612009 0.30784182648963698 0 -0.1407527271454907 0.30914409934355541 0 -0.14693437020000219 0.31389719961286239 0 -0.14793487929612009 0.30784182648963698 0 -0.1407527271454907 0.30914409934355541 0 -0.14267554653478279 0.30281494544505633 0 -0.1407527271454907 0.30914409934355541 0 -0.13713564105746631 0.30533370295836793 0 -0.1407527271454907 0.30914409934355541 0 -0.1342709581019709 0.31016918782278619 0 -0.13713564105746631 0.30533370295836793 0 -0.1342709581019709 0.31016918782278619 0 -0.13713564105746631 0.30533370295836793 0 -0.1315154784414336 0.30435090092822181 0 -0.13713564105746631 0.30533370295836793 0 -0.13646349506365379 0.30018938125221989 0 -0.1315154784414336 0.30435090092822181 0 -0.13646349506365379 0.30018938125221989 0 -0.13124568262362349 0.29810879325877482 0 -0.1315154784414336 0.30435090092822181 0 -0.14267554653478279 0.30281494544505633 0 -0.13713564105746631 0.30533370295836793 0 -0.13646349506365379 0.30018938125221989 0 -0.14267554653478279 0.30281494544505633 0 -0.13646349506365379 0.30018938125221989 0 -0.14041691136613349 0.2965737093711544 0 -0.13646349506365379 0.30018938125221989 0 -0.13124568262362349 0.29810879325877482 0 -0.13488163523065441 0.29302549690277341 0 -0.12583919224047299 0.29980414183655729 0 -0.1315154784414336 0.30435090092822181 0 -0.12547836412756011 0.30799183565117327 0 -0.13124568262362349 0.29810879325877482 0 -0.12583919224047299 0.29980414183655729 0 -0.1315154784414336 0.30435090092822181 0 -0.13124568262362349 0.29810879325877482 0 -0.12583919224047299 0.29980414183655729 0 -0.1269951488390868 0.29342772977261378 0 -0.1342709581019709 0.31016918782278619 0 -0.1315154784414336 0.30435090092822181 0 -0.12547836412756011 0.30799183565117327 0 -0.1342709581019709 0.31016918782278619 0 -0.12547836412756011 0.30799183565117327 0 -0.12355625625981111 0.3169603400801449 0 -0.14052456901460089 0.28844769651877428 0 -0.13488163523065441 0.29302549690277341 0 -0.13276030686740831 0.28467710004434288 0 -0.13903161377875259 0.28146188356033619 0 -0.14052456901460089 0.28844769651877428 0 -0.13276030686740831 0.28467710004434288 0 -0.14052456901460089 0.28844769651877428 0 -0.14041691136613349 0.2965737093711544 0 -0.13488163523065441 0.29302549690277341 0 -0.13646349506365379 0.30018938125221989 0 -0.14041691136613349 0.2965737093711544 0 -0.13488163523065441 0.29302549690277341 0 -0.13124568262362349 0.29810879325877482 0 -0.13488163523065441 0.29302549690277341 0 -0.1269951488390868 0.29342772977261378 0 -0.13488163523065441 0.29302549690277341 0 -0.13001739274239091 0.28938599029168249 0 -0.1269951488390868 0.29342772977261378 0 -0.13001739274239091 0.28938599029168249 0 -0.1269951488390868 0.29342772977261378 0 -0.12425235082338699 0.28602262896769293 0 -0.13001739274239091 0.28938599029168249 0 -0.13276030686740831 0.28467710004434288 0 -0.12425235082338699 0.28602262896769293 0 -0.13276030686740831 0.28467710004434288 0 -0.12779022017604499 0.28068006949833407 0 -0.12425235082338699 0.28602262896769293 0 -0.13488163523065441 0.29302549690277341 0 -0.13001739274239091 0.28938599029168249 0 -0.13276030686740831 0.28467710004434288 0 -0.13276030686740831 0.28467710004434288 0 -0.13221123025231349 0.27664448341830888 0 -0.12779022017604499 0.28068006949833407 0 -0.13221123025231349 0.27664448341830888 0 -0.12779022017604499 0.28068006949833407 0 -0.1220198225635593 0.27535550513988849 0 -0.13221123025231349 0.27664448341830888 0 -0.132420867840333 0.26964388443329251 0 -0.1220198225635593 0.27535550513988849 0 -0.13903161377875259 0.28146188356033619 0 -0.13221123025231349 0.27664448341830888 0 -0.14156087716804749 0.2750404105816257 0 -0.13221123025231349 0.27664448341830888 0 -0.132420867840333 0.26964388443329251 0 -0.14156087716804749 0.2750404105816257 0 -0.13903161377875259 0.28146188356033619 0 -0.13276030686740831 0.28467710004434288 0 -0.13221123025231349 0.27664448341830888 0 -0.1386321194639534 0.26670597400464591 0 -0.132420867840333 0.26964388443329251 0 -0.14156087716804749 0.2750404105816257 0 -0.1386321194639534 0.26670597400464591 0 -0.132420867840333 0.26964388443329251 0 -0.13164413697294061 0.26260827650644358 0 -0.132420867840333 0.26964388443329251 0 -0.1253042452672197 0.26668835557723941 0 -0.1220198225635593 0.27535550513988849 0 -0.132420867840333 0.26964388443329251 0 -0.1253042452672197 0.26668835557723941 0 -0.13164413697294061 0.26260827650644358 0 -0.1253042452672197 0.26668835557723941 0 -0.13164413697294061 0.26260827650644358 0 -0.12336751314444221 0.25825090494839492 0 -0.13164413697294061 0.26260827650644358 0 -0.13218935898252701 0.25468258074821709 0 -0.12336751314444221 0.25825090494839492 0 -0.13218935898252701 0.25468258074821709 0 -0.12336751314444221 0.25825090494839492 0 -0.1238558918948755 0.24585549267607229 0 -0.13218935898252701 0.25468258074821709 0 -0.13785633189360039 0.25378023758779628 0 -0.13574780703940201 0.2457674948930661 0 -0.13785633189360039 0.25378023758779628 0 -0.1425475155209586 0.25127379529260208 0 -0.13574780703940201 0.2457674948930661 0 -0.13218935898252701 0.25468258074821709 0 -0.13785633189360039 0.25378023758779628 0 -0.13795071713916851 0.25967795932687232 0 -0.13785633189360039 0.25378023758779628 0 -0.13795071713916851 0.25967795932687232 0 -0.14323377809304649 0.25660507356473072 0 -0.13164413697294061 0.26260827650644358 0 -0.13218935898252701 0.25468258074821709 0 -0.13795071713916851 0.25967795932687232 0 -0.1386321194639534 0.26670597400464591 0 -0.13164413697294061 0.26260827650644358 0 -0.13795071713916851 0.25967795932687232 0 -0.1386321194639534 0.26670597400464591 0 -0.13795071713916851 0.25967795932687232 0 -0.14355512993667399 0.26302978165050422 0 -0.13795071713916851 0.25967795932687232 0 -0.14355512993667399 0.26302978165050422 0 -0.14323377809304649 0.25660507356473072 0 -0.14355512993667399 0.26302978165050422 0 -0.14323377809304649 0.25660507356473072 0 -0.14859168024816299 0.26012002145200869 0 -0.14355512993667399 0.26302978165050422 0 -0.14859168024816299 0.26012002145200869 0 -0.14925312511148181 0.2659048980834664 0 -0.1425475155209586 0.25127379529260208 0 -0.1475833336614886 0.25409058486047659 0 -0.14848436726826189 0.24606264326291691 0 -0.13785633189360039 0.25378023758779628 0 -0.1425475155209586 0.25127379529260208 0 -0.14323377809304649 0.25660507356473072 0 -0.1425475155209586 0.25127379529260208 0 -0.14323377809304649 0.25660507356473072 0 -0.1475833336614886 0.25409058486047659 0 -0.14323377809304649 0.25660507356473072 0 -0.1475833336614886 0.25409058486047659 0 -0.14859168024816299 0.26012002145200869 0 -0.1475833336614886 0.25409058486047659 0 -0.15437227985194579 0.25891579609779358 0 -0.14848436726826189 0.24606264326291691 0 -0.1475833336614886 0.25409058486047659 0 -0.14859168024816299 0.26012002145200869 0 -0.15437227985194579 0.25891579609779358 0 -0.15829975633299229 0.26567097790808858 0 -0.152892988799916 0.26251608654812258 0 -0.14925312511148181 0.2659048980834664 0 -0.14859168024816299 0.26012002145200869 0 -0.152892988799916 0.26251608654812258 0 -0.14925312511148181 0.2659048980834664 0 -0.14859168024816299 0.26012002145200869 0 -0.15437227985194579 0.25891579609779358 0 -0.152892988799916 0.26251608654812258 0 -0.15829975633299229 0.26567097790808858 0 -0.15437227985194579 0.25891579609779358 0 -0.152892988799916 0.26251608654812258 0 -0.15829975633299229 0.26567097790808858 0 -0.14925312511148181 0.2659048980834664 0 -0.14992221336027339 0.27379210197692999 0 -0.1579838256580732 0.27584161727201062 0 -0.15829975633299229 0.26567097790808858 0 -0.14992221336027339 0.27379210197692999 0 -0.1579838256580732 0.27584161727201062 0 -0.14810108559139271 0.28249972723862932 0 -0.14992221336027339 0.27379210197692999 0 -0.14810108559139271 0.28249972723862932 0 -0.13903161377875259 0.28146188356033619 0 -0.14156087716804749 0.2750404105816257 0 -0.14810108559139271 0.28249972723862932 0 -0.14992221336027339 0.27379210197692999 0 -0.14156087716804749 0.2750404105816257 0 -0.14925312511148181 0.2659048980834664 0 -0.14992221336027339 0.27379210197692999 0 -0.14441338452102909 0.26900342432385949 0 -0.1386321194639534 0.26670597400464591 0 -0.14156087716804749 0.2750404105816257 0 -0.14441338452102909 0.26900342432385949 0 -0.14992221336027339 0.27379210197692999 0 -0.14156087716804749 0.2750404105816257 0 -0.14441338452102909 0.26900342432385949 0 -0.1386321194639534 0.26670597400464591 0 -0.14355512993667399 0.26302978165050422 0 -0.14441338452102909 0.26900342432385949 0 -0.14355512993667399 0.26302978165050422 0 -0.14925312511148181 0.2659048980834664 0 -0.14441338452102909 0.26900342432385949 0 -0.10716394924904819 0.27037474842915882 0 -0.098817059091883361 0.28416065039349242 0 -0.091066688689262293 0.27147469666935631 0 -0.10716394924904819 0.27037474842915882 0 -0.113204298239145 0.28471341185216709 0 -0.098817059091883361 0.28416065039349242 0 -0.10716394924904819 0.27037474842915882 0 -0.094419367083935696 0.2541287094804705 0 -0.11332233907812909 0.25480978493684808 0 -0.10716394924904819 0.27037474842915882 0 -0.094419367083935696 0.2541287094804705 0 -0.091066688689262293 0.27147469666935631 0 -0.10716394924904819 0.27037474842915882 0 -0.11332233907812909 0.25480978493684808 0 -0.1180650216329872 0.26569872394263788 0 -0.11332233907812909 0.25480978493684808 0 -0.12336751314444221 0.25825090494839492 0 -0.1238558918948755 0.24585549267607229 0 -0.11332233907812909 0.25480978493684808 0 -0.12336751314444221 0.25825090494839492 0 -0.1180650216329872 0.26569872394263788 0 -0.1253042452672197 0.26668835557723941 0 -0.12336751314444221 0.25825090494839492 0 -0.1180650216329872 0.26569872394263788 0 -0.1253042452672197 0.26668835557723941 0 -0.1180650216329872 0.26569872394263788 0 -0.1220198225635593 0.27535550513988849 0 -0.10716394924904819 0.27037474842915882 0 -0.1180650216329872 0.26569872394263788 0 -0.1220198225635593 0.27535550513988849 0 -0.10716394924904819 0.27037474842915882 0 -0.1220198225635593 0.27535550513988849 0 -0.113204298239145 0.28471341185216709 0 -0.12779022017604499 0.28068006949833407 0 -0.1220198225635593 0.27535550513988849 0 -0.12425235082338699 0.28602262896769293 0 -0.1220198225635593 0.27535550513988849 0 -0.12425235082338699 0.28602262896769293 0 -0.113204298239145 0.28471341185216709 0 -0.12425235082338699 0.28602262896769293 0 -0.1205333948038937 0.29247326646001648 0 -0.113204298239145 0.28471341185216709 0 -0.1205333948038937 0.29247326646001648 0 -0.1138018966502696 0.29465765332604832 0 -0.11860744316831549 0.3013681359703525 0 -0.1269951488390868 0.29342772977261378 0 -0.12425235082338699 0.28602262896769293 0 -0.1205333948038937 0.29247326646001648 0 -0.12583919224047299 0.29980414183655729 0 -0.1269951488390868 0.29342772977261378 0 -0.1205333948038937 0.29247326646001648 0 -0.1138018966502696 0.29465765332604832 0 -0.113204298239145 0.28471341185216709 0 -0.1038155686354082 0.29480423810837481 0 -0.1205333948038937 0.29247326646001648 0 -0.1138018966502696 0.29465765332604832 0 -0.113204298239145 0.28471341185216709 0 -0.12547836412756011 0.30799183565117327 0 -0.1183311714902613 0.30974970176368699 0 -0.12355625625981111 0.3169603400801449 0 -0.12547836412756011 0.30799183565117327 0 -0.1183311714902613 0.30974970176368699 0 -0.11860744316831549 0.3013681359703525 0 -0.12583919224047299 0.29980414183655729 0 -0.1205333948038937 0.29247326646001648 0 -0.11860744316831549 0.3013681359703525 0 -0.12583919224047299 0.29980414183655729 0 -0.12547836412756011 0.30799183565117327 0 -0.11860744316831549 0.3013681359703525 0 -0.1138018966502696 0.29465765332604832 0 -0.11860744316831549 0.3013681359703525 0 -0.10824877250803 0.30400512120617917 0 -0.1183311714902613 0.30974970176368699 0 -0.11860744316831549 0.3013681359703525 0 -0.10824877250803 0.30400512120617917 0 -0.1183311714902613 0.30974970176368699 0 -0.10824877250803 0.30400512120617917 0 -0.1108931470430706 0.31281979500966178 0 -0.10824877250803 0.30400512120617917 0 -0.096668035530094398 0.30472069478242048 0 -0.1029386232365047 0.31444739547408562 0 -0.10824877250803 0.30400512120617917 0 -0.1029386232365047 0.31444739547408562 0 -0.1108931470430706 0.31281979500966178 0 -0.1138018966502696 0.29465765332604832 0 -0.10824877250803 0.30400512120617917 0 -0.1038155686354082 0.29480423810837481 0 -0.10824877250803 0.30400512120617917 0 -0.096668035530094398 0.30472069478242048 0 -0.1038155686354082 0.29480423810837481 0 -0.096668035530094398 0.30472069478242048 0 -0.1038155686354082 0.29480423810837481 0 -0.090211371145505467 0.29668850382203432 0 -0.096668035530094398 0.30472069478242048 0 -0.094809734038222737 0.3131835930475928 0 -0.1029386232365047 0.31444739547408562 0 -0.113204298239145 0.28471341185216709 0 -0.1038155686354082 0.29480423810837481 0 -0.098817059091883361 0.28416065039349242 0 -0.1038155686354082 0.29480423810837481 0 -0.098817059091883361 0.28416065039349242 0 -0.090211371145505467 0.29668850382203432 0 -0.098817059091883361 0.28416065039349242 0 -0.090211371145505467 0.29668850382203432 0 -0.080353872350309094 0.28604508022736258 0 -0.090211371145505467 0.29668850382203432 0 -0.080353872350309094 0.28604508022736258 0 -0.07794177399220617 0.30235150546648559 0 -0.096668035530094398 0.30472069478242048 0 -0.085891585627181369 0.31223470127304659 0 -0.094809734038222737 0.3131835930475928 0 -0.096668035530094398 0.30472069478242048 0 -0.090211371145505467 0.29668850382203432 0 -0.085891585627181369 0.31223470127304659 0 -0.090211371145505467 0.29668850382203432 0 -0.085891585627181369 0.31223470127304659 0 -0.07794177399220617 0.30235150546648559 0 -0.085891585627181369 0.31223470127304659 0 -0.07794177399220617 0.30235150546648559 0 -0.067972896282845849 0.31081295939180809 0 -0.07794177399220617 0.30235150546648559 0 -0.066128695557605588 0.29853705798344071 0 -0.067972896282845849 0.31081295939180809 0 -0.066128695557605588 0.29853705798344071 0 -0.067972896282845849 0.31081295939180809 0 -0.05386991897658374 0.29838181044739681 0 -0.080353872350309094 0.28604508022736258 0 -0.07794177399220617 0.30235150546648559 0 -0.066128695557605588 0.29853705798344071 0 -0.080353872350309094 0.28604508022736258 0 -0.066128695557605588 0.29853705798344071 0 -0.065028856886007846 0.28442668971961549 0 -0.080353872350309094 0.28604508022736258 0 -0.065028856886007846 0.28442668971961549 0 -0.073282661089692933 0.26467645753711389 0 -0.065028856886007846 0.28442668971961549 0 -0.073282661089692933 0.26467645753711389 0 -0.053145207950017953 0.26531266504736661 0 -0.080353872350309094 0.28604508022736258 0 -0.091066688689262293 0.27147469666935631 0 -0.073282661089692933 0.26467645753711389 0 -0.098817059091883361 0.28416065039349242 0 -0.080353872350309094 0.28604508022736258 0 -0.091066688689262293 0.27147469666935631 0 -0.094419367083935696 0.2541287094804705 0 -0.091066688689262293 0.27147469666935631 0 -0.073282661089692933 0.26467645753711389 0 -0.094419367083935696 0.2541287094804705 0 -0.073282661089692933 0.26467645753711389 0 -0.073834855934457877 0.24141335820277049 0 -0.073282661089692933 0.26467645753711389 0 -0.073834855934457877 0.24141335820277049 0 -0.060366595154730002 0.24980608077318411 0 -0.073282661089692933 0.26467645753711389 0 -0.053145207950017953 0.26531266504736661 0 -0.060366595154730002 0.24980608077318411 0 -0.053145207950017953 0.26531266504736661 0 -0.042397229216644967 0.24303424827545961 0 -0.060366595154730002 0.24980608077318411 0 -0.053145207950017953 0.26531266504736661 0 -0.035765825532670298 0.28688901229735669 0 -0.051952452336319961 0.2837525443779339 0 -0.065028856886007846 0.28442668971961549 0 -0.053145207950017953 0.26531266504736661 0 -0.051952452336319961 0.2837525443779339 0 -0.053145207950017953 0.26531266504736661 0 -0.035765825532670298 0.28688901229735669 0 -0.030631552918914 0.2658705267268428 0 -0.035765825532670298 0.28688901229735669 0 -0.053145207950017953 0.26531266504736661 0 -0.030631552918914 0.2658705267268428 0 -0.035765825532670298 0.28688901229735669 0 -0.053145207950017953 0.26531266504736661 0 -0.030631552918914 0.2658705267268428 0 -0.042397229216644967 0.24303424827545961 0 -0.030631552918914 0.2658705267268428 0 -0.042397229216644967 0.24303424827545961 0 -0.026607954193611769 0.2493988747302498 0 -0.030631552918914 0.2658705267268428 0 -0.042397229216644967 0.24303424827545961 0 -0.022258721015688519 0.25704338766156842 0 -0.030631552918914 0.2658705267268428 0 -0.026607954193611769 0.2493988747302498 0 -0.030631552918914 0.2658705267268428 0 -0.026607954193611769 0.2493988747302498 0 -0.022258721015688519 0.25704338766156842 0 -0.01399701172863455 0.25013081978710272 0 -0.026607954193611769 0.2493988747302498 0 -0.022258721015688519 0.25704338766156842 0 -0.017798365221593761 0.26277332940207809 0 -0.01399701172863455 0.25013081978710272 0 -0.022258721015688519 0.25704338766156842 0 -0.017798365221593761 0.26277332940207809 0 -0.030631552918914 0.2658705267268428 0 -0.030631552918914 0.2658705267268428 0 -0.02253154678259436 0.28159201955954549 0 -0.030631552918914 0.2658705267268428 0 -0.01473170701791361 0.27354921772548307 0 -0.02253154678259436 0.28159201955954549 0 -0.017798365221593761 0.26277332940207809 0 -0.030631552918914 0.2658705267268428 0 -0.01473170701791361 0.27354921772548307 0 -0.030631552918914 0.2658705267268428 0 -0.02253154678259436 0.28159201955954549 0 -0.035765825532670298 0.28688901229735669 0 -0.01473170701791361 0.27354921772548307 0 -0.0044384574811734646 0.28591032600112909 0 -0.02253154678259436 0.28159201955954549 0 -0.01473170701791361 0.27354921772548307 0 -0.0054096679889618672 0.2673344168405476 0 -0.0044384574811734646 0.28591032600112909 0 -0.017798365221593761 0.26277332940207809 0 -0.01473170701791361 0.27354921772548307 0 -0.0054096679889618672 0.2673344168405476 0 -0.0054096679889618672 0.2673344168405476 0 -0.0044384574811734646 0.28591032600112909 0 0.0092827741316595554 0.27736587233164778 0 -0.01129333948663643 0.24599948298869609 0 0.0076893730913138083 0.25651749406871249 0 -0.017798365221593761 0.26277332940207809 0 -0.0054096679889618672 0.2673344168405476 0 -0.01399701172863455 0.25013081978710272 0 -0.0054096679889618672 0.2673344168405476 0 -0.0043766345004221958 0.25561428549538678 0 -0.01399701172863455 0.25013081978710272 0 -0.0054096679889618672 0.2673344168405476 0 -0.0043766345004221958 0.25561428549538678 0 0.0076893730913138083 0.25651749406871249 0 -0.0043766345004221958 0.25561428549538678 0 -0.01129333948663643 0.24599948298869609 0 0.0076893730913138083 0.25651749406871249 0 -0.0054096679889618672 0.2673344168405476 0 -0.01399701172863455 0.25013081978710272 0 -0.0043766345004221958 0.25561428549538678 0 -0.01399701172863455 0.25013081978710272 0 -0.01129333948663643 0.24599948298869609 0 -0.0037735911627670279 0.30794855218137251 0 -0.01579212794518961 0.29341770153054048 0 -0.020109607236189712 0.3063260667607649 0 -0.0044384574811734646 0.28591032600112909 0 -0.01579212794518961 0.29341770153054048 0 -0.02253154678259436 0.28159201955954549 0 -0.0037735911627670279 0.30794855218137251 0 -0.0044384574811734646 0.28591032600112909 0 -0.01579212794518961 0.29341770153054048 0 -0.01579212794518961 0.29341770153054048 0 -0.02253154678259436 0.28159201955954549 0 -0.035765825532670298 0.28688901229735669 0 -0.01579212794518961 0.29341770153054048 0 -0.020109607236189712 0.3063260667607649 0 -0.035765825532670298 0.28688901229735669 0 -0.020109607236189712 0.3063260667607649 0 -0.035765825532670298 0.28688901229735669 0 -0.041966524319020482 0.31227319186328878 0 -0.035765825532670298 0.28688901229735669 0 -0.041966524319020482 0.31227319186328878 0 -0.035765825532670298 0.28688901229735669 0 -0.05386991897658374 0.29838181044739681 0 -0.020109607236189712 0.3063260667607649 0 -0.041966524319020482 0.31227319186328878 0 -0.035765825532670298 0.28688901229735669 0 -0.035765825532670298 0.28688901229735669 0 -0.051952452336319961 0.2837525443779339 0 -0.05386991897658374 0.29838181044739681 0 -0.066128695557605588 0.29853705798344071 0 -0.065028856886007846 0.28442668971961549 0 -0.05386991897658374 0.29838181044739681 0 -0.065028856886007846 0.28442668971961549 0 -0.051952452336319961 0.2837525443779339 0 -0.05386991897658374 0.29838181044739681 0 -0.041966524319020482 0.31227319186328878 0 -0.05386991897658374 0.29838181044739681 0 -0.056901946612511953 0.32042735527956728 0 -0.067972896282845849 0.31081295939180809 0 -0.05386991897658374 0.29838181044739681 0 -0.056901946612511953 0.32042735527956728 0 -0.041966524319020482 0.31227319186328878 0 -0.056901946612511953 0.32042735527956728 0 -0.048167223105369202 0.3376573714292212 0 -0.056901946612511953 0.32042735527956728 0 -0.048167223105369202 0.3376573714292212 0 -0.063727370394189131 0.33613992718031832 0 -0.048167223105369202 0.3376573714292212 0 -0.060894852719834948 0.34558576733838969 0 -0.063727370394189131 0.33613992718031832 0 -0.048167223105369202 0.3376573714292212 0 -0.027576849199283129 0.33262253713955708 0 -0.029541092916119591 0.34772261642365643 0 -0.041966524319020482 0.31227319186328878 0 -0.048167223105369202 0.3376573714292212 0 -0.027576849199283129 0.33262253713955708 0 -0.041966524319020482 0.31227319186328878 0 -0.048167223105369202 0.3376573714292212 0 -0.041966524319020482 0.31227319186328878 0 -0.019063868983659919 0.32113800430564449 0 -0.027576849199283129 0.33262253713955708 0 -0.020109607236189712 0.3063260667607649 0 -0.041966524319020482 0.31227319186328878 0 -0.019063868983659919 0.32113800430564449 0 -0.027576849199283129 0.33262253713955708 0 -0.016482755268957448 0.34461896909190348 0 -0.029541092916119591 0.34772261642365643 0 -0.027576849199283129 0.33262253713955708 0 -0.01427806482802201 0.33260017619442422 0 -0.016482755268957448 0.34461896909190348 0 -0.019063868983659919 0.32113800430564449 0 -0.027576849199283129 0.33262253713955708 0 -0.01427806482802201 0.33260017619442422 0 -0.01427806482802201 0.33260017619442422 0 -0.003813461748498483 0.33885824921084112 0 -0.016482755268957448 0.34461896909190348 0 -0.01427806482802201 0.33260017619442422 0 -0.003813461748498483 0.33885824921084112 0 -0.0044533889397110581 0.32576312122417461 0 -0.020109607236189712 0.3063260667607649 0 -0.019063868983659919 0.32113800430564449 0 -0.0044533889397110581 0.32576312122417461 0 -0.020109607236189712 0.3063260667607649 0 -0.0044533889397110581 0.32576312122417461 0 -0.0037735911627670279 0.30794855218137251 0 -0.020109607236189712 0.3063260667607649 0 -0.0044533889397110581 0.32576312122417461 0 -0.019063868983659919 0.32113800430564449 0 -0.01427806482802201 0.33260017619442422 0 -0.0044533889397110581 0.32576312122417461 0 -0.0061059733122382949 0.36543146842299112 0 -0.0063076613608452911 0.35318089762869892 0 -0.018925823628991961 0.36259865486902049 0 -0.0061059733122382949 0.36543146842299112 0 -0.018925823628991961 0.36259865486902049 0 -0.0085562506476948019 0.37815234602365572 0 -0.0061059733122382949 0.36543146842299112 0 -0.0085562506476948019 0.37815234602365572 0 0.0058591024644449544 0.37408789411368543 0 -0.0061059733122382949 0.36543146842299112 0 -0.0063076613608452911 0.35318089762869892 0 0.0045562057832190537 0.36086632368490462 0 -0.0063076613608452911 0.35318089762869892 0 -0.016482755268957448 0.34461896909190348 0 -0.018925823628991961 0.36259865486902049 0 -0.003813461748498483 0.33885824921084112 0 -0.0063076613608452911 0.35318089762869892 0 0.0081135051517422351 0.35189782535478159 0 -0.003813461748498483 0.33885824921084112 0 -0.0063076613608452911 0.35318089762869892 0 -0.016482755268957448 0.34461896909190348 0 -0.029541092916119591 0.34772261642365643 0 -0.018925823628991961 0.36259865486902049 0 -0.03664687276035395 0.36282010293208761 0 -0.016482755268957448 0.34461896909190348 0 -0.029541092916119591 0.34772261642365643 0 -0.018925823628991961 0.36259865486902049 0 -0.018925823628991961 0.36259865486902049 0 -0.03664687276035395 0.36282010293208761 0 -0.029123654744962309 0.3771058220378854 0 -0.018925823628991961 0.36259865486902049 0 -0.029123654744962309 0.3771058220378854 0 -0.0085562506476948019 0.37815234602365572 0 -0.018925823628991961 0.36259865486902049 0 -0.03664687276035395 0.36282010293208761 0 -0.03664687276035395 0.36282010293208761 0 -0.054367921891715992 0.36304155099515423 0 -0.03664687276035395 0.36282010293208761 0 -0.046575630326068533 0.36953055255711797 0 -0.054367921891715992 0.36304155099515423 0 -0.03664687276035395 0.36282010293208761 0 -0.046575630326068533 0.36953055255711797 0 -0.029123654744962309 0.3771058220378854 0 -0.048167223105369202 0.3376573714292212 0 -0.03664687276035395 0.36282010293208761 0 -0.054367921891715992 0.36304155099515423 0 -0.048167223105369202 0.3376573714292212 0 -0.029541092916119591 0.34772261642365643 0 -0.03664687276035395 0.36282010293208761 0 -0.048167223105369202 0.3376573714292212 0 -0.058915643073324947 0.35253818965494432 0 -0.054367921891715992 0.36304155099515423 0 -0.048167223105369202 0.3376573714292212 0 -0.054367921891715992 0.36304155099515423 0 -0.058915643073324947 0.35253818965494432 0 -0.054367921891715992 0.36304155099515423 0 -0.065221017445396864 0.35966498974848549 0 -0.048167223105369202 0.3376573714292212 0 -0.058915643073324947 0.35253818965494432 0 -0.060894852719834948 0.34558576733838969 0 -0.058915643073324947 0.35253818965494432 0 -0.060894852719834948 0.34558576733838969 0 -0.064821340430136362 0.35111353753572039 0 -0.055571088494621328 0.37008600530223962 0 -0.078056900058470435 0.36353142261897292 0 -0.053403541008422289 0.37896247326861338 0 -0.046575630326068533 0.36953055255711797 0 -0.054367921891715992 0.36304155099515423 0 -0.055571088494621328 0.37008600530223962 0 -0.046575630326068533 0.36953055255711797 0 -0.055571088494621328 0.37008600530223962 0 -0.053403541008422289 0.37896247326861338 0 -0.054367921891715992 0.36304155099515423 0 -0.065221017445396864 0.35966498974848549 0 -0.078056900058470435 0.36353142261897292 0 -0.054367921891715992 0.36304155099515423 0 -0.055571088494621328 0.37008600530223962 0 -0.078056900058470435 0.36353142261897292 0 -0.054367921891715992 0.36304155099515423 0 -0.078056900058470435 0.36353142261897292 0 -0.078056900058470435 0.36353142261897292 0 -0.053403541008422289 0.37896247326861338 0 -0.078056900058470435 0.36353142261897292 0 -0.069210832529228189 0.37621843676807942 0 -0.053403541008422289 0.37896247326861338 0 -0.065221017445396864 0.35966498974848549 0 -0.073222032380673749 0.35969907665844159 0 -0.078056900058470435 0.36353142261897292 0 -0.073222032380673749 0.35969907665844159 0 -0.078056900058470435 0.36353142261897292 0 -0.078153089983797178 0.35830789987477379 0 -0.078056900058470435 0.36353142261897292 0 -0.079658809836044356 0.36953675971710742 0 -0.069210832529228189 0.37621843676807942 0 -0.079658809836044356 0.36953675971710742 0 -0.080222837268140029 0.37618614450843058 0 -0.069210832529228189 0.37621843676807942 0 -0.078056900058470435 0.36353142261897292 0 -0.079658809836044356 0.36953675971710742 0 -0.086526193639199625 0.37135266334234418 0 -0.086526193639199625 0.37135266334234418 0 -0.1037565267618548 0.36365872725853488 0 -0.089930570003173449 0.38403154610080209 0 -0.078056900058470435 0.36353142261897292 0 -0.1037565267618548 0.36365872725853488 0 -0.078056900058470435 0.36353142261897292 0 -0.087549613322147848 0.35886386411246579 0 -0.1037565267618548 0.36365872725853488 0 -0.078056900058470435 0.36353142261897292 0 -0.086526193639199625 0.37135266334234418 0 -0.1037565267618548 0.36365872725853488 0 -0.079658809836044356 0.36953675971710742 0 -0.086526193639199625 0.37135266334234418 0 -0.080222837268140029 0.37618614450843058 0 -0.078056900058470435 0.36353142261897292 0 -0.087549613322147848 0.35886386411246579 0 -0.078153089983797178 0.35830789987477379 0 -0.092330728254500283 0.3483411484245007 0 -0.087052054542751389 0.35404174778756281 0 -0.081994413459632237 0.34780973210640931 0 -0.092330728254500283 0.3483411484245007 0 -0.081994413459632237 0.34780973210640931 0 -0.087740738250914455 0.33941767466087119 0 -0.092330728254500283 0.3483411484245007 0 -0.087052054542751389 0.35404174778756281 0 -0.094990417007323441 0.35465280200713012 0 -0.087549613322147848 0.35886386411246579 0 -0.087052054542751389 0.35404174778756281 0 -0.094990417007323441 0.35465280200713012 0 -0.087549613322147848 0.35886386411246579 0 -0.08227421036431902 0.35450226313645128 0 -0.078153089983797178 0.35830789987477379 0 -0.087052054542751389 0.35404174778756281 0 -0.08227421036431902 0.35450226313645128 0 -0.081994413459632237 0.34780973210640931 0 -0.087549613322147848 0.35886386411246579 0 -0.087052054542751389 0.35404174778756281 0 -0.08227421036431902 0.35450226313645128 0 -0.08227421036431902 0.35450226313645128 0 -0.081994413459632237 0.34780973210640931 0 -0.076621880513266474 0.35348807180104508 0 -0.08227421036431902 0.35450226313645128 0 -0.078153089983797178 0.35830789987477379 0 -0.076621880513266474 0.35348807180104508 0 -0.081994413459632237 0.34780973210640931 0 -0.070609077230293027 0.34680220055952898 0 -0.076621880513266474 0.35348807180104508 0 -0.081994413459632237 0.34780973210640931 0 -0.070609077230293027 0.34680220055952898 0 -0.076754165746521288 0.33671189587128347 0 -0.070609077230293027 0.34680220055952898 0 -0.076621880513266474 0.35348807180104508 0 -0.070835152731753392 0.35468432931983029 0 -0.073222032380673749 0.35969907665844159 0 -0.078153089983797178 0.35830789987477379 0 -0.075056112865941715 0.35676530541479262 0 -0.078153089983797178 0.35830789987477379 0 -0.075056112865941715 0.35676530541479262 0 -0.076621880513266474 0.35348807180104508 0 -0.075056112865941715 0.35676530541479262 0 -0.076621880513266474 0.35348807180104508 0 -0.070835152731753392 0.35468432931983029 0 -0.073222032380673749 0.35969907665844159 0 -0.070835152731753392 0.35468432931983029 0 -0.069010415730376459 0.35773644887782868 0 -0.073222032380673749 0.35969907665844159 0 -0.075056112865941715 0.35676530541479262 0 -0.070835152731753392 0.35468432931983029 0 -0.065221017445396864 0.35966498974848549 0 -0.073222032380673749 0.35969907665844159 0 -0.069010415730376459 0.35773644887782868 0 -0.070835152731753392 0.35468432931983029 0 -0.069010415730376459 0.35773644887782868 0 -0.064980037111778452 0.35622534647154769 0 -0.070835152731753392 0.35468432931983029 0 -0.064980037111778452 0.35622534647154769 0 -0.064821340430136362 0.35111353753572039 0 -0.058915643073324947 0.35253818965494432 0 -0.064980037111778452 0.35622534647154769 0 -0.064821340430136362 0.35111353753572039 0 -0.058915643073324947 0.35253818965494432 0 -0.065221017445396864 0.35966498974848549 0 -0.064980037111778452 0.35622534647154769 0 -0.065221017445396864 0.35966498974848549 0 -0.069010415730376459 0.35773644887782868 0 -0.064980037111778452 0.35622534647154769 0 -0.070609077230293027 0.34680220055952898 0 -0.070835152731753392 0.35468432931983029 0 -0.064821340430136362 0.35111353753572039 0 -0.060894852719834948 0.34558576733838969 0 -0.070609077230293027 0.34680220055952898 0 -0.064821340430136362 0.35111353753572039 0 -0.060894852719834948 0.34558576733838969 0 -0.070609077230293027 0.34680220055952898 0 -0.063727370394189131 0.33613992718031832 0 -0.063727370394189131 0.33613992718031832 0 -0.076754165746521288 0.33671189587128347 0 -0.069315935993918582 0.32719762312571599 0 -0.076754165746521288 0.33671189587128347 0 -0.069315935993918582 0.32719762312571599 0 -0.07822275920193715 0.3287742903636211 0 -0.070609077230293027 0.34680220055952898 0 -0.063727370394189131 0.33613992718031832 0 -0.076754165746521288 0.33671189587128347 0 -0.085891585627181369 0.31223470127304659 0 -0.067972896282845849 0.31081295939180809 0 -0.078337526932654916 0.32114113174684572 0 -0.067972896282845849 0.31081295939180809 0 -0.069315935993918582 0.32719762312571599 0 -0.078337526932654916 0.32114113174684572 0 -0.056901946612511953 0.32042735527956728 0 -0.063727370394189131 0.33613992718031832 0 -0.069315935993918582 0.32719762312571599 0 -0.067972896282845849 0.31081295939180809 0 -0.056901946612511953 0.32042735527956728 0 -0.069315935993918582 0.32719762312571599 0 -0.069315935993918582 0.32719762312571599 0 -0.078337526932654916 0.32114113174684572 0 -0.07822275920193715 0.3287742903636211 0 -0.085891585627181369 0.31223470127304659 0 -0.078337526932654916 0.32114113174684572 0 -0.086028750630850775 0.32207415040121701 0 -0.078337526932654916 0.32114113174684572 0 -0.086028750630850775 0.32207415040121701 0 -0.07822275920193715 0.3287742903636211 0 -0.086028750630850775 0.32207415040121701 0 -0.07822275920193715 0.3287742903636211 0 -0.085785106962812135 0.32981792748660138 0 -0.093740691759110484 0.32133158066081863 0 -0.085785106962812135 0.32981792748660138 0 -0.095277673389175546 0.3317008606074402 0 -0.093740691759110484 0.32133158066081863 0 -0.086028750630850775 0.32207415040121701 0 -0.085785106962812135 0.32981792748660138 0 -0.085891585627181369 0.31223470127304659 0 -0.093740691759110484 0.32133158066081863 0 -0.094809734038222737 0.3131835930475928 0 -0.085891585627181369 0.31223470127304659 0 -0.093740691759110484 0.32133158066081863 0 -0.086028750630850775 0.32207415040121701 0 -0.081994413459632237 0.34780973210640931 0 -0.076754165746521288 0.33671189587128347 0 -0.087740738250914455 0.33941767466087119 0 -0.076754165746521288 0.33671189587128347 0 -0.085785106962812135 0.32981792748660138 0 -0.087740738250914455 0.33941767466087119 0 -0.076754165746521288 0.33671189587128347 0 -0.07822275920193715 0.3287742903636211 0 -0.085785106962812135 0.32981792748660138 0 -0.085785106962812135 0.32981792748660138 0 -0.087740738250914455 0.33941767466087119 0 -0.095277673389175546 0.3317008606074402 0 -0.087740738250914455 0.33941767466087119 0 -0.097129994351171617 0.34064499988852037 0 -0.095277673389175546 0.3317008606074402 0 -0.092330728254500283 0.3483411484245007 0 -0.087740738250914455 0.33941767466087119 0 -0.097129994351171617 0.34064499988852037 0 -0.097129994351171617 0.34064499988852037 0 -0.095277673389175546 0.3317008606074402 0 -0.1047405386975776 0.3355868789685475 0 -0.097129994351171617 0.34064499988852037 0 -0.1047405386975776 0.3355868789685475 0 -0.1024061662540256 0.34806203920196771 0 -0.095277673389175546 0.3317008606074402 0 -0.1047405386975776 0.3355868789685475 0 -0.1022584983781127 0.32470798303773601 0 -0.1047405386975776 0.3355868789685475 0 -0.1164589841509729 0.34494140680418939 0 -0.1024061662540256 0.34806203920196771 0 -0.093740691759110484 0.32133158066081863 0 -0.094809734038222737 0.3131835930475928 0 -0.1029386232365047 0.31444739547408562 0 -0.093740691759110484 0.32133158066081863 0 -0.1022584983781127 0.32470798303773601 0 -0.1029386232365047 0.31444739547408562 0 -0.093740691759110484 0.32133158066081863 0 -0.095277673389175546 0.3317008606074402 0 -0.1022584983781127 0.32470798303773601 0 -0.1022584983781127 0.32470798303773601 0 -0.1029386232365047 0.31444739547408562 0 -0.1140540209374864 0.32307696159469562 0 -0.1047405386975776 0.3355868789685475 0 -0.1022584983781127 0.32470798303773601 0 -0.1140540209374864 0.32307696159469562 0 -0.1029386232365047 0.31444739547408562 0 -0.1108931470430706 0.31281979500966178 0 -0.1140540209374864 0.32307696159469562 0 -0.1183311714902613 0.30974970176368699 0 -0.1108931470430706 0.31281979500966178 0 -0.1140540209374864 0.32307696159469562 0 -0.1291614415400914 0.32622408634984429 0 -0.1140540209374864 0.32307696159469562 0 -0.12355625625981111 0.3169603400801449 0 -0.1183311714902613 0.30974970176368699 0 -0.1140540209374864 0.32307696159469562 0 -0.12355625625981111 0.3169603400801449 0 -0.1047405386975776 0.3355868789685475 0 -0.1140540209374864 0.32307696159469562 0 -0.1164589841509729 0.34494140680418939 0 -0.1291614415400914 0.32622408634984429 0 -0.1164589841509729 0.34494140680418939 0 -0.1291614415400914 0.32622408634984429 0 -0.1140540209374864 0.32307696159469562 0 -0.1164589841509729 0.34494140680418939 0 -0.1291614415400914 0.32622408634984429 0 -0.12317788072287331 0.34502536834736691 0 -0.1164589841509729 0.34494140680418939 0 -0.1164589841509729 0.34494140680418939 0 -0.1171943199056569 0.3638266503448902 0 -0.1037565267618548 0.36365872725853488 0 -0.12317788072287331 0.34502536834736691 0 -0.1164589841509729 0.34494140680418939 0 -0.1171943199056569 0.3638266503448902 0 -0.12317788072287331 0.34502536834736691 0 -0.1171943199056569 0.3638266503448902 0 -0.1164589841509729 0.34494140680418939 0 -0.1037565267618548 0.36365872725853488 0 -0.12950843241589069 0.35583734230918612 0 -0.12317788072287331 0.34502536834736691 0 -0.1171943199056569 0.3638266503448902 0 -0.1171943199056569 0.3638266503448902 0 -0.1037565267618548 0.36365872725853488 0 -0.110364517614067 0.38528695513563882 0 -0.1171943199056569 0.3638266503448902 0 -0.110364517614067 0.38528695513563882 0 -0.13127260941300259 0.3746433260741861 0 -0.1171943199056569 0.3638266503448902 0 -0.1205246004680459 0.38450984139923239 0 -0.1171943199056569 0.3638266503448902 0 -0.1037565267618548 0.36365872725853488 0 -0.1037565267618548 0.36365872725853488 0 -0.089930570003173449 0.38403154610080209 0 -0.087549613322147848 0.35886386411246579 0 -0.1037565267618548 0.36365872725853488 0 -0.094990417007323441 0.35465280200713012 0 -0.1037565267618548 0.36365872725853488 0 -0.094990417007323441 0.35465280200713012 0 -0.1024061662540256 0.34806203920196771 0 -0.1164589841509729 0.34494140680418939 0 -0.1037565267618548 0.36365872725853488 0 -0.1024061662540256 0.34806203920196771 0 -0.092330728254500283 0.3483411484245007 0 -0.097129994351171617 0.34064499988852037 0 -0.1024061662540256 0.34806203920196771 0 -0.092330728254500283 0.3483411484245007 0 -0.094990417007323441 0.35465280200713012 0 -0.1024061662540256 0.34806203920196771 0 -0.110364517614067 0.38528695513563882 0 -0.1035347153224795 0.40674725992638822 0 -0.092047333104112547 0.39923918998040098 0 -0.110364517614067 0.38528695513563882 0 -0.110701368821923 0.39073153010882672 0 -0.1035347153224795 0.40674725992638822 0 -0.110364517614067 0.38528695513563882 0 -0.1035347153224795 0.40674725992638822 0 -0.1035347153224795 0.40674725992638822 0 -0.096941996002387315 0.41200460840622127 0 -0.092047333104112547 0.39923918998040098 0 -0.110364517614067 0.38528695513563882 0 -0.092047333104112547 0.39923918998040098 0 -0.089930570003173449 0.38403154610080209 0 -0.1037565267618548 0.36365872725853488 0 -0.110364517614067 0.38528695513563882 0 -0.089930570003173449 0.38403154610080209 0 -0.110364517614067 0.38528695513563882 0 -0.1205246004680459 0.38450984139923239 0 -0.110701368821923 0.39073153010882672 0 -0.1171943199056569 0.3638266503448902 0 -0.110364517614067 0.38528695513563882 0 -0.1205246004680459 0.38450984139923239 0 -0.1205246004680459 0.38450984139923239 0 -0.118822103942645 0.39455636791041943 0 -0.110701368821923 0.39073153010882672 0 -0.13069806257389191 0.38508591269685633 0 -0.1205246004680459 0.38450984139923239 0 -0.118822103942645 0.39455636791041943 0 -0.13069806257389191 0.38508591269685633 0 -0.118822103942645 0.39455636791041943 0 -0.118822103942645 0.39455636791041943 0 -0.110701368821923 0.39073153010882672 0 -0.1035347153224795 0.40674725992638822 0 -0.118822103942645 0.39455636791041943 0 -0.11786539745278719 0.41149149123291462 0 -0.1035347153224795 0.40674725992638822 0 -0.118822103942645 0.39455636791041943 0 -0.110701368821923 0.39073153010882672 0 -0.118822103942645 0.39455636791041943 0 -0.1035347153224795 0.40674725992638822 0 -0.13098407999684841 0.4142561318584298 0 -0.118822103942645 0.39455636791041943 0 -0.11786539745278719 0.41149149123291462 0 -0.13098407999684841 0.4142561318584298 0 -0.11786539745278719 0.41149149123291462 0 -0.1219826263572617 0.42544113180991988 0 -0.11786539745278719 0.41149149123291462 0 -0.112130041753355 0.41911126785108782 0 -0.1219826263572617 0.42544113180991988 0 -0.11786539745278719 0.41149149123291462 0 -0.112130041753355 0.41911126785108782 0 -0.1035347153224795 0.40674725992638822 0 -0.1219826263572617 0.42544113180991988 0 -0.1160347721948565 0.43412092433543548 0 -0.1241883904025063 0.43876471153149899 0 -0.1219826263572617 0.42544113180991988 0 -0.11378996456028009 0.42708361938528372 0 -0.1160347721948565 0.43412092433543548 0 -0.112130041753355 0.41911126785108782 0 -0.1219826263572617 0.42544113180991988 0 -0.11378996456028009 0.42708361938528372 0 -0.112130041753355 0.41911126785108782 0 -0.11378996456028009 0.42708361938528372 0 -0.10650347755993921 0.42335851794428392 0 -0.11378996456028009 0.42708361938528372 0 -0.1160347721948565 0.43412092433543548 0 -0.1069181363621404 0.43388206627038489 0 -0.1160347721948565 0.43412092433543548 0 -0.1069181363621404 0.43388206627038489 0 -0.1130157628815423 0.44345732641231961 0 -0.096144529801440809 0.42996837628827461 0 -0.096162450611461475 0.42157323121081308 0 -0.089756382162494597 0.44771548747387602 0 -0.1069181363621404 0.43388206627038489 0 -0.096144529801440809 0.42996837628827461 0 -0.1019972708981377 0.44138537807505901 0 -0.1069181363621404 0.43388206627038489 0 -0.10650347755993921 0.42335851794428392 0 -0.096144529801440809 0.42996837628827461 0 -0.11378996456028009 0.42708361938528372 0 -0.1069181363621404 0.43388206627038489 0 -0.10650347755993921 0.42335851794428392 0 -0.096144529801440809 0.42996837628827461 0 -0.1035347153224795 0.40674725992638822 0 -0.112130041753355 0.41911126785108782 0 -0.10650347755993921 0.42335851794428392 0 -0.1035347153224795 0.40674725992638822 0 -0.10650347755993921 0.42335851794428392 0 -0.096144529801440809 0.42996837628827461 0 -0.1035347153224795 0.40674725992638822 0 -0.096144529801440809 0.42996837628827461 0 -0.1035347153224795 0.40674725992638822 0 -0.096162450611461475 0.42157323121081308 0 -0.1035347153224795 0.40674725992638822 0 -0.096162450611461475 0.42157323121081308 0 -0.096941996002387315 0.41200460840622127 0 -0.1035347153224795 0.40674725992638822 0 -0.096941996002387315 0.41200460840622127 0 -0.083771977209022408 0.41574772692799672 0 -0.076104613244492789 0.40440436494306992 0 -0.092047333104112547 0.39923918998040098 0 -0.096941996002387315 0.41200460840622127 0 -0.083771977209022408 0.41574772692799672 0 -0.092047333104112547 0.39923918998040098 0 -0.096162450611461475 0.42157323121081308 0 -0.096941996002387315 0.41200460840622127 0 -0.083771977209022408 0.41574772692799672 0 -0.096162450611461475 0.42157323121081308 0 -0.083771977209022408 0.41574772692799672 0 -0.080130585459200002 0.43170251878069549 0 -0.096162450611461475 0.42157323121081308 0 -0.089756382162494597 0.44771548747387602 0 -0.096162450611461475 0.42157323121081308 0 -0.080130585459200002 0.43170251878069549 0 -0.089756382162494597 0.44771548747387602 0 -0.080130585459200002 0.43170251878069549 0 -0.062278656485812149 0.42477718378533758 0 -0.067978123481394648 0.44530425571048371 0 -0.083771977209022408 0.41574772692799672 0 -0.080130585459200002 0.43170251878069549 0 -0.062278656485812149 0.42477718378533758 0 -0.083771977209022408 0.41574772692799672 0 -0.076104613244492789 0.40440436494306992 0 -0.062278656485812149 0.42477718378533758 0 -0.076104613244492789 0.40440436494306992 0 -0.049349388681700503 0.40434100984352772 0 -0.062278656485812149 0.42477718378533758 0 -0.076104613244492789 0.40440436494306992 0 -0.062278656485812149 0.42477718378533758 0 -0.076104613244492789 0.40440436494306992 0 -0.064414830851005286 0.3916118385435518 0 -0.049349388681700503 0.40434100984352772 0 -0.076104613244492789 0.40440436494306992 0 -0.064414830851005286 0.3916118385435518 0 -0.074697819500603529 0.38548070133923062 0 -0.076104613244492789 0.40440436494306992 0 -0.089930570003173449 0.38403154610080209 0 -0.076104613244492789 0.40440436494306992 0 -0.092047333104112547 0.39923918998040098 0 -0.089930570003173449 0.38403154610080209 0 -0.076104613244492789 0.40440436494306992 0 -0.089930570003173449 0.38403154610080209 0 -0.074697819500603529 0.38548070133923062 0 -0.086526193639199625 0.37135266334234418 0 -0.089930570003173449 0.38403154610080209 0 -0.080222837268140029 0.37618614450843058 0 -0.089930570003173449 0.38403154610080209 0 -0.080222837268140029 0.37618614450843058 0 -0.074697819500603529 0.38548070133923062 0 -0.080222837268140029 0.37618614450843058 0 -0.074697819500603529 0.38548070133923062 0 -0.069210832529228189 0.37621843676807942 0 -0.064414830851005286 0.3916118385435518 0 -0.074697819500603529 0.38548070133923062 0 -0.069210832529228189 0.37621843676807942 0 -0.064414830851005286 0.3916118385435518 0 -0.069210832529228189 0.37621843676807942 0 -0.053403541008422289 0.37896247326861338 0 -0.064414830851005286 0.3916118385435518 0 -0.053403541008422289 0.37896247326861338 0 -0.049349388681700503 0.40434100984352772 0 -0.049349388681700503 0.40434100984352772 0 -0.028750181958374109 0.39439352391825389 0 -0.027454658508764909 0.412521303854129 0 -0.053403541008422289 0.37896247326861338 0 -0.049349388681700503 0.40434100984352772 0 -0.028750181958374109 0.39439352391825389 0 -0.046575630326068533 0.36953055255711797 0 -0.053403541008422289 0.37896247326861338 0 -0.029123654744962309 0.3771058220378854 0 -0.053403541008422289 0.37896247326861338 0 -0.029123654744962309 0.3771058220378854 0 -0.028750181958374109 0.39439352391825389 0 -0.053403541008422289 0.37896247326861338 0 -0.028750181958374109 0.39439352391825389 0 -0.029123654744962309 0.3771058220378854 0 -0.028750181958374109 0.39439352391825389 0 -0.01100728288483056 0.39328310069644917 0 -0.029123654744962309 0.3771058220378854 0 -0.01100728288483056 0.39328310069644917 0 -0.0085562506476948019 0.37815234602365572 0 -0.028750181958374109 0.39439352391825389 0 -0.0040968229083259266 0.40982457456789462 0 -0.028750181958374109 0.39439352391825389 0 -0.0040968229083259266 0.40982457456789462 0 -0.027454658508764909 0.412521303854129 0 -0.028750181958374109 0.39439352391825389 0 -0.01100728288483056 0.39328310069644917 0 -0.0040968229083259266 0.40982457456789462 0 -0.01100728288483056 0.39328310069644917 0 -0.0040968229083259266 0.40982457456789462 0 0.0062520788255263577 0.39546140282883258 0 -0.01100728288483056 0.39328310069644917 0 -0.0085562506476948019 0.37815234602365572 0 0.0062520788255263577 0.39546140282883258 0 -0.0047437967268179572 0.43600941659475068 0 -0.0009658409520053999 0.42618781485431828 0 -0.016967121554458089 0.42768717627593578 0 -0.0047437967268179572 0.43600941659475068 0 -0.016967121554458089 0.42768717627593578 0 -0.01143489972844499 0.44614983825235721 0 -0.0040968229083259266 0.40982457456789462 0 -0.016967121554458089 0.42768717627593578 0 -0.0009658409520053999 0.42618781485431828 0 -0.0040968229083259266 0.40982457456789462 0 -0.016967121554458089 0.42768717627593578 0 -0.0040968229083259266 0.40982457456789462 0 -0.027454658508764909 0.412521303854129 0 -0.016967121554458089 0.42768717627593578 0 -0.016967121554458089 0.42768717627593578 0 -0.038109777440965907 0.42636023466503309 0 -0.029837420200591169 0.44554977798397633 0 -0.016967121554458089 0.42768717627593578 0 -0.029837420200591169 0.44554977798397633 0 -0.027454658508764909 0.412521303854129 0 -0.016967121554458089 0.42768717627593578 0 -0.038109777440965907 0.42636023466503309 0 -0.049349388681700503 0.40434100984352772 0 -0.027454658508764909 0.412521303854129 0 -0.038109777440965907 0.42636023466503309 0 -0.049349388681700503 0.40434100984352772 0 -0.038109777440965907 0.42636023466503309 0 -0.062278656485812149 0.42477718378533758 0 -0.038109777440965907 0.42636023466503309 0 -0.062278656485812149 0.42477718378533758 0 -0.048452699727131517 0.44515000262760529 0 -0.062278656485812149 0.42477718378533758 0 -0.048452699727131517 0.44515000262760529 0 -0.062278656485812149 0.42477718378533758 0 -0.048452699727131517 0.44515000262760529 0 -0.067978123481394648 0.44530425571048371 0 -0.048452699727131517 0.44515000262760529 0 -0.057952633392742869 0.45922889555257529 0 -0.067978123481394648 0.44530425571048371 0 -0.057952633392742869 0.45922889555257529 0 -0.042707718846724238 0.46341237969201682 0 -0.059991321755959483 0.47755068014287538 0 -0.048452699727131517 0.44515000262760529 0 -0.057952633392742869 0.45922889555257529 0 -0.042707718846724238 0.46341237969201682 0 -0.042707718846724238 0.46341237969201682 0 -0.029837420200591169 0.44554977798397633 0 -0.0214768820405946 0.45677438380109647 0 -0.042707718846724238 0.46341237969201682 0 -0.029837420200591169 0.44554977798397633 0 -0.038109777440965907 0.42636023466503309 0 -0.048452699727131517 0.44515000262760529 0 -0.029837420200591169 0.44554977798397633 0 -0.048452699727131517 0.44515000262760529 0 -0.042707718846724238 0.46341237969201682 0 -0.029837420200591169 0.44554977798397633 0 -0.029837420200591169 0.44554977798397633 0 -0.0214768820405946 0.45677438380109647 0 -0.01143489972844499 0.44614983825235721 0 -0.016967121554458089 0.42768717627593578 0 -0.029837420200591169 0.44554977798397633 0 -0.01143489972844499 0.44614983825235721 0 -0.042707718846724238 0.46341237969201682 0 -0.0214768820405946 0.45677438380109647 0 -0.019980953903329522 0.4713535189608804 0 -0.0214768820405946 0.45677438380109647 0 -0.0059791835823989562 0.46022442924751211 0 -0.019980953903329522 0.4713535189608804 0 -0.0214768820405946 0.45677438380109647 0 -0.0059791835823989562 0.46022442924751211 0 -0.01143489972844499 0.44614983825235721 0 -0.0059791835823989562 0.46022442924751211 0 -0.01143489972844499 0.44614983825235721 0 0.00158744369902884 0.45224239293530732 0 -0.01143489972844499 0.44614983825235721 0 0.00013786979739127789 0.44340215130982891 0 0.00158744369902884 0.45224239293530732 0 -0.0047437967268179572 0.43600941659475068 0 -0.01143489972844499 0.44614983825235721 0 0.00013786979739127789 0.44340215130982891 0 -0.0048531756735428356 0.50000000000000155 0 0.0031183794832156681 0.47875215537605292 0 -0.0048531756735428356 0.50000000000000155 0 -0.01686835393871124 0.48719540707274922 0 0.0031183794832156681 0.47875215537605292 0 -0.019980953903329522 0.4713535189608804 0 -0.01686835393871124 0.48719540707274922 0 0.0031183794832156681 0.47875215537605292 0 -0.0059791835823989562 0.46022442924751211 0 -0.019980953903329522 0.4713535189608804 0 0.0031183794832156681 0.47875215537605292 0 -0.019980953903329522 0.4713535189608804 0 -0.01686835393871124 0.48719540707274922 0 -0.036890961563804628 0.48325199764475357 0 -0.028883532203882071 0.5 0 -0.01686835393871124 0.48719540707274922 0 -0.036890961563804628 0.48325199764475357 0 -0.0048531756735428356 0.50000000000000155 0 -0.028883532203882071 0.5 0 -0.01686835393871124 0.48719540707274922 0 -0.028883532203882071 0.5 0 -0.036890961563804628 0.48325199764475357 0 -0.052913888734221197 0.5 0 -0.042707718846724238 0.46341237969201682 0 -0.019980953903329522 0.4713535189608804 0 -0.036890961563804628 0.48325199764475357 0 -0.042707718846724238 0.46341237969201682 0 -0.036890961563804628 0.48325199764475357 0 -0.059991321755959483 0.47755068014287538 0 -0.036890961563804628 0.48325199764475357 0 -0.059991321755959483 0.47755068014287538 0 -0.052913888734221197 0.5 0 -0.059991321755959483 0.47755068014287538 0 -0.052913888734221197 0.5 0 -0.076944245264560479 0.50000000000000155 0 -0.076944245264560479 0.50000000000000155 0 -0.093210387186889843 0.48552711484038641 0 -0.093622253644301462 0.49999999999999978 0 -0.076944245264560479 0.50000000000000155 0 -0.093210387186889843 0.48552711484038641 0 -0.083350313713527718 0.47385774373693879 0 -0.076944245264560479 0.50000000000000155 0 -0.083350313713527718 0.47385774373693879 0 -0.093210387186889843 0.48552711484038641 0 -0.083350313713527718 0.47385774373693879 0 -0.10315036783346861 0.46763636011217352 0 -0.059991321755959483 0.47755068014287538 0 -0.083350313713527718 0.47385774373693879 0 -0.071805754901223859 0.46073141252334981 0 -0.059991321755959483 0.47755068014287538 0 -0.076944245264560479 0.50000000000000155 0 -0.083350313713527718 0.47385774373693879 0 -0.057952633392742869 0.45922889555257529 0 -0.059991321755959483 0.47755068014287538 0 -0.071805754901223859 0.46073141252334981 0 -0.057952633392742869 0.45922889555257529 0 -0.071805754901223859 0.46073141252334981 0 -0.067978123481394648 0.44530425571048371 0 -0.071805754901223859 0.46073141252334981 0 -0.067978123481394648 0.44530425571048371 0 -0.089756382162494597 0.44771548747387602 0 -0.080130585459200002 0.43170251878069549 0 -0.067978123481394648 0.44530425571048371 0 -0.089756382162494597 0.44771548747387602 0 -0.083350313713527718 0.47385774373693879 0 -0.071805754901223859 0.46073141252334981 0 -0.089756382162494597 0.44771548747387602 0 -0.083350313713527718 0.47385774373693879 0 -0.089756382162494597 0.44771548747387602 0 -0.10315036783346861 0.46763636011217352 0 -0.083350313713527718 0.47385774373693879 0 -0.089756382162494597 0.44771548747387602 0 -0.10315036783346861 0.46763636011217352 0 -0.10510469199495941 0.45138597185370699 0 -0.11760367619915391 0.45673530719510691 0 -0.089756382162494597 0.44771548747387602 0 -0.10315036783346861 0.46763636011217352 0 -0.10510469199495941 0.45138597185370699 0 -0.096144529801440809 0.42996837628827461 0 -0.089756382162494597 0.44771548747387602 0 -0.1019972708981377 0.44138537807505901 0 -0.089756382162494597 0.44771548747387602 0 -0.10510469199495941 0.45138597185370699 0 -0.1019972708981377 0.44138537807505901 0 -0.10510469199495941 0.45138597185370699 0 -0.1019972708981377 0.44138537807505901 0 -0.1130157628815423 0.44345732641231961 0 -0.1069181363621404 0.43388206627038489 0 -0.1019972708981377 0.44138537807505901 0 -0.1130157628815423 0.44345732641231961 0 -0.10510469199495941 0.45138597185370699 0 -0.1130157628815423 0.44345732641231961 0 -0.11760367619915391 0.45673530719510691 0 -0.1130157628815423 0.44345732641231961 0 -0.1215155981663168 0.44755177654886852 0 -0.11760367619915391 0.45673530719510691 0 -0.1309883998487279 0.45056556980610168 0 -0.1215155981663168 0.44755177654886852 0 -0.11760367619915391 0.45673530719510691 0 -0.1130157628815423 0.44345732641231961 0 -0.1215155981663168 0.44755177654886852 0 -0.1241883904025063 0.43876471153149899 0 -0.1160347721948565 0.43412092433543548 0 -0.1130157628815423 0.44345732641231961 0 -0.1241883904025063 0.43876471153149899 0 -0.10315036783346861 0.46763636011217352 0 -0.11760367619915391 0.45673530719510691 0 -0.1243472573128805 0.47228294070563881 0 -0.1309883998487279 0.45056556980610168 0 -0.11760367619915391 0.45673530719510691 0 -0.1243472573128805 0.47228294070563881 0 -0.10315036783346861 0.46763636011217352 0 -0.1243472573128805 0.47228294070563881 0 -0.108984755478591 0.48614147035281918 0 -0.13040624056921249 0.48649431507048269 0 -0.1243472573128805 0.47228294070563881 0 -0.108984755478591 0.48614147035281918 0 -0.1243472573128805 0.47228294070563881 0 -0.108984755478591 0.48614147035281918 0 -0.13040624056921249 0.48649431507048269 0 -0.12290484643059719 0.5 0 -0.108984755478591 0.48614147035281918 0 -0.093210387186889843 0.48552711484038641 0 -0.093622253644301462 0.49999999999999978 0 -0.108984755478591 0.48614147035281918 0 -0.093622253644301462 0.49999999999999978 0 -0.12290484643059719 0.5 0 -0.108984755478591 0.48614147035281918 0 -0.093622253644301462 0.49999999999999978 0 -0.108984755478591 0.48614147035281918 0 -0.093210387186889843 0.48552711484038641 0 -0.10315036783346861 0.46763636011217352 0 -0.108984755478591 0.48614147035281918 0 -0.16566880116412469 0.086335007320422236 0 -0.1816223471760284 0.092878319313599328 0 -0.155858734966423 0.1005157394380068 0 -0.16566880116412469 0.086335007320422236 0 -0.155858734966423 0.1005157394380068 0 -0.15210846208687209 0.075683821175024035 0 -0.16566880116412469 0.086335007320422236 0 -0.16753208900650399 0.063891194684540784 0 -0.15210846208687209 0.075683821175024035 0 -0.16566880116412469 0.086335007320422236 0 -0.16753208900650399 0.063891194684540784 0 -0.17842396825266879 0.076597079913091698 0 -0.16753208900650399 0.063891194684540784 0 -0.17842396825266879 0.076597079913091698 0 -0.18376391453893809 0.063735239234962507 0 -0.17842396825266879 0.076597079913091698 0 -0.18376391453893809 0.063735239234962507 0 -0.19353268937774859 0.076145639011933636 0 -0.16566880116412469 0.086335007320422236 0 -0.17842396825266879 0.076597079913091698 0 -0.1816223471760284 0.092878319313599328 0 -0.17842396825266879 0.076597079913091698 0 -0.1816223471760284 0.092878319313599328 0 -0.19353268937774859 0.076145639011933636 0 -0.1816223471760284 0.092878319313599328 0 -0.17640245880413671 0.1083888279474878 0 -0.19548633673819019 0.10211335741951751 0 -0.17640245880413671 0.1083888279474878 0 -0.17951564659709091 0.124071201996113 0 -0.19775342251112149 0.1195861884236385 0 -0.17640245880413671 0.1083888279474878 0 -0.17951564659709091 0.124071201996113 0 -0.16496470633131299 0.1171826443969627 0 -0.17640245880413671 0.1083888279474878 0 -0.16496470633131299 0.1171826443969627 0 -0.1569844014462391 0.1079691858713409 0 -0.17951564659709091 0.124071201996113 0 -0.16496470633131299 0.1171826443969627 0 -0.16857284444025539 0.12882542857639689 0 -0.16496470633131299 0.1171826443969627 0 -0.1569844014462391 0.1079691858713409 0 -0.15418455768106451 0.1178610593945781 0 -0.16496470633131299 0.1171826443969627 0 -0.15418455768106451 0.1178610593945781 0 -0.15569189489731561 0.12536993684311529 0 -0.16496470633131299 0.1171826443969627 0 -0.16857284444025539 0.12882542857639689 0 -0.15569189489731561 0.12536993684311529 0 -0.1816223471760284 0.092878319313599328 0 -0.155858734966423 0.1005157394380068 0 -0.1816223471760284 0.092878319313599328 0 -0.17640245880413671 0.1083888279474878 0 -0.155858734966423 0.1005157394380068 0 -0.17640245880413671 0.1083888279474878 0 -0.1569844014462391 0.1079691858713409 0 -0.155858734966423 0.1005157394380068 0 -0.1569844014462391 0.1079691858713409 0 -0.155858734966423 0.1005157394380068 0 -0.15409592586815141 0.097656750856382285 0 -0.15140089892148639 0.1018372298580591 0 -0.14227542083654521 0.09210876874296367 0 -0.15140089892148639 0.1018372298580591 0 -0.13302456697366091 0.1072847488739966 0 -0.15140089892148639 0.1018372298580591 0 -0.13302456697366091 0.1072847488739966 0 -0.14227542083654521 0.09210876874296367 0 -0.155858734966423 0.1005157394380068 0 -0.15140089892148639 0.1018372298580591 0 -0.15409592586815141 0.097656750856382285 0 -0.155858734966423 0.1005157394380068 0 -0.15140089892148639 0.1018372298580591 0 -0.15409592586815141 0.097656750856382285 0 -0.15140089892148639 0.1018372298580591 0 -0.1569844014462391 0.1079691858713409 0 -0.155858734966423 0.1005157394380068 0 -0.15140089892148639 0.1018372298580591 0 -0.15140089892148639 0.1018372298580591 0 -0.13909722804938979 0.12092247046689331 0 -0.13302456697366091 0.1072847488739966 0 -0.15418455768106451 0.1178610593945781 0 -0.13909722804938979 0.12092247046689331 0 -0.15569189489731561 0.12536993684311529 0 -0.15140089892148639 0.1018372298580591 0 -0.13909722804938979 0.12092247046689331 0 -0.1569844014462391 0.1079691858713409 0 -0.15140089892148639 0.1018372298580591 0 -0.13909722804938979 0.12092247046689331 0 -0.1569844014462391 0.1079691858713409 0 -0.15418455768106451 0.1178610593945781 0 -0.13909722804938979 0.12092247046689331 0 -0.13909722804938979 0.12092247046689331 0 -0.13302456697366091 0.1072847488739966 0 -0.13909722804938979 0.12092247046689331 0 -0.13302456697366091 0.1072847488739966 0 -0.1240129492088249 0.1221724056033639 0 -0.13302456697366091 0.1072847488739966 0 -0.12676633129327219 0.093230271799177561 0 -0.14227542083654521 0.09210876874296367 0 -0.13302456697366091 0.1072847488739966 0 -0.12676633129327219 0.093230271799177561 0 -0.12676633129327219 0.093230271799177561 0 -0.1362563398758285 0.076959789895143377 0 -0.1205080956128806 0.079175794724359844 0 -0.12676633129327219 0.093230271799177561 0 -0.14227542083654521 0.09210876874296367 0 -0.1362563398758285 0.076959789895143377 0 -0.15409592586815141 0.097656750856382285 0 -0.155858734966423 0.1005157394380068 0 -0.15210846208687209 0.075683821175024035 0 -0.15409592586815141 0.097656750856382285 0 -0.14227542083654521 0.09210876874296367 0 -0.15210846208687209 0.075683821175024035 0 -0.14227542083654521 0.09210876874296367 0 -0.15210846208687209 0.075683821175024035 0 -0.1362563398758285 0.076959789895143377 0 -0.155858734966423 0.1005157394380068 0 -0.15210846208687209 0.075683821175024035 0 -0.16753208900650399 0.063891194684540784 0 -0.15210846208687209 0.075683821175024035 0 -0.1483581892073195 0.050851902912041488 0 -0.15210846208687209 0.075683821175024035 0 -0.1362563398758285 0.076959789895143377 0 -0.1398292885471355 0.064081513192041528 0 -0.15210846208687209 0.075683821175024035 0 -0.1483581892073195 0.050851902912041488 0 -0.15210846208687209 0.075683821175024035 0 -0.1398292885471355 0.064081513192041528 0 -0.1483581892073195 0.050851902912041488 0 -0.1362563398758285 0.076959789895143377 0 -0.1398292885471355 0.064081513192041528 0 -0.12487611877679081 0.058973567791328042 0 -0.1362563398758285 0.076959789895143377 0 -0.1205080956128806 0.079175794724359844 0 -0.12487611877679081 0.058973567791328042 0 -0.1398292885471355 0.064081513192041528 0 -0.1483581892073195 0.050851902912041488 0 -0.12487611877679081 0.058973567791328042 0 -0.12597681129890859 0.040066542679777252 0 -0.1483581892073195 0.050851902912041488 0 -0.12487611877679081 0.058973567791328042 0 -0.12597681129890859 0.040066542679777252 0 -0.1483581892073195 0.050851902912041488 0 -0.14460791632776701 0.026019984649059011 0 -0.1483581892073195 0.050851902912041488 0 -0.14460791632776701 0.026019984649059011 0 -0.16014401129712011 0.031289218245197488 0 -0.1483581892073195 0.050851902912041488 0 -0.14460791632776701 0.026019984649059011 0 -0.14915950396313971 0.006694546598058051 0 -0.1234979273559844 0.014616194656270899 0 -0.1308273698701844 -0.003706324753454524 0 -0.14915950396313971 0.006694546598058051 0 -0.1234979273559844 0.014616194656270899 0 -0.12597681129890859 0.040066542679777252 0 -0.14460791632776701 0.026019984649059011 0 -0.1234979273559844 0.014616194656270899 0 -0.14460791632776701 0.026019984649059011 0 -0.14915950396313971 0.006694546598058051 0 -0.1234979273559844 0.014616194656270899 0 -0.14460791632776701 0.026019984649059011 0 -0.14915950396313971 0.006694546598058051 0 -0.1618568610252239 0.015355082019856751 0 -0.14460791632776701 0.026019984649059011 0 -0.1618568610252239 0.015355082019856751 0 -0.16014401129712011 0.031289218245197488 0 -0.17482108057029491 -0.0012271014601547951 0 -0.1618568610252239 0.015355082019856751 0 -0.17450755128164669 0.011817240717460729 0 -0.17482108057029491 -0.0012271014601547951 0 -0.14915950396313971 0.006694546598058051 0 -0.1618568610252239 0.015355082019856751 0 -0.17482108057029491 -0.0012271014601547951 0 -0.14915950396313971 0.006694546598058051 0 -0.1618568610252239 0.015355082019856751 0 -0.1709622812836773 0.020878917638368709 0 -0.16014401129712011 0.031289218245197488 0 -0.1709622812836773 0.020878917638368709 0 -0.16014401129712011 0.031289218245197488 0 -0.17748035079435731 0.032410491597089947 0 -0.1618568610252239 0.015355082019856751 0 -0.1709622812836773 0.020878917638368709 0 -0.17450755128164669 0.011817240717460729 0 -0.1709622812836773 0.020878917638368709 0 -0.1827729529715332 0.017556672813602878 0 -0.17748035079435731 0.032410491597089947 0 -0.1827729529715332 0.017556672813602878 0 -0.17748035079435731 0.032410491597089947 0 -0.18847826469717849 0.027042146300344249 0 -0.1827729529715332 0.017556672813602878 0 -0.19008443401053671 0.019575228650454388 0 -0.18847826469717849 0.027042146300344249 0 -0.1827729529715332 0.017556672813602878 0 -0.18806472038413449 0.013079235431504009 0 -0.19008443401053671 0.019575228650454388 0 -0.1709622812836773 0.020878917638368709 0 -0.1827729529715332 0.017556672813602878 0 -0.17450755128164669 0.011817240717460729 0 -0.17482108057029491 -0.0012271014601547951 0 -0.1916493180489231 -0.0013587422905579211 0 -0.1878871464371972 0.003053799429911774 0 -0.1827729529715332 0.017556672813602878 0 -0.17450755128164669 0.011817240717460729 0 -0.18340007162929661 0.0079152635209837428 0 -0.1827729529715332 0.017556672813602878 0 -0.18340007162929661 0.0079152635209837428 0 -0.18806472038413449 0.013079235431504009 0 -0.17482108057029491 -0.0012271014601547951 0 -0.18340007162929661 0.0079152635209837428 0 -0.1878871464371972 0.003053799429911774 0 -0.17482108057029491 -0.0012271014601547951 0 -0.17450755128164669 0.011817240717460729 0 -0.18340007162929661 0.0079152635209837428 0 -0.16753208900650399 0.063891194684540784 0 -0.16606773972301719 0.044901795601342109 0 -0.18012046384982411 0.048887796301475731 0 -0.16753208900650399 0.063891194684540784 0 -0.1483581892073195 0.050851902912041488 0 -0.16606773972301719 0.044901795601342109 0 -0.1483581892073195 0.050851902912041488 0 -0.16606773972301719 0.044901795601342109 0 -0.16014401129712011 0.031289218245197488 0 -0.16606773972301719 0.044901795601342109 0 -0.16014401129712011 0.031289218245197488 0 -0.17748035079435731 0.032410491597089947 0 -0.17748035079435731 0.032410491597089947 0 -0.18012046384982411 0.048887796301475731 0 -0.18894375431354671 0.038789661637495268 0 -0.16606773972301719 0.044901795601342109 0 -0.17748035079435731 0.032410491597089947 0 -0.18012046384982411 0.048887796301475731 0 -0.17748035079435731 0.032410491597089947 0 -0.18894375431354671 0.038789661637495268 0 -0.18847826469717849 0.027042146300344249 0 -0.18012046384982411 0.048887796301475731 0 -0.19328880531425199 0.051875534189075291 0 -0.18894375431354671 0.038789661637495268 0 -0.16753208900650399 0.063891194684540784 0 -0.18376391453893809 0.063735239234962507 0 -0.18012046384982411 0.048887796301475731 0 -0.18376391453893809 0.063735239234962507 0 -0.18012046384982411 0.048887796301475731 0 -0.19328880531425199 0.051875534189075291 0 -0.18376391453893809 0.063735239234962507 0 -0.19328880531425199 0.051875534189075291 0 -0.19979307250870371 0.064925168683236389 0 -0.19328880531425199 0.051875534189075291 0 -0.20637636366085901 0.054108708011182373 0 -0.19979307250870371 0.064925168683236389 0 -0.19328880531425199 0.051875534189075291 0 -0.20073526301364081 0.040806631266099541 0 -0.20637636366085901 0.054108708011182373 0 -0.19328880531425199 0.051875534189075291 0 -0.18894375431354671 0.038789661637495268 0 -0.20073526301364081 0.040806631266099541 0 -0.1943995295536522 0.032139606981039362 0 -0.18894375431354671 0.038789661637495268 0 -0.18847826469717849 0.027042146300344249 0 -0.1943995295536522 0.032139606981039362 0 -0.18894375431354671 0.038789661637495268 0 -0.20073526301364081 0.040806631266099541 0 -0.1943995295536522 0.032139606981039362 0 -0.20073526301364081 0.040806631266099541 0 -0.20204989929084571 0.028947409821830271 0 -0.20073526301364081 0.040806631266099541 0 -0.2130654935489473 0.043308297984979399 0 -0.20637636366085901 0.054108708011182373 0 -0.20073526301364081 0.040806631266099541 0 -0.20792135795856809 0.035077422115247447 0 -0.2130654935489473 0.043308297984979399 0 -0.20073526301364081 0.040806631266099541 0 -0.20792135795856809 0.035077422115247447 0 -0.20204989929084571 0.028947409821830271 0 -0.20792135795856809 0.035077422115247447 0 -0.2165396895797603 0.031836809261580223 0 -0.2130654935489473 0.043308297984979399 0 -0.2130654935489473 0.043308297984979399 0 -0.21718493326187729 0.055962682087815643 0 -0.20637636366085901 0.054108708011182373 0 -0.21718493326187729 0.055962682087815643 0 -0.20637636366085901 0.054108708011182373 0 -0.21358583582704671 0.065729619220833688 0 -0.20637636366085901 0.054108708011182373 0 -0.21358583582704671 0.065729619220833688 0 -0.19979307250870371 0.064925168683236389 0 -0.20283446218667439 0.0052384472620319953 0 -0.19624554147368009 0.00242762966048044 0 -0.2050648132605469 0.00070925757607599434 0 -0.1988101645859931 -0.0018992895646593819 0 -0.19624554147368009 0.00242762966048044 0 -0.2050648132605469 0.00070925757607599434 0 -0.19624554147368009 0.00242762966048044 0 -0.1915213920804191 0.0077385014050758063 0 -0.2005976989588561 0.0096319897203491888 0 -0.20283446218667439 0.0052384472620319953 0 -0.19624554147368009 0.00242762966048044 0 -0.2005976989588561 0.0096319897203491888 0 -0.19624554147368009 0.00242762966048044 0 -0.1878871464371972 0.003053799429911774 0 -0.1915213920804191 0.0077385014050758063 0 -0.1916493180489231 -0.0013587422905579211 0 -0.19624554147368009 0.00242762966048044 0 -0.1878871464371972 0.003053799429911774 0 -0.18340007162929661 0.0079152635209837428 0 -0.1878871464371972 0.003053799429911774 0 -0.1915213920804191 0.0077385014050758063 0 -0.18340007162929661 0.0079152635209837428 0 -0.1915213920804191 0.0077385014050758063 0 -0.18806472038413449 0.013079235431504009 0 -0.1915213920804191 0.0077385014050758063 0 -0.19372800664637921 0.01449526086022011 0 -0.2005976989588561 0.0096319897203491888 0 -0.1915213920804191 0.0077385014050758063 0 -0.18806472038413449 0.013079235431504009 0 -0.19372800664637921 0.01449526086022011 0 -0.19372800664637921 0.01449526086022011 0 -0.2005976989588561 0.0096319897203491888 0 -0.20531285647856831 0.01743724323580903 0 -0.19584667418390561 0.022823144434823899 0 -0.20204989929084571 0.028947409821830271 0 -0.20531285647856831 0.01743724323580903 0 -0.19372800664637921 0.01449526086022011 0 -0.19584667418390561 0.022823144434823899 0 -0.20531285647856831 0.01743724323580903 0 -0.19372800664637921 0.01449526086022011 0 -0.19584667418390561 0.022823144434823899 0 -0.19008443401053671 0.019575228650454388 0 -0.18806472038413449 0.013079235431504009 0 -0.19372800664637921 0.01449526086022011 0 -0.19008443401053671 0.019575228650454388 0 -0.19584667418390561 0.022823144434823899 0 -0.19008443401053671 0.019575228650454388 0 -0.18847826469717849 0.027042146300344249 0 -0.1943995295536522 0.032139606981039362 0 -0.19584667418390561 0.022823144434823899 0 -0.18847826469717849 0.027042146300344249 0 -0.1943995295536522 0.032139606981039362 0 -0.19584667418390561 0.022823144434823899 0 -0.20204989929084571 0.028947409821830271 0 -0.20792135795856809 0.035077422115247447 0 -0.20204989929084571 0.028947409821830271 0 -0.21003235947578869 0.025792219852540269 0 -0.20204989929084571 0.028947409821830271 0 -0.21003235947578869 0.025792219852540269 0 -0.20531285647856831 0.01743724323580903 0 -0.20792135795856809 0.035077422115247447 0 -0.2165396895797603 0.031836809261580223 0 -0.21003235947578869 0.025792219852540269 0 -0.2165396895797603 0.031836809261580223 0 -0.21003235947578869 0.025792219852540269 0 -0.21960277171130849 0.019156858406616111 0 -0.21003235947578869 0.025792219852540269 0 -0.20531285647856831 0.01743724323580903 0 -0.21960277171130849 0.019156858406616111 0 -0.20942979505361439 0.008184912091222362 0 -0.2050648132605469 0.00070925757607599434 0 -0.2245164147613477 0.0023001462659175201 0 -0.20942979505361439 0.008184912091222362 0 -0.2245164147613477 0.0023001462659175201 0 -0.21960277171130849 0.019156858406616111 0 -0.2005976989588561 0.0096319897203491888 0 -0.20531285647856831 0.01743724323580903 0 -0.20942979505361439 0.008184912091222362 0 -0.20531285647856831 0.01743724323580903 0 -0.20942979505361439 0.008184912091222362 0 -0.21960277171130849 0.019156858406616111 0 -0.20283446218667439 0.0052384472620319953 0 -0.2005976989588561 0.0096319897203491888 0 -0.20942979505361439 0.008184912091222362 0 -0.20283446218667439 0.0052384472620319953 0 -0.20942979505361439 0.008184912091222362 0 -0.2050648132605469 0.00070925757607599434 0 -0.25976749961366202 -0.0010753608270254731 0 -0.2517249179826993 0.017253337104544519 0 -0.2245164147613477 0.0023001462659175201 0 -0.2245164147613477 0.0023001462659175201 0 -0.21960277171130849 0.019156858406616111 0 -0.23630349290788269 0.025879992915471169 0 -0.21960277171130849 0.019156858406616111 0 -0.23630349290788269 0.025879992915471169 0 -0.22824495474116741 0.03657121904236383 0 -0.2165396895797603 0.031836809261580223 0 -0.21960277171130849 0.019156858406616111 0 -0.22824495474116741 0.03657121904236383 0 -0.25150930774064451 0.031920585626659392 0 -0.2517249179826993 0.017253337104544519 0 -0.23630349290788269 0.025879992915471169 0 -0.2517249179826993 0.017253337104544519 0 -0.2245164147613477 0.0023001462659175201 0 -0.23630349290788269 0.025879992915471169 0 -0.22792642939186811 0.051082983248845748 0 -0.2395030512569675 0.060180227187257483 0 -0.22710797838520669 0.065697513384638404 0 -0.21718493326187729 0.055962682087815643 0 -0.22710797838520669 0.065697513384638404 0 -0.21358583582704671 0.065729619220833688 0 -0.21718493326187729 0.055962682087815643 0 -0.22792642939186811 0.051082983248845748 0 -0.22710797838520669 0.065697513384638404 0 -0.2130654935489473 0.043308297984979399 0 -0.21718493326187729 0.055962682087815643 0 -0.22792642939186811 0.051082983248845748 0 -0.2130654935489473 0.043308297984979399 0 -0.22792642939186811 0.051082983248845748 0 -0.22824495474116741 0.03657121904236383 0 -0.2165396895797603 0.031836809261580223 0 -0.2130654935489473 0.043308297984979399 0 -0.22824495474116741 0.03657121904236383 0 -0.22792642939186811 0.051082983248845748 0 -0.22824495474116741 0.03657121904236383 0 -0.242602603959445 0.044785963142970918 0 -0.25150930774064451 0.031920585626659392 0 -0.23630349290788269 0.025879992915471169 0 -0.242602603959445 0.044785963142970918 0 -0.23630349290788269 0.025879992915471169 0 -0.22824495474116741 0.03657121904236383 0 -0.242602603959445 0.044785963142970918 0 -0.25592661339345901 0.062396704574867443 0 -0.242602603959445 0.044785963142970918 0 -0.2395030512569675 0.060180227187257483 0 -0.22792642939186811 0.051082983248845748 0 -0.242602603959445 0.044785963142970918 0 -0.2395030512569675 0.060180227187257483 0 -0.2395030512569675 0.060180227187257483 0 -0.24370472515519279 0.073126728262141005 0 -0.22710797838520669 0.065697513384638404 0 -0.25592661339345901 0.062396704574867443 0 -0.2395030512569675 0.060180227187257483 0 -0.24370472515519279 0.073126728262141005 0 -0.24370472515519279 0.073126728262141005 0 -0.2326650791575266 0.079189935059552907 0 -0.22710797838520669 0.065697513384638404 0 -0.2453305616145752 0.090555806388597324 0 -0.2282619717195167 0.091911529443774842 0 -0.2326650791575266 0.079189935059552907 0 -0.24370472515519279 0.073126728262141005 0 -0.2453305616145752 0.090555806388597324 0 -0.2326650791575266 0.079189935059552907 0 -0.25575636728774542 0.079115484991206964 0 -0.24370472515519279 0.073126728262141005 0 -0.2453305616145752 0.090555806388597324 0 -0.2282619717195167 0.091911529443774842 0 -0.2326650791575266 0.079189935059552907 0 -0.21892015891314151 0.074658097818612934 0 -0.2326650791575266 0.079189935059552907 0 -0.22710797838520669 0.065697513384638404 0 -0.21892015891314151 0.074658097818612934 0 -0.22710797838520669 0.065697513384638404 0 -0.21892015891314151 0.074658097818612934 0 -0.21358583582704671 0.065729619220833688 0 -0.21892015891314151 0.074658097818612934 0 -0.21358583582704671 0.065729619220833688 0 -0.20704875904309589 0.069976918537663302 0 -0.21358583582704671 0.065729619220833688 0 -0.20704875904309589 0.069976918537663302 0 -0.19979307250870371 0.064925168683236389 0 -0.21892015891314151 0.074658097818612934 0 -0.20704875904309589 0.069976918537663302 0 -0.20555804838940561 0.077098833804354616 0 -0.20704875904309589 0.069976918537663302 0 -0.20555804838940561 0.077098833804354616 0 -0.20105036771269821 0.072111375038547365 0 -0.2282619717195167 0.091911529443774842 0 -0.20555804838940561 0.077098833804354616 0 -0.2282619717195167 0.091911529443774842 0 -0.21892015891314151 0.074658097818612934 0 -0.20555804838940561 0.077098833804354616 0 -0.2282619717195167 0.091911529443774842 0 -0.20555804838940561 0.077098833804354616 0 -0.20738595938563401 0.08524089918919199 0 -0.1816223471760284 0.092878319313599328 0 -0.20738595938563401 0.08524089918919199 0 -0.19548633673819019 0.10211335741951751 0 -0.20555804838940561 0.077098833804354616 0 -0.20738595938563401 0.08524089918919199 0 -0.19353268937774859 0.076145639011933636 0 -0.1816223471760284 0.092878319313599328 0 -0.20738595938563401 0.08524089918919199 0 -0.19353268937774859 0.076145639011933636 0 -0.1816223471760284 0.092878319313599328 0 -0.20738595938563401 0.08524089918919199 0 -0.18376391453893809 0.063735239234962507 0 -0.19353268937774859 0.076145639011933636 0 -0.19979307250870371 0.064925168683236389 0 -0.20704875904309589 0.069976918537663302 0 -0.19979307250870371 0.064925168683236389 0 -0.20105036771269821 0.072111375038547365 0 -0.20555804838940561 0.077098833804354616 0 -0.19353268937774859 0.076145639011933636 0 -0.20105036771269821 0.072111375038547365 0 -0.19353268937774859 0.076145639011933636 0 -0.19979307250870371 0.064925168683236389 0 -0.20105036771269821 0.072111375038547365 0 -0.17640245880413671 0.1083888279474878 0 -0.19775342251112149 0.1195861884236385 0 -0.19548633673819019 0.10211335741951751 0 -0.19775342251112149 0.1195861884236385 0 -0.19548633673819019 0.10211335741951751 0 -0.21426749581403029 0.1044725522236699 0 -0.2282619717195167 0.091911529443774842 0 -0.20738595938563401 0.08524089918919199 0 -0.21426749581403029 0.1044725522236699 0 -0.20738595938563401 0.08524089918919199 0 -0.19548633673819019 0.10211335741951751 0 -0.21426749581403029 0.1044725522236699 0 -0.19775342251112149 0.1195861884236385 0 -0.21426749581403029 0.1044725522236699 0 -0.2257814651535035 0.12541589453192131 0 -0.21426749581403029 0.1044725522236699 0 -0.2295343924578401 0.107580465086438 0 -0.2257814651535035 0.12541589453192131 0 -0.2295343924578401 0.107580465086438 0 -0.24730101324871431 0.1070344867981963 0 -0.2257814651535035 0.12541589453192131 0 -0.2282619717195167 0.091911529443774842 0 -0.21426749581403029 0.1044725522236699 0 -0.2295343924578401 0.107580465086438 0 -0.25096589504962769 0.1067242250831951 0 -0.2282619717195167 0.091911529443774842 0 -0.25096589504962769 0.1067242250831951 0 -0.2453305616145752 0.090555806388597324 0 -0.2282619717195167 0.091911529443774842 0 -0.25117752100816348 0.097584187418704199 0 -0.25096589504962769 0.1067242250831951 0 -0.2453305616145752 0.090555806388597324 0 -0.25096589504962769 0.1067242250831951 0 -0.2282619717195167 0.091911529443774842 0 -0.24730101324871431 0.1070344867981963 0 -0.2282619717195167 0.091911529443774842 0 -0.2295343924578401 0.107580465086438 0 -0.24730101324871431 0.1070344867981963 0 -0.25096589504962769 0.1067242250831951 0 -0.24730101324871431 0.1070344867981963 0 -0.24904366568778949 0.12297968893121029 0 -0.24730101324871431 0.1070344867981963 0 -0.24904366568778949 0.12297968893121029 0 -0.2257814651535035 0.12541589453192131 0 -0.24730101324871431 0.1070344867981963 0 -0.2257814651535035 0.12541589453192131 0 -0.25688044353971651 0.13977980518516439 0 -0.24904366568778949 0.12297968893121029 0 -0.23922129183689789 0.13834698455375499 0 -0.24904366568778949 0.12297968893121029 0 -0.23922129183689789 0.13834698455375499 0 -0.2257814651535035 0.12541589453192131 0 -0.23922129183689789 0.13834698455375499 0 -0.2257814651535035 0.12541589453192131 0 -0.22430981610378589 0.1455368444727656 0 -0.22430981610378589 0.1455368444727656 0 -0.24009106869969429 0.15802268964771349 0 -0.21450880600745351 0.16133367574836799 0 -0.25688044353971651 0.13977980518516439 0 -0.23922129183689789 0.13834698455375499 0 -0.24009106869969429 0.15802268964771349 0 -0.23922129183689789 0.13834698455375499 0 -0.22430981610378589 0.1455368444727656 0 -0.24009106869969429 0.15802268964771349 0 -0.25688044353971651 0.13977980518516439 0 -0.24009106869969429 0.15802268964771349 0 -0.24009106869969429 0.15802268964771349 0 -0.24625838967984681 0.181395420132927 0 -0.22330169385967211 0.17626557411026281 0 -0.24625838967984681 0.181395420132927 0 -0.22330169385967211 0.17626557411026281 0 -0.22323441930354671 0.19548111515624481 0 -0.24009106869969429 0.15802268964771349 0 -0.22330169385967211 0.17626557411026281 0 -0.21450880600745351 0.16133367574836799 0 -0.24009106869969429 0.15802268964771349 0 -0.22330169385967211 0.17626557411026281 0 -0.21450880600745351 0.16133367574836799 0 -0.20230530118754281 0.17426542441086429 0 -0.19849248283489759 0.1632734629614076 0 -0.22330169385967211 0.17626557411026281 0 -0.21450880600745351 0.16133367574836799 0 -0.20230530118754281 0.17426542441086429 0 -0.22330169385967211 0.17626557411026281 0 -0.20230530118754281 0.17426542441086429 0 -0.2086778334798858 0.18884909231468269 0 -0.22330169385967211 0.17626557411026281 0 -0.22323441930354671 0.19548111515624481 0 -0.2086778334798858 0.18884909231468269 0 -0.20230530118754281 0.17426542441086429 0 -0.2086778334798858 0.18884909231468269 0 -0.19433730412142111 0.1886665377164787 0 -0.20230530118754281 0.17426542441086429 0 -0.18963524382255589 0.17360457102488011 0 -0.19433730412142111 0.1886665377164787 0 -0.18963524382255589 0.17360457102488011 0 -0.19433730412142111 0.1886665377164787 0 -0.183138513096964 0.182362663805683 0 -0.18963524382255589 0.17360457102488011 0 -0.19849248283489759 0.1632734629614076 0 -0.1827423689630816 0.1621787099993714 0 -0.19849248283489759 0.1632734629614076 0 -0.20426191705829261 0.14379730226564641 0 -0.1827423689630816 0.1621787099993714 0 -0.20230530118754281 0.17426542441086429 0 -0.18963524382255589 0.17360457102488011 0 -0.19849248283489759 0.1632734629614076 0 -0.20426191705829261 0.14379730226564641 0 -0.17613280713273841 0.15145553761029321 0 -0.1827423689630816 0.1621787099993714 0 -0.20426191705829261 0.14379730226564641 0 -0.1827423689630816 0.1621787099993714 0 -0.20426191705829261 0.14379730226564641 0 -0.18686809023678161 0.1353539697309262 0 -0.17613280713273841 0.15145553761029321 0 -0.19775342251112149 0.1195861884236385 0 -0.20426191705829261 0.14379730226564641 0 -0.18686809023678161 0.1353539697309262 0 -0.17951564659709091 0.124071201996113 0 -0.19775342251112149 0.1195861884236385 0 -0.18686809023678161 0.1353539697309262 0 -0.2257814651535035 0.12541589453192131 0 -0.20426191705829261 0.14379730226564641 0 -0.19775342251112149 0.1195861884236385 0 -0.2257814651535035 0.12541589453192131 0 -0.20426191705829261 0.14379730226564641 0 -0.2257814651535035 0.12541589453192131 0 -0.22430981610378589 0.1455368444727656 0 -0.20426191705829261 0.14379730226564641 0 -0.21450880600745351 0.16133367574836799 0 -0.19849248283489759 0.1632734629614076 0 -0.20426191705829261 0.14379730226564641 0 -0.22430981610378589 0.1455368444727656 0 -0.21450880600745351 0.16133367574836799 0 -0.20426191705829261 0.14379730226564641 0 -0.20994227553390341 0.25399769603615968 0 -0.23118763321222849 0.24810935190821529 0 -0.21633472519777699 0.23704111998738231 0 -0.23118763321222849 0.24810935190821529 0 -0.24252528348747809 0.22916606022967431 0 -0.21633472519777699 0.23704111998738231 0 -0.2531312179692447 0.24693268900981011 0 -0.23118763321222849 0.24810935190821529 0 -0.24252528348747809 0.22916606022967431 0 -0.24252528348747809 0.22916606022967431 0 -0.2204972521431926 0.21852444410992761 0 -0.21633472519777699 0.23704111998738231 0 -0.2204972521431926 0.21852444410992761 0 -0.24017025989270971 0.20736385408167921 0 -0.22323441930354671 0.19548111515624481 0 -0.24252528348747809 0.22916606022967431 0 -0.2204972521431926 0.21852444410992761 0 -0.24017025989270971 0.20736385408167921 0 -0.2623399943966378 0.2074572994922125 0 -0.24252528348747809 0.22916606022967431 0 -0.24017025989270971 0.20736385408167921 0 -0.24625838967984681 0.181395420132927 0 -0.22323441930354671 0.19548111515624481 0 -0.24625838967984681 0.181395420132927 0 -0.24017025989270971 0.20736385408167921 0 -0.22323441930354671 0.19548111515624481 0 -0.2623399943966378 0.2074572994922125 0 -0.24625838967984681 0.181395420132927 0 -0.24017025989270971 0.20736385408167921 0 -0.22323441930354671 0.19548111515624481 0 -0.2086778334798858 0.18884909231468269 0 -0.20021044892724671 0.20956681017956269 0 -0.22323441930354671 0.19548111515624481 0 -0.20021044892724671 0.20956681017956269 0 -0.19433730412142111 0.1886665377164787 0 -0.1875850248386885 0.20140763374264961 0 -0.20021044892724671 0.20956681017956269 0 -0.2086778334798858 0.18884909231468269 0 -0.19433730412142111 0.1886665377164787 0 -0.20021044892724671 0.20956681017956269 0 -0.1875850248386885 0.20140763374264961 0 -0.20021044892724671 0.20956681017956269 0 -0.18402809589793659 0.2117838496968569 0 -0.20021044892724671 0.20956681017956269 0 -0.17718647855094691 0.22365250520288091 0 -0.2204972521431926 0.21852444410992761 0 -0.22323441930354671 0.19548111515624481 0 -0.20021044892724671 0.20956681017956269 0 -0.2204972521431926 0.21852444410992761 0 -0.1992592176227212 0.23152876100681169 0 -0.21633472519777699 0.23704111998738231 0 -0.2204972521431926 0.21852444410992761 0 -0.20021044892724671 0.20956681017956269 0 -0.1992592176227212 0.23152876100681169 0 -0.20021044892724671 0.20956681017956269 0 -0.1992592176227212 0.23152876100681169 0 -0.17718647855094691 0.22365250520288091 0 -0.1877721056544481 0.25031621228853818 0 -0.1992592176227212 0.23152876100681169 0 -0.17718647855094691 0.22365250520288091 0 -0.20994227553390341 0.25399769603615968 0 -0.1877721056544481 0.25031621228853818 0 -0.1992592176227212 0.23152876100681169 0 -0.20994227553390341 0.25399769603615968 0 -0.1992592176227212 0.23152876100681169 0 -0.21633472519777699 0.23704111998738231 0 -0.1640617627792666 0.24981997117292951 0 -0.16183089979698331 0.24193994151295611 0 -0.16614044010106521 0.2406932537131031 0 -0.15695146594595341 0.24240831339349089 0 -0.1640617627792666 0.24981997117292951 0 -0.14848436726826189 0.24606264326291691 0 -0.15695146594595341 0.24240831339349089 0 -0.1640617627792666 0.24981997117292951 0 -0.16183089979698331 0.24193994151295611 0 -0.16183089979698331 0.24193994151295611 0 -0.16614044010106521 0.2406932537131031 0 -0.16252225947873411 0.23262383874051079 0 -0.15695146594595341 0.24240831339349089 0 -0.16183089979698331 0.24193994151295611 0 -0.16252225947873411 0.23262383874051079 0 -0.16614044010106521 0.2406932537131031 0 -0.17614683834927691 0.23838926342601621 0 -0.16252225947873411 0.23262383874051079 0 -0.1640617627792666 0.24981997117292951 0 -0.16614044010106521 0.2406932537131031 0 -0.17614683834927691 0.23838926342601621 0 -0.1877721056544481 0.25031621228853818 0 -0.17718647855094691 0.22365250520288091 0 -0.1877721056544481 0.25031621228853818 0 -0.17614683834927691 0.23838926342601621 0 -0.17718647855094691 0.22365250520288091 0 -0.17614683834927691 0.23838926342601621 0 -0.17718647855094691 0.22365250520288091 0 -0.16252225947873411 0.23262383874051079 0 -0.17718647855094691 0.22365250520288091 0 -0.17540200869662051 0.21915767640966641 0 -0.17818164061184991 0.21367693965203541 0 -0.17718647855094691 0.22365250520288091 0 -0.17540200869662051 0.21915767640966641 0 -0.17718647855094691 0.22365250520288091 0 -0.17540200869662051 0.21915767640966641 0 -0.16760996972445619 0.22117139263659791 0 -0.17718647855094691 0.22365250520288091 0 -0.16760996972445619 0.22117139263659791 0 -0.16252225947873411 0.23262383874051079 0 -0.17718647855094691 0.22365250520288091 0 -0.16252225947873411 0.23262383874051079 0 -0.16760996972445619 0.22117139263659791 0 -0.16252225947873411 0.23262383874051079 0 -0.1584531153883679 0.22097000172295919 0 -0.16252225947873411 0.23262383874051079 0 -0.1584531153883679 0.22097000172295919 0 -0.14819666574411289 0.22542755326032679 0 -0.16760996972445619 0.22117139263659791 0 -0.1584531153883679 0.22097000172295919 0 -0.16325938143394139 0.21449502017076269 0 -0.1584531153883679 0.22097000172295919 0 -0.16325938143394139 0.21449502017076269 0 -0.15344118670155049 0.21138439532041539 0 -0.16325938143394139 0.21449502017076269 0 -0.1615879418803895 0.2067051863967127 0 -0.15344118670155049 0.21138439532041539 0 -0.1615879418803895 0.2067051863967127 0 -0.15694594002853321 0.20009757627232011 0 -0.15344118670155049 0.21138439532041539 0 -0.16325938143394139 0.21449502017076269 0 -0.1615879418803895 0.2067051863967127 0 -0.16720760968600801 0.20911493896329489 0 -0.1615879418803895 0.2067051863967127 0 -0.16720760968600801 0.20911493896329489 0 -0.16904392573188121 0.20342220360345159 0 -0.16720760968600801 0.20911493896329489 0 -0.16904392573188121 0.20342220360345159 0 -0.17253920632964651 0.21000069251756551 0 -0.16720760968600801 0.20911493896329489 0 -0.1703906265370313 0.2156331246247957 0 -0.17253920632964651 0.21000069251756551 0 -0.16325938143394139 0.21449502017076269 0 -0.16720760968600801 0.20911493896329489 0 -0.1703906265370313 0.2156331246247957 0 -0.16760996972445619 0.22117139263659791 0 -0.16325938143394139 0.21449502017076269 0 -0.1703906265370313 0.2156331246247957 0 -0.17540200869662051 0.21915767640966641 0 -0.16760996972445619 0.22117139263659791 0 -0.1703906265370313 0.2156331246247957 0 -0.20021044892724671 0.20956681017956269 0 -0.17718647855094691 0.22365250520288091 0 -0.18402809589793659 0.2117838496968569 0 -0.17540200869662051 0.21915767640966641 0 -0.1703906265370313 0.2156331246247957 0 -0.17818164061184991 0.21367693965203541 0 -0.1703906265370313 0.2156331246247957 0 -0.17818164061184991 0.21367693965203541 0 -0.17253920632964651 0.21000069251756551 0 -0.17718647855094691 0.22365250520288091 0 -0.17818164061184991 0.21367693965203541 0 -0.18402809589793659 0.2117838496968569 0 -0.1875850248386885 0.20140763374264961 0 -0.18402809589793659 0.2117838496968569 0 -0.17776693232203211 0.20437774163936639 0 -0.17818164061184991 0.21367693965203541 0 -0.18402809589793659 0.2117838496968569 0 -0.17776693232203211 0.20437774163936639 0 -0.17818164061184991 0.21367693965203541 0 -0.17776693232203211 0.20437774163936639 0 -0.17253920632964651 0.21000069251756551 0 -0.16904392573188121 0.20342220360345159 0 -0.17776693232203211 0.20437774163936639 0 -0.17253920632964651 0.21000069251756551 0 -0.16904392573188121 0.20342220360345159 0 -0.17776693232203211 0.20437774163936639 0 -0.17276587108190189 0.19767757631121291 0 -0.17776693232203211 0.20437774163936639 0 -0.17276587108190189 0.19767757631121291 0 -0.17956029289173631 0.19237687316980601 0 -0.1875850248386885 0.20140763374264961 0 -0.17776693232203211 0.20437774163936639 0 -0.17956029289173631 0.19237687316980601 0 -0.19433730412142111 0.1886665377164787 0 -0.1875850248386885 0.20140763374264961 0 -0.17956029289173631 0.19237687316980601 0 -0.19433730412142111 0.1886665377164787 0 -0.17956029289173631 0.19237687316980601 0 -0.183138513096964 0.182362663805683 0 -0.17956029289173631 0.19237687316980601 0 -0.17147151345177519 0.19152776440418329 0 -0.1737017745532608 0.18300950596330409 0 -0.17276587108190189 0.19767757631121291 0 -0.17956029289173631 0.19237687316980601 0 -0.17147151345177519 0.19152776440418329 0 -0.17147151345177519 0.19152776440418329 0 -0.16465775327091731 0.19608645317528331 0 -0.16639199840515251 0.1868982951669392 0 -0.17276587108190189 0.19767757631121291 0 -0.17147151345177519 0.19152776440418329 0 -0.16465775327091731 0.19608645317528331 0 -0.16904392573188121 0.20342220360345159 0 -0.17276587108190189 0.19767757631121291 0 -0.16465775327091731 0.19608645317528331 0 -0.1615879418803895 0.2067051863967127 0 -0.16904392573188121 0.20342220360345159 0 -0.16465775327091731 0.19608645317528331 0 -0.1615879418803895 0.2067051863967127 0 -0.16465775327091731 0.19608645317528331 0 -0.15694594002853321 0.20009757627232011 0 -0.16465775327091731 0.19608645317528331 0 -0.15694594002853321 0.20009757627232011 0 -0.15853059346726131 0.19428166094192259 0 -0.16465775327091731 0.19608645317528331 0 -0.15853059346726131 0.19428166094192259 0 -0.15983426769858869 0.18818985284880971 0 -0.15853059346726131 0.19428166094192259 0 -0.15983426769858869 0.18818985284880971 0 -0.1526844128710059 0.1927527614712774 0 -0.16465775327091731 0.19608645317528331 0 -0.15983426769858869 0.18818985284880971 0 -0.16639199840515251 0.1868982951669392 0 -0.15983426769858869 0.18818985284880971 0 -0.1526844128710059 0.1927527614712774 0 -0.15447927321896621 0.183407935251511 0 -0.15694594002853321 0.20009757627232011 0 -0.1526844128710059 0.1927527614712774 0 -0.14557202760445501 0.20275735262174349 0 -0.15694594002853321 0.20009757627232011 0 -0.15853059346726131 0.19428166094192259 0 -0.1526844128710059 0.1927527614712774 0 -0.1526844128710059 0.1927527614712774 0 -0.14557202760445501 0.20275735262174349 0 -0.13994247989310329 0.19473523720537189 0 -0.1526844128710059 0.1927527614712774 0 -0.13994247989310329 0.19473523720537189 0 -0.14580877462958261 0.18394706165292779 0 -0.13994247989310329 0.19473523720537189 0 -0.13680333753250479 0.18378791911239339 0 -0.12433600025794909 0.1888934339135554 0 -0.13994247989310329 0.19473523720537189 0 -0.13072257227252371 0.2043085834578636 0 -0.12433600025794909 0.1888934339135554 0 -0.14557202760445501 0.20275735262174349 0 -0.13994247989310329 0.19473523720537189 0 -0.13072257227252371 0.2043085834578636 0 -0.14557202760445501 0.20275735262174349 0 -0.13072257227252371 0.2043085834578636 0 -0.140605547348331 0.2136461244634385 0 -0.13072257227252371 0.2043085834578636 0 -0.140605547348331 0.2136461244634385 0 -0.12791279364405631 0.2247525491699707 0 -0.140605547348331 0.2136461244634385 0 -0.15344118670155049 0.21138439532041539 0 -0.14819666574411289 0.22542755326032679 0 -0.14557202760445501 0.20275735262174349 0 -0.140605547348331 0.2136461244634385 0 -0.15344118670155049 0.21138439532041539 0 -0.15694594002853321 0.20009757627232011 0 -0.14557202760445501 0.20275735262174349 0 -0.15344118670155049 0.21138439532041539 0 -0.14819666574411289 0.22542755326032679 0 -0.12791279364405631 0.2247525491699707 0 -0.14785804040652151 0.24159517227814109 0 -0.16252225947873411 0.23262383874051079 0 -0.14819666574411289 0.22542755326032679 0 -0.14785804040652151 0.24159517227814109 0 -0.1584531153883679 0.22097000172295919 0 -0.15344118670155049 0.21138439532041539 0 -0.14819666574411289 0.22542755326032679 0 -0.140605547348331 0.2136461244634385 0 -0.14819666574411289 0.22542755326032679 0 -0.12791279364405631 0.2247525491699707 0 -0.12791279364405631 0.2247525491699707 0 -0.13574780703940201 0.2457674948930661 0 -0.1238558918948755 0.24585549267607229 0 -0.12791279364405631 0.2247525491699707 0 -0.13574780703940201 0.2457674948930661 0 -0.14848436726826189 0.24606264326291691 0 -0.12791279364405631 0.2247525491699707 0 -0.14848436726826189 0.24606264326291691 0 -0.13218935898252701 0.25468258074821709 0 -0.13574780703940201 0.2457674948930661 0 -0.1238558918948755 0.24585549267607229 0 -0.12791279364405631 0.2247525491699707 0 -0.14785804040652151 0.24159517227814109 0 -0.14848436726826189 0.24606264326291691 0 -0.1425475155209586 0.25127379529260208 0 -0.13574780703940201 0.2457674948930661 0 -0.14848436726826189 0.24606264326291691 0 -0.15695146594595341 0.24240831339349089 0 -0.16252225947873411 0.23262383874051079 0 -0.14785804040652151 0.24159517227814109 0 -0.16252225947873411 0.23262383874051079 0 -0.14785804040652151 0.24159517227814109 0 -0.15695146594595341 0.24240831339349089 0 -0.14785804040652151 0.24159517227814109 0 -0.14848436726826189 0.24606264326291691 0 -0.16032836684724089 0.15582009882552869 0 -0.17613280713273841 0.15145553761029321 0 -0.1525704759102591 0.15118011221362071 0 -0.16032836684724089 0.15582009882552869 0 -0.17613280713273841 0.15145553761029321 0 -0.16618433890533421 0.1590395974353436 0 -0.1644328719110329 0.1422946624398142 0 -0.17613280713273841 0.15145553761029321 0 -0.1525704759102591 0.15118011221362071 0 -0.17613280713273841 0.15145553761029321 0 -0.1525704759102591 0.15118011221362071 0 -0.16032836684724089 0.15582009882552869 0 -0.1551059648224396 0.1581060880764398 0 -0.15384838906372561 0.15404999472305231 0 -0.1644328719110329 0.1422946624398142 0 -0.15519430554294311 0.14133969290320669 0 -0.1525704759102591 0.15118011221362071 0 -0.1644328719110329 0.1422946624398142 0 -0.15807697480264521 0.13450745742989631 0 -0.15519430554294311 0.14133969290320669 0 -0.1644328719110329 0.1422946624398142 0 -0.15807697480264521 0.13450745742989631 0 -0.16857284444025539 0.12882542857639689 0 -0.15807697480264521 0.13450745742989631 0 -0.16857284444025539 0.12882542857639689 0 -0.15569189489731561 0.12536993684311529 0 -0.1644328719110329 0.1422946624398142 0 -0.16857284444025539 0.12882542857639689 0 -0.17544646894048971 0.13844143883324131 0 -0.17951564659709091 0.124071201996113 0 -0.16857284444025539 0.12882542857639689 0 -0.17544646894048971 0.13844143883324131 0 -0.17951564659709091 0.124071201996113 0 -0.17544646894048971 0.13844143883324131 0 -0.18686809023678161 0.1353539697309262 0 -0.17544646894048971 0.13844143883324131 0 -0.18686809023678161 0.1353539697309262 0 -0.17613280713273841 0.15145553761029321 0 -0.1644328719110329 0.1422946624398142 0 -0.17544646894048971 0.13844143883324131 0 -0.17613280713273841 0.15145553761029321 0 -0.18963524382255589 0.17360457102488011 0 -0.1827423689630816 0.1621787099993714 0 -0.17856219017270139 0.17326655982003231 0 -0.17212832835506611 0.16451590467507729 0 -0.17856219017270139 0.17326655982003231 0 -0.17015340654382441 0.17416603291929539 0 -0.1827423689630816 0.1621787099993714 0 -0.17212832835506611 0.16451590467507729 0 -0.17856219017270139 0.17326655982003231 0 -0.17613280713273841 0.15145553761029321 0 -0.1827423689630816 0.1621787099993714 0 -0.17212832835506611 0.16451590467507729 0 -0.18963524382255589 0.17360457102488011 0 -0.183138513096964 0.182362663805683 0 -0.17856219017270139 0.17326655982003231 0 -0.183138513096964 0.182362663805683 0 -0.17856219017270139 0.17326655982003231 0 -0.1737017745532608 0.18300950596330409 0 -0.17856219017270139 0.17326655982003231 0 -0.1737017745532608 0.18300950596330409 0 -0.17015340654382441 0.17416603291929539 0 -0.17956029289173631 0.19237687316980601 0 -0.183138513096964 0.182362663805683 0 -0.1737017745532608 0.18300950596330409 0 -0.17147151345177519 0.19152776440418329 0 -0.1737017745532608 0.18300950596330409 0 -0.16639199840515251 0.1868982951669392 0 -0.1737017745532608 0.18300950596330409 0 -0.16639199840515251 0.1868982951669392 0 -0.16663450731067189 0.18046835245718981 0 -0.16639199840515251 0.1868982951669392 0 -0.16663450731067189 0.18046835245718981 0 -0.16104259838173521 0.18198249498446789 0 -0.1737017745532608 0.18300950596330409 0 -0.16663450731067189 0.18046835245718981 0 -0.17015340654382441 0.17416603291929539 0 -0.16663450731067189 0.18046835245718981 0 -0.17015340654382441 0.17416603291929539 0 -0.16299332768103869 0.17551804525476611 0 -0.17015340654382441 0.17416603291929539 0 -0.16299332768103869 0.17551804525476611 0 -0.16504099553930859 0.16968224316423161 0 -0.16299332768103869 0.17551804525476611 0 -0.15707475117678099 0.17717457966677819 0 -0.15801370713391111 0.16963456833663371 0 -0.16663450731067189 0.18046835245718981 0 -0.16299332768103869 0.17551804525476611 0 -0.16104259838173521 0.18198249498446789 0 -0.16299332768103869 0.17551804525476611 0 -0.15707475117678099 0.17717457966677819 0 -0.16104259838173521 0.18198249498446789 0 -0.15707475117678099 0.17717457966677819 0 -0.16104259838173521 0.18198249498446789 0 -0.15447927321896621 0.183407935251511 0 -0.15983426769858869 0.18818985284880971 0 -0.16104259838173521 0.18198249498446789 0 -0.15447927321896621 0.183407935251511 0 -0.15983426769858869 0.18818985284880971 0 -0.16639199840515251 0.1868982951669392 0 -0.16104259838173521 0.18198249498446789 0 -0.17613280713273841 0.15145553761029321 0 -0.17212832835506611 0.16451590467507729 0 -0.16618433890533421 0.1590395974353436 0 -0.17212832835506611 0.16451590467507729 0 -0.16618433890533421 0.1590395974353436 0 -0.1638918444264901 0.16399194347069579 0 -0.17212832835506611 0.16451590467507729 0 -0.16504099553930859 0.16968224316423161 0 -0.1638918444264901 0.16399194347069579 0 -0.17212832835506611 0.16451590467507729 0 -0.17015340654382441 0.17416603291929539 0 -0.16504099553930859 0.16968224316423161 0 -0.15801370713391111 0.16963456833663371 0 -0.1581282252489486 0.16108926289442421 0 -0.1638918444264901 0.16399194347069579 0 -0.16504099553930859 0.16968224316423161 0 -0.15801370713391111 0.16963456833663371 0 -0.1638918444264901 0.16399194347069579 0 -0.16299332768103869 0.17551804525476611 0 -0.16504099553930859 0.16968224316423161 0 -0.15801370713391111 0.16963456833663371 0 -0.16032836684724089 0.15582009882552869 0 -0.16618433890533421 0.1590395974353436 0 -0.1581282252489486 0.16108926289442421 0 -0.16618433890533421 0.1590395974353436 0 -0.1581282252489486 0.16108926289442421 0 -0.1638918444264901 0.16399194347069579 0 -0.16032836684724089 0.15582009882552869 0 -0.1581282252489486 0.16108926289442421 0 -0.1551059648224396 0.1581060880764398 0 -0.15147741799329301 0.16031222451578089 0 -0.14473061671703741 0.159975931900148 0 -0.15384838906372561 0.15404999472305231 0 -0.1581282252489486 0.16108926289442421 0 -0.1551059648224396 0.1581060880764398 0 -0.15147741799329301 0.16031222451578089 0 -0.1551059648224396 0.1581060880764398 0 -0.15147741799329301 0.16031222451578089 0 -0.15384838906372561 0.15404999472305231 0 -0.15147741799329301 0.16031222451578089 0 -0.15038016951169009 0.1666029926941596 0 -0.14473061671703741 0.159975931900148 0 -0.1581282252489486 0.16108926289442421 0 -0.15147741799329301 0.16031222451578089 0 -0.15038016951169009 0.1666029926941596 0 -0.15801370713391111 0.16963456833663371 0 -0.15038016951169009 0.1666029926941596 0 -0.1502733167163959 0.17512646437406071 0 -0.15801370713391111 0.16963456833663371 0 -0.1581282252489486 0.16108926289442421 0 -0.15038016951169009 0.1666029926941596 0 -0.15038016951169009 0.1666029926941596 0 -0.14473061671703741 0.159975931900148 0 -0.14132721619718219 0.17384007547252689 0 -0.15038016951169009 0.1666029926941596 0 -0.1502733167163959 0.17512646437406071 0 -0.14132721619718219 0.17384007547252689 0 -0.15447927321896621 0.183407935251511 0 -0.1502733167163959 0.17512646437406071 0 -0.14580877462958261 0.18394706165292779 0 -0.1526844128710059 0.1927527614712774 0 -0.15447927321896621 0.183407935251511 0 -0.14580877462958261 0.18394706165292779 0 -0.15707475117678099 0.17717457966677819 0 -0.15447927321896621 0.183407935251511 0 -0.1502733167163959 0.17512646437406071 0 -0.15707475117678099 0.17717457966677819 0 -0.15801370713391111 0.16963456833663371 0 -0.1502733167163959 0.17512646437406071 0 -0.1502733167163959 0.17512646437406071 0 -0.14132721619718219 0.17384007547252689 0 -0.14580877462958261 0.18394706165292779 0 -0.14132721619718219 0.17384007547252689 0 -0.14580877462958261 0.18394706165292779 0 -0.13680333753250479 0.18378791911239339 0 -0.13994247989310329 0.19473523720537189 0 -0.14580877462958261 0.18394706165292779 0 -0.13680333753250479 0.18378791911239339 0 -0.14132721619718219 0.17384007547252689 0 -0.13680333753250479 0.18378791911239339 0 -0.12801773144507661 0.1759548492759932 0 -0.13680333753250479 0.18378791911239339 0 -0.12801773144507661 0.1759548492759932 0 -0.12433600025794909 0.1888934339135554 0 -0.14473061671703741 0.159975931900148 0 -0.13004110708937691 0.16344291575557759 0 -0.13620409579971399 0.1509888019102584 0 -0.14473061671703741 0.159975931900148 0 -0.14132721619718219 0.17384007547252689 0 -0.13004110708937691 0.16344291575557759 0 -0.14132721619718219 0.17384007547252689 0 -0.12801773144507661 0.1759548492759932 0 -0.13004110708937691 0.16344291575557759 0 -0.13620409579971399 0.1509888019102584 0 -0.14583385197982271 0.1360512913402577 0 -0.12946747186928001 0.1358599810368962 0 -0.13620409579971399 0.1509888019102584 0 -0.1198377156891688 0.1507974916068982 0 -0.13004110708937691 0.16344291575557759 0 -0.13620409579971399 0.1509888019102584 0 -0.1198377156891688 0.1507974916068982 0 -0.13620409579971399 0.1509888019102584 0 -0.12946747186928001 0.1358599810368962 0 -0.1198377156891688 0.1507974916068982 0 -0.13620409579971399 0.1509888019102584 0 -0.1525704759102591 0.15118011221362071 0 -0.14473061671703741 0.159975931900148 0 -0.13620409579971399 0.1509888019102584 0 -0.1525704759102591 0.15118011221362071 0 -0.13620409579971399 0.1509888019102584 0 -0.1525704759102591 0.15118011221362071 0 -0.14583385197982271 0.1360512913402577 0 -0.15519430554294311 0.14133969290320669 0 -0.1525704759102591 0.15118011221362071 0 -0.14583385197982271 0.1360512913402577 0 -0.1525704759102591 0.15118011221362071 0 -0.14583385197982271 0.1360512913402577 0 -0.14473061671703741 0.159975931900148 0 -0.1525704759102591 0.15118011221362071 0 -0.15384838906372561 0.15404999472305231 0 -0.16032836684724089 0.15582009882552869 0 -0.1525704759102591 0.15118011221362071 0 -0.15384838906372561 0.15404999472305231 0 -0.1525704759102591 0.15118011221362071 0 -0.15384838906372561 0.15404999472305231 0 -0.13909722804938979 0.12092247046689331 0 -0.15569189489731561 0.12536993684311529 0 -0.14583385197982271 0.1360512913402577 0 -0.15807697480264521 0.13450745742989631 0 -0.15569189489731561 0.12536993684311529 0 -0.14583385197982271 0.1360512913402577 0 -0.15807697480264521 0.13450745742989631 0 -0.15519430554294311 0.14133969290320669 0 -0.14583385197982271 0.1360512913402577 0 -0.13909722804938979 0.12092247046689331 0 -0.14583385197982271 0.1360512913402577 0 -0.13909722804938979 0.12092247046689331 0 -0.12946747186928001 0.1358599810368962 0 -0.13909722804938979 0.12092247046689331 0 -0.14583385197982271 0.1360512913402577 0 -0.12946747186928001 0.1358599810368962 0 -0.13909722804938979 0.12092247046689331 0 -0.12946747186928001 0.1358599810368962 0 -0.1240129492088249 0.1221724056033639 0 -0.12946747186928001 0.1358599810368962 0 -0.1081645267407164 0.13277680644487461 0 -0.1198377156891688 0.1507974916068982 0 -0.12946747186928001 0.1358599810368962 0 -0.1081645267407164 0.13277680644487461 0 -0.1240129492088249 0.1221724056033639 0 -0.1081645267407164 0.13277680644487461 0 -0.086988272730917707 0.13809771398926091 0 -0.087597337848493273 0.1207512935143198 0 -0.1081645267407164 0.13277680644487461 0 -0.098699764771330037 0.15055040533765501 0 -0.086988272730917707 0.13809771398926091 0 -0.098699764771330037 0.15055040533765501 0 -0.1198377156891688 0.1507974916068982 0 -0.1081645267407164 0.13277680644487461 0 -0.098699764771330037 0.15055040533765501 0 -0.1198377156891688 0.1507974916068982 0 -0.12946747186928001 0.1358599810368962 0 -0.1198377156891688 0.1507974916068982 0 -0.1198377156891688 0.1507974916068982 0 -0.1075809961483699 0.16980990212591271 0 -0.12801773144507661 0.1759548492759932 0 -0.13004110708937691 0.16344291575557759 0 -0.1075809961483699 0.16980990212591271 0 -0.13004110708937691 0.16344291575557759 0 -0.1198377156891688 0.1507974916068982 0 -0.1075809961483699 0.16980990212591271 0 -0.12801773144507661 0.1759548492759932 0 -0.1075809961483699 0.16980990212591271 0 -0.12433600025794909 0.1888934339135554 0 -0.1075809961483699 0.16980990212591271 0 -0.12433600025794909 0.1888934339135554 0 -0.1092240167607982 0.19043559082027289 0 -0.1075809961483699 0.16980990212591271 0 -0.095324276607569869 0.1888223126449263 0 -0.1075809961483699 0.16980990212591271 0 -0.089178340119849375 0.17990185571001591 0 -0.095324276607569869 0.1888223126449263 0 -0.1075809961483699 0.16980990212591271 0 -0.1092240167607982 0.19043559082027289 0 -0.095324276607569869 0.1888223126449263 0 -0.098699764771330037 0.15055040533765501 0 -0.1198377156891688 0.1507974916068982 0 -0.1075809961483699 0.16980990212591271 0 -0.1075809961483699 0.16980990212591271 0 -0.092677019150156539 0.16481673491381671 0 -0.089178340119849375 0.17990185571001591 0 -0.098699764771330037 0.15055040533765501 0 -0.1075809961483699 0.16980990212591271 0 -0.092677019150156539 0.16481673491381671 0 -0.098699764771330037 0.15055040533765501 0 -0.092677019150156539 0.16481673491381671 0 -0.083808257351213708 0.15892555251241011 0 -0.092677019150156539 0.16481673491381671 0 -0.078649295678902706 0.16672023618718229 0 -0.089178340119849375 0.17990185571001591 0 -0.092677019150156539 0.16481673491381671 0 -0.078649295678902706 0.16672023618718229 0 -0.083808257351213708 0.15892555251241011 0 -0.089178340119849375 0.17990185571001591 0 -0.06842172927117092 0.18538003230583891 0 -0.080485418640461298 0.19209423792358621 0 -0.089178340119849375 0.17990185571001591 0 -0.095324276607569869 0.1888223126449263 0 -0.080485418640461298 0.19209423792358621 0 -0.089178340119849375 0.17990185571001591 0 -0.060690563474574792 0.17117617036072699 0 -0.089178340119849375 0.17990185571001591 0 -0.06842172927117092 0.18538003230583891 0 -0.060690563474574792 0.17117617036072699 0 -0.078649295678902706 0.16672023618718229 0 -0.089178340119849375 0.17990185571001591 0 -0.060690563474574792 0.17117617036072699 0 -0.078649295678902706 0.16672023618718229 0 -0.06807265553529962 0.15895148248127819 0 -0.060690563474574792 0.17117617036072699 0 -0.078649295678902706 0.16672023618718229 0 -0.083808257351213708 0.15892555251241011 0 -0.06807265553529962 0.15895148248127819 0 -0.077561813853491257 0.15030331906841241 0 -0.071687015383930186 0.14224587127074109 0 -0.056423862935652547 0.15005623279917099 0 -0.06807265553529962 0.15895148248127819 0 -0.077561813853491257 0.15030331906841241 0 -0.056423862935652547 0.15005623279917099 0 -0.077561813853491257 0.15030331906841241 0 -0.056423862935652547 0.15005623279917099 0 -0.083808257351213708 0.15892555251241011 0 -0.06807265553529962 0.15895148248127819 0 -0.077561813853491257 0.15030331906841241 0 -0.071687015383930186 0.14224587127074109 0 -0.056423862935652547 0.15005623279917099 0 -0.071687015383930186 0.14224587127074109 0 -0.062067005767669443 0.13813112224013691 0 -0.056423862935652547 0.15005623279917099 0 -0.071687015383930186 0.14224587127074109 0 -0.075185306741824692 0.13236024978480129 0 -0.062067005767669443 0.13813112224013691 0 -0.075185306741824692 0.13236024978480129 0 -0.067586901978112818 0.12257524790954789 0 -0.087597337848493273 0.1207512935143198 0 -0.075185306741824692 0.13236024978480129 0 -0.062067005767669443 0.13813112224013691 0 -0.067586901978112818 0.12257524790954789 0 -0.071687015383930186 0.14224587127074109 0 -0.075185306741824692 0.13236024978480129 0 -0.086988272730917707 0.13809771398926091 0 -0.075185306741824692 0.13236024978480129 0 -0.086988272730917707 0.13809771398926091 0 -0.087597337848493273 0.1207512935143198 0 -0.098699764771330037 0.15055040533765501 0 -0.077561813853491257 0.15030331906841241 0 -0.098699764771330037 0.15055040533765501 0 -0.077561813853491257 0.15030331906841241 0 -0.086988272730917707 0.13809771398926091 0 -0.098699764771330037 0.15055040533765501 0 -0.083808257351213708 0.15892555251241011 0 -0.077561813853491257 0.15030331906841241 0 -0.077561813853491257 0.15030331906841241 0 -0.071687015383930186 0.14224587127074109 0 -0.086988272730917707 0.13809771398926091 0 -0.094419367083935696 0.2541287094804705 0 -0.094608679571589305 0.23706580411560621 0 -0.1105006514436046 0.23864780213626879 0 -0.094419367083935696 0.2541287094804705 0 -0.11332233907812909 0.25480978493684808 0 -0.1105006514436046 0.23864780213626879 0 -0.12791279364405631 0.2247525491699707 0 -0.1105006514436046 0.23864780213626879 0 -0.1238558918948755 0.24585549267607229 0 -0.11332233907812909 0.25480978493684808 0 -0.1105006514436046 0.23864780213626879 0 -0.1238558918948755 0.24585549267607229 0 -0.12791279364405631 0.2247525491699707 0 -0.1105006514436046 0.23864780213626879 0 -0.1024192716577649 0.2217288696393043 0 -0.094608679571589305 0.23706580411560621 0 -0.1024192716577649 0.2217288696393043 0 -0.085110907413110892 0.22533040482376959 0 -0.094608679571589305 0.23706580411560621 0 -0.1105006514436046 0.23864780213626879 0 -0.1024192716577649 0.2217288696393043 0 -0.1024192716577649 0.2217288696393043 0 -0.10002780393171171 0.20439479436993249 0 -0.083067557066769812 0.20783472316394 0 -0.1024192716577649 0.2217288696393043 0 -0.10002780393171171 0.20439479436993249 0 -0.1154885474690004 0.20504900895690789 0 -0.12791279364405631 0.2247525491699707 0 -0.1024192716577649 0.2217288696393043 0 -0.1154885474690004 0.20504900895690789 0 -0.13072257227252371 0.2043085834578636 0 -0.12791279364405631 0.2247525491699707 0 -0.1154885474690004 0.20504900895690789 0 -0.1154885474690004 0.20504900895690789 0 -0.12433600025794909 0.1888934339135554 0 -0.1092240167607982 0.19043559082027289 0 -0.13072257227252371 0.2043085834578636 0 -0.1154885474690004 0.20504900895690789 0 -0.12433600025794909 0.1888934339135554 0 -0.10002780393171171 0.20439479436993249 0 -0.1154885474690004 0.20504900895690789 0 -0.1092240167607982 0.19043559082027289 0 -0.10002780393171171 0.20439479436993249 0 -0.1092240167607982 0.19043559082027289 0 -0.095324276607569869 0.1888223126449263 0 -0.095324276607569869 0.1888223126449263 0 -0.083067557066769812 0.20783472316394 0 -0.10002780393171171 0.20439479436993249 0 -0.095324276607569869 0.1888223126449263 0 -0.083067557066769812 0.20783472316394 0 -0.095324276607569869 0.1888223126449263 0 -0.080485418640461298 0.19209423792358621 0 -0.083067557066769812 0.20783472316394 0 -0.080485418640461298 0.19209423792358621 0 -0.065928581812116277 0.19736169137269821 0 -0.083067557066769812 0.20783472316394 0 -0.06842172927117092 0.18538003230583891 0 -0.080485418640461298 0.19209423792358621 0 -0.065928581812116277 0.19736169137269821 0 -0.065928581812116277 0.19736169137269821 0 -0.070216184433915696 0.21775929476900871 0 -0.054162905514380619 0.22019796982407891 0 -0.065928581812116277 0.19736169137269821 0 -0.070216184433915696 0.21775929476900871 0 -0.083067557066769812 0.20783472316394 0 -0.070216184433915696 0.21775929476900871 0 -0.083067557066769812 0.20783472316394 0 -0.085110907413110892 0.22533040482376959 0 -0.1024192716577649 0.2217288696393043 0 -0.083067557066769812 0.20783472316394 0 -0.085110907413110892 0.22533040482376959 0 -0.070216184433915696 0.21775929476900871 0 -0.085110907413110892 0.22533040482376959 0 -0.073834855934457877 0.24141335820277049 0 -0.070216184433915696 0.21775929476900871 0 -0.073834855934457877 0.24141335820277049 0 -0.059173021582836272 0.23459367480320981 0 -0.073834855934457877 0.24141335820277049 0 -0.060366595154730002 0.24980608077318411 0 -0.059173021582836272 0.23459367480320981 0 -0.094608679571589305 0.23706580411560621 0 -0.085110907413110892 0.22533040482376959 0 -0.073834855934457877 0.24141335820277049 0 -0.094419367083935696 0.2541287094804705 0 -0.094608679571589305 0.23706580411560621 0 -0.073834855934457877 0.24141335820277049 0 -0.031948649257811358 0.2390360816928537 0 -0.042397229216644967 0.24303424827545961 0 -0.038347954365463767 0.2264988993100166 0 -0.031948649257811358 0.2390360816928537 0 -0.042397229216644967 0.24303424827545961 0 -0.026607954193611769 0.2493988747302498 0 -0.042397229216644967 0.24303424827545961 0 -0.060366595154730002 0.24980608077318411 0 -0.059173021582836272 0.23459367480320981 0 -0.070216184433915696 0.21775929476900871 0 -0.059173021582836272 0.23459367480320981 0 -0.054162905514380619 0.22019796982407891 0 -0.042397229216644967 0.24303424827545961 0 -0.059173021582836272 0.23459367480320981 0 -0.054162905514380619 0.22019796982407891 0 -0.042397229216644967 0.24303424827545961 0 -0.054162905514380619 0.22019796982407891 0 -0.042397229216644967 0.24303424827545961 0 -0.054162905514380619 0.22019796982407891 0 -0.038347954365463767 0.2264988993100166 0 -0.038347954365463767 0.2264988993100166 0 -0.034205048888580038 0.20964671444791261 0 -0.022584355468306581 0.23292722273365751 0 -0.054162905514380619 0.22019796982407891 0 -0.038347954365463767 0.2264988993100166 0 -0.034205048888580038 0.20964671444791261 0 -0.054162905514380619 0.22019796982407891 0 -0.034205048888580038 0.20964671444791261 0 -0.050030569630982458 0.2033931454517143 0 -0.065928581812116277 0.19736169137269821 0 -0.054162905514380619 0.22019796982407891 0 -0.065928581812116277 0.19736169137269821 0 -0.054162905514380619 0.22019796982407891 0 -0.050030569630982458 0.2033931454517143 0 -0.065928581812116277 0.19736169137269821 0 -0.050030569630982458 0.2033931454517143 0 -0.04582574230885289 0.1863662061621674 0 -0.06842172927117092 0.18538003230583891 0 -0.065928581812116277 0.19736169137269821 0 -0.04582574230885289 0.1863662061621674 0 -0.034205048888580038 0.20964671444791261 0 -0.04582574230885289 0.1863662061621674 0 -0.034205048888580038 0.20964671444791261 0 -0.050030569630982458 0.2033931454517143 0 -0.04582574230885289 0.1863662061621674 0 -0.034205048888580038 0.20964671444791261 0 -0.030223242769515869 0.19643355587761649 0 -0.04582574230885289 0.1863662061621674 0 -0.030223242769515869 0.19643355587761649 0 -0.04582574230885289 0.1863662061621674 0 -0.025394881988052748 0.1859296137103176 0 -0.01546729789257782 0.20379168919006871 0 -0.025394881988052748 0.1859296137103176 0 -0.0080804673240217166 0.173551769459069 0 -0.030223242769515869 0.19643355587761649 0 -0.01546729789257782 0.20379168919006871 0 -0.025394881988052748 0.1859296137103176 0 -0.01546729789257782 0.20379168919006871 0 -0.0075100909935939654 0.1750860714174641 0 0.0010354531721193309 0.1980734298502804 0 -0.01546729789257782 0.20379168919006871 0 -0.0080804673240217166 0.173551769459069 0 -0.01546729789257782 0.20379168919006871 0 -0.0047117038411451876 0.2156921999853775 0 -0.022584355468306581 0.23292722273365751 0 -0.01546729789257782 0.20379168919006871 0 -0.0047117038411451876 0.2156921999853775 0 0.0010354531721193309 0.1980734298502804 0 -0.034205048888580038 0.20964671444791261 0 -0.01546729789257782 0.20379168919006871 0 -0.022584355468306581 0.23292722273365751 0 -0.01546729789257782 0.20379168919006871 0 -0.022584355468306581 0.23292722273365751 0 -0.034205048888580038 0.20964671444791261 0 -0.030223242769515869 0.19643355587761649 0 -0.01546729789257782 0.20379168919006871 0 -0.031948649257811358 0.2390360816928537 0 -0.038347954365463767 0.2264988993100166 0 -0.022584355468306581 0.23292722273365751 0 -0.034205048888580038 0.20964671444791261 0 -0.022584355468306581 0.23292722273365751 0 -0.022584355468306581 0.23292722273365751 0 -0.0067799901656662364 0.22965509042738519 0 -0.01389542804982434 0.2379350868161324 0 -0.0047117038411451876 0.2156921999853775 0 -0.022584355468306581 0.23292722273365751 0 -0.0067799901656662364 0.22965509042738519 0 -0.0047117038411451876 0.2156921999853775 0 -0.0067799901656662364 0.22965509042738519 0 0.00048835994026151497 0.22446645239625429 0 -0.0067799901656662364 0.22965509042738519 0 0.0032341845024103301 0.23329049900368271 0 0.00048835994026151497 0.22446645239625429 0 -0.0067799901656662364 0.22965509042738519 0 -0.0052725913194227019 0.23834947606816001 0 0.0032341845024103301 0.23329049900368271 0 -0.0067799901656662364 0.22965509042738519 0 -0.01389542804982434 0.2379350868161324 0 -0.0052725913194227019 0.23834947606816001 0 -0.01129333948663643 0.24599948298869609 0 0.002868069763145869 0.24330852020286761 0 0.0076893730913138083 0.25651749406871249 0 -0.01389542804982434 0.2379350868161324 0 -0.0052725913194227019 0.23834947606816001 0 -0.01129333948663643 0.24599948298869609 0 -0.0052725913194227019 0.23834947606816001 0 -0.01129333948663643 0.24599948298869609 0 0.002868069763145869 0.24330852020286761 0 -0.01399701172863455 0.25013081978710272 0 -0.01389542804982434 0.2379350868161324 0 -0.01129333948663643 0.24599948298869609 0 -0.031948649257811358 0.2390360816928537 0 -0.022584355468306581 0.23292722273365751 0 -0.026607954193611769 0.2493988747302498 0 -0.01399701172863455 0.25013081978710272 0 -0.022584355468306581 0.23292722273365751 0 -0.01389542804982434 0.2379350868161324 0 -0.01399701172863455 0.25013081978710272 0 -0.022584355468306581 0.23292722273365751 0 -0.01399701172863455 0.25013081978710272 0 -0.022584355468306581 0.23292722273365751 0 -0.026607954193611769 0.2493988747302498 0 -0.022584355468306581 0.23292722273365751 0 -0.026607954193611769 0.2493988747302498 0 -0.041744593469785353 0.1498846435121276 0 -0.056423862935652547 0.15005623279917099 0 -0.032202786829299668 0.1624504850114393 0 -0.041744593469785353 0.1498846435121276 0 -0.032202786829299668 0.1624504850114393 0 -0.027795020198956841 0.15052075348947899 0 -0.041744593469785353 0.1498846435121276 0 -0.032121323235995043 0.1382100905072311 0 -0.027795020198956841 0.15052075348947899 0 -0.032121323235995043 0.1382100905072311 0 -0.050778530927625291 0.13358538033325729 0 -0.039986688155642262 0.1227899012845101 0 -0.041744593469785353 0.1498846435121276 0 -0.032121323235995043 0.1382100905072311 0 -0.050778530927625291 0.13358538033325729 0 -0.032121323235995043 0.1382100905072311 0 -0.02899991965232792 0.1234060587075974 0 -0.039986688155642262 0.1227899012845101 0 -0.050778530927625291 0.13358538033325729 0 -0.062067005767669443 0.13813112224013691 0 -0.067586901978112818 0.12257524790954789 0 -0.050778530927625291 0.13358538033325729 0 -0.062067005767669443 0.13813112224013691 0 -0.056423862935652547 0.15005623279917099 0 -0.041744593469785353 0.1498846435121276 0 -0.050778530927625291 0.13358538033325729 0 -0.056423862935652547 0.15005623279917099 0 -0.041744593469785353 0.1498846435121276 0 -0.056423862935652547 0.15005623279917099 0 -0.056423862935652547 0.15005623279917099 0 -0.060690563474574792 0.17117617036072699 0 -0.032202786829299668 0.1624504850114393 0 -0.06807265553529962 0.15895148248127819 0 -0.056423862935652547 0.15005623279917099 0 -0.060690563474574792 0.17117617036072699 0 -0.06842172927117092 0.18538003230583891 0 -0.060690563474574792 0.17117617036072699 0 -0.04582574230885289 0.1863662061621674 0 -0.060690563474574792 0.17117617036072699 0 -0.039541016698379373 0.17640802760495791 0 -0.04582574230885289 0.1863662061621674 0 -0.039541016698379373 0.17640802760495791 0 -0.04582574230885289 0.1863662061621674 0 -0.025394881988052748 0.1859296137103176 0 -0.039541016698379373 0.17640802760495791 0 -0.032202786829299668 0.1624504850114393 0 -0.025394881988052748 0.1859296137103176 0 -0.060690563474574792 0.17117617036072699 0 -0.039541016698379373 0.17640802760495791 0 -0.032202786829299668 0.1624504850114393 0 -0.056423862935652547 0.15005623279917099 0 -0.032202786829299668 0.1624504850114393 0 -0.060690563474574792 0.17117617036072699 0 -0.032202786829299668 0.1624504850114393 0 -0.032202786829299668 0.1624504850114393 0 -0.0080804673240217166 0.173551769459069 0 -0.01425140718047605 0.15695205344369251 0 -0.032202786829299668 0.1624504850114393 0 -0.01425140718047605 0.15695205344369251 0 -0.027795020198956841 0.15052075348947899 0 -0.032202786829299668 0.1624504850114393 0 -0.01425140718047605 0.15695205344369251 0 -0.032202786829299668 0.1624504850114393 0 -0.0080804673240217166 0.173551769459069 0 -0.032202786829299668 0.1624504850114393 0 -0.025394881988052748 0.1859296137103176 0 -0.0080804673240217166 0.173551769459069 0 -0.01546729789257782 0.20379168919006871 0 -0.0080804673240217166 0.173551769459069 0 -0.0075100909935939654 0.1750860714174641 0 -0.0075100909935939654 0.1750860714174641 0 0.0010354531721193309 0.1980734298502804 0 -0.0075100909935939654 0.1750860714174641 0 0.0066819624712132694 0.18234833711038231 0 -0.0080804673240217166 0.173551769459069 0 -0.0075100909935939654 0.1750860714174641 0 0.001126993603499973 0.17100206799644649 0 -0.0080804673240217166 0.173551769459069 0 -0.0075100909935939654 0.1750860714174641 0 -0.0080804673240217166 0.173551769459069 0 -0.0019049934253328601 0.14827085455731351 0 -0.0080804673240217166 0.173551769459069 0 -0.006773790374951412 0.15466169108161651 0 -0.0019049934253328601 0.14827085455731351 0 -0.0080804673240217166 0.173551769459069 0 -0.0019049934253328601 0.14827085455731351 0 0.001126993603499973 0.17100206799644649 0 -0.0080804673240217166 0.173551769459069 0 -0.01425140718047605 0.15695205344369251 0 -0.006773790374951412 0.15466169108161651 0 -0.0080804673240217166 0.173551769459069 0 -0.01425140718047605 0.15695205344369251 0 -0.006773790374951412 0.15466169108161651 0 -0.0019049934253328601 0.14827085455731351 0 -0.010321577720407401 0.14690880245341861 0 -0.0019049934253328601 0.14827085455731351 0 -0.010321577720407401 0.14690880245341861 0 -0.01002661746290193 0.13540992005722 0 -0.010321577720407401 0.14690880245341861 0 -0.018654990279227769 0.1451064949729057 0 -0.01002661746290193 0.13540992005722 0 -0.01425140718047605 0.15695205344369251 0 -0.006773790374951412 0.15466169108161651 0 -0.010321577720407401 0.14690880245341861 0 -0.01425140718047605 0.15695205344369251 0 -0.010321577720407401 0.14690880245341861 0 -0.018654990279227769 0.1451064949729057 0 -0.01425140718047605 0.15695205344369251 0 -0.006773790374951412 0.15466169108161651 0 -0.01425140718047605 0.15695205344369251 0 -0.018654990279227769 0.1451064949729057 0 -0.01425140718047605 0.15695205344369251 0 -0.018654990279227769 0.1451064949729057 0 -0.027795020198956841 0.15052075348947899 0 -0.032121323235995043 0.1382100905072311 0 -0.018654990279227769 0.1451064949729057 0 -0.027795020198956841 0.15052075348947899 0 -0.021245510176909031 0.13200282329336119 0 -0.01002661746290193 0.13540992005722 0 -0.016424700254092501 0.11788155222185159 0 -0.032121323235995043 0.1382100905072311 0 -0.021245510176909031 0.13200282329336119 0 -0.02899991965232792 0.1234060587075974 0 -0.032121323235995043 0.1382100905072311 0 -0.018654990279227769 0.1451064949729057 0 -0.021245510176909031 0.13200282329336119 0 -0.018654990279227769 0.1451064949729057 0 -0.021245510176909031 0.13200282329336119 0 -0.01002661746290193 0.13540992005722 0 -0.01002661746290193 0.13540992005722 0 -0.016424700254092501 0.11788155222185159 0 0.0042704804733579918 0.1229899396555585 0 -0.0019049934253328601 0.14827085455731351 0 -0.01002661746290193 0.13540992005722 0 0.0042704804733579918 0.1229899396555585 0 -0.0060484899743172057 0.1050622656697115 0 -0.016424700254092501 0.11788155222185159 0 0.0042704804733579918 0.1229899396555585 0 -0.0060484899743172057 0.1050622656697115 0 -0.0087769151569504714 0.087682480279528574 0 0.010445954372048861 0.097709024753803511 0 -0.0060484899743172057 0.1050622656697115 0 -0.019757269305949909 0.099048331437815357 0 -0.016424700254092501 0.11788155222185159 0 -0.0060484899743172057 0.1050622656697115 0 -0.019757269305949909 0.099048331437815357 0 -0.0087769151569504714 0.087682480279528574 0 -0.019757269305949909 0.099048331437815357 0 -0.016424700254092501 0.11788155222185159 0 -0.033416624970403687 0.1090983451558027 0 -0.019757269305949909 0.099048331437815357 0 -0.033074536459593809 0.091500687654761395 0 -0.033416624970403687 0.1090983451558027 0 -0.02899991965232792 0.1234060587075974 0 -0.016424700254092501 0.11788155222185159 0 -0.033416624970403687 0.1090983451558027 0 -0.021245510176909031 0.13200282329336119 0 -0.02899991965232792 0.1234060587075974 0 -0.016424700254092501 0.11788155222185159 0 -0.0087769151569504714 0.087682480279528574 0 -0.016137475489694571 0.071135028608727252 0 0.00024197639052214381 0.071781569230384867 0 -0.016137475489694571 0.071135028608727252 0 0.00024197639052214381 0.071781569230384867 0 -0.016137475489694571 0.071135028608727252 0 -0.01098195155134039 0.058199651816400778 0 0.00024197639052214381 0.071781569230384867 0 -0.0087769151569504714 0.087682480279528574 0 -0.021758463691144481 0.083809597809841332 0 -0.016137475489694571 0.071135028608727252 0 -0.021758463691144481 0.083809597809841332 0 -0.030759244118593571 0.0755401540535586 0 -0.033074536459593809 0.091500687654761395 0 -0.019757269305949909 0.099048331437815357 0 -0.0087769151569504714 0.087682480279528574 0 -0.021758463691144481 0.083809597809841332 0 -0.019757269305949909 0.099048331437815357 0 -0.021758463691144481 0.083809597809841332 0 -0.033074536459593809 0.091500687654761395 0 -0.016137475489694571 0.071135028608727252 0 -0.026705692462431579 0.060789175594995831 0 -0.01098195155134039 0.058199651816400778 0 -0.021758463691144481 0.083809597809841332 0 -0.016137475489694571 0.071135028608727252 0 -0.030759244118593571 0.0755401540535586 0 -0.016137475489694571 0.071135028608727252 0 -0.030759244118593571 0.0755401540535586 0 -0.026705692462431579 0.060789175594995831 0 -0.045939249515673818 0.06378540294316834 0 -0.039331343353379712 0.079469576681171564 0 -0.047552343319657631 0.087052062073197933 0 -0.030759244118593571 0.0755401540535586 0 -0.045939249515673818 0.06378540294316834 0 -0.026705692462431579 0.060789175594995831 0 -0.030759244118593571 0.0755401540535586 0 -0.045939249515673818 0.06378540294316834 0 -0.039331343353379712 0.079469576681171564 0 -0.045939249515673818 0.06378540294316834 0 -0.047552343319657631 0.087052062073197933 0 -0.030759244118593571 0.0755401540535586 0 -0.039331343353379712 0.079469576681171564 0 -0.033074536459593809 0.091500687654761395 0 -0.033074536459593809 0.091500687654761395 0 -0.047552343319657631 0.087052062073197933 0 -0.040802235468324143 0.099492454021747403 0 -0.039331343353379712 0.079469576681171564 0 -0.033074536459593809 0.091500687654761395 0 -0.047552343319657631 0.087052062073197933 0 -0.054748181175482261 0.082068339247399869 0 -0.063557112835290655 0.1003512755516313 0 -0.063728905112334755 0.085704772336994486 0 -0.054748181175482261 0.082068339247399869 0 -0.063557112835290655 0.1003512755516313 0 -0.047552343319657631 0.087052062073197933 0 -0.054748181175482261 0.082068339247399869 0 -0.063557112835290655 0.1003512755516313 0 -0.054748181175482261 0.082068339247399869 0 -0.063728905112334755 0.085704772336994486 0 -0.064761713473033541 0.075306731423854967 0 -0.045939249515673818 0.06378540294316834 0 -0.054748181175482261 0.082068339247399869 0 -0.058086937996585042 0.067608337603158986 0 -0.045939249515673818 0.06378540294316834 0 -0.054748181175482261 0.082068339247399869 0 -0.045939249515673818 0.06378540294316834 0 -0.047552343319657631 0.087052062073197933 0 -0.054748181175482261 0.082068339247399869 0 -0.054748181175482261 0.082068339247399869 0 -0.058086937996585042 0.067608337603158986 0 -0.064761713473033541 0.075306731423854967 0 -0.050778530927625291 0.13358538033325729 0 -0.039986688155642262 0.1227899012845101 0 -0.049165437123641458 0.1103187212032276 0 -0.039986688155642262 0.1227899012845101 0 -0.033416624970403687 0.1090983451558027 0 -0.049165437123641458 0.1103187212032276 0 -0.02899991965232792 0.1234060587075974 0 -0.039986688155642262 0.1227899012845101 0 -0.033416624970403687 0.1090983451558027 0 -0.033416624970403687 0.1090983451558027 0 -0.040802235468324143 0.099492454021747403 0 -0.049165437123641458 0.1103187212032276 0 -0.033074536459593809 0.091500687654761395 0 -0.033416624970403687 0.1090983451558027 0 -0.040802235468324143 0.099492454021747403 0 -0.047552343319657631 0.087052062073197933 0 -0.040802235468324143 0.099492454021747403 0 -0.049165437123641458 0.1103187212032276 0 -0.047552343319657631 0.087052062073197933 0 -0.049165437123641458 0.1103187212032276 0 -0.047552343319657631 0.087052062073197933 0 -0.049165437123641458 0.1103187212032276 0 -0.063557112835290655 0.1003512755516313 0 -0.050778530927625291 0.13358538033325729 0 -0.049165437123641458 0.1103187212032276 0 -0.067586901978112818 0.12257524790954789 0 -0.049165437123641458 0.1103187212032276 0 -0.067586901978112818 0.12257524790954789 0 -0.063557112835290655 0.1003512755516313 0 -0.050778530927625291 0.13358538033325729 0 -0.049165437123641458 0.1103187212032276 0 -0.067586901978112818 0.12257524790954789 0 -0.076382425539208362 0.1095030493563952 0 -0.087597337848493273 0.1207512935143198 0 -0.067586901978112818 0.12257524790954789 0 -0.076382425539208362 0.1095030493563952 0 -0.063557112835290655 0.1003512755516313 0 -0.076382425539208362 0.1095030493563952 0 -0.087597337848493273 0.1207512935143198 0 -0.091403562700378693 0.1014264711422595 0 -0.076382425539208362 0.1095030493563952 0 -0.091403562700378693 0.1014264711422595 0 -0.076666981758548913 0.096658923459198492 0 -0.091403562700378693 0.1014264711422595 0 -0.076666981758548913 0.096658923459198492 0 -0.084347216215239593 0.087337155009061765 0 -0.076666981758548913 0.096658923459198492 0 -0.063557112835290655 0.1003512755516313 0 -0.071848612965532591 0.085092743125091783 0 -0.076382425539208362 0.1095030493563952 0 -0.076666981758548913 0.096658923459198492 0 -0.063557112835290655 0.1003512755516313 0 -0.063557112835290655 0.1003512755516313 0 -0.063728905112334755 0.085704772336994486 0 -0.071848612965532591 0.085092743125091783 0 -0.063728905112334755 0.085704772336994486 0 -0.071848612965532591 0.085092743125091783 0 -0.064761713473033541 0.075306731423854967 0 -0.071848612965532591 0.085092743125091783 0 -0.064761713473033541 0.075306731423854967 0 -0.078397299667226833 0.075086515477637616 0 -0.076666981758548913 0.096658923459198492 0 -0.071848612965532591 0.085092743125091783 0 -0.084347216215239593 0.087337155009061765 0 -0.058086937996585042 0.067608337603158986 0 -0.064761713473033541 0.075306731423854967 0 -0.069998965142717945 0.061192724588466377 0 -0.064761713473033541 0.075306731423854967 0 -0.078397299667226833 0.075086515477637616 0 -0.069998965142717945 0.061192724588466377 0 -0.078397299667226833 0.075086515477637616 0 -0.08924632578435715 0.063700633498409362 0 -0.069998965142717945 0.061192724588466377 0 -0.078397299667226833 0.075086515477637616 0 -0.091389346417477216 0.076704742040604595 0 -0.08924632578435715 0.063700633498409362 0 -0.091389346417477216 0.076704742040604595 0 -0.084347216215239593 0.087337155009061765 0 -0.1013796213017189 0.086419101620993727 0 -0.091403562700378693 0.1014264711422595 0 -0.084347216215239593 0.087337155009061765 0 -0.1013796213017189 0.086419101620993727 0 -0.071848612965532591 0.085092743125091783 0 -0.078397299667226833 0.075086515477637616 0 -0.084347216215239593 0.087337155009061765 0 -0.078397299667226833 0.075086515477637616 0 -0.091389346417477216 0.076704742040604595 0 -0.084347216215239593 0.087337155009061765 0 -0.1013796213017189 0.086419101620993727 0 -0.1043630037826599 0.071109510434317319 0 -0.1205080956128806 0.079175794724359844 0 -0.1043630037826599 0.071109510434317319 0 -0.11411365804163839 0.065819222513671699 0 -0.10670741399422221 0.054018017104681577 0 -0.08924632578435715 0.063700633498409362 0 -0.1043630037826599 0.071109510434317319 0 -0.10670741399422221 0.054018017104681577 0 -0.091389346417477216 0.076704742040604595 0 -0.08924632578435715 0.063700633498409362 0 -0.1043630037826599 0.071109510434317319 0 -0.091389346417477216 0.076704742040604595 0 -0.1013796213017189 0.086419101620993727 0 -0.1043630037826599 0.071109510434317319 0 -0.1043630037826599 0.071109510434317319 0 -0.11411365804163839 0.065819222513671699 0 -0.1205080956128806 0.079175794724359844 0 -0.11411365804163839 0.065819222513671699 0 -0.1205080956128806 0.079175794724359844 0 -0.12487611877679081 0.058973567791328042 0 -0.12676633129327219 0.093230271799177561 0 -0.1205080956128806 0.079175794724359844 0 -0.11350440212521801 0.09809541723267784 0 -0.1013796213017189 0.086419101620993727 0 -0.1205080956128806 0.079175794724359844 0 -0.11350440212521801 0.09809541723267784 0 -0.12676633129327219 0.093230271799177561 0 -0.1205080956128806 0.079175794724359844 0 -0.13302456697366091 0.1072847488739966 0 -0.11350440212521801 0.09809541723267784 0 -0.11031095241107711 0.11401802119415839 0 -0.13302456697366091 0.1072847488739966 0 -0.12676633129327219 0.093230271799177561 0 -0.11350440212521801 0.09809541723267784 0 -0.13302456697366091 0.1072847488739966 0 -0.11031095241107711 0.11401802119415839 0 -0.1081645267407164 0.13277680644487461 0 -0.11031095241107711 0.11401802119415839 0 -0.1240129492088249 0.1221724056033639 0 -0.13302456697366091 0.1072847488739966 0 -0.11031095241107711 0.11401802119415839 0 -0.1240129492088249 0.1221724056033639 0 -0.1081645267407164 0.13277680644487461 0 -0.087597337848493273 0.1207512935143198 0 -0.11031095241107711 0.11401802119415839 0 -0.087597337848493273 0.1207512935143198 0 -0.091403562700378693 0.1014264711422595 0 -0.11031095241107711 0.11401802119415839 0 -0.087597337848493273 0.1207512935143198 0 -0.11031095241107711 0.11401802119415839 0 -0.091403562700378693 0.1014264711422595 0 -0.1013796213017189 0.086419101620993727 0 -0.11350440212521801 0.09809541723267784 0 -0.091403562700378693 0.1014264711422595 0 -0.11350440212521801 0.09809541723267784 0 -0.11031095241107711 0.11401802119415839 0 -0.097836350748829209 0.022537842714483749 0 -0.102069930659121 0.0058161948806418904 0 -0.1234979273559844 0.014616194656270899 0 -0.1155530629942846 -0.0040336814150362509 0 -0.1308273698701844 -0.003706324753454524 0 -0.1234979273559844 0.014616194656270899 0 -0.1155530629942846 -0.0040336814150362509 0 -0.102069930659121 0.0058161948806418904 0 -0.1234979273559844 0.014616194656270899 0 -0.097836350748829209 0.022537842714483749 0 -0.1234979273559844 0.014616194656270899 0 -0.10781330213136781 0.035919588965282447 0 -0.097836350748829209 0.022537842714483749 0 -0.1234979273559844 0.014616194656270899 0 -0.12597681129890859 0.040066542679777252 0 -0.1234979273559844 0.014616194656270899 0 -0.10781330213136781 0.035919588965282447 0 -0.12597681129890859 0.040066542679777252 0 -0.10670741399422221 0.054018017104681577 0 -0.10781330213136781 0.035919588965282447 0 -0.12597681129890859 0.040066542679777252 0 -0.12487611877679081 0.058973567791328042 0 -0.10670741399422221 0.054018017104681577 0 -0.11411365804163839 0.065819222513671699 0 -0.12487611877679081 0.058973567791328042 0 -0.10670741399422221 0.054018017104681577 0 -0.08924632578435715 0.063700633498409362 0 -0.10670741399422221 0.054018017104681577 0 -0.086689770638088248 0.044790154714989178 0 -0.097836350748829209 0.022537842714483749 0 -0.10781330213136781 0.035919588965282447 0 -0.086689770638088248 0.044790154714989178 0 -0.10670741399422221 0.054018017104681577 0 -0.10781330213136781 0.035919588965282447 0 -0.086689770638088248 0.044790154714989178 0 -0.097836350748829209 0.022537842714483749 0 -0.086689770638088248 0.044790154714989178 0 -0.072174774141674086 0.030459490772696558 0 -0.08924632578435715 0.063700633498409362 0 -0.086689770638088248 0.044790154714989178 0 -0.069998965142717945 0.061192724588466377 0 -0.086689770638088248 0.044790154714989178 0 -0.069998965142717945 0.061192724588466377 0 -0.061921915058978212 0.046652380718750087 0 -0.086689770638088248 0.044790154714989178 0 -0.072174774141674086 0.030459490772696558 0 -0.061921915058978212 0.046652380718750087 0 -0.072174774141674086 0.030459490772696558 0 -0.080019140102338349 0.0090783544575563768 0 -0.058320048274435453 0.011702135624293101 0 -0.097836350748829209 0.022537842714483749 0 -0.072174774141674086 0.030459490772696558 0 -0.080019140102338349 0.0090783544575563768 0 -0.097836350748829209 0.022537842714483749 0 -0.072174774141674086 0.030459490772696558 0 -0.090400042956509136 -0.0016468222240374789 0 -0.102069930659121 0.0058161948806418904 0 -0.080019140102338349 0.0090783544575563768 0 -0.097836350748829209 0.022537842714483749 0 -0.102069930659121 0.0058161948806418904 0 -0.080019140102338349 0.0090783544575563768 0 -0.0656650319423632 -0.001268180764667408 0 -0.080019140102338349 0.0090783544575563768 0 -0.058320048274435453 0.011702135624293101 0 -0.048933732325526003 -0.0029621306740495062 0 -0.058320048274435453 0.011702135624293101 0 -0.039886901291926777 0.012361941693878839 0 -0.0656650319423632 -0.001268180764667408 0 -0.048933732325526003 -0.0029621306740495062 0 -0.058320048274435453 0.011702135624293101 0 -0.072174774141674086 0.030459490772696558 0 -0.049405654040528033 0.023970642384467569 0 -0.046513197534519143 0.038381138830909323 0 -0.058320048274435453 0.011702135624293101 0 -0.049405654040528033 0.023970642384467569 0 -0.039886901291926777 0.012361941693878839 0 -0.072174774141674086 0.030459490772696558 0 -0.058320048274435453 0.011702135624293101 0 -0.049405654040528033 0.023970642384467569 0 -0.049405654040528033 0.023970642384467569 0 -0.036754890288775849 0.02297887450009917 0 -0.039886901291926777 0.012361941693878839 0 -0.036754890288775849 0.02297887450009917 0 -0.035817108822338177 0.042776901491954837 0 -0.025694968129002529 0.021768400040741341 0 -0.049405654040528033 0.023970642384467569 0 -0.043527169461666688 0.02899446625224179 0 -0.036754890288775849 0.02297887450009917 0 -0.049405654040528033 0.023970642384467569 0 -0.043527169461666688 0.02899446625224179 0 -0.046513197534519143 0.038381138830909323 0 -0.036754890288775849 0.02297887450009917 0 -0.039886901291926777 0.012361941693878839 0 -0.025694968129002529 0.021768400040741341 0 -0.031850607683756693 -0.00085088897714030286 0 -0.039886901291926777 0.012361941693878839 0 -0.025694968129002529 0.021768400040741341 0 -0.048933732325526003 -0.0029621306740495062 0 -0.031850607683756693 -0.00085088897714030286 0 -0.039886901291926777 0.012361941693878839 0 -0.054986580676017673 0.055688489812905417 0 -0.061921915058978212 0.046652380718750087 0 -0.044733209488670253 0.046389934597705032 0 -0.045939249515673818 0.06378540294316834 0 -0.054986580676017673 0.055688489812905417 0 -0.044733209488670253 0.046389934597705032 0 -0.045939249515673818 0.06378540294316834 0 -0.058086937996585042 0.067608337603158986 0 -0.054986580676017673 0.055688489812905417 0 -0.058086937996585042 0.067608337603158986 0 -0.069998965142717945 0.061192724588466377 0 -0.054986580676017673 0.055688489812905417 0 -0.069998965142717945 0.061192724588466377 0 -0.054986580676017673 0.055688489812905417 0 -0.061921915058978212 0.046652380718750087 0 -0.072174774141674086 0.030459490772696558 0 -0.046513197534519143 0.038381138830909323 0 -0.072174774141674086 0.030459490772696558 0 -0.061921915058978212 0.046652380718750087 0 -0.046513197534519143 0.038381138830909323 0 -0.061921915058978212 0.046652380718750087 0 -0.044733209488670253 0.046389934597705032 0 -0.046513197534519143 0.038381138830909323 0 -0.043527169461666688 0.02899446625224179 0 -0.044733209488670253 0.046389934597705032 0 -0.035817108822338177 0.042776901491954837 0 -0.043527169461666688 0.02899446625224179 0 -0.036754890288775849 0.02297887450009917 0 -0.035817108822338177 0.042776901491954837 0 -0.043527169461666688 0.02899446625224179 0 -0.044733209488670253 0.046389934597705032 0 -0.043527169461666688 0.02899446625224179 0 -0.044733209488670253 0.046389934597705032 0 -0.046513197534519143 0.038381138830909323 0 -0.045939249515673818 0.06378540294316834 0 -0.035817108822338177 0.042776901491954837 0 -0.02996028015357266 0.049875975230173397 0 -0.045939249515673818 0.06378540294316834 0 -0.035817108822338177 0.042776901491954837 0 -0.045939249515673818 0.06378540294316834 0 -0.044733209488670253 0.046389934597705032 0 -0.045939249515673818 0.06378540294316834 0 -0.044733209488670253 0.046389934597705032 0 -0.035817108822338177 0.042776901491954837 0 -0.045939249515673818 0.06378540294316834 0 -0.026705692462431579 0.060789175594995831 0 -0.02996028015357266 0.049875975230173397 0 -0.026705692462431579 0.060789175594995831 0 -0.020694818307383959 0.04693110454701431 0 -0.01098195155134039 0.058199651816400778 0 -0.026705692462431579 0.060789175594995831 0 -0.02996028015357266 0.049875975230173397 0 -0.020694818307383959 0.04693110454701431 0 -0.025837333052582508 0.038952032630802977 0 -0.017019489850615219 0.033407781844131047 0 -0.025694968129002529 0.021768400040741341 0 -0.035817108822338177 0.042776901491954837 0 -0.025694968129002529 0.021768400040741341 0 -0.035817108822338177 0.042776901491954837 0 -0.025837333052582508 0.038952032630802977 0 -0.025694968129002529 0.021768400040741341 0 -0.020694818307383959 0.04693110454701431 0 -0.025837333052582508 0.038952032630802977 0 -0.017019489850615219 0.033407781844131047 0 -0.02996028015357266 0.049875975230173397 0 -0.020694818307383959 0.04693110454701431 0 -0.025837333052582508 0.038952032630802977 0 -0.035817108822338177 0.042776901491954837 0 -0.02996028015357266 0.049875975230173397 0 -0.025837333052582508 0.038952032630802977 0 -0.017019489850615219 0.033407781844131047 0 -0.0079637206383430022 0.043031223738005317 0 -0.0070354386804615714 0.026070149703007271 0 -0.0079637206383430022 0.043031223738005317 0 -0.0070354386804615714 0.026070149703007271 0 0.0069273215675512883 0.041578591966597141 0 -0.020694818307383959 0.04693110454701431 0 -0.017019489850615219 0.033407781844131047 0 -0.0079637206383430022 0.043031223738005317 0 -0.0079637206383430022 0.043031223738005317 0 -0.01098195155134039 0.058199651816400778 0 0.005368021199288594 0.055529809179277162 0 -0.01098195155134039 0.058199651816400778 0 0.005368021199288594 0.055529809179277162 0 0.00024197639052214381 0.071781569230384867 0 -0.020694818307383959 0.04693110454701431 0 -0.0079637206383430022 0.043031223738005317 0 -0.01098195155134039 0.058199651816400778 0 -0.031850607683756693 -0.00085088897714030286 0 -0.025694968129002529 0.021768400040741341 0 -0.01557282743566684 0.00075989858952775491 0 -0.025694968129002529 0.021768400040741341 0 -0.01557282743566684 0.00075989858952775491 0 -0.025694968129002529 0.021768400040741341 0 -0.0070354386804615714 0.026070149703007271 0 -0.01557282743566684 0.00075989858952775491 0 -0.017019489850615219 0.033407781844131047 0 -0.025694968129002529 0.021768400040741341 0 -0.0070354386804615714 0.026070149703007271 0 -0.0070354386804615714 0.026070149703007271 0 -0.00065484893076889011 0.014296852006344909 0 -0.01557282743566684 0.00075989858952775491 0 -0.00065484893076889011 0.014296852006344909 0 -0.01557282743566684 0.00075989858952775491 0 -0.0020858838102024279 0.0039170107241266374 0 -0.0020858838102024279 0.0039170107241266374 0 0.0096709608759811237 0.011241053897937409 0 0.0032282499690442449 -0.0088745875952064811 0 0.010796000673796239 0.001043184006459454 0 0.0096709608759811237 0.011241053897937409 0 0.0032282499690442449 -0.0088745875952064811 0 0.0096709608759811237 0.011241053897937409 0 0.0032282499690442449 -0.0088745875952064811 0 0.010796000673796239 0.001043184006459454 0 0.0096709608759811237 0.011241053897937409 0 0.018444975082959891 0.0074489691581596006 0 -0.00065484893076889011 0.014296852006344909 0 -0.0020858838102024279 0.0039170107241266374 0 0.0096709608759811237 0.011241053897937409 0 -0.00065484893076889011 0.014296852006344909 0 0.0096709608759811237 0.011241053897937409 0 0.009929676881958522 0.026430632885268951 0 -0.0070354386804615714 0.026070149703007271 0 -0.00065484893076889011 0.014296852006344909 0 0.009929676881958522 0.026430632885268951 0 0.0096709608759811237 0.011241053897937409 0 0.009929676881958522 0.026430632885268951 0 0.01879542465748886 0.01835528790452871 0 0.009929676881958522 0.026430632885268951 0 0.02703349067685137 0.029803613666181339 0 0.01879542465748886 0.01835528790452871 0 0.02703349067685137 0.029803613666181339 0 0.01879542465748886 0.01835528790452871 0 0.029461474512617769 0.0091796361634523208 0 0.010796000673796239 0.001043184006459454 0 0.018444975082959891 0.0074489691581596006 0 0.022339275083212859 -0.0015369494510790759 0 0.029461474512617769 0.0091796361634523208 0 0.018444975082959891 0.0074489691581596006 0 0.022339275083212859 -0.0015369494510790759 0 0.01879542465748886 0.01835528790452871 0 0.029461474512617769 0.0091796361634523208 0 0.018444975082959891 0.0074489691581596006 0 0.0096709608759811237 0.011241053897937409 0 0.01879542465748886 0.01835528790452871 0 0.018444975082959891 0.0074489691581596006 0 0.005368021199288594 0.055529809179277162 0 0.0069273215675512883 0.041578591966597141 0 0.021827459473795548 0.051115861759114908 0 0.005368021199288594 0.055529809179277162 0 0.021827459473795548 0.051115861759114908 0 0.01662142827073863 0.0724281098520482 0 -0.0070354386804615714 0.026070149703007271 0 0.009929676881958522 0.026430632885268951 0 0.0069273215675512883 0.041578591966597141 0 0.009929676881958522 0.026430632885268951 0 0.02703349067685137 0.029803613666181339 0 0.0069273215675512883 0.041578591966597141 0 -0.0079637206383430022 0.043031223738005317 0 0.005368021199288594 0.055529809179277162 0 0.0069273215675512883 0.041578591966597141 0 0.02703349067685137 0.029803613666181339 0 0.021827459473795548 0.051115861759114908 0 0.043754155459148042 0.046329862342270572 0 0.02703349067685137 0.029803613666181339 0 0.0069273215675512883 0.041578591966597141 0 0.021827459473795548 0.051115861759114908 0 0.02703349067685137 0.029803613666181339 0 0.021827459473795548 0.051115861759114908 0 0.021827459473795548 0.051115861759114908 0 0.01662142827073863 0.0724281098520482 0 0.021827459473795548 0.051115861759114908 0 0.043754155459148042 0.046329862342270572 0 0.04423057427482735 0.073517916431130731 0 0.02703349067685137 0.029803613666181339 0 0.043754155459148042 0.046329862342270572 0 0.055662179103591461 0.02973850890274814 0 0.043754155459148042 0.046329862342270572 0 0.055662179103591461 0.02973850890274814 0 0.062782147606245564 0.055732789743071373 0 0.043754155459148042 0.046329862342270572 0 0.062782147606245564 0.055732789743071373 0 0.04423057427482735 0.073517916431130731 0 0.029461474512617769 0.0091796361634523208 0 0.047704183673405648 0.010706721758899061 0 0.037895535239882719 -0.0087994323662799953 0 0.02703349067685137 0.029803613666181339 0 0.055662179103591461 0.02973850890274814 0 0.047704183673405648 0.010706721758899061 0 0.02703349067685137 0.029803613666181339 0 0.029461474512617769 0.0091796361634523208 0 0.047704183673405648 0.010706721758899061 0 0.055662179103591461 0.02973850890274814 0 0.047704183673405648 0.010706721758899061 0 0.074325727717583515 0.01378843070404526 0 0.047704183673405648 0.010706721758899061 0 0.074325727717583515 0.01378843070404526 0 0.061846694789907057 -0.0094704265167526863 0 0.074325727717583515 0.01378843070404526 0 0.1021263642761613 0.0080934557538357536 0 0.083345215077867602 -0.0079048656384585556 0 0.074325727717583515 0.01378843070404526 0 0.077354330297222607 0.040701016055952208 0 0.094299200272274564 0.029366699749769382 0 0.074325727717583515 0.01378843070404526 0 0.1021263642761613 0.0080934557538357536 0 0.094299200272274564 0.029366699749769382 0 0.055662179103591461 0.02973850890274814 0 0.074325727717583515 0.01378843070404526 0 0.077354330297222607 0.040701016055952208 0 0.055662179103591461 0.02973850890274814 0 0.077354330297222607 0.040701016055952208 0 0.062782147606245564 0.055732789743071373 0 0.077354330297222607 0.040701016055952208 0 0.062782147606245564 0.055732789743071373 0 0.092281816250406906 0.071697488771998108 0 0.077354330297222607 0.040701016055952208 0 0.103365079703285 0.054275949739436641 0 0.092281816250406906 0.071697488771998108 0 0.077354330297222607 0.040701016055952208 0 0.103365079703285 0.054275949739436641 0 0.077354330297222607 0.040701016055952208 0 0.103365079703285 0.054275949739436641 0 0.094299200272274564 0.029366699749769382 0 0.103365079703285 0.054275949739436641 0 0.1143244993671204 0.029974646495577021 0 0.094299200272274564 0.029366699749769382 0 0.103365079703285 0.054275949739436641 0 0.1293758291093475 0.06785088342292106 0 0.103365079703285 0.054275949739436641 0 0.12487160826149971 0.046854995956776793 0 0.1293758291093475 0.06785088342292106 0 0.103365079703285 0.054275949739436641 0 0.12487160826149971 0.046854995956776793 0 0.1143244993671204 0.029974646495577021 0 0.1143244993671204 0.029974646495577021 0 0.1021263642761613 0.0080934557538357536 0 0.12764307924079521 0.012325017931860249 0 0.1021263642761613 0.0080934557538357536 0 0.12764307924079521 0.012325017931860249 0 0.122836876780338 -0.0080023686202002862 0 0.1143244993671204 0.029974646495577021 0 0.1021263642761613 0.0080934557538357536 0 0.094299200272274564 0.029366699749769382 0 0.094134993361589481 0.1171436739207557 0 0.11902016168324191 0.1197027187353239 0 0.1027526958170653 0.089493820757255635 0 0.11902016168324191 0.1197027187353239 0 0.1027526958170653 0.089493820757255635 0 0.1250839813190904 0.093164354471990701 0 0.1027526958170653 0.089493820757255635 0 0.092281816250406906 0.071697488771998108 0 0.1293758291093475 0.06785088342292106 0 0.103365079703285 0.054275949739436641 0 0.092281816250406906 0.071697488771998108 0 0.1293758291093475 0.06785088342292106 0 0.1027526958170653 0.089493820757255635 0 0.1293758291093475 0.06785088342292106 0 0.1250839813190904 0.093164354471990701 0 0.1027526958170653 0.089493820757255635 0 0.092281816250406906 0.071697488771998108 0 0.07493117243548994 0.10150465241962239 0 0.092281816250406906 0.071697488771998108 0 0.071839720278915831 0.074607723010218979 0 0.07493117243548994 0.10150465241962239 0 0.062782147606245564 0.055732789743071373 0 0.092281816250406906 0.071697488771998108 0 0.071839720278915831 0.074607723010218979 0 0.071839720278915831 0.074607723010218979 0 0.07493117243548994 0.10150465241962239 0 0.056361225919371642 0.09023963643215796 0 0.094134993361589481 0.1171436739207557 0 0.07493117243548994 0.10150465241962239 0 0.077217871375999947 0.13300802471733711 0 0.07493117243548994 0.10150465241962239 0 0.056806786946916252 0.12657041462148461 0 0.077217871375999947 0.13300802471733711 0 0.094134993361589481 0.1171436739207557 0 0.1027526958170653 0.089493820757255635 0 0.07493117243548994 0.10150465241962239 0 0.07493117243548994 0.10150465241962239 0 0.045559632279235457 0.108361716062865 0 0.056806786946916252 0.12657041462148461 0 0.07493117243548994 0.10150465241962239 0 0.045559632279235457 0.108361716062865 0 0.056361225919371642 0.09023963643215796 0 0.045559632279235457 0.108361716062865 0 0.030659800544912252 0.090028301357858193 0 0.02425954845156551 0.1162284089751989 0 0.045559632279235457 0.108361716062865 0 0.056361225919371642 0.09023963643215796 0 0.030659800544912252 0.090028301357858193 0 0.045559632279235457 0.108361716062865 0 0.037331093498162653 0.13544467830967771 0 0.045559632279235457 0.108361716062865 0 0.056806786946916252 0.12657041462148461 0 0.037331093498162653 0.13544467830967771 0 0.045559632279235457 0.108361716062865 0 0.02425954845156551 0.1162284089751989 0 0.037331093498162653 0.13544467830967771 0 0.071839720278915831 0.074607723010218979 0 0.04423057427482735 0.073517916431130731 0 0.062782147606245564 0.055732789743071373 0 0.071839720278915831 0.074607723010218979 0 0.04423057427482735 0.073517916431130731 0 0.071839720278915831 0.074607723010218979 0 0.056361225919371642 0.09023963643215796 0 0.04423057427482735 0.073517916431130731 0 0.056361225919371642 0.09023963643215796 0 0.04423057427482735 0.073517916431130731 0 0.030659800544912252 0.090028301357858193 0 0.04423057427482735 0.073517916431130731 0 0.01662142827073863 0.0724281098520482 0 0.021827459473795548 0.051115861759114908 0 0.04423057427482735 0.073517916431130731 0 0.01662142827073863 0.0724281098520482 0 0.01662142827073863 0.0724281098520482 0 0.030659800544912252 0.090028301357858193 0 0.010445954372048861 0.097709024753803511 0 0.04423057427482735 0.073517916431130731 0 0.01662142827073863 0.0724281098520482 0 0.030659800544912252 0.090028301357858193 0 -0.0087769151569504714 0.087682480279528574 0 0.00024197639052214381 0.071781569230384867 0 0.010445954372048861 0.097709024753803511 0 0.01662142827073863 0.0724281098520482 0 0.00024197639052214381 0.071781569230384867 0 0.010445954372048861 0.097709024753803511 0 0.01662142827073863 0.0724281098520482 0 0.010445954372048861 0.097709024753803511 0 0.01662142827073863 0.0724281098520482 0 0.00024197639052214381 0.071781569230384867 0 0.005368021199288594 0.055529809179277162 0 0.01662142827073863 0.0724281098520482 0 0.00024197639052214381 0.071781569230384867 0 0.030659800544912252 0.090028301357858193 0 0.02425954845156551 0.1162284089751989 0 0.010445954372048861 0.097709024753803511 0 -0.0060484899743172057 0.1050622656697115 0 0.010445954372048861 0.097709024753803511 0 0.0042704804733579918 0.1229899396555585 0 0.02425954845156551 0.1162284089751989 0 0.010445954372048861 0.097709024753803511 0 0.0042704804733579918 0.1229899396555585 0 0.010445954372048861 0.097709024753803511 0 0.0042704804733579918 0.1229899396555585 0 -0.0019049934253328601 0.14827085455731351 0 0.0042704804733579918 0.1229899396555585 0 0.017290329541675829 0.14283679371143071 0 0.02425954845156551 0.1162284089751989 0 0.0042704804733579918 0.1229899396555585 0 0.017290329541675829 0.14283679371143071 0 -0.0019049934253328601 0.14827085455731351 0 0.0042704804733579918 0.1229899396555585 0 0.02425954845156551 0.1162284089751989 0 0.017290329541675829 0.14283679371143071 0 0.037331093498162653 0.13544467830967771 0 0.017290329541675829 0.14283679371143071 0 0.010457129204248031 0.162308727808463 0 0.029102554717089849 0.16252764055649041 0 0.017290329541675829 0.14283679371143071 0 0.029102554717089849 0.16252764055649041 0 0.037331093498162653 0.13544467830967771 0 -0.0019049934253328601 0.14827085455731351 0 0.017290329541675829 0.14283679371143071 0 0.010457129204248031 0.162308727808463 0 0.010457129204248031 0.162308727808463 0 0.0066819624712132694 0.18234833711038231 0 0.029102554717089849 0.16252764055649041 0 -0.0019049934253328601 0.14827085455731351 0 0.010457129204248031 0.162308727808463 0 0.001126993603499973 0.17100206799644649 0 -0.0075100909935939654 0.1750860714174641 0 0.0066819624712132694 0.18234833711038231 0 0.0010354531721193309 0.1980734298502804 0 0.010457129204248031 0.162308727808463 0 0.001126993603499973 0.17100206799644649 0 0.0066819624712132694 0.18234833711038231 0 -0.0075100909935939654 0.1750860714174641 0 0.001126993603499973 0.17100206799644649 0 0.0066819624712132694 0.18234833711038231 0 0.0066819624712132694 0.18234833711038231 0 0.020874015936018672 0.18961060280330391 0 0.029102554717089849 0.16252764055649041 0 0.040691478400978913 0.180121486020208 0 0.020874015936018672 0.18961060280330391 0 0.029102554717089849 0.16252764055649041 0 0.020874015936018672 0.18961060280330391 0 0.0066819624712132694 0.18234833711038231 0 0.029102554717089849 0.16252764055649041 0 0.020874015936018672 0.18961060280330391 0 0.029102554717089849 0.16252764055649041 0 0.040691478400978913 0.180121486020208 0 0.05774623484848744 0.17196204108014171 0 0.05774623484848744 0.17196204108014171 0 0.059101008969900483 0.1896071710732061 0 0.066967037150342079 0.19019196384173381 0 0.040691478400978913 0.180121486020208 0 0.05774623484848744 0.17196204108014171 0 0.049036123066439147 0.1872660082077694 0 0.05774623484848744 0.17196204108014171 0 0.049036123066439147 0.1872660082077694 0 0.059101008969900483 0.1896071710732061 0 0.05774623484848744 0.17196204108014171 0 0.055049499274971159 0.14851879892744449 0 0.072092454263170819 0.16159999427953539 0 0.029102554717089849 0.16252764055649041 0 0.05774623484848744 0.17196204108014171 0 0.055049499274971159 0.14851879892744449 0 0.055049499274971159 0.14851879892744449 0 0.056806786946916252 0.12657041462148461 0 0.037331093498162653 0.13544467830967771 0 0.029102554717089849 0.16252764055649041 0 0.055049499274971159 0.14851879892744449 0 0.037331093498162653 0.13544467830967771 0 0.029102554717089849 0.16252764055649041 0 0.037331093498162653 0.13544467830967771 0 0.023101296609449859 0.23135853900653819 0 0.033201843644608299 0.22645537315310649 0 0.034398217230692203 0.24559588675362751 0 0.018126541503550891 0.2440481467159111 0 0.023101296609449859 0.23135853900653819 0 0.034398217230692203 0.24559588675362751 0 0.018126541503550891 0.2440481467159111 0 0.002868069763145869 0.24330852020286761 0 0.0076893730913138083 0.25651749406871249 0 -0.0052725913194227019 0.23834947606816001 0 0.002868069763145869 0.24330852020286761 0 0.0032341845024103301 0.23329049900368271 0 0.018126541503550891 0.2440481467159111 0 0.002868069763145869 0.24330852020286761 0 0.0032341845024103301 0.23329049900368271 0 0.018126541503550891 0.2440481467159111 0 0.009580997337835134 0.2210607882830958 0 0.018126541503550891 0.2440481467159111 0 0.0032341845024103301 0.23329049900368271 0 0.009580997337835134 0.2210607882830958 0 0.0032341845024103301 0.23329049900368271 0 0.00048835994026151497 0.22446645239625429 0 0.009580997337835134 0.2210607882830958 0 -0.0047117038411451876 0.2156921999853775 0 0.00048835994026151497 0.22446645239625429 0 0.009580997337835134 0.2210607882830958 0 0.018126541503550891 0.2440481467159111 0 0.009580997337835134 0.2210607882830958 0 0.023101296609449859 0.23135853900653819 0 0.021132428692334039 0.2198218266483204 0 0.029748044643801829 0.21058964561322061 0 0.033201843644608299 0.22645537315310649 0 0.009580997337835134 0.2210607882830958 0 0.021132428692334039 0.2198218266483204 0 0.023101296609449859 0.23135853900653819 0 0.021132428692334039 0.2198218266483204 0 0.023101296609449859 0.23135853900653819 0 0.033201843644608299 0.22645537315310649 0 0.029748044643801829 0.21058964561322061 0 0.01451097896247718 0.21055355448821769 0 0.020874015936018672 0.18961060280330391 0 0.021132428692334039 0.2198218266483204 0 0.029748044643801829 0.21058964561322061 0 0.01451097896247718 0.21055355448821769 0 -0.0047117038411451876 0.2156921999853775 0 0.009580997337835134 0.2210607882830958 0 0.0010354531721193309 0.1980734298502804 0 0.009580997337835134 0.2210607882830958 0 0.021132428692334039 0.2198218266483204 0 0.01451097896247718 0.21055355448821769 0 0.009580997337835134 0.2210607882830958 0 0.0010354531721193309 0.1980734298502804 0 0.009580997337835134 0.2210607882830958 0 0.01451097896247718 0.21055355448821769 0 0.0010354531721193309 0.1980734298502804 0 0.01451097896247718 0.21055355448821769 0 0.0010354531721193309 0.1980734298502804 0 0.020874015936018672 0.18961060280330391 0 0.0066819624712132694 0.18234833711038231 0 0.0010354531721193309 0.1980734298502804 0 0.020874015936018672 0.18961060280330391 0 0.029748044643801829 0.21058964561322061 0 0.020874015936018672 0.18961060280330391 0 0.040194260298647019 0.19949703313289061 0 0.020874015936018672 0.18961060280330391 0 0.040194260298647019 0.19949703313289061 0 0.01451097896247718 0.21055355448821769 0 0.020874015936018672 0.18961060280330391 0 0.040691478400978913 0.180121486020208 0 0.020874015936018672 0.18961060280330391 0 0.040194260298647019 0.19949703313289061 0 0.040691478400978913 0.180121486020208 0 0.049036123066439147 0.1872660082077694 0 0.040194260298647019 0.19949703313289061 0 0.040194260298647019 0.19949703313289061 0 0.054124029436090272 0.19687250753823951 0 0.05951450466127528 0.20938346346247749 0 0.049036123066439147 0.1872660082077694 0 0.040194260298647019 0.19949703313289061 0 0.054124029436090272 0.19687250753823951 0 0.049036123066439147 0.1872660082077694 0 0.059101008969900483 0.1896071710732061 0 0.054124029436090272 0.19687250753823951 0 0.060426842502701417 0.1941542791380852 0 0.059101008969900483 0.1896071710732061 0 0.066967037150342079 0.19019196384173381 0 0.060426842502701417 0.1941542791380852 0 0.059101008969900483 0.1896071710732061 0 0.054124029436090272 0.19687250753823951 0 0.06151529445447286 0.19994547409916141 0 0.054124029436090272 0.19687250753823951 0 0.05951450466127528 0.20938346346247749 0 0.060426842502701417 0.1941542791380852 0 0.06151529445447286 0.19994547409916141 0 0.054124029436090272 0.19687250753823951 0 0.040194260298647019 0.19949703313289061 0 0.05951450466127528 0.20938346346247749 0 0.048097919747220878 0.2207044503371732 0 0.040194260298647019 0.19949703313289061 0 0.05951450466127528 0.20938346346247749 0 0.06151529445447286 0.19994547409916141 0 0.05951450466127528 0.20938346346247749 0 0.063212381326575071 0.2111371869653223 0 0.05951450466127528 0.20938346346247749 0 0.048097919747220878 0.2207044503371732 0 0.063212381326575071 0.2111371869653223 0 0.029748044643801829 0.21058964561322061 0 0.040194260298647019 0.19949703313289061 0 0.048097919747220878 0.2207044503371732 0 0.029748044643801829 0.21058964561322061 0 0.033201843644608299 0.22645537315310649 0 0.048097919747220878 0.2207044503371732 0 0.033201843644608299 0.22645537315310649 0 0.044471123014518332 0.23385628495821509 0 0.048097919747220878 0.2207044503371732 0 0.059457725502808478 0.23208241008891081 0 0.063212381326575071 0.2111371869653223 0 0.048097919747220878 0.2207044503371732 0 0.059457725502808478 0.23208241008891081 0 0.063212381326575071 0.2111371869653223 0 0.044471123014518332 0.23385628495821509 0 0.048097919747220878 0.2207044503371732 0 0.059457725502808478 0.23208241008891081 0 0.044471123014518332 0.23385628495821509 0 0.059457725502808478 0.23208241008891081 0 0.055703069679041879 0.25302763321249938 0 0.059457725502808478 0.23208241008891081 0 0.055703069679041879 0.25302763321249938 0 0.044471123014518332 0.23385628495821509 0 0.034398217230692203 0.24559588675362751 0 0.055703069679041879 0.25302763321249938 0 0.033201843644608299 0.22645537315310649 0 0.044471123014518332 0.23385628495821509 0 0.034398217230692203 0.24559588675362751 0 0.091372002388822315 0.23095413541459109 0 0.078571154590758807 0.25070859306122478 0 0.095569813203880638 0.25234178504612109 0 0.073621023618591436 0.23464898461194519 0 0.091372002388822315 0.23095413541459109 0 0.078571154590758807 0.25070859306122478 0 0.073621023618591436 0.23464898461194519 0 0.055703069679041879 0.25302763321249938 0 0.078571154590758807 0.25070859306122478 0 0.059457725502808478 0.23208241008891081 0 0.073621023618591436 0.23464898461194519 0 0.055703069679041879 0.25302763321249938 0 0.059457725502808478 0.23208241008891081 0 0.070141933238431473 0.22243795502139271 0 0.063212381326575071 0.2111371869653223 0 0.059457725502808478 0.23208241008891081 0 0.073621023618591436 0.23464898461194519 0 0.070141933238431473 0.22243795502139271 0 0.073621023618591436 0.23464898461194519 0 0.070141933238431473 0.22243795502139271 0 0.079547436816589365 0.2221613011235806 0 0.070141933238431473 0.22243795502139271 0 0.079547436816589365 0.2221613011235806 0 0.074871098927592999 0.21215989231720461 0 0.073621023618591436 0.23464898461194519 0 0.079547436816589365 0.2221613011235806 0 0.091372002388822315 0.23095413541459109 0 0.079547436816589365 0.2221613011235806 0 0.091372002388822315 0.23095413541459109 0 0.091039373391301387 0.20963622329240381 0 0.091039373391301387 0.20963622329240381 0 0.079191793713108999 0.20342311867113719 0 0.074871098927592999 0.21215989231720461 0 0.079547436816589365 0.2221613011235806 0 0.091039373391301387 0.20963622329240381 0 0.074871098927592999 0.21215989231720461 0 0.070141933238431473 0.22243795502139271 0 0.074871098927592999 0.21215989231720461 0 0.063212381326575071 0.2111371869653223 0 0.074871098927592999 0.21215989231720461 0 0.063212381326575071 0.2111371869653223 0 0.069831755723034281 0.20407864348963961 0 0.079191793713108999 0.20342311867113719 0 0.074871098927592999 0.21215989231720461 0 0.069831755723034281 0.20407864348963961 0 0.06151529445447286 0.19994547409916141 0 0.063212381326575071 0.2111371869653223 0 0.066967037150342079 0.19019196384173381 0 0.063212381326575071 0.2111371869653223 0 0.069831755723034281 0.20407864348963961 0 0.066967037150342079 0.19019196384173381 0 0.076416573111572877 0.19739348633305831 0 0.066967037150342079 0.19019196384173381 0 0.089675705859806165 0.1918802193297226 0 0.069831755723034281 0.20407864348963961 0 0.076416573111572877 0.19739348633305831 0 0.066967037150342079 0.19019196384173381 0 0.063212381326575071 0.2111371869653223 0 0.066967037150342079 0.19019196384173381 0 0.079191793713108999 0.20342311867113719 0 0.069831755723034281 0.20407864348963961 0 0.076416573111572877 0.19739348633305831 0 0.060426842502701417 0.1941542791380852 0 0.06151529445447286 0.19994547409916141 0 0.066967037150342079 0.19019196384173381 0 0.059101008969900483 0.1896071710732061 0 0.066967037150342079 0.19019196384173381 0 0.066967037150342079 0.19019196384173381 0 0.089675705859806165 0.1918802193297226 0 0.091039373391301387 0.20963622329240381 0 0.079191793713108999 0.20342311867113719 0 0.089675705859806165 0.1918802193297226 0 0.079191793713108999 0.20342311867113719 0 0.076416573111572877 0.19739348633305831 0 0.089675705859806165 0.1918802193297226 0 0.089675705859806165 0.1918802193297226 0 0.1123843745692706 0.19356847481770759 0 0.10050116235632479 0.1777610765571086 0 0.089675705859806165 0.1918802193297226 0 0.1123843745692706 0.19356847481770759 0 0.091039373391301387 0.20963622329240381 0 0.089675705859806165 0.1918802193297226 0 0.1123843745692706 0.19356847481770759 0 0.1123843745692706 0.19356847481770759 0 0.1187424467019486 0.17694205758925419 0 0.13509304327873489 0.19525673030569249 0 0.1123843745692706 0.19356847481770759 0 0.13509304327873489 0.19525673030569249 0 0.1123843745692706 0.19356847481770759 0 0.10974208400759911 0.2171158753681032 0 0.1295475756929414 0.214573980938536 0 0.091039373391301387 0.20963622329240381 0 0.1123843745692706 0.19356847481770759 0 0.10974208400759911 0.2171158753681032 0 0.091372002388822315 0.23095413541459109 0 0.091039373391301387 0.20963622329240381 0 0.10974208400759911 0.2171158753681032 0 0.091372002388822315 0.23095413541459109 0 0.10974208400759911 0.2171158753681032 0 0.1077906877987643 0.2347688846398947 0 0.10974208400759911 0.2171158753681032 0 0.12155702354440411 0.22858976926690541 0 0.1295475756929414 0.214573980938536 0 0.10974208400759911 0.2171158753681032 0 0.12155702354440411 0.22858976926690541 0 0.1077906877987643 0.2347688846398947 0 0.12155702354440411 0.22858976926690541 0 0.1194572647376068 0.24349155720862209 0 0.1077906877987643 0.2347688846398947 0 0.1194572647376068 0.24349155720862209 0 0.10834741414862201 0.24821867857208851 0 0.1077906877987643 0.2347688846398947 0 0.10834741414862201 0.24821867857208851 0 0.1077906877987643 0.2347688846398947 0 0.095569813203880638 0.25234178504612109 0 0.091372002388822315 0.23095413541459109 0 0.1077906877987643 0.2347688846398947 0 0.095569813203880638 0.25234178504612109 0 0.072092454263170819 0.16159999427953539 0 0.09186363657452172 0.1638556909160388 0 0.096753065496150231 0.14200915297423969 0 0.077217871375999947 0.13300802471733711 0 0.072092454263170819 0.16159999427953539 0 0.096753065496150231 0.14200915297423969 0 0.094134993361589481 0.1171436739207557 0 0.077217871375999947 0.13300802471733711 0 0.096753065496150231 0.14200915297423969 0 0.055049499274971159 0.14851879892744449 0 0.056806786946916252 0.12657041462148461 0 0.077217871375999947 0.13300802471733711 0 0.077217871375999947 0.13300802471733711 0 0.072092454263170819 0.16159999427953539 0 0.055049499274971159 0.14851879892744449 0 0.077217871375999947 0.13300802471733711 0 0.072092454263170819 0.16159999427953539 0 0.05774623484848744 0.17196204108014171 0 0.066967037150342079 0.19019196384173381 0 0.072092454263170819 0.16159999427953539 0 0.066967037150342079 0.19019196384173381 0 0.072092454263170819 0.16159999427953539 0 0.082633318598554439 0.1774917416179784 0 0.066967037150342079 0.19019196384173381 0 0.072092454263170819 0.16159999427953539 0 0.066967037150342079 0.19019196384173381 0 0.089675705859806165 0.1918802193297226 0 0.082633318598554439 0.1774917416179784 0 0.082633318598554439 0.1774917416179784 0 0.09186363657452172 0.1638556909160388 0 0.10050116235632479 0.1777610765571086 0 0.089675705859806165 0.1918802193297226 0 0.082633318598554439 0.1774917416179784 0 0.10050116235632479 0.1777610765571086 0 0.072092454263170819 0.16159999427953539 0 0.082633318598554439 0.1774917416179784 0 0.09186363657452172 0.1638556909160388 0 0.10733818215840819 0.16041648915133211 0 0.10050116235632479 0.1777610765571086 0 0.1187424467019486 0.17694205758925419 0 0.09186363657452172 0.1638556909160388 0 0.10733818215840819 0.16041648915133211 0 0.10050116235632479 0.1777610765571086 0 0.1123843745692706 0.19356847481770759 0 0.10050116235632479 0.1777610765571086 0 0.1187424467019486 0.17694205758925419 0 0.10733818215840819 0.16041648915133211 0 0.1187424467019486 0.17694205758925419 0 0.12324240102501741 0.15925665995795621 0 0.12324240102501741 0.15925665995795621 0 0.1150575763790819 0.1446294323437794 0 0.12783766985631759 0.14482192575327971 0 0.10733818215840819 0.16041648915133211 0 0.12324240102501741 0.15925665995795621 0 0.1150575763790819 0.1446294323437794 0 0.09186363657452172 0.1638556909160388 0 0.10733818215840819 0.16041648915133211 0 0.096753065496150231 0.14200915297423969 0 0.10733818215840819 0.16041648915133211 0 0.1150575763790819 0.1446294323437794 0 0.096753065496150231 0.14200915297423969 0 0.094134993361589481 0.1171436739207557 0 0.11902016168324191 0.1197027187353239 0 0.096753065496150231 0.14200915297423969 0 0.11902016168324191 0.1197027187353239 0 0.1150575763790819 0.1446294323437794 0 0.12783766985631759 0.14482192575327971 0 0.11902016168324191 0.1197027187353239 0 0.1150575763790819 0.1446294323437794 0 0.096753065496150231 0.14200915297423969 0 0.11902016168324191 0.1197027187353239 0 0.138727767925589 0.13755461617201081 0 0.12783766985631759 0.14482192575327971 0 0.11902016168324191 0.1197027187353239 0 0.138727767925589 0.13755461617201081 0 0.1444084766398315 0.12015304776429481 0 0.11902016168324191 0.1197027187353239 0 0.138727767925589 0.13755461617201081 0 0.138727767925589 0.13755461617201081 0 0.15887636782960801 0.13335845630356591 0 0.1444084766398315 0.12015304776429481 0 0.138727767925589 0.13755461617201081 0 0.1584353741679361 0.1554065136086977 0 0.138727767925589 0.13755461617201081 0 0.15887636782960801 0.13335845630356591 0 0.1584353741679361 0.1554065136086977 0 0.138727767925589 0.13755461617201081 0 0.13719503442250461 0.1489129569763892 0 0.1584353741679361 0.1554065136086977 0 0.13719503442250461 0.1489129569763892 0 0.12783766985631759 0.14482192575327971 0 0.13378307770247089 0.158875170334219 0 0.138727767925589 0.13755461617201081 0 0.13719503442250461 0.1489129569763892 0 0.12783766985631759 0.14482192575327971 0 0.12324240102501741 0.15925665995795621 0 0.12783766985631759 0.14482192575327971 0 0.13378307770247089 0.158875170334219 0 0.1187424467019486 0.17694205758925419 0 0.12324240102501741 0.15925665995795621 0 0.13570401845712229 0.1726753671868558 0 0.12324240102501741 0.15925665995795621 0 0.13378307770247089 0.158875170334219 0 0.13570401845712229 0.1726753671868558 0 0.13378307770247089 0.158875170334219 0 0.13570401845712229 0.1726753671868558 0 0.14267237870832311 0.16409174111390079 0 0.13719503442250461 0.1489129569763892 0 0.13378307770247089 0.158875170334219 0 0.14267237870832311 0.16409174111390079 0 0.13570401845712229 0.1726753671868558 0 0.13509304327873489 0.19525673030569249 0 0.1465336967898247 0.18854065295986941 0 0.1187424467019486 0.17694205758925419 0 0.13570401845712229 0.1726753671868558 0 0.13509304327873489 0.19525673030569249 0 0.13570401845712229 0.1726753671868558 0 0.14845429378063629 0.17409422185161191 0 0.1465336967898247 0.18854065295986941 0 0.14845429378063629 0.17409422185161191 0 0.15822546917888139 0.1659009892204282 0 0.15789003180911129 0.1826716210768986 0 0.14845429378063629 0.17409422185161191 0 0.15789003180911129 0.1826716210768986 0 0.1465336967898247 0.18854065295986941 0 0.13719503442250461 0.1489129569763892 0 0.15822546917888139 0.1659009892204282 0 0.1584353741679361 0.1554065136086977 0 0.13719503442250461 0.1489129569763892 0 0.14267237870832311 0.16409174111390079 0 0.15822546917888139 0.1659009892204282 0 0.13719503442250461 0.1489129569763892 0 0.15822546917888139 0.1659009892204282 0 0.13570401845712229 0.1726753671868558 0 0.14845429378063629 0.17409422185161191 0 0.14267237870832311 0.16409174111390079 0 0.14845429378063629 0.17409422185161191 0 0.14267237870832311 0.16409174111390079 0 0.15822546917888139 0.1659009892204282 0 0.15822546917888139 0.1659009892204282 0 0.171968427961147 0.16766526717575711 0 0.1584353741679361 0.1554065136086977 0 0.15822546917888139 0.1659009892204282 0 0.1584353741679361 0.1554065136086977 0 0.171968427961147 0.16766526717575711 0 0.17389178545173739 0.15126593194208521 0 0.1584353741679361 0.1554065136086977 0 0.15822546917888139 0.1659009892204282 0 0.17013146702035939 0.17039218974328979 0 0.1730366328054421 0.17786519862334321 0 0.15822546917888139 0.1659009892204282 0 0.17013146702035939 0.17039218974328979 0 0.171968427961147 0.16766526717575711 0 0.17013146702035939 0.17039218974328979 0 0.171968427961147 0.16766526717575711 0 0.171968427961147 0.16766526717575711 0 0.1584353741679361 0.1554065136086977 0 0.15822546917888139 0.1659009892204282 0 0.15789003180911129 0.1826716210768986 0 0.1730366328054421 0.17786519862334321 0 0.1652269527923258 0.18843735316293619 0 0.17242655211540669 0.19377034001813409 0 0.15822546917888139 0.1659009892204282 0 0.15789003180911129 0.1826716210768986 0 0.1730366328054421 0.17786519862334321 0 0.15822546917888139 0.1659009892204282 0 0.1730366328054421 0.17786519862334321 0 0.15789003180911129 0.1826716210768986 0 0.1730366328054421 0.17786519862334321 0 0.1652269527923258 0.18843735316293619 0 0.18068777258899321 0.17556358034973149 0 0.18784779643200081 0.18982940802626061 0 0.19188603691491801 0.17131059864284109 0 0.1730366328054421 0.17786519862334321 0 0.17242655211540669 0.19377034001813409 0 0.18784779643200081 0.18982940802626061 0 0.17013146702035939 0.17039218974328979 0 0.1730366328054421 0.17786519862334321 0 0.18068777258899321 0.17556358034973149 0 0.1730366328054421 0.17786519862334321 0 0.18784779643200081 0.18982940802626061 0 0.1730366328054421 0.17786519862334321 0 0.18068777258899321 0.17556358034973149 0 0.18784779643200081 0.18982940802626061 0 0.18068777258899321 0.17556358034973149 0 0.171968427961147 0.16766526717575711 0 0.1810888402051358 0.16758810235282109 0 0.17013146702035939 0.17039218974328979 0 0.18068777258899321 0.17556358034973149 0 0.171968427961147 0.16766526717575711 0 0.18068777258899321 0.17556358034973149 0 0.171968427961147 0.16766526717575711 0 0.171968427961147 0.16766526717575711 0 0.1810888402051358 0.16758810235282109 0 0.184510606372178 0.1611262796200861 0 0.18068777258899321 0.17556358034973149 0 0.1810888402051358 0.16758810235282109 0 0.18718855389822489 0.16599728226570951 0 0.18068777258899321 0.17556358034973149 0 0.18718855389822489 0.16599728226570951 0 0.19188603691491801 0.17131059864284109 0 0.1810888402051358 0.16758810235282109 0 0.18718855389822489 0.16599728226570951 0 0.184510606372178 0.1611262796200861 0 0.171968427961147 0.16766526717575711 0 0.184510606372178 0.1611262796200861 0 0.18579334522263441 0.15496005930880399 0 0.171968427961147 0.16766526717575711 0 0.18579334522263441 0.15496005930880399 0 0.18843727425762441 0.1432176767942839 0 0.171968427961147 0.16766526717575711 0 0.18843727425762441 0.1432176767942839 0 0.171968427961147 0.16766526717575711 0 0.17389178545173739 0.15126593194208521 0 0.18843727425762441 0.1432176767942839 0 0.17389178545173739 0.15126593194208521 0 0.17623166944459551 0.14329793102310159 0 0.16730764480768631 0.14359831297462841 0 0.17623166944459551 0.14329793102310159 0 0.17528997326133411 0.1351098023814091 0 0.16730764480768631 0.14359831297462841 0 0.17389178545173739 0.15126593194208521 0 0.17623166944459551 0.14329793102310159 0 0.18843727425762441 0.1432176767942839 0 0.17528997326133411 0.1351098023814091 0 0.18843727425762441 0.1432176767942839 0 0.18585489536986491 0.12232632229339301 0 0.17623166944459551 0.14329793102310159 0 0.17528997326133411 0.1351098023814091 0 0.18843727425762441 0.1432176767942839 0 0.17528997326133411 0.1351098023814091 0 0.1711843195139528 0.12020169681432739 0 0.18585489536986491 0.12232632229339301 0 0.17528997326133411 0.1351098023814091 0 0.15887636782960801 0.13335845630356591 0 0.16730764480768631 0.14359831297462841 0 0.17528997326133411 0.1351098023814091 0 0.15887636782960801 0.13335845630356591 0 0.1711843195139528 0.12020169681432739 0 0.15887636782960801 0.13335845630356591 0 0.1584353741679361 0.1554065136086977 0 0.15887636782960801 0.13335845630356591 0 0.1584353741679361 0.1554065136086977 0 0.16730764480768631 0.14359831297462841 0 0.17389178545173739 0.15126593194208521 0 0.1584353741679361 0.1554065136086977 0 0.16730764480768631 0.14359831297462841 0 0.15123154966920899 0.2468417026449499 0 0.1368551491754432 0.23638200886189439 0 0.15615240342102951 0.2316546282723857 0 0.12155702354440411 0.22858976926690541 0 0.1194572647376068 0.24349155720862209 0 0.1368551491754432 0.23638200886189439 0 0.15123154966920899 0.2468417026449499 0 0.1368551491754432 0.23638200886189439 0 0.1306917988367528 0.25442861185416249 0 0.1194572647376068 0.24349155720862209 0 0.1368551491754432 0.23638200886189439 0 0.1306917988367528 0.25442861185416249 0 0.12155702354440411 0.22858976926690541 0 0.1368551491754432 0.23638200886189439 0 0.1295475756929414 0.214573980938536 0 0.1368551491754432 0.23638200886189439 0 0.14571992967763189 0.2221863510694784 0 0.1295475756929414 0.214573980938536 0 0.14571992967763189 0.2221863510694784 0 0.16391173774198031 0.2191790468962993 0 0.1368551491754432 0.23638200886189439 0 0.14571992967763189 0.2221863510694784 0 0.15615240342102951 0.2316546282723857 0 0.14571992967763189 0.2221863510694784 0 0.15615240342102951 0.2316546282723857 0 0.16391173774198031 0.2191790468962993 0 0.14571992967763189 0.2221863510694784 0 0.1445061989740008 0.20710372440478869 0 0.16391173774198031 0.2191790468962993 0 0.1445061989740008 0.20710372440478869 0 0.15755459443934289 0.19944225293336909 0 0.16391173774198031 0.2191790468962993 0 0.1445061989740008 0.20710372440478869 0 0.1295475756929414 0.214573980938536 0 0.13509304327873489 0.19525673030569249 0 0.14571992967763189 0.2221863510694784 0 0.1445061989740008 0.20710372440478869 0 0.1295475756929414 0.214573980938536 0 0.1123843745692706 0.19356847481770759 0 0.1295475756929414 0.214573980938536 0 0.13509304327873489 0.19525673030569249 0 0.15789003180911129 0.1826716210768986 0 0.1465336967898247 0.18854065295986941 0 0.15755459443934289 0.19944225293336909 0 0.1445061989740008 0.20710372440478869 0 0.13509304327873489 0.19525673030569249 0 0.1465336967898247 0.18854065295986941 0 0.1445061989740008 0.20710372440478869 0 0.1465336967898247 0.18854065295986941 0 0.15755459443934289 0.19944225293336909 0 0.15789003180911129 0.1826716210768986 0 0.15755459443934289 0.19944225293336909 0 0.1652269527923258 0.18843735316293619 0 0.15789003180911129 0.1826716210768986 0 0.15755459443934289 0.19944225293336909 0 0.15755459443934289 0.19944225293336909 0 0.17242655211540669 0.19377034001813409 0 0.1717054428383934 0.20653065420183581 0 0.15755459443934289 0.19944225293336909 0 0.1652269527923258 0.18843735316293619 0 0.17242655211540669 0.19377034001813409 0 0.18210354580632851 0.21617174272311929 0 0.18784779643200081 0.18982940802626061 0 0.17242655211540669 0.19377034001813409 0 0.1717054428383934 0.20653065420183581 0 0.18784779643200081 0.18982940802626061 0 0.18210354580632851 0.21617174272311929 0 0.1717054428383934 0.20653065420183581 0 0.18784779643200081 0.18982940802626061 0 0.18210354580632851 0.21617174272311929 0 0.16391173774198031 0.2191790468962993 0 0.18210354580632851 0.21617174272311929 0 0.1717054428383934 0.20653065420183581 0 0.16391173774198031 0.2191790468962993 0 0.15755459443934289 0.19944225293336909 0 0.1717054428383934 0.20653065420183581 0 0.16391173774198031 0.2191790468962993 0 0.15615240342102951 0.2316546282723857 0 0.16391173774198031 0.2191790468962993 0 0.17713505718559289 0.2389565407261868 0 0.18210354580632851 0.21617174272311929 0 0.17713505718559289 0.2389565407261868 0 0.18210354580632851 0.21617174272311929 0 0.17713505718559289 0.2389565407261868 0 0.1926477951090913 0.22588149903778679 0 0.18210354580632851 0.21617174272311929 0 0.16391173774198031 0.2191790468962993 0 0.17713505718559289 0.2389565407261868 0 0.15123154966920899 0.2468417026449499 0 0.15615240342102951 0.2316546282723857 0 0.17713505718559289 0.2389565407261868 0 0.2118089964261817 0.24811216407671691 0 0.21529690065338669 0.2355378747469048 0 0.2232354012178249 0.2436298145801841 0 0.2118089964261817 0.24811216407671691 0 0.21529690065338669 0.2355378747469048 0 0.19990147760164961 0.23778937141929149 0 0.2118089964261817 0.24811216407671691 0 0.19990147760164961 0.23778937141929149 0 0.19663366196222959 0.25391388438766499 0 0.17713505718559289 0.2389565407261868 0 0.19990147760164961 0.23778937141929149 0 0.19663366196222959 0.25391388438766499 0 0.17713505718559289 0.2389565407261868 0 0.19990147760164961 0.23778937141929149 0 0.1926477951090913 0.22588149903778679 0 0.19990147760164961 0.23778937141929149 0 0.1926477951090913 0.22588149903778679 0 0.20770893669467499 0.22361212379302259 0 0.1926477951090913 0.22588149903778679 0 0.20770893669467499 0.22361212379302259 0 0.1980230973618943 0.2135400673196173 0 0.21529690065338669 0.2355378747469048 0 0.19990147760164961 0.23778937141929149 0 0.20770893669467499 0.22361212379302259 0 0.21529690065338669 0.2355378747469048 0 0.20770893669467499 0.22361212379302259 0 0.21926389096388191 0.22549885571217401 0 0.20770893669467499 0.22361212379302259 0 0.21633291407114999 0.22010636811180601 0 0.2121755965998525 0.21767245473072011 0 0.20770893669467499 0.22361212379302259 0 0.21633291407114999 0.22010636811180601 0 0.21926389096388191 0.22549885571217401 0 0.2121755965998525 0.21767245473072011 0 0.21394264891746001 0.21090839191611491 0 0.1980230973618943 0.2135400673196173 0 0.21394264891746001 0.21090839191611491 0 0.20089522267473031 0.20036889997118781 0 0.21784078806403079 0.2016114020399013 0 0.21394264891746001 0.21090839191611491 0 0.1980230973618943 0.2135400673196173 0 0.20089522267473031 0.20036889997118781 0 0.21394264891746001 0.21090839191611491 0 0.1980230973618943 0.2135400673196173 0 0.21633291407114999 0.22010636811180601 0 0.2121755965998525 0.21767245473072011 0 0.21841685575228359 0.21452258110701811 0 0.2121755965998525 0.21767245473072011 0 0.21841685575228359 0.21452258110701811 0 0.21394264891746001 0.21090839191611491 0 0.21841685575228359 0.21452258110701811 0 0.21394264891746001 0.21090839191611491 0 0.21394264891746001 0.21090839191611491 0 0.20089522267473031 0.20036889997118781 0 0.20770893669467499 0.22361212379302259 0 0.2121755965998525 0.21767245473072011 0 0.1980230973618943 0.2135400673196173 0 0.18210354580632851 0.21617174272311929 0 0.1980230973618943 0.2135400673196173 0 0.18210354580632851 0.21617174272311929 0 0.1926477951090913 0.22588149903778679 0 0.1980230973618943 0.2135400673196173 0 0.18210354580632851 0.21617174272311929 0 0.1980230973618943 0.2135400673196173 0 0.20089522267473031 0.20036889997118781 0 0.20089522267473031 0.20036889997118781 0 0.18784779643200081 0.18982940802626061 0 0.20201968959378691 0.1835513313766953 0 0.18210354580632851 0.21617174272311929 0 0.20089522267473031 0.20036889997118781 0 0.18784779643200081 0.18982940802626061 0 0.20089522267473031 0.20036889997118781 0 0.18784779643200081 0.18982940802626061 0 0.20089522267473031 0.20036889997118781 0 0.21686226147459339 0.18951672504255529 0 0.20201968959378691 0.1835513313766953 0 0.20089522267473031 0.20036889997118781 0 0.21784078806403079 0.2016114020399013 0 0.21686226147459339 0.18951672504255529 0 0.21686226147459339 0.18951672504255529 0 0.22929694621150379 0.19871263110500889 0 0.2279234589415543 0.1882716291967679 0 0.21784078806403079 0.2016114020399013 0 0.22929694621150379 0.19871263110500889 0 0.22820686104186641 0.20855036216464029 0 0.21784078806403079 0.2016114020399013 0 0.21686226147459339 0.18951672504255529 0 0.22929694621150379 0.19871263110500889 0 0.22929694621150379 0.19871263110500889 0 0.2279234589415543 0.1882716291967679 0 0.2370090893606111 0.19260681240379729 0 0.2370090893606111 0.19260681240379729 0 0.2460804663796631 0.19159688976212991 0 0.24007907564214259 0.1792083475378744 0 0.2460804663796631 0.19159688976212991 0 0.2376488081470377 0.20226679061564731 0 0.2478987992535544 0.20483769197021839 0 0.2460804663796631 0.19159688976212991 0 0.2478987992535544 0.20483769197021839 0 0.25535634550368269 0.19617232584258071 0 0.22929694621150379 0.19871263110500889 0 0.2370090893606111 0.19260681240379729 0 0.2376488081470377 0.20226679061564731 0 0.2370090893606111 0.19260681240379729 0 0.2460804663796631 0.19159688976212991 0 0.2376488081470377 0.20226679061564731 0 0.2376488081470377 0.20226679061564731 0 0.2478987992535544 0.20483769197021839 0 0.23666452123070311 0.214428070261767 0 0.23666452123070311 0.214428070261767 0 0.2456252776390182 0.2220162101577105 0 0.2519799366662534 0.21517004449020219 0 0.2478987992535544 0.20483769197021839 0 0.23666452123070311 0.214428070261767 0 0.2519799366662534 0.21517004449020219 0 0.23666452123070311 0.214428070261767 0 0.22458275642665981 0.2136198008895282 0 0.22934557199038799 0.22227399323114591 0 0.23666452123070311 0.214428070261767 0 0.22820686104186641 0.20855036216464029 0 0.22458275642665981 0.2136198008895282 0 0.22929694621150379 0.19871263110500889 0 0.2376488081470377 0.20226679061564731 0 0.22820686104186641 0.20855036216464029 0 0.2376488081470377 0.20226679061564731 0 0.23666452123070311 0.214428070261767 0 0.22820686104186641 0.20855036216464029 0 0.21394264891746001 0.21090839191611491 0 0.22820686104186641 0.20855036216464029 0 0.21394264891746001 0.21090839191611491 0 0.21784078806403079 0.2016114020399013 0 0.22820686104186641 0.20855036216464029 0 0.22458275642665981 0.2136198008895282 0 0.22181666079579851 0.2192062748472218 0 0.22934557199038799 0.22227399323114591 0 0.21394264891746001 0.21090839191611491 0 0.22820686104186641 0.20855036216464029 0 0.22458275642665981 0.2136198008895282 0 0.21841685575228359 0.21452258110701811 0 0.21394264891746001 0.21090839191611491 0 0.22458275642665981 0.2136198008895282 0 0.21841685575228359 0.21452258110701811 0 0.22458275642665981 0.2136198008895282 0 0.22181666079579851 0.2192062748472218 0 0.21633291407114999 0.22010636811180601 0 0.21841685575228359 0.21452258110701811 0 0.22181666079579851 0.2192062748472218 0 0.22181666079579851 0.2192062748472218 0 0.21926389096388191 0.22549885571217401 0 0.22934557199038799 0.22227399323114591 0 0.21633291407114999 0.22010636811180601 0 0.22181666079579851 0.2192062748472218 0 0.21926389096388191 0.22549885571217401 0 0.21926389096388191 0.22549885571217401 0 0.22722223674561851 0.2327290803363376 0 0.22934557199038799 0.22227399323114591 0 0.21529690065338669 0.2355378747469048 0 0.21926389096388191 0.22549885571217401 0 0.22722223674561851 0.2327290803363376 0 0.22722223674561851 0.2327290803363376 0 0.23285686961869259 0.22841248698288549 0 0.23730433380541199 0.2334656626478023 0 0.22722223674561851 0.2327290803363376 0 0.23285686961869259 0.22841248698288549 0 0.22934557199038799 0.22227399323114591 0 0.23285686961869259 0.22841248698288549 0 0.22934557199038799 0.22227399323114591 0 0.2375553359333521 0.22518121171625641 0 0.23666452123070311 0.214428070261767 0 0.22934557199038799 0.22227399323114591 0 0.2375553359333521 0.22518121171625641 0 0.23666452123070311 0.214428070261767 0 0.2375553359333521 0.22518121171625641 0 0.2456252776390182 0.2220162101577105 0 0.2456252776390182 0.2220162101577105 0 0.24651796552036409 0.23110242665056199 0 0.25315194677898373 0.22493079252654741 0 0.2375553359333521 0.22518121171625641 0 0.2456252776390182 0.2220162101577105 0 0.24651796552036409 0.23110242665056199 0 0.24651796552036409 0.23110242665056199 0 0.23730433380541199 0.2334656626478023 0 0.24328902500249289 0.2367615156982491 0 0.2375553359333521 0.22518121171625641 0 0.24651796552036409 0.23110242665056199 0 0.23730433380541199 0.2334656626478023 0 0.23285686961869259 0.22841248698288549 0 0.2375553359333521 0.22518121171625641 0 0.23730433380541199 0.2334656626478023 0 0.23730433380541199 0.2334656626478023 0 0.2403301851033979 0.24158852773248191 0 0.24328902500249289 0.2367615156982491 0 0.23730433380541199 0.2334656626478023 0 0.2403301851033979 0.24158852773248191 0 0.23270075075176891 0.24116389473702751 0 0.2403301851033979 0.24158852773248191 0 0.24900361558079781 0.24088944576215021 0 0.24328902500249289 0.2367615156982491 0 0.24651796552036409 0.23110242665056199 0 0.24900361558079781 0.24088944576215021 0 0.24328902500249289 0.2367615156982491 0 0.24900361558079781 0.24088944576215021 0 0.24552209241342421 0.24938586441016569 0 0.25423555326891639 0.24942618361914939 0 0.2403301851033979 0.24158852773248191 0 0.24900361558079781 0.24088944576215021 0 0.24552209241342421 0.24938586441016569 0 0.2403301851033979 0.24158852773248191 0 0.2373121946882093 0.2491729402658398 0 0.23270075075176891 0.24116389473702751 0 0.2403301851033979 0.24158852773248191 0 0.24552209241342421 0.24938586441016569 0 0.2373121946882093 0.2491729402658398 0 0.2373121946882093 0.2491729402658398 0 0.22943575549951339 0.24954153298696269 0 0.23270075075176891 0.24116389473702751 0 0.22943575549951339 0.24954153298696269 0 0.23270075075176891 0.24116389473702751 0 0.2232354012178249 0.2436298145801841 0 0.22722223674561851 0.2327290803363376 0 0.23270075075176891 0.24116389473702751 0 0.2232354012178249 0.2436298145801841 0 0.22722223674561851 0.2327290803363376 0 0.23730433380541199 0.2334656626478023 0 0.23270075075176891 0.24116389473702751 0 0.21529690065338669 0.2355378747469048 0 0.22722223674561851 0.2327290803363376 0 0.2232354012178249 0.2436298145801841 0 0.22943575549951339 0.24954153298696269 0 0.2232354012178249 0.2436298145801841 0 0.22374275107647101 0.25592796074431778 0 0.2118089964261817 0.24811216407671691 0 0.2232354012178249 0.2436298145801841 0 0.22374275107647101 0.25592796074431778 0 0.21055955486275649 0.1513546574389788 0 0.20594520851305709 0.13724087881963309 0 0.19592427739783541 0.15279178925942161 0 0.21055955486275649 0.1513546574389788 0 0.20594520851305709 0.13724087881963309 0 0.22268282581056081 0.1332381308468569 0 0.20594520851305709 0.13724087881963309 0 0.22268282581056081 0.1332381308468569 0 0.20490612055410309 0.1187700864128117 0 0.20594520851305709 0.13724087881963309 0 0.18843727425762441 0.1432176767942839 0 0.20490612055410309 0.1187700864128117 0 0.18843727425762441 0.1432176767942839 0 0.20490612055410309 0.1187700864128117 0 0.18585489536986491 0.12232632229339301 0 0.18843727425762441 0.1432176767942839 0 0.20490612055410309 0.1187700864128117 0 0.20594520851305709 0.13724087881963309 0 0.18843727425762441 0.1432176767942839 0 0.19592427739783541 0.15279178925942161 0 0.21055955486275649 0.1513546574389788 0 0.19592427739783541 0.15279178925942161 0 0.20265576250125189 0.16309785683794861 0 0.18579334522263441 0.15496005930880399 0 0.18843727425762441 0.1432176767942839 0 0.19592427739783541 0.15279178925942161 0 0.184510606372178 0.1611262796200861 0 0.18579334522263441 0.15496005930880399 0 0.19592427739783541 0.15279178925942161 0 0.18718855389822489 0.16599728226570951 0 0.184510606372178 0.1611262796200861 0 0.19592427739783541 0.15279178925942161 0 0.19592427739783541 0.15279178925942161 0 0.19188603691491801 0.17131059864284109 0 0.20265576250125189 0.16309785683794861 0 0.18718855389822489 0.16599728226570951 0 0.19592427739783541 0.15279178925942161 0 0.19188603691491801 0.17131059864284109 0 0.19592427739783541 0.15279178925942161 0 0.19188603691491801 0.17131059864284109 0 0.19188603691491801 0.17131059864284109 0 0.20265576250125189 0.16309785683794861 0 0.2037281789153122 0.17261062604047339 0 0.18784779643200081 0.18982940802626061 0 0.19188603691491801 0.17131059864284109 0 0.20201968959378691 0.1835513313766953 0 0.18784779643200081 0.18982940802626061 0 0.19188603691491801 0.17131059864284109 0 0.19188603691491801 0.17131059864284109 0 0.20201968959378691 0.1835513313766953 0 0.2037281789153122 0.17261062604047339 0 0.21686226147459339 0.18951672504255529 0 0.20201968959378691 0.1835513313766953 0 0.21219128558436781 0.17734838626745661 0 0.20201968959378691 0.1835513313766953 0 0.2037281789153122 0.17261062604047339 0 0.21219128558436781 0.17734838626745661 0 0.2037281789153122 0.17261062604047339 0 0.21219128558436781 0.17734838626745661 0 0.212902852480232 0.1666601591704456 0 0.21219128558436781 0.17734838626745661 0 0.212902852480232 0.1666601591704456 0 0.22338211602626379 0.17650601467440299 0 0.21686226147459339 0.18951672504255529 0 0.21219128558436781 0.17734838626745661 0 0.22338211602626379 0.17650601467440299 0 0.21055955486275649 0.1513546574389788 0 0.212902852480232 0.1666601591704456 0 0.22891741256770901 0.1589436138097963 0 0.21055955486275649 0.1513546574389788 0 0.20265576250125189 0.16309785683794861 0 0.212902852480232 0.1666601591704456 0 0.20265576250125189 0.16309785683794861 0 0.2037281789153122 0.17261062604047339 0 0.212902852480232 0.1666601591704456 0 0.212902852480232 0.1666601591704456 0 0.22891741256770901 0.1589436138097963 0 0.22338211602626379 0.17650601467440299 0 0.22891741256770901 0.1589436138097963 0 0.22338211602626379 0.17650601467440299 0 0.24007907564214259 0.1792083475378744 0 0.2279234589415543 0.1882716291967679 0 0.22338211602626379 0.17650601467440299 0 0.24007907564214259 0.1792083475378744 0 0.21686226147459339 0.18951672504255529 0 0.2279234589415543 0.1882716291967679 0 0.22338211602626379 0.17650601467440299 0 0.2279234589415543 0.1882716291967679 0 0.2370090893606111 0.19260681240379729 0 0.24007907564214259 0.1792083475378744 0 0.24007907564214259 0.1792083475378744 0 0.2491144448195933 0.16826536546051801 0 0.25167137028295861 0.17663220115905981 0 0.24007907564214259 0.1792083475378744 0 0.25352284263599512 0.1850986446351863 0 0.25167137028295861 0.17663220115905981 0 0.2460804663796631 0.19159688976212991 0 0.24007907564214259 0.1792083475378744 0 0.25352284263599512 0.1850986446351863 0 0.22891741256770901 0.1589436138097963 0 0.24007907564214259 0.1792083475378744 0 0.2491144448195933 0.16826536546051801 0 0.22891741256770901 0.1589436138097963 0 0.2491144448195933 0.16826536546051801 0 0.25040386024834022 0.15833548980136 0 0.22891741256770901 0.1589436138097963 0 0.25314426042736299 0.14827920166102929 0 0.25040386024834022 0.15833548980136 0 0.22891741256770901 0.1589436138097963 0 0.24082077887232661 0.13822745745909271 0 0.25314426042736299 0.14827920166102929 0 0.22891741256770901 0.1589436138097963 0 0.25314426042736299 0.14827920166102929 0 0.21055955486275649 0.1513546574389788 0 0.22891741256770901 0.1589436138097963 0 0.22268282581056081 0.1332381308468569 0 0.22891741256770901 0.1589436138097963 0 0.22268282581056081 0.1332381308468569 0 0.24082077887232661 0.13822745745909271 0 0.24082077887232661 0.13822745745909271 0 0.2407900118549258 0.1224227284823214 0 0.25724954753185281 0.13102681759278989 0 0.22268282581056081 0.1332381308468569 0 0.24082077887232661 0.13822745745909271 0 0.2407900118549258 0.1224227284823214 0 0.2407900118549258 0.1224227284823214 0 0.23655227517800889 0.1045727843819186 0 0.26190943645332521 0.11336057640168661 0 0.23655227517800889 0.1045727843819186 0 0.24644776461963311 0.089106363291110768 0 0.26190943645332521 0.11336057640168661 0 0.23655227517800889 0.1045727843819186 0 0.23306578659226379 0.088189238108984755 0 0.24644776461963311 0.089106363291110768 0 0.23655227517800889 0.1045727843819186 0 0.2228038655657979 0.087937896730909931 0 0.23655227517800889 0.1045727843819186 0 0.22137496685058169 0.094322496031339409 0 0.2228038655657979 0.087937896730909931 0 0.23655227517800889 0.1045727843819186 0 0.22137496685058169 0.094322496031339409 0 0.22552520728348041 0.1141106042115836 0 0.2407900118549258 0.1224227284823214 0 0.23655227517800889 0.1045727843819186 0 0.22552520728348041 0.1141106042115836 0 0.22268282581056081 0.1332381308468569 0 0.2407900118549258 0.1224227284823214 0 0.22552520728348041 0.1141106042115836 0 0.22268282581056081 0.1332381308468569 0 0.22552520728348041 0.1141106042115836 0 0.20490612055410309 0.1187700864128117 0 0.22137496685058169 0.094322496031339409 0 0.20490612055410309 0.1187700864128117 0 0.22137496685058169 0.094322496031339409 0 0.20490612055410309 0.1187700864128117 0 0.20674958575535041 0.1012617566316218 0 0.22137496685058169 0.094322496031339409 0 0.22552520728348041 0.1141106042115836 0 0.20490612055410309 0.1187700864128117 0 0.22137496685058169 0.094322496031339409 0 0.20674958575535041 0.1012617566316218 0 0.2107052313260489 0.092238104714963062 0 0.20674958575535041 0.1012617566316218 0 0.2029399877293579 0.092587964910219339 0 0.2107052313260489 0.092238104714963062 0 0.20674958575535041 0.1012617566316218 0 0.19957420904242421 0.098242024660908978 0 0.19425118651422699 0.1056361426311495 0 0.20490612055410309 0.1187700864128117 0 0.20674958575535041 0.1012617566316218 0 0.19425118651422699 0.1056361426311495 0 0.20674958575535041 0.1012617566316218 0 0.19957420904242421 0.098242024660908978 0 0.2029399877293579 0.092587964910219339 0 0.19957420904242421 0.098242024660908978 0 0.1943560761707615 0.093482234470645242 0 0.2029399877293579 0.092587964910219339 0 0.19957420904242421 0.098242024660908978 0 0.19425118651422699 0.1056361426311495 0 0.1943560761707615 0.093482234470645242 0 0.19425118651422699 0.1056361426311495 0 0.1943560761707615 0.093482234470645242 0 0.18373151532936299 0.097501428738130974 0 0.20490612055410309 0.1187700864128117 0 0.19425118651422699 0.1056361426311495 0 0.18585489536986491 0.12232632229339301 0 0.19530704634137599 0.054668121428892699 0 0.18020518043002201 0.070582537251580341 0 0.19791838412741089 0.079701224389673447 0 0.19530704634137599 0.054668121428892699 0 0.18020518043002201 0.070582537251580341 0 0.19791838412741089 0.079701224389673447 0 0.20905545595358691 0.071303009079901294 0 0.19530704634137599 0.054668121428892699 0 0.20905545595358691 0.071303009079901294 0 0.19530704634137599 0.054668121428892699 0 0.19791838412741089 0.079701224389673447 0 0.18595415123664311 0.086275706070766747 0 0.18020518043002201 0.070582537251580341 0 0.1943560761707615 0.093482234470645242 0 0.19791838412741089 0.079701224389673447 0 0.18595415123664311 0.086275706070766747 0 0.1943560761707615 0.093482234470645242 0 0.18373151532936299 0.097501428738130974 0 0.18595415123664311 0.086275706070766747 0 0.2029399877293579 0.092587964910219339 0 0.19791838412741089 0.079701224389673447 0 0.20796057638471441 0.086050729832787207 0 0.1943560761707615 0.093482234470645242 0 0.2029399877293579 0.092587964910219339 0 0.19791838412741089 0.079701224389673447 0 0.20796057638471441 0.086050729832787207 0 0.21450103991023989 0.086967576168847552 0 0.20905545595358691 0.071303009079901294 0 0.19791838412741089 0.079701224389673447 0 0.20796057638471441 0.086050729832787207 0 0.20905545595358691 0.071303009079901294 0 0.20905545595358691 0.071303009079901294 0 0.2228038655657979 0.087937896730909931 0 0.21450103991023989 0.086967576168847552 0 0.20905545595358691 0.071303009079901294 0 0.2228038655657979 0.087937896730909931 0 0.2029399877293579 0.092587964910219339 0 0.20796057638471441 0.086050729832787207 0 0.2107052313260489 0.092238104714963062 0 0.22137496685058169 0.094322496031339409 0 0.2107052313260489 0.092238104714963062 0 0.21450103991023989 0.086967576168847552 0 0.20796057638471441 0.086050729832787207 0 0.2107052313260489 0.092238104714963062 0 0.21450103991023989 0.086967576168847552 0 0.20905545595358691 0.071303009079901294 0 0.22195201041663071 0.074643098585460782 0 0.2170362399539375 0.056108126886887308 0 0.20905545595358691 0.071303009079901294 0 0.22195201041663071 0.074643098585460782 0 0.2228038655657979 0.087937896730909931 0 0.2309860927859409 0.064852150180534862 0 0.22195201041663071 0.074643098585460782 0 0.23306578659226379 0.088189238108984755 0 0.2309860927859409 0.064852150180534862 0 0.22195201041663071 0.074643098585460782 0 0.2170362399539375 0.056108126886887308 0 0.23655227517800889 0.1045727843819186 0 0.2228038655657979 0.087937896730909931 0 0.23306578659226379 0.088189238108984755 0 0.22137496685058169 0.094322496031339409 0 0.21450103991023989 0.086967576168847552 0 0.2228038655657979 0.087937896730909931 0 0.22195201041663071 0.074643098585460782 0 0.2228038655657979 0.087937896730909931 0 0.23306578659226379 0.088189238108984755 0 0.2309860927859409 0.064852150180534862 0 0.23306578659226379 0.088189238108984755 0 0.24644776461963311 0.089106363291110768 0 0.2309860927859409 0.064852150180534862 0 0.24644776461963311 0.089106363291110768 0 0.25208002729542178 0.064527904360886248 0 0.2309860927859409 0.064852150180534862 0 0.24644776461963311 0.089106363291110768 0 0.2309860927859409 0.064852150180534862 0 0.23768776443311579 0.043688008318092109 0 0.25208002729542178 0.064527904360886248 0 0.23768776443311579 0.043688008318092109 0 0.23801709678707719 0.02333277758724521 0 0.25577337963678798 0.027212692525896549 0 0.23768776443311579 0.043688008318092109 0 0.23801709678707719 0.02333277758724521 0 0.21448943982842611 0.034453626861183959 0 0.23768776443311579 0.043688008318092109 0 0.2170362399539375 0.056108126886887308 0 0.21448943982842611 0.034453626861183959 0 0.2309860927859409 0.064852150180534862 0 0.23768776443311579 0.043688008318092109 0 0.2170362399539375 0.056108126886887308 0 0.2442639786172042 0.0070688571158914679 0 0.23801709678707719 0.02333277758724521 0 0.22170063999037459 0.012173517244787071 0 0.2442639786172042 0.0070688571158914679 0 0.23801709678707719 0.02333277758724521 0 0.25418737821655463 0.015399963457620141 0 0.23801709678707719 0.02333277758724521 0 0.25577337963678798 0.027212692525896549 0 0.25418737821655463 0.015399963457620141 0 0.23801709678707719 0.02333277758724521 0 0.22170063999037459 0.012173517244787071 0 0.21448943982842611 0.034453626861183959 0 0.22170063999037459 0.012173517244787071 0 0.20840023066242969 -0.00016392964902278939 0 0.22810163109014539 -0.005375944402069642 0 0.2442639786172042 0.0070688571158914679 0 0.22170063999037459 0.012173517244787071 0 0.2442639786172042 0.0070688571158914679 0 0.22170063999037459 0.012173517244787071 0 0.22810163109014539 -0.005375944402069642 0 0.22170063999037459 0.012173517244787071 0 0.20420822803374741 0.01833517000093992 0 0.20840023066242969 -0.00016392964902278939 0 0.20420822803374741 0.01833517000093992 0 0.21448943982842611 0.034453626861183959 0 0.196699742061725 0.033360961662076222 0 0.22170063999037459 0.012173517244787071 0 0.20420822803374741 0.01833517000093992 0 0.21448943982842611 0.034453626861183959 0 0.20420822803374741 0.01833517000093992 0 0.1882150070289671 0.02165301590792016 0 0.196699742061725 0.033360961662076222 0 0.1882150070289671 0.02165301590792016 0 0.196699742061725 0.033360961662076222 0 0.18127898907610851 0.037694874111444378 0 0.20420822803374741 0.01833517000093992 0 0.1882150070289671 0.02165301590792016 0 0.19209443694944831 0.0053480433798115757 0 0.20420822803374741 0.01833517000093992 0 0.19209443694944831 0.0053480433798115757 0 0.20840023066242969 -0.00016392964902278939 0 0.2170362399539375 0.056108126886887308 0 0.21448943982842611 0.034453626861183959 0 0.19530704634137599 0.054668121428892699 0 0.20905545595358691 0.071303009079901294 0 0.2170362399539375 0.056108126886887308 0 0.19530704634137599 0.054668121428892699 0 0.21448943982842611 0.034453626861183959 0 0.19530704634137599 0.054668121428892699 0 0.196699742061725 0.033360961662076222 0 0.19530704634137599 0.054668121428892699 0 0.18127898907610851 0.037694874111444378 0 0.19530704634137599 0.054668121428892699 0 0.18127898907610851 0.037694874111444378 0 0.21448943982842611 0.034453626861183959 0 0.196699742061725 0.033360961662076222 0 0.19530704634137599 0.054668121428892699 0 0.19530704634137599 0.054668121428892699 0 0.17445514210188401 0.055527462751279309 0 0.18020518043002201 0.070582537251580341 0 0.19530704634137599 0.054668121428892699 0 0.17445514210188401 0.055527462751279309 0 0.18127898907610851 0.037694874111444378 0 0.17445514210188401 0.055527462751279309 0 0.18127898907610851 0.037694874111444378 0 0.16329614737902889 0.040956356898132713 0 0.18127898907610851 0.037694874111444378 0 0.16329614737902889 0.040956356898132713 0 0.1672509318108405 0.020721626793996511 0 0.16329614737902889 0.040956356898132713 0 0.1593413629472184 0.061191087002269141 0 0.17445514210188401 0.055527462751279309 0 0.16329614737902889 0.040956356898132713 0 0.1593413629472184 0.061191087002269141 0 0.17890973400194199 0.0096148488937639817 0 0.16271339257430739 0.0049797236585138599 0 0.17739857159394909 -0.0043179500811540133 0 0.1882150070289671 0.02165301590792016 0 0.19209443694944831 0.0053480433798115757 0 0.17890973400194199 0.0096148488937639817 0 0.19209443694944831 0.0053480433798115757 0 0.17890973400194199 0.0096148488937639817 0 0.17739857159394909 -0.0043179500811540133 0 0.17890973400194199 0.0096148488937639817 0 0.1768203476010958 0.020857179491168519 0 0.16844707608762011 0.01460153174871801 0 0.18127898907610851 0.037694874111444378 0 0.1672509318108405 0.020721626793996511 0 0.18127898907610851 0.037694874111444378 0 0.1768203476010958 0.020857179491168519 0 0.1672509318108405 0.020721626793996511 0 0.1882150070289671 0.02165301590792016 0 0.18127898907610851 0.037694874111444378 0 0.1768203476010958 0.020857179491168519 0 0.1882150070289671 0.02165301590792016 0 0.17890973400194199 0.0096148488937639817 0 0.1768203476010958 0.020857179491168519 0 0.16329614737902889 0.040956356898132713 0 0.1672509318108405 0.020721626793996511 0 0.16329614737902889 0.040956356898132713 0 0.1672509318108405 0.020721626793996511 0 0.15365417392774419 0.027924936262166439 0 0.1672509318108405 0.020721626793996511 0 0.1624465012298382 0.014908506207956159 0 0.15365417392774419 0.027924936262166439 0 0.1672509318108405 0.020721626793996511 0 0.1624465012298382 0.014908506207956159 0 0.1672509318108405 0.020721626793996511 0 0.16844707608762011 0.01460153174871801 0 0.1624465012298382 0.014908506207956159 0 0.1672509318108405 0.020721626793996511 0 0.16844707608762011 0.01460153174871801 0 0.1768203476010958 0.020857179491168519 0 0.1672509318108405 0.020721626793996511 0 0.16844707608762011 0.01460153174871801 0 0.17890973400194199 0.0096148488937639817 0 0.16844707608762011 0.01460153174871801 0 0.16271339257430739 0.0049797236585138599 0 0.16844707608762011 0.01460153174871801 0 0.1624465012298382 0.014908506207956159 0 0.16271339257430739 0.0049797236585138599 0 0.1624465012298382 0.014908506207956159 0 0.16271339257430739 0.0049797236585138599 0 0.147958354479785 0.013907022772278749 0 0.16271339257430739 0.0049797236585138599 0 0.1419725902365104 0.00067524315852505318 0 0.147958354479785 0.013907022772278749 0 0.147958354479785 0.013907022772278749 0 0.15365417392774419 0.027924936262166439 0 0.13663979030485621 0.029302108031145212 0 0.1624465012298382 0.014908506207956159 0 0.147958354479785 0.013907022772278749 0 0.15365417392774419 0.027924936262166439 0 0.147958354479785 0.013907022772278749 0 0.13663979030485621 0.029302108031145212 0 0.12764307924079521 0.012325017931860249 0 0.1143244993671204 0.029974646495577021 0 0.13663979030485621 0.029302108031145212 0 0.12764307924079521 0.012325017931860249 0 0.1419725902365104 0.00067524315852505318 0 0.12764307924079521 0.012325017931860249 0 0.122836876780338 -0.0080023686202002862 0 0.1419725902365104 0.00067524315852505318 0 0.147958354479785 0.013907022772278749 0 0.12764307924079521 0.012325017931860249 0 0.1593413629472184 0.061191087002269141 0 0.14439971879481289 0.045921381088831488 0 0.1293758291093475 0.06785088342292106 0 0.16329614737902889 0.040956356898132713 0 0.1593413629472184 0.061191087002269141 0 0.14439971879481289 0.045921381088831488 0 0.15365417392774419 0.027924936262166439 0 0.13663979030485621 0.029302108031145212 0 0.14439971879481289 0.045921381088831488 0 0.16329614737902889 0.040956356898132713 0 0.15365417392774419 0.027924936262166439 0 0.14439971879481289 0.045921381088831488 0 0.12487160826149971 0.046854995956776793 0 0.13663979030485621 0.029302108031145212 0 0.14439971879481289 0.045921381088831488 0 0.12487160826149971 0.046854995956776793 0 0.1143244993671204 0.029974646495577021 0 0.13663979030485621 0.029302108031145212 0 0.12487160826149971 0.046854995956776793 0 0.14439971879481289 0.045921381088831488 0 0.1293758291093475 0.06785088342292106 0 0.1293758291093475 0.06785088342292106 0 0.15538657851540971 0.081425817106405896 0 0.13892725032128031 0.083098452352854485 0 0.1593413629472184 0.061191087002269141 0 0.1293758291093475 0.06785088342292106 0 0.15538657851540971 0.081425817106405896 0 0.1293758291093475 0.06785088342292106 0 0.15538657851540971 0.081425817106405896 0 0.15376085846027329 0.089743844828961389 0 0.15538657851540971 0.081425817106405896 0 0.13892725032128031 0.083098452352854485 0 0.15376085846027329 0.089743844828961389 0 0.15538657851540971 0.081425817106405896 0 0.15376085846027329 0.089743844828961389 0 0.13892725032128031 0.083098452352854485 0 0.14065056149545879 0.094830475533675102 0 0.1293758291093475 0.06785088342292106 0 0.13892725032128031 0.083098452352854485 0 0.1250839813190904 0.093164354471990701 0 0.13892725032128031 0.083098452352854485 0 0.1250839813190904 0.093164354471990701 0 0.14065056149545879 0.094830475533675102 0 0.11902016168324191 0.1197027187353239 0 0.1250839813190904 0.093164354471990701 0 0.13567515934187929 0.10588374180086579 0 0.1250839813190904 0.093164354471990701 0 0.13567515934187929 0.10588374180086579 0 0.14065056149545879 0.094830475533675102 0 0.11902016168324191 0.1197027187353239 0 0.13567515934187929 0.10588374180086579 0 0.1444084766398315 0.12015304776429481 0 0.1444084766398315 0.12015304776429481 0 0.14980555803477091 0.1022619842137031 0 0.15931736149128001 0.1113103989984342 0 0.15887636782960801 0.13335845630356591 0 0.1444084766398315 0.12015304776429481 0 0.15931736149128001 0.1113103989984342 0 0.13567515934187929 0.10588374180086579 0 0.1444084766398315 0.12015304776429481 0 0.14980555803477091 0.1022619842137031 0 0.15376085846027329 0.089743844828961389 0 0.14065056149545879 0.094830475533675102 0 0.14980555803477091 0.1022619842137031 0 0.13567515934187929 0.10588374180086579 0 0.14065056149545879 0.094830475533675102 0 0.14980555803477091 0.1022619842137031 0 0.15376085846027329 0.089743844828961389 0 0.14980555803477091 0.1022619842137031 0 0.15975835515295189 0.089262341693302438 0 0.15931736149128001 0.1113103989984342 0 0.15975835515295189 0.089262341693302438 0 0.16051066703240319 0.091336706138721316 0 0.16746685685727361 0.10177478855101051 0 0.15931736149128001 0.1113103989984342 0 0.16051066703240319 0.091336706138721316 0 0.14980555803477091 0.1022619842137031 0 0.15931736149128001 0.1113103989984342 0 0.15975835515295189 0.089262341693302438 0 0.15931736149128001 0.1113103989984342 0 0.15975835515295189 0.089262341693302438 0 0.16746685685727361 0.10177478855101051 0 0.16666299684991889 0.094773572717260723 0 0.17187627122124291 0.090031739275281866 0 0.16746685685727361 0.10177478855101051 0 0.16666299684991889 0.094773572717260723 0 0.16051066703240319 0.091336706138721316 0 0.15887636782960801 0.13335845630356591 0 0.15931736149128001 0.1113103989984342 0 0.16746685685727361 0.10177478855101051 0 0.15931736149128001 0.1113103989984342 0 0.1711843195139528 0.12020169681432739 0 0.15887636782960801 0.13335845630356591 0 0.15931736149128001 0.1113103989984342 0 0.1711843195139528 0.12020169681432739 0 0.16746685685727361 0.10177478855101051 0 0.1711843195139528 0.12020169681432739 0 0.1811408062163839 0.1103560152403481 0 0.19425118651422699 0.1056361426311495 0 0.1811408062163839 0.1103560152403481 0 0.18585489536986491 0.12232632229339301 0 0.1711843195139528 0.12020169681432739 0 0.1811408062163839 0.1103560152403481 0 0.18585489536986491 0.12232632229339301 0 0.16746685685727361 0.10177478855101051 0 0.18373151532936299 0.097501428738130974 0 0.17187627122124291 0.090031739275281866 0 0.16746685685727361 0.10177478855101051 0 0.1811408062163839 0.1103560152403481 0 0.18373151532936299 0.097501428738130974 0 0.19425118651422699 0.1056361426311495 0 0.1811408062163839 0.1103560152403481 0 0.18373151532936299 0.097501428738130974 0 0.18373151532936299 0.097501428738130974 0 0.18595415123664311 0.086275706070766747 0 0.17187627122124291 0.090031739275281866 0 0.18020518043002201 0.070582537251580341 0 0.16510331451866861 0.086496953074268551 0 0.17187627122124291 0.090031739275281866 0 0.18020518043002201 0.070582537251580341 0 0.16510331451866861 0.086496953074268551 0 0.18595415123664311 0.086275706070766747 0 0.17187627122124291 0.090031739275281866 0 0.18020518043002201 0.070582537251580341 0 0.17445514210188401 0.055527462751279309 0 0.18020518043002201 0.070582537251580341 0 0.166235221277134 0.072390385457504119 0 0.17445514210188401 0.055527462751279309 0 0.1593413629472184 0.061191087002269141 0 0.166235221277134 0.072390385457504119 0 0.1593413629472184 0.061191087002269141 0 0.15538657851540971 0.081425817106405896 0 0.1593413629472184 0.061191087002269141 0 0.15538657851540971 0.081425817106405896 0 0.166235221277134 0.072390385457504119 0 0.18020518043002201 0.070582537251580341 0 0.166235221277134 0.072390385457504119 0 0.16510331451866861 0.086496953074268551 0 0.15538657851540971 0.081425817106405896 0 0.166235221277134 0.072390385457504119 0 0.16510331451866861 0.086496953074268551 0 0.15538657851540971 0.081425817106405896 0 0.16510331451866861 0.086496953074268551 0 0.15538657851540971 0.081425817106405896 0 0.15975835515295189 0.089262341693302438 0 0.16510331451866861 0.086496953074268551 0 0.15376085846027329 0.089743844828961389 0 0.15538657851540971 0.081425817106405896 0 0.15975835515295189 0.089262341693302438 0 0.15975835515295189 0.089262341693302438 0 0.16051066703240319 0.091336706138721316 0 0.16510331451866861 0.086496953074268551 0 0.16051066703240319 0.091336706138721316 0 0.16510331451866861 0.086496953074268551 0 0.16666299684991889 0.094773572717260723 0 0.17187627122124291 0.090031739275281866 0 0.16510331451866861 0.086496953074268551 0 0.16666299684991889 0.094773572717260723 0 0.16051066703240319 0.091336706138721316 0 0.16510331451866861 0.086496953074268551 0 0.17187627122124291 0.090031739275281866 0 0.16510331451866861 0.086496953074268551 0 0.104173692269454 0.47230182477788141 0 0.08435001180317897 0.46684800325002901 0 0.104173692269454 0.47230182477788141 0 0.1045724807944118 0.49198767373773561 0 0.089291402725418856 0.47921414732458673 0 0.1045724807944118 0.49198767373773561 0 0.1197345792227095 0.50000000000000022 0 0.089759591953427642 0.5 0 0.1045724807944118 0.49198767373773561 0 0.12399494187461731 0.49057829056642988 0 0.1223150243434533 0.48484687527057319 0 0.1045724807944118 0.49198767373773561 0 0.1280234546636442 0.49751198108980688 0 0.1045724807944118 0.49198767373773561 0 0.1197345792227095 0.50000000000000022 0 0.1280234546636442 0.49751198108980688 0 0.1045724807944118 0.49198767373773561 0 0.12399494187461731 0.49057829056642988 0 0.1280234546636442 0.49751198108980688 0 0.1197345792227095 0.50000000000000022 0 0.1280234546636442 0.49751198108980688 0 0.104173692269454 0.47230182477788141 0 0.1045724807944118 0.49198767373773561 0 0.1223150243434533 0.48484687527057319 0 0.104173692269454 0.47230182477788141 0 0.12399737273572981 0.47775564630573131 0 0.1144163600767318 0.4588698326846341 0 0.1223150243434533 0.48484687527057319 0 0.12399737273572981 0.47775564630573131 0 0.104173692269454 0.47230182477788141 0 0.1223150243434533 0.48484687527057319 0 0.12399737273572981 0.47775564630573131 0 0.104173692269454 0.47230182477788141 0 0.12399737273572981 0.47775564630573131 0 0.12399737273572981 0.47775564630573131 0 0.1144163600767318 0.4588698326846341 0 0.12949417625326881 0.45458619311957571 0 0.1144163600767318 0.4588698326846341 0 0.1148277021490783 0.43752099839664532 0 0.099588856976128168 0.45218450082333672 0 0.1144163600767318 0.4588698326846341 0 0.1148277021490783 0.43752099839664532 0 0.12949417625326881 0.45458619311957571 0 0.1148277021490783 0.43752099839664532 0 0.099588856976128168 0.45218450082333672 0 0.1062600234509164 0.42978265652096331 0 0.099588856976128168 0.45218450082333672 0 0.082453499579805578 0.43670781707197459 0 0.1062600234509164 0.42978265652096331 0 0.1148277021490783 0.43752099839664532 0 0.099588856976128168 0.45218450082333672 0 0.104173692269454 0.47230182477788141 0 0.1144163600767318 0.4588698326846341 0 0.099588856976128168 0.45218450082333672 0 0.104173692269454 0.47230182477788141 0 0.099588856976128168 0.45218450082333672 0 0.08435001180317897 0.46684800325002901 0 0.099588856976128168 0.45218450082333672 0 0.08435001180317897 0.46684800325002901 0 0.078156449922092058 0.45222043602487061 0 0.099588856976128168 0.45218450082333672 0 0.08435001180317897 0.46684800325002901 0 0.099588856976128168 0.45218450082333672 0 0.078156449922092058 0.45222043602487061 0 0.082453499579805578 0.43670781707197459 0 0.078156449922092058 0.45222043602487061 0 0.065742905542653718 0.46172888135602802 0 0.058646975708694711 0.44363297762298592 0 0.078156449922092058 0.45222043602487061 0 0.058646975708694711 0.44363297762298592 0 0.082453499579805578 0.43670781707197459 0 0.058646975708694711 0.44363297762298592 0 0.082453499579805578 0.43670781707197459 0 0.08435001180317897 0.46684800325002901 0 0.065742905542653718 0.46172888135602802 0 0.065465172300707447 0.47283489556314279 0 0.08435001180317897 0.46684800325002901 0 0.065742905542653718 0.46172888135602802 0 0.08435001180317897 0.46684800325002901 0 0.078156449922092058 0.45222043602487061 0 0.065742905542653718 0.46172888135602802 0 0.08435001180317897 0.46684800325002901 0 0.065465172300707447 0.47283489556314279 0 0.062684526240552235 0.48769550819659252 0 0.08435001180317897 0.46684800325002901 0 0.062684526240552235 0.48769550819659252 0 0.08435001180317897 0.46684800325002901 0 0.077232188732753532 0.48225057769220192 0 0.062684526240552235 0.48769550819659252 0 0.104173692269454 0.47230182477788141 0 0.08435001180317897 0.46684800325002901 0 0.089291402725418856 0.47921414732458673 0 0.08435001180317897 0.46684800325002901 0 0.077232188732753532 0.48225057769220192 0 0.089291402725418856 0.47921414732458673 0 0.077232188732753532 0.48225057769220192 0 0.089291402725418856 0.47921414732458673 0 0.081121506925179457 0.48646336638566418 0 0.1045724807944118 0.49198767373773561 0 0.089759591953427642 0.5 0 0.081121506925179457 0.48646336638566418 0 0.1045724807944118 0.49198767373773561 0 0.089291402725418856 0.47921414732458673 0 0.081121506925179457 0.48646336638566418 0 0.1045724807944118 0.49198767373773561 0 0.081121506925179457 0.48646336638566418 0 0.089759591953427642 0.5 0 0.081121506925179457 0.48646336638566418 0 0.073555874651691305 0.49115571022419913 0 0.089759591953427642 0.5 0 0.073555874651691305 0.49115571022419913 0 0.059784604684145932 0.5 0 0.077232188732753532 0.48225057769220192 0 0.073555874651691305 0.49115571022419913 0 0.062684526240552235 0.48769550819659252 0 0.077232188732753532 0.48225057769220192 0 0.081121506925179457 0.48646336638566418 0 0.073555874651691305 0.49115571022419913 0 0.077232188732753532 0.48225057769220192 0 0.062684526240552235 0.48769550819659252 0 0.073555874651691305 0.49115571022419913 0 0.062684526240552235 0.48769550819659252 0 0.059784604684145932 0.5 0 0.062684526240552235 0.48769550819659252 0 0.049083245616445649 0.47506718944992249 0 0.04624707182770825 0.49384775409829651 0 0.059784604684145932 0.5 0 0.052107689541811837 0.49787301632391451 0 0.029809617414864199 0.50000000000000033 0 0.062684526240552235 0.48769550819659252 0 0.052107689541811837 0.49787301632391451 0 0.062684526240552235 0.48769550819659252 0 0.052107689541811837 0.49787301632391451 0 0.04624707182770825 0.49384775409829651 0 0.062684526240552235 0.48769550819659252 0 0.04624707182770825 0.49384775409829651 0 0.062684526240552235 0.48769550819659252 0 0.059784604684145932 0.5 0 0.052107689541811837 0.49787301632391451 0 0.065742905542653718 0.46172888135602802 0 0.065465172300707447 0.47283489556314279 0 0.049083245616445649 0.47506718944992249 0 0.065465172300707447 0.47283489556314279 0 0.062684526240552235 0.48769550819659252 0 0.049083245616445649 0.47506718944992249 0 0.049083245616445649 0.47506718944992249 0 0.034422877963013021 0.4875424300026075 0 0.030524717334934549 0.47484291950642082 0 0.049083245616445649 0.47506718944992249 0 0.030524717334934549 0.47484291950642082 0 0.036193923734251912 0.46332454135669232 0 0.049083245616445649 0.47506718944992249 0 0.04624707182770825 0.49384775409829651 0 0.034422877963013021 0.4875424300026075 0 0.04624707182770825 0.49384775409829651 0 0.034422877963013021 0.4875424300026075 0 0.029809617414864199 0.50000000000000033 0 0.052107689541811837 0.49787301632391451 0 0.04624707182770825 0.49384775409829651 0 0.029809617414864199 0.50000000000000033 0 0.04624707182770825 0.49384775409829651 0 0.029809617414864199 0.50000000000000033 0 0.029809617414864199 0.50000000000000033 0 0.021134310174901399 0.48648187114338243 0 0.012478220870660641 0.5 0 0.034422877963013021 0.4875424300026075 0 0.029809617414864199 0.50000000000000033 0 0.021134310174901399 0.48648187114338243 0 0.034422877963013021 0.4875424300026075 0 0.021134310174901399 0.48648187114338243 0 0.030524717334934549 0.47484291950642082 0 0.030524717334934549 0.47484291950642082 0 0.016979544456617261 0.47331069974555079 0 0.025914513065972089 0.46390391950153398 0 0.021134310174901399 0.48648187114338243 0 0.030524717334934549 0.47484291950642082 0 0.016979544456617261 0.47331069974555079 0 0.021134310174901399 0.48648187114338243 0 0.016979544456617261 0.47331069974555079 0 0.0031183794832156681 0.47875215537605292 0 0.016979544456617261 0.47331069974555079 0 0.0031183794832156681 0.47875215537605292 0 0.01103392796647293 0.45748329872500848 0 -0.0048531756735428356 0.50000000000000155 0 0.0031183794832156681 0.47875215537605292 0 0.012478220870660641 0.5 0 0.021134310174901399 0.48648187114338243 0 0.0031183794832156681 0.47875215537605292 0 0.012478220870660641 0.5 0 0.008781183360903267 0.44639036507688562 0 0.011754658961338239 0.45038022688675272 0 0.01754945067289259 0.44848413174450652 0 0.008781183360903267 0.44639036507688562 0 0.0090199922427461228 0.45226318684985128 0 0.011754658961338239 0.45038022688675272 0 0.0090199922427461228 0.45226318684985128 0 0.011754658961338239 0.45038022688675272 0 0.012039485837669169 0.45497332201598328 0 0.011754658961338239 0.45038022688675272 0 0.012039485837669169 0.45497332201598328 0 0.01754945067289259 0.44848413174450652 0 0.008781183360903267 0.44639036507688562 0 0.01754945067289259 0.44848413174450652 0 0.020428211978650291 0.44027227795959439 0 0.008781183360903267 0.44639036507688562 0 0.020428211978650291 0.44027227795959439 0 0.0064994183822872304 0.43621874368984381 0 0.008781183360903267 0.44639036507688562 0 0.00013786979739127789 0.44340215130982891 0 0.0064994183822872304 0.43621874368984381 0 -0.0047437967268179572 0.43600941659475068 0 0.00013786979739127789 0.44340215130982891 0 0.0064994183822872304 0.43621874368984381 0 0.008781183360903267 0.44639036507688562 0 0.00013786979739127789 0.44340215130982891 0 0.00158744369902884 0.45224239293530732 0 0.008781183360903267 0.44639036507688562 0 0.0090199922427461228 0.45226318684985128 0 0.00158744369902884 0.45224239293530732 0 0.0031183794832156681 0.47875215537605292 0 0.01103392796647293 0.45748329872500848 0 -0.0059791835823989562 0.46022442924751211 0 0.00158744369902884 0.45224239293530732 0 0.01103392796647293 0.45748329872500848 0 0.0090199922427461228 0.45226318684985128 0 0.00158744369902884 0.45224239293530732 0 0.01103392796647293 0.45748329872500848 0 -0.0059791835823989562 0.46022442924751211 0 0.0031183794832156681 0.47875215537605292 0 0.01103392796647293 0.45748329872500848 0 0.0090199922427461228 0.45226318684985128 0 0.01103392796647293 0.45748329872500848 0 0.012039485837669169 0.45497332201598328 0 0.01103392796647293 0.45748329872500848 0 0.012039485837669169 0.45497332201598328 0 0.01103392796647293 0.45748329872500848 0 0.012039485837669169 0.45497332201598328 0 0.034840451837583823 0.4505581381739972 0 0.016979544456617261 0.47331069974555079 0 0.01103392796647293 0.45748329872500848 0 0.025914513065972089 0.46390391950153398 0 0.01103392796647293 0.45748329872500848 0 0.025914513065972089 0.46390391950153398 0 0.034840451837583823 0.4505581381739972 0 0.01103392796647293 0.45748329872500848 0 0.034840451837583823 0.4505581381739972 0 0.030524717334934549 0.47484291950642082 0 0.025914513065972089 0.46390391950153398 0 0.036193923734251912 0.46332454135669232 0 0.012039485837669169 0.45497332201598328 0 0.01754945067289259 0.44848413174450652 0 0.034840451837583823 0.4505581381739972 0 0.01754945067289259 0.44848413174450652 0 0.020428211978650291 0.44027227795959439 0 0.034840451837583823 0.4505581381739972 0 0.034840451837583823 0.4505581381739972 0 0.058646975708694711 0.44363297762298592 0 0.034840451837583823 0.4505581381739972 0 0.058646975708694711 0.44363297762298592 0 0.038853526866079353 0.43670809260870802 0 0.034840451837583823 0.4505581381739972 0 0.047135799282129201 0.45660975946202448 0 0.058646975708694711 0.44363297762298592 0 0.020428211978650291 0.44027227795959439 0 0.034840451837583823 0.4505581381739972 0 0.038853526866079353 0.43670809260870802 0 0.049083245616445649 0.47506718944992249 0 0.036193923734251912 0.46332454135669232 0 0.047135799282129201 0.45660975946202448 0 0.025914513065972089 0.46390391950153398 0 0.034840451837583823 0.4505581381739972 0 0.036193923734251912 0.46332454135669232 0 0.034840451837583823 0.4505581381739972 0 0.036193923734251912 0.46332454135669232 0 0.047135799282129201 0.45660975946202448 0 0.065742905542653718 0.46172888135602802 0 0.049083245616445649 0.47506718944992249 0 0.047135799282129201 0.45660975946202448 0 0.065742905542653718 0.46172888135602802 0 0.047135799282129201 0.45660975946202448 0 0.058646975708694711 0.44363297762298592 0 0.065742905542653718 0.46172888135602802 0 0.047135799282129201 0.45660975946202448 0 0.051700025354219137 0.42860833204981241 0 0.055067182715385257 0.4170856142849676 0 0.069386429991233317 0.42046808994950891 0 0.058646975708694711 0.44363297762298592 0 0.051700025354219137 0.42860833204981241 0 0.069386429991233317 0.42046808994950891 0 0.058646975708694711 0.44363297762298592 0 0.051700025354219137 0.42860833204981241 0 0.038853526866079353 0.43670809260870802 0 0.055067182715385257 0.4170856142849676 0 0.0606532542417208 0.39572766866416142 0 0.069386429991233317 0.42046808994950891 0 0.051700025354219137 0.42860833204981241 0 0.055067182715385257 0.4170856142849676 0 0.036882902189399228 0.41792226356365908 0 0.055067182715385257 0.4170856142849676 0 0.036882902189399228 0.41792226356365908 0 0.043542804319318978 0.40366974433994002 0 0.036882902189399228 0.41792226356365908 0 0.029255625158746919 0.40117618003380928 0 0.043542804319318978 0.40366974433994002 0 0.051700025354219137 0.42860833204981241 0 0.036882902189399228 0.41792226356365908 0 0.038853526866079353 0.43670809260870802 0 0.036882902189399228 0.41792226356365908 0 0.038853526866079353 0.43670809260870802 0 0.01737835197887674 0.42326633358830118 0 0.020428211978650291 0.44027227795959439 0 0.038853526866079353 0.43670809260870802 0 0.01737835197887674 0.42326633358830118 0 0.038853526866079353 0.43670809260870802 0 0.01737835197887674 0.42326633358830118 0 0.036882902189399228 0.41792226356365908 0 0.01737835197887674 0.42326633358830118 0 0.015891380888359851 0.40773277151533699 0 0.036882902189399228 0.41792226356365908 0 0.015891380888359851 0.40773277151533699 0 0.029255625158746919 0.40117618003380928 0 -0.0040968229083259266 0.40982457456789462 0 0.01737835197887674 0.42326633358830118 0 0.015891380888359851 0.40773277151533699 0 -0.0009658409520053999 0.42618781485431828 0 -0.0040968229083259266 0.40982457456789462 0 0.01737835197887674 0.42326633358830118 0 -0.0040968229083259266 0.40982457456789462 0 0.01737835197887674 0.42326633358830118 0 0.020428211978650291 0.44027227795959439 0 0.01737835197887674 0.42326633358830118 0 0.0064994183822872304 0.43621874368984381 0 -0.0009658409520053999 0.42618781485431828 0 0.01737835197887674 0.42326633358830118 0 0.0064994183822872304 0.43621874368984381 0 -0.0047437967268179572 0.43600941659475068 0 -0.0009658409520053999 0.42618781485431828 0 0.0064994183822872304 0.43621874368984381 0 -0.0085562506476948019 0.37815234602365572 0 0.0062520788255263577 0.39546140282883258 0 0.0058591024644449544 0.37408789411368543 0 0.0062520788255263577 0.39546140282883258 0 0.016600980559377681 0.38109823108976981 0 0.0058591024644449544 0.37408789411368543 0 0.0062520788255263577 0.39546140282883258 0 0.016600980559377681 0.38109823108976981 0 -0.0040968229083259266 0.40982457456789462 0 0.015891380888359851 0.40773277151533699 0 0.0062520788255263577 0.39546140282883258 0 -0.0040968229083259266 0.40982457456789462 0 0.0062520788255263577 0.39546140282883258 0 0.0062520788255263577 0.39546140282883258 0 0.029255625158746919 0.40117618003380928 0 0.016600980559377681 0.38109823108976981 0 0.015891380888359851 0.40773277151533699 0 0.0062520788255263577 0.39546140282883258 0 0.029255625158746919 0.40117618003380928 0 0.016600980559377681 0.38109823108976981 0 0.035855057291342723 0.38643699515310209 0 0.023228151465099389 0.36371584655455158 0 0.029255625158746919 0.40117618003380928 0 0.016600980559377681 0.38109823108976981 0 0.035855057291342723 0.38643699515310209 0 0.029255625158746919 0.40117618003380928 0 0.035855057291342723 0.38643699515310209 0 0.043542804319318978 0.40366974433994002 0 0.035855057291342723 0.38643699515310209 0 0.043542804319318978 0.40366974433994002 0 0.0606532542417208 0.39572766866416142 0 0.055067182715385257 0.4170856142849676 0 0.043542804319318978 0.40366974433994002 0 0.0606532542417208 0.39572766866416142 0 0.035855057291342723 0.38643699515310209 0 0.0606532542417208 0.39572766866416142 0 0.046521482503905087 0.37302639703879148 0 0.0606532542417208 0.39572766866416142 0 0.067978611024093069 0.37365595718194877 0 0.046521482503905087 0.37302639703879148 0 0.0606532542417208 0.39572766866416142 0 0.077290433699474054 0.39815457572370549 0 0.067978611024093069 0.37365595718194877 0 0.085110894662824232 0.38364167891477863 0 0.077290433699474054 0.39815457572370549 0 0.067978611024093069 0.37365595718194877 0 0.085110894662824232 0.38364167891477863 0 0.1007284001587969 0.38123240955222859 0 0.088907954818365331 0.36621380890532063 0 0.085110894662824232 0.38364167891477863 0 0.1007284001587969 0.38123240955222859 0 0.094542679980424663 0.39811300736757549 0 0.085110894662824232 0.38364167891477863 0 0.077290433699474054 0.39815457572370549 0 0.094542679980424663 0.39811300736757549 0 0.077290433699474054 0.39815457572370549 0 0.089472550714269475 0.41609663494237142 0 0.094542679980424663 0.39811300736757549 0 0.0606532542417208 0.39572766866416142 0 0.077290433699474054 0.39815457572370549 0 0.069386429991233317 0.42046808994950891 0 0.058646975708694711 0.44363297762298592 0 0.069386429991233317 0.42046808994950891 0 0.082453499579805578 0.43670781707197459 0 0.082453499579805578 0.43670781707197459 0 0.089472550714269475 0.41609663494237142 0 0.1062600234509164 0.42978265652096331 0 0.069386429991233317 0.42046808994950891 0 0.082453499579805578 0.43670781707197459 0 0.089472550714269475 0.41609663494237142 0 0.077290433699474054 0.39815457572370549 0 0.069386429991233317 0.42046808994950891 0 0.089472550714269475 0.41609663494237142 0 0.089472550714269475 0.41609663494237142 0 0.1039204827286177 0.41286103804110102 0 0.094542679980424663 0.39811300736757549 0 0.089472550714269475 0.41609663494237142 0 0.1039204827286177 0.41286103804110102 0 0.1062600234509164 0.42978265652096331 0 0.082453499579805578 0.43670781707197459 0 0.1062600234509164 0.42978265652096331 0 0.1148277021490783 0.43752099839664532 0 0.1062600234509164 0.42978265652096331 0 0.13006654732202749 0.42285749596995309 0 0.1062600234509164 0.42978265652096331 0 0.13006654732202749 0.42285749596995309 0 0.1148277021490783 0.43752099839664532 0 0.13006654732202749 0.42285749596995309 0 0.1039204827286177 0.41286103804110102 0 0.11863032453419441 0.41105505496290839 0 0.11132391139386449 0.39647913457955131 0 0.1039204827286177 0.41286103804110102 0 0.1062600234509164 0.42978265652096331 0 0.11863032453419441 0.41105505496290839 0 0.1062600234509164 0.42978265652096331 0 0.11863032453419441 0.41105505496290839 0 0.13006654732202749 0.42285749596995309 0 0.11863032453419441 0.41105505496290839 0 0.11132391139386449 0.39647913457955131 0 0.12602346773345141 0.39612981579421691 0 0.11132391139386449 0.39647913457955131 0 0.1183512057316847 0.38001481425709371 0 0.12602346773345141 0.39612981579421691 0 0.11132391139386449 0.39647913457955131 0 0.1183512057316847 0.38001481425709371 0 0.1007284001587969 0.38123240955222859 0 0.1183512057316847 0.38001481425709371 0 0.1007284001587969 0.38123240955222859 0 0.10822443172333431 0.36406418860636969 0 0.11132391139386449 0.39647913457955131 0 0.1007284001587969 0.38123240955222859 0 0.094542679980424663 0.39811300736757549 0 0.1039204827286177 0.41286103804110102 0 0.11132391139386449 0.39647913457955131 0 0.094542679980424663 0.39811300736757549 0 0.099073888850625888 0.34424407043418881 0 0.10822443172333431 0.36406418860636969 0 0.088907954818365331 0.36621380890532063 0 0.1007284001587969 0.38123240955222859 0 0.10822443172333431 0.36406418860636969 0 0.088907954818365331 0.36621380890532063 0 0.1183512057316847 0.38001481425709371 0 0.10822443172333431 0.36406418860636969 0 0.12775583683182609 0.36413153113398378 0 0.10822443172333431 0.36406418860636969 0 0.12263557940378179 0.34183301238719033 0 0.12775583683182609 0.36413153113398378 0 0.099073888850625888 0.34424407043418881 0 0.10822443172333431 0.36406418860636969 0 0.12263557940378179 0.34183301238719033 0 0.099073888850625888 0.34424407043418881 0 0.12263557940378179 0.34183301238719033 0 0.1143258868739228 0.3171376600907575 0 0.12263557940378179 0.34183301238719033 0 0.1143258868739228 0.3171376600907575 0 0.1143258868739228 0.3171376600907575 0 0.085506561690516902 0.32348168040438419 0 0.097639241145144495 0.30900678551477367 0 0.099073888850625888 0.34424407043418881 0 0.1143258868739228 0.3171376600907575 0 0.085506561690516902 0.32348168040438419 0 0.099073888850625888 0.34424407043418881 0 0.085506561690516902 0.32348168040438419 0 0.076339798356206495 0.35088693066305338 0 0.085506561690516902 0.32348168040438419 0 0.067513275849598833 0.33482331650481928 0 0.058584698363700602 0.31804728477285737 0 0.085506561690516902 0.32348168040438419 0 0.067513275849598833 0.33482331650481928 0 0.076339798356206495 0.35088693066305338 0 0.076339798356206495 0.35088693066305338 0 0.049622044987971389 0.34687737017898262 0 0.076339798356206495 0.35088693066305338 0 0.067978611024093069 0.37365595718194877 0 0.049622044987971389 0.34687737017898262 0 0.067513275849598833 0.33482331650481928 0 0.076339798356206495 0.35088693066305338 0 0.049622044987971389 0.34687737017898262 0 0.099073888850625888 0.34424407043418881 0 0.076339798356206495 0.35088693066305338 0 0.088907954818365331 0.36621380890532063 0 0.085110894662824232 0.38364167891477863 0 0.088907954818365331 0.36621380890532063 0 0.067978611024093069 0.37365595718194877 0 0.076339798356206495 0.35088693066305338 0 0.088907954818365331 0.36621380890532063 0 0.067978611024093069 0.37365595718194877 0 0.067978611024093069 0.37365595718194877 0 0.049622044987971389 0.34687737017898262 0 0.046521482503905087 0.37302639703879148 0 0.049622044987971389 0.34687737017898262 0 0.022904291619736509 0.34286780969491187 0 0.049622044987971389 0.34687737017898262 0 0.023228151465099389 0.36371584655455158 0 0.022904291619736509 0.34286780969491187 0 0.049622044987971389 0.34687737017898262 0 0.046521482503905087 0.37302639703879148 0 0.023228151465099389 0.36371584655455158 0 0.035855057291342723 0.38643699515310209 0 0.046521482503905087 0.37302639703879148 0 0.023228151465099389 0.36371584655455158 0 0.023228151465099389 0.36371584655455158 0 0.0081135051517422351 0.35189782535478159 0 0.022904291619736509 0.34286780969491187 0 -0.003813461748498483 0.33885824921084112 0 0.0081135051517422351 0.35189782535478159 0 0.022904291619736509 0.34286780969491187 0 0.023228151465099389 0.36371584655455158 0 0.0081135051517422351 0.35189782535478159 0 0.0045562057832190537 0.36086632368490462 0 -0.0063076613608452911 0.35318089762869892 0 0.0081135051517422351 0.35189782535478159 0 0.0045562057832190537 0.36086632368490462 0 0.016600980559377681 0.38109823108976981 0 0.023228151465099389 0.36371584655455158 0 0.0058591024644449544 0.37408789411368543 0 -0.0061059733122382949 0.36543146842299112 0 0.0045562057832190537 0.36086632368490462 0 0.0058591024644449544 0.37408789411368543 0 0.023228151465099389 0.36371584655455158 0 0.0045562057832190537 0.36086632368490462 0 0.0058591024644449544 0.37408789411368543 0 -0.0037735911627670279 0.30794855218137251 0 -0.0044533889397110581 0.32576312122417461 0 0.01793622693432766 0.32038322597199032 0 -0.0044533889397110581 0.32576312122417461 0 0.0088090841012910311 0.33167821612479892 0 0.01793622693432766 0.32038322597199032 0 -0.003813461748498483 0.33885824921084112 0 -0.0044533889397110581 0.32576312122417461 0 0.0088090841012910311 0.33167821612479892 0 -0.003813461748498483 0.33885824921084112 0 0.0088090841012910311 0.33167821612479892 0 0.022904291619736509 0.34286780969491187 0 -0.003813461748498483 0.33885824921084112 0 0.022904291619736509 0.34286780969491187 0 0.0088090841012910311 0.33167821612479892 0 0.022904291619736509 0.34286780969491187 0 0.01793622693432766 0.32038322597199032 0 0.022904291619736509 0.34286780969491187 0 0.01793622693432766 0.32038322597199032 0 0.037986358569834212 0.31825650308249648 0 0.01793622693432766 0.32038322597199032 0 0.037986358569834212 0.31825650308249648 0 0.024406811462010829 0.30467570092013602 0 0.049622044987971389 0.34687737017898262 0 0.022904291619736509 0.34286780969491187 0 0.037986358569834212 0.31825650308249648 0 0.067513275849598833 0.33482331650481928 0 0.049622044987971389 0.34687737017898262 0 0.058584698363700602 0.31804728477285737 0 0.049622044987971389 0.34687737017898262 0 0.037986358569834212 0.31825650308249648 0 0.058584698363700602 0.31804728477285737 0 0.037986358569834212 0.31825650308249648 0 0.058584698363700602 0.31804728477285737 0 0.055662061002891818 0.2990848139087191 0 0.055662061002891818 0.2990848139087191 0 0.037224774829707957 0.29542204712394199 0 0.051450849646120879 0.280765013667992 0 0.055662061002891818 0.2990848139087191 0 0.051450849646120879 0.280765013667992 0 0.076229613622977713 0.29449452218725508 0 0.037986358569834212 0.31825650308249648 0 0.055662061002891818 0.2990848139087191 0 0.037224774829707957 0.29542204712394199 0 0.037986358569834212 0.31825650308249648 0 0.037224774829707957 0.29542204712394199 0 0.024406811462010829 0.30467570092013602 0 0.01793622693432766 0.32038322597199032 0 0.024406811462010829 0.30467570092013602 0 0.0096261698459933452 0.29852546523973278 0 0.024406811462010829 0.30467570092013602 0 0.021355243345425889 0.28869237195402442 0 0.0096261698459933452 0.29852546523973278 0 0.037224774829707957 0.29542204712394199 0 0.024406811462010829 0.30467570092013602 0 0.021355243345425889 0.28869237195402442 0 0.037224774829707957 0.29542204712394199 0 0.021355243345425889 0.28869237195402442 0 0.026672085669265041 0.26703550514872693 0 -0.0044384574811734646 0.28591032600112909 0 0.0096261698459933452 0.29852546523973278 0 0.0092827741316595554 0.27736587233164778 0 0.021355243345425889 0.28869237195402442 0 0.0096261698459933452 0.29852546523973278 0 0.0092827741316595554 0.27736587233164778 0 -0.0037735911627670279 0.30794855218137251 0 0.01793622693432766 0.32038322597199032 0 0.0096261698459933452 0.29852546523973278 0 -0.0037735911627670279 0.30794855218137251 0 -0.0044384574811734646 0.28591032600112909 0 0.0096261698459933452 0.29852546523973278 0 0.0076893730913138083 0.25651749406871249 0 0.0092827741316595554 0.27736587233164778 0 0.026672085669265041 0.26703550514872693 0 -0.0054096679889618672 0.2673344168405476 0 0.0076893730913138083 0.25651749406871249 0 0.0092827741316595554 0.27736587233164778 0 0.021355243345425889 0.28869237195402442 0 0.0092827741316595554 0.27736587233164778 0 0.026672085669265041 0.26703550514872693 0 0.018126541503550891 0.2440481467159111 0 0.0076893730913138083 0.25651749406871249 0 0.026672085669265041 0.26703550514872693 0 0.018126541503550891 0.2440481467159111 0 0.026672085669265041 0.26703550514872693 0 0.0076893730913138083 0.25651749406871249 0 0.026672085669265041 0.26703550514872693 0 0.018126541503550891 0.2440481467159111 0 0.034398217230692203 0.24559588675362751 0 0.026672085669265041 0.26703550514872693 0 0.034398217230692203 0.24559588675362751 0 0.026672085669265041 0.26703550514872693 0 0.045757355071819557 0.26430871915386622 0 0.034398217230692203 0.24559588675362751 0 0.045757355071819557 0.26430871915386622 0 0.055703069679041879 0.25302763321249938 0 0.026672085669265041 0.26703550514872693 0 0.051450849646120879 0.280765013667992 0 0.037224774829707957 0.29542204712394199 0 0.026672085669265041 0.26703550514872693 0 0.026672085669265041 0.26703550514872693 0 0.045757355071819557 0.26430871915386622 0 0.051450849646120879 0.280765013667992 0 0.037224774829707957 0.29542204712394199 0 0.026672085669265041 0.26703550514872693 0 0.051450849646120879 0.280765013667992 0 0.045757355071819557 0.26430871915386622 0 0.051450849646120879 0.280765013667992 0 0.070078572781205578 0.26991197510446852 0 0.045757355071819557 0.26430871915386622 0 0.055703069679041879 0.25302763321249938 0 0.070078572781205578 0.26991197510446852 0 0.078571154590758807 0.25070859306122478 0 0.084972958378271055 0.26347323951421048 0 0.070078572781205578 0.26991197510446852 0 0.055703069679041879 0.25302763321249938 0 0.078571154590758807 0.25070859306122478 0 0.070078572781205578 0.26991197510446852 0 0.078571154590758807 0.25070859306122478 0 0.084972958378271055 0.26347323951421048 0 0.095569813203880638 0.25234178504612109 0 0.084972958378271055 0.26347323951421048 0 0.095569813203880638 0.25234178504612109 0 0.097706501814205052 0.26774695549789179 0 0.084972958378271055 0.26347323951421048 0 0.089560248428267986 0.28273757279847439 0 0.097706501814205052 0.26774695549789179 0 0.084972958378271055 0.26347323951421048 0 0.070078572781205578 0.26991197510446852 0 0.089560248428267986 0.28273757279847439 0 0.051450849646120879 0.280765013667992 0 0.070078572781205578 0.26991197510446852 0 0.076229613622977713 0.29449452218725508 0 0.051450849646120879 0.280765013667992 0 0.076229613622977713 0.29449452218725508 0 0.085506561690516902 0.32348168040438419 0 0.058584698363700602 0.31804728477285737 0 0.076229613622977713 0.29449452218725508 0 0.058584698363700602 0.31804728477285737 0 0.055662061002891818 0.2990848139087191 0 0.076229613622977713 0.29449452218725508 0 0.076229613622977713 0.29449452218725508 0 0.092361324385113533 0.29467029707370701 0 0.097639241145144495 0.30900678551477367 0 0.085506561690516902 0.32348168040438419 0 0.076229613622977713 0.29449452218725508 0 0.097639241145144495 0.30900678551477367 0 0.076229613622977713 0.29449452218725508 0 0.092361324385113533 0.29467029707370701 0 0.089560248428267986 0.28273757279847439 0 0.070078572781205578 0.26991197510446852 0 0.076229613622977713 0.29449452218725508 0 0.089560248428267986 0.28273757279847439 0 0.092361324385113533 0.29467029707370701 0 0.089560248428267986 0.28273757279847439 0 0.1060161943440639 0.29244230779432462 0 0.089560248428267986 0.28273757279847439 0 0.1060161943440639 0.29244230779432462 0 0.1028069883212661 0.28290495451199182 0 0.1060161943440639 0.29244230779432462 0 0.1028069883212661 0.28290495451199182 0 0.092361324385113533 0.29467029707370701 0 0.1060161943440639 0.29244230779432462 0 0.097639241145144495 0.30900678551477367 0 0.1143258868739228 0.3171376600907575 0 0.1060161943440639 0.29244230779432462 0 0.097639241145144495 0.30900678551477367 0 0.1143258868739228 0.3171376600907575 0 0.1060161943440639 0.29244230779432462 0 0.1143258868739228 0.3171376600907575 0 0.1060161943440639 0.29244230779432462 0 0.1206857031853656 0.30168612318626181 0 0.1143258868739228 0.3171376600907575 0 0.1206857031853656 0.30168612318626181 0 0.13642635663190841 0.3068329239855585 0 0.1028069883212661 0.28290495451199182 0 0.12912369913183361 0.28996660786397721 0 0.1028069883212661 0.28290495451199182 0 0.1191572715258729 0.27224139615177978 0 0.12912369913183361 0.28996660786397721 0 0.1060161943440639 0.29244230779432462 0 0.1028069883212661 0.28290495451199182 0 0.12912369913183361 0.28996660786397721 0 0.1060161943440639 0.29244230779432462 0 0.1206857031853656 0.30168612318626181 0 0.12912369913183361 0.28996660786397721 0 0.1028069883212661 0.28290495451199182 0 0.1191572715258729 0.27224139615177978 0 0.10717212831668201 0.27092911668210629 0 0.1191572715258729 0.27224139615177978 0 0.1115015149216548 0.25856139005678669 0 0.10717212831668201 0.27092911668210629 0 0.1194572647376068 0.24349155720862209 0 0.1115015149216548 0.25856139005678669 0 0.1306917988367528 0.25442861185416249 0 0.1191572715258729 0.27224139615177978 0 0.1115015149216548 0.25856139005678669 0 0.1306917988367528 0.25442861185416249 0 0.1194572647376068 0.24349155720862209 0 0.10834741414862201 0.24821867857208851 0 0.1115015149216548 0.25856139005678669 0 0.10834741414862201 0.24821867857208851 0 0.1115015149216548 0.25856139005678669 0 0.095569813203880638 0.25234178504612109 0 0.1115015149216548 0.25856139005678669 0 0.095569813203880638 0.25234178504612109 0 0.097706501814205052 0.26774695549789179 0 0.089560248428267986 0.28273757279847439 0 0.1028069883212661 0.28290495451199182 0 0.097706501814205052 0.26774695549789179 0 0.1028069883212661 0.28290495451199182 0 0.097706501814205052 0.26774695549789179 0 0.1028069883212661 0.28290495451199182 0 0.097706501814205052 0.26774695549789179 0 0.10717212831668201 0.27092911668210629 0 0.1115015149216548 0.25856139005678669 0 0.097706501814205052 0.26774695549789179 0 0.10717212831668201 0.27092911668210629 0 0.13995262860966801 0.27322622603571339 0 0.1552264085109557 0.29710027015411872 0 0.15972234007626671 0.26630474974326968 0 0.14539957929797409 0.26020032256952391 0 0.13995262860966801 0.27322622603571339 0 0.15972234007626671 0.26630474974326968 0 0.15123154966920899 0.2468417026449499 0 0.14539957929797409 0.26020032256952391 0 0.1306917988367528 0.25442861185416249 0 0.15123154966920899 0.2468417026449499 0 0.14539957929797409 0.26020032256952391 0 0.15972234007626671 0.26630474974326968 0 0.14539957929797409 0.26020032256952391 0 0.1306917988367528 0.25442861185416249 0 0.13995262860966801 0.27322622603571339 0 0.1191572715258729 0.27224139615177978 0 0.1306917988367528 0.25442861185416249 0 0.13995262860966801 0.27322622603571339 0 0.1191572715258729 0.27224139615177978 0 0.13995262860966801 0.27322622603571339 0 0.12912369913183361 0.28996660786397721 0 0.12912369913183361 0.28996660786397721 0 0.13642635663190841 0.3068329239855585 0 0.1552264085109557 0.29710027015411872 0 0.1206857031853656 0.30168612318626181 0 0.12912369913183361 0.28996660786397721 0 0.13642635663190841 0.3068329239855585 0 0.13642635663190841 0.3068329239855585 0 0.1552264085109557 0.29710027015411872 0 0.15120428654893461 0.31357175424692468 0 0.13995262860966801 0.27322622603571339 0 0.12912369913183361 0.28996660786397721 0 0.1552264085109557 0.29710027015411872 0 0.12912369913183361 0.28996660786397721 0 0.1552264085109557 0.29710027015411872 0 0.1552264085109557 0.29710027015411872 0 0.18132911789007791 0.30423393244426028 0 0.17306529277079219 0.28406478426697213 0 0.1552264085109557 0.29710027015411872 0 0.17306529277079219 0.28406478426697213 0 0.15972234007626671 0.26630474974326968 0 0.1552264085109557 0.29710027015411872 0 0.1676408548804684 0.31309391716094298 0 0.15120428654893461 0.31357175424692468 0 0.1552264085109557 0.29710027015411872 0 0.18132911789007791 0.30423393244426028 0 0.1676408548804684 0.31309391716094298 0 0.1552264085109557 0.29710027015411872 0 0.18132911789007791 0.30423393244426028 0 0.18132911789007791 0.30423393244426028 0 0.18240754693120059 0.30600713428909848 0 0.1908152889333829 0.28192974668255749 0 0.18132911789007791 0.30423393244426028 0 0.18240754693120059 0.30600713428909848 0 0.1676408548804684 0.31309391716094298 0 0.18240754693120059 0.30600713428909848 0 0.1868225740701438 0.30746005258492559 0 0.19150061212310721 0.30004806309158649 0 0.18240754693120059 0.30600713428909848 0 0.1868225740701438 0.30746005258492559 0 0.1843900381567164 0.31590289268586641 0 0.1868225740701438 0.30746005258492559 0 0.1898598666468837 0.30974714814521859 0 0.1843900381567164 0.31590289268586641 0 0.18240754693120059 0.30600713428909848 0 0.1908152889333829 0.28192974668255749 0 0.18132911789007791 0.30423393244426028 0 0.17306529277079219 0.28406478426697213 0 0.1908152889333829 0.28192974668255749 0 0.17306529277079219 0.28406478426697213 0 0.18175223777608171 0.26541634027232291 0 0.1908152889333829 0.28192974668255749 0 0.17306529277079219 0.28406478426697213 0 0.15972234007626671 0.26630474974326968 0 0.18175223777608171 0.26541634027232291 0 0.15123154966920899 0.2468417026449499 0 0.17713505718559289 0.2389565407261868 0 0.15972234007626671 0.26630474974326968 0 0.17713505718559289 0.2389565407261868 0 0.15972234007626671 0.26630474974326968 0 0.18175223777608171 0.26541634027232291 0 0.17713505718559289 0.2389565407261868 0 0.18175223777608171 0.26541634027232291 0 0.19663366196222959 0.25391388438766499 0 0.18175223777608171 0.26541634027232291 0 0.19663366196222959 0.25391388438766499 0 0.20099846389744941 0.2714456304252873 0 0.18175223777608171 0.26541634027232291 0 0.20099846389744941 0.2714456304252873 0 0.1908152889333829 0.28192974668255749 0 0.20099846389744941 0.2714456304252873 0 0.20685442077207911 0.28841562099067458 0 0.1908152889333829 0.28192974668255749 0 0.20099846389744941 0.2714456304252873 0 0.2144662012357797 0.27678304844605078 0 0.20685442077207911 0.28841562099067458 0 0.20099846389744941 0.2714456304252873 0 0.2144662012357797 0.27678304844605078 0 0.21225711306466369 0.26236351634125948 0 0.2144662012357797 0.27678304844605078 0 0.21225711306466369 0.26236351634125948 0 0.2271213674200892 0.27081757146120689 0 0.19663366196222959 0.25391388438766499 0 0.20099846389744941 0.2714456304252873 0 0.21225711306466369 0.26236351634125948 0 0.2118089964261817 0.24811216407671691 0 0.19663366196222959 0.25391388438766499 0 0.21225711306466369 0.26236351634125948 0 0.2118089964261817 0.24811216407671691 0 0.21225711306466369 0.26236351634125948 0 0.22374275107647101 0.25592796074431778 0 0.2373121946882093 0.2491729402658398 0 0.22943575549951339 0.24954153298696269 0 0.233452237156481 0.2550837431804151 0 0.22943575549951339 0.24954153298696269 0 0.22374275107647101 0.25592796074431778 0 0.233452237156481 0.2550837431804151 0 0.22374275107647101 0.25592796074431778 0 0.2271213674200892 0.27081757146120689 0 0.23592246948150219 0.26376440382127181 0 0.22374275107647101 0.25592796074431778 0 0.233452237156481 0.2550837431804151 0 0.23592246948150219 0.26376440382127181 0 0.21225711306466369 0.26236351634125948 0 0.22374275107647101 0.25592796074431778 0 0.2271213674200892 0.27081757146120689 0 0.2144662012357797 0.27678304844605078 0 0.2271213674200892 0.27081757146120689 0 0.22382460682785019 0.28160357817592241 0 0.2271213674200892 0.27081757146120689 0 0.23928646987201629 0.27130685800910193 0 0.23441008929038629 0.2787622881839239 0 0.2271213674200892 0.27081757146120689 0 0.23441008929038629 0.2787622881839239 0 0.22382460682785019 0.28160357817592241 0 0.2271213674200892 0.27081757146120689 0 0.23928646987201629 0.27130685800910193 0 0.23592246948150219 0.26376440382127181 0 0.23928646987201629 0.27130685800910193 0 0.24564154107359429 0.26435658486121189 0 0.23592246948150219 0.26376440382127181 0 0.23928646987201629 0.27130685800910193 0 0.23441008929038629 0.2787622881839239 0 0.2423112974001197 0.27805779241179213 0 0.23441008929038629 0.2787622881839239 0 0.2423112974001197 0.27805779241179213 0 0.2395397193012393 0.28525569375530319 0 0.23928646987201629 0.27130685800910193 0 0.2423112974001197 0.27805779241179213 0 0.24946214105173969 0.27307760343335341 0 0.2423112974001197 0.27805779241179213 0 0.24946214105173969 0.27307760343335341 0 0.24885806748521691 0.28188651867727799 0 0.23928646987201629 0.27130685800910193 0 0.24946214105173969 0.27307760343335341 0 0.24564154107359429 0.26435658486121189 0 0.24946214105173969 0.27307760343335341 0 0.24564154107359429 0.26435658486121189 0 0.25408234079549741 0.26515186640474309 0 0.24564154107359429 0.26435658486121189 0 0.24922957066550369 0.25696010310009199 0 0.24122239088455191 0.25669888365397819 0 0.24564154107359429 0.26435658486121189 0 0.24922957066550369 0.25696010310009199 0 0.25408234079549741 0.26515186640474309 0 0.24552209241342421 0.24938586441016569 0 0.24922957066550369 0.25696010310009199 0 0.24122239088455191 0.25669888365397819 0 0.24552209241342421 0.24938586441016569 0 0.24922957066550369 0.25696010310009199 0 0.25423555326891639 0.24942618361914939 0 0.24552209241342421 0.24938586441016569 0 0.2373121946882093 0.2491729402658398 0 0.24122239088455191 0.25669888365397819 0 0.2373121946882093 0.2491729402658398 0 0.233452237156481 0.2550837431804151 0 0.24122239088455191 0.25669888365397819 0 0.233452237156481 0.2550837431804151 0 0.24122239088455191 0.25669888365397819 0 0.23592246948150219 0.26376440382127181 0 0.24564154107359429 0.26435658486121189 0 0.24122239088455191 0.25669888365397819 0 0.23592246948150219 0.26376440382127181 0 0.24120923340546921 0.29853264869933233 0 0.2363508812501498 0.30507587978683098 0 0.2468421475835044 0.30296286057387017 0 0.24120923340546921 0.29853264869933233 0 0.2363508812501498 0.30507587978683098 0 0.23439177395017241 0.29395530948733439 0 0.2363508812501498 0.30507587978683098 0 0.24382559661091169 0.31009225374499821 0 0.23811908110234181 0.3156480823287246 0 0.24382559661091169 0.31009225374499821 0 0.2468421475835044 0.30296286057387017 0 0.25251238686667982 0.30771573563745053 0 0.2363508812501498 0.30507587978683098 0 0.24382559661091169 0.31009225374499821 0 0.2468421475835044 0.30296286057387017 0 0.24382559661091169 0.31009225374499821 0 0.24893864919030859 0.31594094937848233 0 0.25251238686667982 0.30771573563745053 0 0.2468421475835044 0.30296286057387017 0 0.24725213083804989 0.2921365449492937 0 0.25291198300887707 0.29853049589907638 0 0.24120923340546921 0.29853264869933233 0 0.2468421475835044 0.30296286057387017 0 0.24725213083804989 0.2921365449492937 0 0.24725213083804989 0.2921365449492937 0 0.24885806748521691 0.28188651867727799 0 0.2395397193012393 0.28525569375530319 0 0.2423112974001197 0.27805779241179213 0 0.24885806748521691 0.28188651867727799 0 0.2395397193012393 0.28525569375530319 0 0.23441008929038629 0.2787622881839239 0 0.2395397193012393 0.28525569375530319 0 0.2296599616815497 0.2874072229940407 0 0.2395397193012393 0.28525569375530319 0 0.23439177395017241 0.29395530948733439 0 0.2296599616815497 0.2874072229940407 0 0.24725213083804989 0.2921365449492937 0 0.2395397193012393 0.28525569375530319 0 0.23439177395017241 0.29395530948733439 0 0.24120923340546921 0.29853264869933233 0 0.24725213083804989 0.2921365449492937 0 0.23439177395017241 0.29395530948733439 0 0.23439177395017241 0.29395530948733439 0 0.22316541899362319 0.29286179307461208 0 0.22797988169261749 0.29966695757484191 0 0.23439177395017241 0.29395530948733439 0 0.2296599616815497 0.2874072229940407 0 0.22316541899362319 0.29286179307461208 0 0.23441008929038629 0.2787622881839239 0 0.2296599616815497 0.2874072229940407 0 0.22382460682785019 0.28160357817592241 0 0.22382460682785019 0.28160357817592241 0 0.22316541899362319 0.29286179307461208 0 0.2165532253029924 0.28734858083837378 0 0.2296599616815497 0.2874072229940407 0 0.22382460682785019 0.28160357817592241 0 0.22316541899362319 0.29286179307461208 0 0.2215974833968142 0.30329659078197502 0 0.22797988169261749 0.29966695757484191 0 0.22836718854102281 0.30916803800131137 0 0.22316541899362319 0.29286179307461208 0 0.2215974833968142 0.30329659078197502 0 0.22797988169261749 0.29966695757484191 0 0.22316541899362319 0.29286179307461208 0 0.2215974833968142 0.30329659078197502 0 0.21445547868562961 0.29707886350460933 0 0.2363508812501498 0.30507587978683098 0 0.22797988169261749 0.29966695757484191 0 0.22836718854102281 0.30916803800131137 0 0.2363508812501498 0.30507587978683098 0 0.23439177395017241 0.29395530948733439 0 0.22797988169261749 0.29966695757484191 0 0.2363508812501498 0.30507587978683098 0 0.22836718854102281 0.30916803800131137 0 0.23811908110234181 0.3156480823287246 0 0.2215974833968142 0.30329659078197502 0 0.21503282592594161 0.30691175591125408 0 0.2210591502223847 0.31430747940483172 0 0.2215974833968142 0.30329659078197502 0 0.22836718854102281 0.30916803800131137 0 0.2210591502223847 0.31430747940483172 0 0.21503282592594161 0.30691175591125408 0 0.21279070707100459 0.31386696254574892 0 0.2210591502223847 0.31430747940483172 0 0.21503282592594161 0.30691175591125408 0 0.20801899447076999 0.30971669770567012 0 0.21279070707100459 0.31386696254574892 0 0.21503282592594161 0.30691175591125408 0 0.21445547868562961 0.29707886350460933 0 0.20925465085027251 0.30447723459631421 0 0.2215974833968142 0.30329659078197502 0 0.21503282592594161 0.30691175591125408 0 0.21445547868562961 0.29707886350460933 0 0.20925465085027251 0.30447723459631421 0 0.20752714322851959 0.29800906306922059 0 0.2025824705519311 0.30609351601613582 0 0.20752714322851959 0.29800906306922059 0 0.2025824705519311 0.30609351601613582 0 0.2005459507090806 0.29764843245102768 0 0.21445547868562961 0.29707886350460933 0 0.20925465085027251 0.30447723459631421 0 0.20752714322851959 0.29800906306922059 0 0.20801899447076999 0.30971669770567012 0 0.2025824705519311 0.30609351601613582 0 0.20444511111437261 0.31513142654931248 0 0.20925465085027251 0.30447723459631421 0 0.20801899447076999 0.30971669770567012 0 0.2025824705519311 0.30609351601613582 0 0.21503282592594161 0.30691175591125408 0 0.20925465085027251 0.30447723459631421 0 0.20801899447076999 0.30971669770567012 0 0.2144662012357797 0.27678304844605078 0 0.22382460682785019 0.28160357817592241 0 0.2165532253029924 0.28734858083837378 0 0.2144662012357797 0.27678304844605078 0 0.2165532253029924 0.28734858083837378 0 0.20685442077207911 0.28841562099067458 0 0.22316541899362319 0.29286179307461208 0 0.21445547868562961 0.29707886350460933 0 0.2165532253029924 0.28734858083837378 0 0.21445547868562961 0.29707886350460933 0 0.2165532253029924 0.28734858083837378 0 0.20685442077207911 0.28841562099067458 0 0.20752714322851959 0.29800906306922059 0 0.20685442077207911 0.28841562099067458 0 0.2005459507090806 0.29764843245102768 0 0.21445547868562961 0.29707886350460933 0 0.20752714322851959 0.29800906306922059 0 0.20685442077207911 0.28841562099067458 0 0.18240754693120059 0.30600713428909848 0 0.1908152889333829 0.28192974668255749 0 0.19150061212310721 0.30004806309158649 0 0.1908152889333829 0.28192974668255749 0 0.2005459507090806 0.29764843245102768 0 0.19150061212310721 0.30004806309158649 0 0.20685442077207911 0.28841562099067458 0 0.1908152889333829 0.28192974668255749 0 0.2005459507090806 0.29764843245102768 0 0.2025824705519311 0.30609351601613582 0 0.19768942955887811 0.31363789100290101 0 0.20444511111437261 0.31513142654931248 0 0.1954250697917044 0.30798577328908111 0 0.2025824705519311 0.30609351601613582 0 0.19708599319535799 0.30277255147163251 0 0.1954250697917044 0.30798577328908111 0 0.19295570790365149 0.31251614591018628 0 0.19768942955887811 0.31363789100290101 0 0.1954250697917044 0.30798577328908111 0 0.2025824705519311 0.30609351601613582 0 0.19768942955887811 0.31363789100290101 0 0.2025824705519311 0.30609351601613582 0 0.2005459507090806 0.29764843245102768 0 0.19708599319535799 0.30277255147163251 0 0.2005459507090806 0.29764843245102768 0 0.19708599319535799 0.30277255147163251 0 0.19150061212310721 0.30004806309158649 0 0.19708599319535799 0.30277255147163251 0 0.19150061212310721 0.30004806309158649 0 0.1922114025294647 0.30552388934863778 0 0.1868225740701438 0.30746005258492559 0 0.19150061212310721 0.30004806309158649 0 0.1922114025294647 0.30552388934863778 0 0.1868225740701438 0.30746005258492559 0 0.1922114025294647 0.30552388934863778 0 0.1898598666468837 0.30974714814521859 0 0.1954250697917044 0.30798577328908111 0 0.19708599319535799 0.30277255147163251 0 0.1922114025294647 0.30552388934863778 0 0.1954250697917044 0.30798577328908111 0 0.1922114025294647 0.30552388934863778 0 0.1898598666468837 0.30974714814521859 0 0.1954250697917044 0.30798577328908111 0 0.1898598666468837 0.30974714814521859 0 0.19295570790365149 0.31251614591018628 0 0.1898598666468837 0.30974714814521859 0 0.188902827178766 0.3150956153181389 0 0.19295570790365149 0.31251614591018628 0 0.188902827178766 0.3150956153181389 0 0.19323703713405421 0.31761579990591049 0 0.1887318110038162 0.32418213772728172 0 0.1898598666468837 0.30974714814521859 0 0.188902827178766 0.3150956153181389 0 0.1843900381567164 0.31590289268586641 0 0.188902827178766 0.3150956153181389 0 0.19295570790365149 0.31251614591018628 0 0.19323703713405421 0.31761579990591049 0 0.19295570790365149 0.31251614591018628 0 0.19323703713405421 0.31761579990591049 0 0.19768942955887811 0.31363789100290101 0 0.19323703713405421 0.31761579990591049 0 0.1887318110038162 0.32418213772728172 0 0.1979054100251591 0.32264720957104448 0 0.1887318110038162 0.32418213772728172 0 0.1979054100251591 0.32264720957104448 0 0.195184646474137 0.33076183180535818 0 0.1979054100251591 0.32264720957104448 0 0.20276263689529311 0.3316683228328573 0 0.20735436149420031 0.32367310510392722 0 0.1979054100251591 0.32264720957104448 0 0.19768942955887811 0.31363789100290101 0 0.20444511111437261 0.31513142654931248 0 0.19323703713405421 0.31761579990591049 0 0.1979054100251591 0.32264720957104448 0 0.19768942955887811 0.31363789100290101 0 0.1881623293400573 0.33624964848705441 0 0.1983610451063593 0.33906184040855258 0 0.19196213954145841 0.34684628281598651 0 0.1887318110038162 0.32418213772728172 0 0.1881623293400573 0.33624964848705441 0 0.195184646474137 0.33076183180535818 0 0.1881623293400573 0.33624964848705441 0 0.195184646474137 0.33076183180535818 0 0.1983610451063593 0.33906184040855258 0 0.1979054100251591 0.32264720957104448 0 0.195184646474137 0.33076183180535818 0 0.20276263689529311 0.3316683228328573 0 0.195184646474137 0.33076183180535818 0 0.20276263689529311 0.3316683228328573 0 0.1983610451063593 0.33906184040855258 0 0.1983610451063593 0.33906184040855258 0 0.2087957539687241 0.34063042700800822 0 0.2021532410032513 0.34796049492331971 0 0.20276263689529311 0.3316683228328573 0 0.1983610451063593 0.33906184040855258 0 0.2087957539687241 0.34063042700800822 0 0.20276263689529311 0.3316683228328573 0 0.21514421416173199 0.33180006429535602 0 0.20735436149420031 0.32367310510392722 0 0.20276263689529311 0.3316683228328573 0 0.2087957539687241 0.34063042700800822 0 0.21514421416173199 0.33180006429535602 0 0.2087957539687241 0.34063042700800822 0 0.21514421416173199 0.33180006429535602 0 0.21877781948939909 0.34544208110515989 0 0.20444511111437261 0.31513142654931248 0 0.20735436149420031 0.32367310510392722 0 0.21279070707100459 0.31386696254574892 0 0.20801899447076999 0.30971669770567012 0 0.20444511111437261 0.31513142654931248 0 0.21279070707100459 0.31386696254574892 0 0.1979054100251591 0.32264720957104448 0 0.20444511111437261 0.31513142654931248 0 0.20735436149420031 0.32367310510392722 0 0.21514421416173199 0.33180006429535602 0 0.21559963473954469 0.3218087345353024 0 0.22540247286953219 0.32653802843538399 0 0.21514421416173199 0.33180006429535602 0 0.20735436149420031 0.32367310510392722 0 0.21559963473954469 0.3218087345353024 0 0.20735436149420031 0.32367310510392722 0 0.21559963473954469 0.3218087345353024 0 0.21279070707100459 0.31386696254574892 0 0.21559963473954469 0.3218087345353024 0 0.21279070707100459 0.31386696254574892 0 0.2210591502223847 0.31430747940483172 0 0.22836718854102281 0.30916803800131137 0 0.2210591502223847 0.31430747940483172 0 0.22981846930027741 0.31821335973701831 0 0.2210591502223847 0.31430747940483172 0 0.22981846930027741 0.31821335973701831 0 0.22540247286953219 0.32653802843538399 0 0.22836718854102281 0.30916803800131137 0 0.22981846930027741 0.31821335973701831 0 0.23811908110234181 0.3156480823287246 0 0.22981846930027741 0.31821335973701831 0 0.22540247286953219 0.32653802843538399 0 0.23614445376610579 0.3254051705148393 0 0.21559963473954469 0.3218087345353024 0 0.2210591502223847 0.31430747940483172 0 0.22540247286953219 0.32653802843538399 0 0.21514421416173199 0.33180006429535602 0 0.22540247286953219 0.32653802843538399 0 0.22671544967489721 0.33907868134061608 0 0.21514421416173199 0.33180006429535602 0 0.22671544967489721 0.33907868134061608 0 0.21877781948939909 0.34544208110515989 0 0.22671544967489721 0.33907868134061608 0 0.23505797195209691 0.33545244249784761 0 0.23586656747819801 0.34693474473596642 0 0.22540247286953219 0.32653802843538399 0 0.22671544967489721 0.33907868134061608 0 0.23505797195209691 0.33545244249784761 0 0.22540247286953219 0.32653802843538399 0 0.23505797195209691 0.33545244249784761 0 0.23614445376610579 0.3254051705148393 0 0.23505797195209691 0.33545244249784761 0 0.2440697518618784 0.33296775494587461 0 0.23614445376610579 0.3254051705148393 0 0.23505797195209691 0.33545244249784761 0 0.24214913606197011 0.3417902750144059 0 0.23586656747819801 0.34693474473596642 0 0.23505797195209691 0.33545244249784761 0 0.24214913606197011 0.3417902750144059 0 0.2440697518618784 0.33296775494587461 0 0.24214913606197011 0.3417902750144059 0 0.24438037716319541 0.34845989730607663 0 0.25127893477613811 0.34041357370461328 0 0.24214913606197011 0.3417902750144059 0 0.2440697518618784 0.33296775494587461 0 0.25127893477613811 0.34041357370461328 0 0.2440697518618784 0.33296775494587461 0 0.2457116025576585 0.3236052478594541 0 0.25606395296601869 0.33142741492329331 0 0.2457116025576585 0.3236052478594541 0 0.24893864919030859 0.31594094937848233 0 0.23811908110234181 0.3156480823287246 0 0.2457116025576585 0.3236052478594541 0 0.24893864919030859 0.31594094937848233 0 0.25526367536650069 0.32053136070375321 0 0.24382559661091169 0.31009225374499821 0 0.24893864919030859 0.31594094937848233 0 0.23811908110234181 0.3156480823287246 0 0.22981846930027741 0.31821335973701831 0 0.23811908110234181 0.3156480823287246 0 0.23614445376610579 0.3254051705148393 0 0.2440697518618784 0.33296775494587461 0 0.2457116025576585 0.3236052478594541 0 0.23614445376610579 0.3254051705148393 0 0.2457116025576585 0.3236052478594541 0 0.23811908110234181 0.3156480823287246 0 0.23614445376610579 0.3254051705148393 0 0.23976862891184331 0.37515390902029222 0 0.25335459622779249 0.35202689044311691 0 0.25030429400542209 0.36146110213964461 0 0.23950653599059071 0.35902382322439352 0 0.22563836989198699 0.36639749931024662 0 0.23976862891184331 0.37515390902029222 0 0.23950653599059071 0.35902382322439352 0 0.23976862891184331 0.37515390902029222 0 0.25335459622779249 0.35202689044311691 0 0.23976862891184331 0.37515390902029222 0 0.25335459622779249 0.35202689044311691 0 0.24896054609932669 0.37109941323554652 0 0.23976862891184331 0.37515390902029222 0 0.25142039725092957 0.37655114140978863 0 0.24896054609932669 0.37109941323554652 0 0.23976862891184331 0.37515390902029222 0 0.25030429400542209 0.36146110213964461 0 0.24438037716319541 0.34845989730607663 0 0.23950653599059071 0.35902382322439352 0 0.25335459622779249 0.35202689044311691 0 0.24438037716319541 0.34845989730607663 0 0.25335459622779249 0.35202689044311691 0 0.25127893477613811 0.34041357370461328 0 0.24438037716319541 0.34845989730607663 0 0.23586656747819801 0.34693474473596642 0 0.23950653599059071 0.35902382322439352 0 0.24214913606197011 0.3417902750144059 0 0.24438037716319541 0.34845989730607663 0 0.23586656747819801 0.34693474473596642 0 0.23586656747819801 0.34693474473596642 0 0.23950653599059071 0.35902382322439352 0 0.22818265288206421 0.35290599427680092 0 0.22671544967489721 0.33907868134061608 0 0.23586656747819801 0.34693474473596642 0 0.22818265288206421 0.35290599427680092 0 0.22671544967489721 0.33907868134061608 0 0.22818265288206421 0.35290599427680092 0 0.21877781948939909 0.34544208110515989 0 0.22818265288206421 0.35290599427680092 0 0.21877781948939909 0.34544208110515989 0 0.2170010905073983 0.35675504493255322 0 0.22818265288206421 0.35290599427680092 0 0.22563836989198699 0.36639749931024662 0 0.2170010905073983 0.35675504493255322 0 0.23950653599059071 0.35902382322439352 0 0.22818265288206421 0.35290599427680092 0 0.22563836989198699 0.36639749931024662 0 0.22563836989198699 0.36639749931024662 0 0.20958420966145561 0.3690727478166857 0 0.21707085021338379 0.38563618542249528 0 0.22563836989198699 0.36639749931024662 0 0.20958420966145561 0.3690727478166857 0 0.2170010905073983 0.35675504493255322 0 0.20958420966145561 0.3690727478166857 0 0.2170010905073983 0.35675504493255322 0 0.2051033450076781 0.35744900187584838 0 0.21877781948939909 0.34544208110515989 0 0.21182274937537501 0.34952329805212567 0 0.2170010905073983 0.35675504493255322 0 0.2087957539687241 0.34063042700800822 0 0.21877781948939909 0.34544208110515989 0 0.21182274937537501 0.34952329805212567 0 0.21182274937537501 0.34952329805212567 0 0.2170010905073983 0.35675504493255322 0 0.2051033450076781 0.35744900187584838 0 0.21182274937537501 0.34952329805212567 0 0.2051033450076781 0.35744900187584838 0 0.2021532410032513 0.34796049492331971 0 0.2087957539687241 0.34063042700800822 0 0.21182274937537501 0.34952329805212567 0 0.2021532410032513 0.34796049492331971 0 0.1983610451063593 0.33906184040855258 0 0.2021532410032513 0.34796049492331971 0 0.19196213954145841 0.34684628281598651 0 0.2021532410032513 0.34796049492331971 0 0.19606243560273409 0.35532871252323678 0 0.19196213954145841 0.34684628281598651 0 0.2051033450076781 0.35744900187584838 0 0.2021532410032513 0.34796049492331971 0 0.19606243560273409 0.35532871252323678 0 0.19606243560273409 0.35532871252323678 0 0.19399634389585441 0.36605371300716938 0 0.1864350595606066 0.35657090884451909 0 0.19606243560273409 0.35532871252323678 0 0.19196213954145841 0.34684628281598651 0 0.1864350595606066 0.35657090884451909 0 0.20958420966145561 0.3690727478166857 0 0.19399634389585441 0.36605371300716938 0 0.19809889071802789 0.3822329464751465 0 0.2051033450076781 0.35744900187584838 0 0.19606243560273409 0.35532871252323678 0 0.19399634389585441 0.36605371300716938 0 0.20958420966145561 0.3690727478166857 0 0.2051033450076781 0.35744900187584838 0 0.19399634389585441 0.36605371300716938 0 0.19399634389585441 0.36605371300716938 0 0.17907653271713539 0.3656896362973277 0 0.18478805485125169 0.37780761378499622 0 0.19399634389585441 0.36605371300716938 0 0.17907653271713539 0.3656896362973277 0 0.1864350595606066 0.35657090884451909 0 0.16223553361817919 0.36377405711045241 0 0.16559206292683559 0.35416190950218052 0 0.17048506057484519 0.38265463871146338 0 0.17907653271713539 0.3656896362973277 0 0.16559206292683559 0.35416190950218052 0 0.17048506057484519 0.38265463871146338 0 0.16223553361817919 0.36377405711045241 0 0.15691987385492301 0.37383580890646068 0 0.17048506057484519 0.38265463871146338 0 0.16559206292683559 0.35416190950218052 0 0.17048506057484519 0.38265463871146338 0 0.16223553361817919 0.36377405711045241 0 0.1515072584129121 0.36394795517825351 0 0.15563703537985479 0.35248203336011341 0 0.16223553361817919 0.36377405711045241 0 0.15691987385492301 0.37383580890646068 0 0.1515072584129121 0.36394795517825351 0 0.16559206292683559 0.35416190950218052 0 0.16327446980716359 0.34066618399269388 0 0.15563703537985479 0.35248203336011341 0 0.16223553361817919 0.36377405711045241 0 0.16559206292683559 0.35416190950218052 0 0.15563703537985479 0.35248203336011341 0 0.16223553361817919 0.36377405711045241 0 0.16559206292683559 0.35416190950218052 0 0.16559206292683559 0.35416190950218052 0 0.16327446980716359 0.34066618399269388 0 0.17907653271713539 0.3656896362973277 0 0.16559206292683559 0.35416190950218052 0 0.17790521129607831 0.35554467260761041 0 0.16559206292683559 0.35416190950218052 0 0.17790521129607831 0.35554467260761041 0 0.18050237370446609 0.34657641524460409 0 0.17790521129607831 0.35554467260761041 0 0.1864350595606066 0.35657090884451909 0 0.18050237370446609 0.34657641524460409 0 0.17907653271713539 0.3656896362973277 0 0.17790521129607831 0.35554467260761041 0 0.1864350595606066 0.35657090884451909 0 0.19196213954145841 0.34684628281598651 0 0.1864350595606066 0.35657090884451909 0 0.18050237370446609 0.34657641524460409 0 0.16559206292683559 0.35416190950218052 0 0.18050237370446609 0.34657641524460409 0 0.1739998049290182 0.33008452189563953 0 0.1881623293400573 0.33624964848705441 0 0.18050237370446609 0.34657641524460409 0 0.1739998049290182 0.33008452189563953 0 0.1881623293400573 0.33624964848705441 0 0.19196213954145841 0.34684628281598651 0 0.18050237370446609 0.34657641524460409 0 0.1887318110038162 0.32418213772728172 0 0.1881623293400573 0.33624964848705441 0 0.1739998049290182 0.33008452189563953 0 0.18240754693120059 0.30600713428909848 0 0.1739998049290182 0.33008452189563953 0 0.18240754693120059 0.30600713428909848 0 0.1739998049290182 0.33008452189563953 0 0.1843900381567164 0.31590289268586641 0 0.18240754693120059 0.30600713428909848 0 0.1739998049290182 0.33008452189563953 0 0.1676408548804684 0.31309391716094298 0 0.188902827178766 0.3150956153181389 0 0.1887318110038162 0.32418213772728172 0 0.1843900381567164 0.31590289268586641 0 0.1887318110038162 0.32418213772728172 0 0.1739998049290182 0.33008452189563953 0 0.1843900381567164 0.31590289268586641 0 0.1739998049290182 0.33008452189563953 0 0.1676408548804684 0.31309391716094298 0 0.15758149881797051 0.32670602629416479 0 0.1676408548804684 0.31309391716094298 0 0.15758149881797051 0.32670602629416479 0 0.15120428654893461 0.31357175424692468 0 0.1739998049290182 0.33008452189563953 0 0.15758149881797051 0.32670602629416479 0 0.16327446980716359 0.34066618399269388 0 0.16559206292683559 0.35416190950218052 0 0.1739998049290182 0.33008452189563953 0 0.16559206292683559 0.35416190950218052 0 0.1739998049290182 0.33008452189563953 0 0.16327446980716359 0.34066618399269388 0 0.15758149881797051 0.32670602629416479 0 0.14787646327679649 0.33856874116509961 0 0.13914631390337001 0.32412563363983821 0 0.15758149881797051 0.32670602629416479 0 0.16327446980716359 0.34066618399269388 0 0.14787646327679649 0.33856874116509961 0 0.15758149881797051 0.32670602629416479 0 0.15120428654893461 0.31357175424692468 0 0.13914631390337001 0.32412563363983821 0 0.13642635663190841 0.3068329239855585 0 0.15120428654893461 0.31357175424692468 0 0.13914631390337001 0.32412563363983821 0 0.12263557940378179 0.34183301238719033 0 0.1143258868739228 0.3171376600907575 0 0.13914631390337001 0.32412563363983821 0 0.1143258868739228 0.3171376600907575 0 0.13642635663190841 0.3068329239855585 0 0.13914631390337001 0.32412563363983821 0 0.12263557940378179 0.34183301238719033 0 0.14787646327679649 0.33856874116509961 0 0.13914631390337001 0.32412563363983821 0 0.12263557940378179 0.34183301238719033 0 0.14787646327679649 0.33856874116509961 0 0.14133107558362251 0.35351222454483788 0 0.12263557940378179 0.34183301238719033 0 0.12775583683182609 0.36413153113398378 0 0.14133107558362251 0.35351222454483788 0 0.1183512057316847 0.38001481425709371 0 0.12775583683182609 0.36413153113398378 0 0.13648260327173831 0.38041495385187368 0 0.12775583683182609 0.36413153113398378 0 0.14040119901147441 0.36615083424102302 0 0.13648260327173831 0.38041495385187368 0 0.12775583683182609 0.36413153113398378 0 0.14040119901147441 0.36615083424102302 0 0.14133107558362251 0.35351222454483788 0 0.14040119901147441 0.36615083424102302 0 0.1515072584129121 0.36394795517825351 0 0.14133107558362251 0.35351222454483788 0 0.14040119901147441 0.36615083424102302 0 0.14793237244236479 0.37349423506241458 0 0.13648260327173831 0.38041495385187368 0 0.14040119901147441 0.36615083424102302 0 0.14793237244236479 0.37349423506241458 0 0.1515072584129121 0.36394795517825351 0 0.15691987385492301 0.37383580890646068 0 0.14793237244236479 0.37349423506241458 0 0.1515072584129121 0.36394795517825351 0 0.1515072584129121 0.36394795517825351 0 0.15563703537985479 0.35248203336011341 0 0.14133107558362251 0.35351222454483788 0 0.16327446980716359 0.34066618399269388 0 0.14787646327679649 0.33856874116509961 0 0.15563703537985479 0.35248203336011341 0 0.14787646327679649 0.33856874116509961 0 0.15563703537985479 0.35248203336011341 0 0.14133107558362251 0.35351222454483788 0 0.14118908879126621 0.39657912497492342 0 0.14048778328834929 0.40824728674726513 0 0.1582115129316034 0.40634564266249579 0 0.14118908879126621 0.39657912497492342 0 0.15243914422631369 0.38530815846971939 0 0.1582115129316034 0.40634564266249579 0 0.14793237244236479 0.37349423506241458 0 0.15243914422631369 0.38530815846971939 0 0.13648260327173831 0.38041495385187368 0 0.14118908879126621 0.39657912497492342 0 0.15243914422631369 0.38530815846971939 0 0.13648260327173831 0.38041495385187368 0 0.15691987385492301 0.37383580890646068 0 0.14793237244236479 0.37349423506241458 0 0.15243914422631369 0.38530815846971939 0 0.1183512057316847 0.38001481425709371 0 0.13648260327173831 0.38041495385187368 0 0.12602346773345141 0.39612981579421691 0 0.14118908879126621 0.39657912497492342 0 0.13648260327173831 0.38041495385187368 0 0.12602346773345141 0.39612981579421691 0 0.14118908879126621 0.39657912497492342 0 0.13052367326695541 0.40985579963459118 0 0.14048778328834929 0.40824728674726513 0 0.14118908879126621 0.39657912497492342 0 0.12602346773345141 0.39612981579421691 0 0.13052367326695541 0.40985579963459118 0 0.11863032453419441 0.41105505496290839 0 0.12602346773345141 0.39612981579421691 0 0.13052367326695541 0.40985579963459118 0 0.11863032453419441 0.41105505496290839 0 0.13052367326695541 0.40985579963459118 0 0.13006654732202749 0.42285749596995309 0 0.13052367326695541 0.40985579963459118 0 0.1335825758083497 0.41947421517299388 0 0.13006654732202749 0.42285749596995309 0 0.1335825758083497 0.41947421517299388 0 0.13006654732202749 0.42285749596995309 0 0.1335825758083497 0.41947421517299388 0 0.1374535156338785 0.4210369602639174 0 0.14048778328834929 0.40824728674726513 0 0.1374535156338785 0.4210369602639174 0 0.14048778328834929 0.40824728674726513 0 0.1335825758083497 0.41947421517299388 0 0.1374535156338785 0.4210369602639174 0 0.13006654732202749 0.42285749596995309 0 0.13052367326695541 0.40985579963459118 0 0.1335825758083497 0.41947421517299388 0 0.14048778328834929 0.40824728674726513 0 0.1148277021490783 0.43752099839664532 0 0.13006654732202749 0.42285749596995309 0 0.13499097977080901 0.43141673993342039 0 0.1374535156338785 0.4210369602639174 0 0.13499097977080901 0.43141673993342039 0 0.14836537524781801 0.42035817951377458 0 0.1374535156338785 0.4210369602639174 0 0.13006654732202749 0.42285749596995309 0 0.13499097977080901 0.43141673993342039 0 0.1374535156338785 0.4210369602639174 0 0.13499097977080901 0.43141673993342039 0 0.1374535156338785 0.4210369602639174 0 0.13006654732202749 0.42285749596995309 0 0.13499097977080901 0.43141673993342039 0 0.14998327882495349 0.4339171104817599 0 0.14468268900952189 0.44695531132883959 0 0.13499097977080901 0.43141673993342039 0 0.14998327882495349 0.4339171104817599 0 0.14836537524781801 0.42035817951377458 0 0.14998327882495349 0.4339171104817599 0 0.14836537524781801 0.42035817951377458 0 0.15815332142337479 0.42186411774393168 0 0.14048778328834929 0.40824728674726513 0 0.14836537524781801 0.42035817951377458 0 0.1582115129316034 0.40634564266249579 0 0.1374535156338785 0.4210369602639174 0 0.14048778328834929 0.40824728674726513 0 0.14836537524781801 0.42035817951377458 0 0.14836537524781801 0.42035817951377458 0 0.1582115129316034 0.40634564266249579 0 0.15815332142337479 0.42186411774393168 0 0.1582115129316034 0.40634564266249579 0 0.15815332142337479 0.42186411774393168 0 0.17537805822285499 0.41114736792074619 0 0.15815332142337479 0.42186411774393168 0 0.1648884137911717 0.43475809958949541 0 0.17537805822285499 0.41114736792074619 0 0.14998327882495349 0.4339171104817599 0 0.15815332142337479 0.42186411774393168 0 0.1648884137911717 0.43475809958949541 0 0.17537805822285499 0.41114736792074619 0 0.19748525170102221 0.4342891516886192 0 0.18027105587086489 0.43964009713002888 0 0.17537805822285499 0.41114736792074619 0 0.18027105587086489 0.43964009713002888 0 0.1648884137911717 0.43475809958949541 0 0.17537805822285499 0.41114736792074619 0 0.18027105587086489 0.43964009713002888 0 0.17537805822285499 0.41114736792074619 0 0.1858831225294828 0.39062391934913382 0 0.2006655482804342 0.3992770298533167 0 0.17537805822285499 0.41114736792074619 0 0.17048506057484519 0.38265463871146338 0 0.1858831225294828 0.39062391934913382 0 0.17537805822285499 0.41114736792074619 0 0.17048506057484519 0.38265463871146338 0 0.15243914422631369 0.38530815846971939 0 0.1582115129316034 0.40634564266249579 0 0.17048506057484519 0.38265463871146338 0 0.1582115129316034 0.40634564266249579 0 0.17537805822285499 0.41114736792074619 0 0.17048506057484519 0.38265463871146338 0 0.15691987385492301 0.37383580890646068 0 0.15243914422631369 0.38530815846971939 0 0.17048506057484519 0.38265463871146338 0 0.17907653271713539 0.3656896362973277 0 0.17048506057484519 0.38265463871146338 0 0.18478805485125169 0.37780761378499622 0 0.17048506057484519 0.38265463871146338 0 0.1858831225294828 0.39062391934913382 0 0.18478805485125169 0.37780761378499622 0 0.19399634389585441 0.36605371300716938 0 0.18478805485125169 0.37780761378499622 0 0.19809889071802789 0.3822329464751465 0 0.1858831225294828 0.39062391934913382 0 0.18478805485125169 0.37780761378499622 0 0.19809889071802789 0.3822329464751465 0 0.1858831225294828 0.39062391934913382 0 0.19809889071802789 0.3822329464751465 0 0.2006655482804342 0.3992770298533167 0 0.2006655482804342 0.3992770298533167 0 0.21707085021338379 0.38563618542249528 0 0.22379155082869329 0.40605829525062559 0 0.19809889071802789 0.3822329464751465 0 0.2006655482804342 0.3992770298533167 0 0.21707085021338379 0.38563618542249528 0 0.20958420966145561 0.3690727478166857 0 0.19809889071802789 0.3822329464751465 0 0.21707085021338379 0.38563618542249528 0 0.22563836989198699 0.36639749931024662 0 0.21707085021338379 0.38563618542249528 0 0.23976862891184331 0.37515390902029222 0 0.21707085021338379 0.38563618542249528 0 0.245295227055075 0.38280585108560827 0 0.21707085021338379 0.38563618542249528 0 0.245295227055075 0.38280585108560827 0 0.23976862891184331 0.37515390902029222 0 0.21707085021338379 0.38563618542249528 0 0.22379155082869329 0.40605829525062559 0 0.24085279226627429 0.39779374087732788 0 0.24085279226627429 0.39779374087732788 0 0.25815048972283039 0.41271244370208671 0 0.25007708032583348 0.39237551745951882 0 0.22379155082869329 0.40605829525062559 0 0.24085279226627429 0.39779374087732788 0 0.24248843447532109 0.41326986217469119 0 0.24085279226627429 0.39779374087732788 0 0.25815048972283039 0.41271244370208671 0 0.24085279226627429 0.39779374087732788 0 0.245295227055075 0.38280585108560827 0 0.25007708032583348 0.39237551745951882 0 0.21707085021338379 0.38563618542249528 0 0.24085279226627429 0.39779374087732788 0 0.245295227055075 0.38280585108560827 0 0.245295227055075 0.38280585108560827 0 0.23976862891184331 0.37515390902029222 0 0.25142039725092957 0.37655114140978863 0 0.24248843447532109 0.41326986217469119 0 0.22944085842868331 0.42367934957135212 0 0.251688116757742 0.43543122577928522 0 0.22944085842868331 0.42367934957135212 0 0.22792804633609751 0.44323130503172198 0 0.251688116757742 0.43543122577928522 0 0.24085279226627429 0.39779374087732788 0 0.24248843447532109 0.41326986217469119 0 0.25815048972283039 0.41271244370208671 0 0.22379155082869329 0.40605829525062559 0 0.22944085842868331 0.42367934957135212 0 0.20737049334925001 0.41818024961701272 0 0.22379155082869329 0.40605829525062559 0 0.24248843447532109 0.41326986217469119 0 0.22944085842868331 0.42367934957135212 0 0.22944085842868331 0.42367934957135212 0 0.2132785251459012 0.43408228803857291 0 0.22792804633609751 0.44323130503172198 0 0.17537805822285499 0.41114736792074619 0 0.20737049334925001 0.41818024961701272 0 0.19748525170102221 0.4342891516886192 0 0.22944085842868331 0.42367934957135212 0 0.2132785251459012 0.43408228803857291 0 0.20737049334925001 0.41818024961701272 0 0.2132785251459012 0.43408228803857291 0 0.20737049334925001 0.41818024961701272 0 0.19748525170102221 0.4342891516886192 0 0.17537805822285499 0.41114736792074619 0 0.2006655482804342 0.3992770298533167 0 0.20737049334925001 0.41818024961701272 0 0.2006655482804342 0.3992770298533167 0 0.22379155082869329 0.40605829525062559 0 0.20737049334925001 0.41818024961701272 0 0.19748525170102221 0.4342891516886192 0 0.1905830472447872 0.44594802415985052 0 0.18027105587086489 0.43964009713002888 0 0.19748525170102221 0.4342891516886192 0 0.1905830472447872 0.44594802415985052 0 0.2041679759144531 0.45103138428415868 0 0.1905830472447872 0.44594802415985052 0 0.2041679759144531 0.45103138428415868 0 0.18040790549280869 0.45883146353659532 0 0.19635025645705961 0.46558085508497632 0 0.2041679759144531 0.45103138428415868 0 0.18040790549280869 0.45883146353659532 0 0.2041679759144531 0.45103138428415868 0 0.18040790549280869 0.45883146353659532 0 0.19635025645705961 0.46558085508497632 0 0.2041679759144531 0.45103138428415868 0 0.2233613020060673 0.46312072572562368 0 0.19635025645705961 0.46558085508497632 0 0.2233613020060673 0.46312072572562368 0 0.19635025645705961 0.46558085508497632 0 0.2233613020060673 0.46312072572562368 0 0.20834822817508569 0.4734014057919177 0 0.2132785251459012 0.43408228803857291 0 0.2041679759144531 0.45103138428415868 0 0.22792804633609751 0.44323130503172198 0 0.2041679759144531 0.45103138428415868 0 0.22792804633609751 0.44323130503172198 0 0.2132785251459012 0.43408228803857291 0 0.19748525170102221 0.4342891516886192 0 0.2041679759144531 0.45103138428415868 0 0.2041679759144531 0.45103138428415868 0 0.22792804633609751 0.44323130503172198 0 0.2233613020060673 0.46312072572562368 0 0.22792804633609751 0.44323130503172198 0 0.2233613020060673 0.46312072572562368 0 0.2503723475550752 0.46066059636627121 0 0.2233613020060673 0.46312072572562368 0 0.23849415256474141 0.47975794299772068 0 0.2503723475550752 0.46066059636627121 0 0.2233613020060673 0.46312072572562368 0 0.2503723475550752 0.46066059636627121 0 0.22792804633609751 0.44323130503172198 0 0.2503723475550752 0.46066059636627121 0 0.251688116757742 0.43543122577928522 0 0.22792804633609751 0.44323130503172198 0 0.251688116757742 0.43543122577928522 0 0.24829513684728141 0.5 0 0.23849415256474141 0.47975794299772068 0 0.25760507754760792 0.47840190179457859 0 0.24829513684728141 0.5 0 0.23849415256474141 0.47975794299772068 0 0.22086765892750651 0.5 0 0.23849415256474141 0.47975794299772068 0 0.25760507754760792 0.47840190179457859 0 0.2503723475550752 0.46066059636627121 0 0.2233613020060673 0.46312072572562368 0 0.23849415256474141 0.47975794299772068 0 0.2217169799621824 0.479759105376109 0 0.23849415256474141 0.47975794299772068 0 0.2217169799621824 0.479759105376109 0 0.22086765892750651 0.5 0 0.22086765892750651 0.5 0 0.21070947456461789 0.48775669027385682 0 0.1934401810077315 0.5 0 0.2217169799621824 0.479759105376109 0 0.22086765892750651 0.5 0 0.21070947456461789 0.48775669027385682 0 0.2233613020060673 0.46312072572562368 0 0.2217169799621824 0.479759105376109 0 0.20834822817508569 0.4734014057919177 0 0.2217169799621824 0.479759105376109 0 0.21070947456461789 0.48775669027385682 0 0.20834822817508569 0.4734014057919177 0 0.21070947456461789 0.48775669027385682 0 0.20834822817508569 0.4734014057919177 0 0.19870206383309541 0.4856486379029975 0 0.19635025645705961 0.46558085508497632 0 0.20834822817508569 0.4734014057919177 0 0.18157330367127189 0.48143826422454739 0 0.20834822817508569 0.4734014057919177 0 0.18157330367127189 0.48143826422454739 0 0.20834822817508569 0.4734014057919177 0 0.19870206383309541 0.4856486379029975 0 0.18157330367127189 0.48143826422454739 0 0.21070947456461789 0.48775669027385682 0 0.1934401810077315 0.5 0 0.19870206383309541 0.4856486379029975 0 0.1934401810077315 0.5 0 0.19870206383309541 0.4856486379029975 0 0.18157330367127189 0.48143826422454739 0 0.1934401810077315 0.5 0 0.1660127030879566 0.5 0 0.18157330367127189 0.48143826422454739 0 0.1660127030879566 0.5 0 0.15991701174573841 0.48793869534084888 0 0.18157330367127189 0.48143826422454739 0 0.15991701174573841 0.48793869534084888 0 0.18157330367127189 0.48143826422454739 0 0.15991701174573841 0.48793869534084888 0 0.15479837916745809 0.48947512265717719 0 0.1660127030879566 0.5 0 0.15991701174573841 0.48793869534084888 0 0.15479837916745809 0.48947512265717719 0 0.15991701174573841 0.48793869534084888 0 0.18157330367127189 0.48143826422454739 0 0.16933921090805179 0.4680409844443289 0 0.15991701174573841 0.48793869534084888 0 0.15760257922700929 0.47229036712288369 0 0.16933921090805179 0.4680409844443289 0 0.19635025645705961 0.46558085508497632 0 0.18157330367127189 0.48143826422454739 0 0.16933921090805179 0.4680409844443289 0 0.19635025645705961 0.46558085508497632 0 0.18040790549280869 0.45883146353659532 0 0.16933921090805179 0.4680409844443289 0 0.19635025645705961 0.46558085508497632 0 0.16933921090805179 0.4680409844443289 0 0.18040790549280869 0.45883146353659532 0 0.16933921090805179 0.4680409844443289 0 0.16722796812219021 0.45424717905054313 0 0.18040790549280869 0.45883146353659532 0 0.18027105587086489 0.43964009713002888 0 0.16722796812219021 0.45424717905054313 0 0.1905830472447872 0.44594802415985052 0 0.18040790549280869 0.45883146353659532 0 0.18027105587086489 0.43964009713002888 0 0.1648884137911717 0.43475809958949541 0 0.18027105587086489 0.43964009713002888 0 0.16722796812219021 0.45424717905054313 0 0.1648884137911717 0.43475809958949541 0 0.16722796812219021 0.45424717905054313 0 0.15596375934835791 0.44591522530571959 0 0.16722796812219021 0.45424717905054313 0 0.15316733771388419 0.45613747271325739 0 0.15596375934835791 0.44591522530571959 0 0.14998327882495349 0.4339171104817599 0 0.1648884137911717 0.43475809958949541 0 0.15596375934835791 0.44591522530571959 0 0.16933921090805179 0.4680409844443289 0 0.16722796812219021 0.45424717905054313 0 0.1597272275620516 0.46388834356144482 0 0.16722796812219021 0.45424717905054313 0 0.1597272275620516 0.46388834356144482 0 0.15316733771388419 0.45613747271325739 0 0.15760257922700929 0.47229036712288369 0 0.16933921090805179 0.4680409844443289 0 0.1597272275620516 0.46388834356144482 0 0.15760257922700929 0.47229036712288369 0 0.1597272275620516 0.46388834356144482 0 0.15014176598683779 0.46509218911365341 0 0.1597272275620516 0.46388834356144482 0 0.15014176598683779 0.46509218911365341 0 0.15316733771388419 0.45613747271325739 0 0.15014176598683779 0.46509218911365341 0 0.15316733771388419 0.45613747271325739 0 0.141824790353967 0.45863882471793121 0 0.15316733771388419 0.45613747271325739 0 0.141824790353967 0.45863882471793121 0 0.14468268900952189 0.44695531132883959 0 0.15014176598683779 0.46509218911365341 0 0.141824790353967 0.45863882471793121 0 0.13712348052998749 0.46912215481768388 0 0.14998327882495349 0.4339171104817599 0 0.15596375934835791 0.44591522530571959 0 0.14468268900952189 0.44695531132883959 0 0.15316733771388419 0.45613747271325739 0 0.15596375934835791 0.44591522530571959 0 0.14468268900952189 0.44695531132883959 0 0.1148277021490783 0.43752099839664532 0 0.13499097977080901 0.43141673993342039 0 0.12949417625326881 0.45458619311957571 0 0.13499097977080901 0.43141673993342039 0 0.12949417625326881 0.45458619311957571 0 0.13499097977080901 0.43141673993342039 0 0.14468268900952189 0.44695531132883959 0 0.12949417625326881 0.45458619311957571 0 0.12399737273572981 0.47775564630573131 0 0.12949417625326881 0.45458619311957571 0 0.13712348052998749 0.46912215481768388 0 0.12399737273572981 0.47775564630573131 0 0.12949417625326881 0.45458619311957571 0 0.141824790353967 0.45863882471793121 0 0.12949417625326881 0.45458619311957571 0 0.13712348052998749 0.46912215481768388 0 0.141824790353967 0.45863882471793121 0 0.14468268900952189 0.44695531132883959 0 0.12949417625326881 0.45458619311957571 0 0.12399737273572981 0.47775564630573131 0 0.1419079572256062 0.48268314357009851 0 0.12399737273572981 0.47775564630573131 0 0.13277921588729349 0.48736211967693699 0 0.1419079572256062 0.48268314357009851 0 0.12399737273572981 0.47775564630573131 0 0.13712348052998749 0.46912215481768388 0 0.1419079572256062 0.48268314357009851 0 0.1223150243434533 0.48484687527057319 0 0.12399737273572981 0.47775564630573131 0 0.13277921588729349 0.48736211967693699 0 0.12399494187461731 0.49057829056642988 0 0.13277921588729349 0.48736211967693699 0 0.1280234546636442 0.49751198108980688 0 0.1197345792227095 0.50000000000000022 0 0.1280234546636442 0.49751198108980688 0 0.13858522516818181 0.50000000000000022 0 0.12399494187461731 0.49057829056642988 0 0.1223150243434533 0.48484687527057319 0 0.13277921588729349 0.48736211967693699 0 0.1280234546636442 0.49751198108980688 0 0.13858522516818181 0.50000000000000022 0 0.15479837916745809 0.48947512265717719 0 0.13277921588729349 0.48736211967693699 0 0.1280234546636442 0.49751198108980688 0 0.15479837916745809 0.48947512265717719 0 0.1280234546636442 0.49751198108980688 0 0.13858522516818181 0.50000000000000022 0 0.1280234546636442 0.49751198108980688 0 0.15479837916745809 0.48947512265717719 0 0.13277921588729349 0.48736211967693699 0 0.15479837916745809 0.48947512265717719 0 0.1419079572256062 0.48268314357009851 0 0.1660127030879566 0.5 0 0.13858522516818181 0.50000000000000022 0 0.15479837916745809 0.48947512265717719 0 0.15991701174573841 0.48793869534084888 0 0.1419079572256062 0.48268314357009851 0 0.15991701174573841 0.48793869534084888 0 0.15479837916745809 0.48947512265717719 0 0.1419079572256062 0.48268314357009851 0 0.15991701174573841 0.48793869534084888 0 0.15760257922700929 0.47229036712288369 0 0.14887248800612529 0.47518494768971131 0 0.15991701174573841 0.48793869534084888 0 0.14887248800612529 0.47518494768971131 0 0.1419079572256062 0.48268314357009851 0 0.15760257922700929 0.47229036712288369 0 0.15014176598683779 0.46509218911365341 0 0.14887248800612529 0.47518494768971131 0 0.13712348052998749 0.46912215481768388 0 0.14887248800612529 0.47518494768971131 0 0.1419079572256062 0.48268314357009851 0 0.15014176598683779 0.46509218911365341 0 0.13712348052998749 0.46912215481768388 0 0.14887248800612529 0.47518494768971131 0 0.35263846407814059 0.48368543870321068 0 0.36903060901715601 0.5 0 0.32769763283348291 0.5 0 0.35263846407814059 0.48368543870321068 0 0.34553963170071372 0.4721154286718468 0 0.36439821132078892 0.47232405788500409 0 0.35263846407814059 0.48368543870321068 0 0.34553963170071372 0.4721154286718468 0 0.33633607026664541 0.48175602694167469 0 0.35263846407814059 0.48368543870321068 0 0.36903060901715601 0.5 0 0.36439821132078892 0.47232405788500409 0 0.36903060901715601 0.5 0 0.36439821132078892 0.47232405788500409 0 0.38276930030154988 0.47710752476068918 0 0.36439821132078892 0.47232405788500409 0 0.37472264026712959 0.46185703892081009 0 0.38276930030154988 0.47710752476068918 0 0.36439821132078892 0.47232405788500409 0 0.37472264026712959 0.46185703892081009 0 0.36464005111105913 0.45635270584987031 0 0.36439821132078892 0.47232405788500409 0 0.36464005111105913 0.45635270584987031 0 0.35282819386335562 0.46128182411974011 0 0.37472264026712959 0.46185703892081009 0 0.36464005111105913 0.45635270584987031 0 0.37627041262828298 0.44695832522674428 0 0.36343206925918642 0.44390988699626921 0 0.37156008541952368 0.43516143078289199 0 0.37627041262828298 0.44695832522674428 0 0.36464005111105913 0.45635270584987031 0 0.36343206925918642 0.44390988699626921 0 0.37627041262828298 0.44695832522674428 0 0.36464005111105913 0.45635270584987031 0 0.36343206925918642 0.44390988699626921 0 0.35618877932761139 0.45178510195065419 0 0.36343206925918642 0.44390988699626921 0 0.36152889598394711 0.43391893951818389 0 0.37156008541952368 0.43516143078289199 0 0.34851204990070939 0.45214291423709763 0 0.34363336442483822 0.46000475597635371 0 0.33948218256285728 0.44335645859440859 0 0.36343206925918642 0.44390988699626921 0 0.35222552074897989 0.4425644811531203 0 0.36152889598394711 0.43391893951818389 0 0.36343206925918642 0.44390988699626921 0 0.35222552074897989 0.4425644811531203 0 0.35618877932761139 0.45178510195065419 0 0.35222552074897989 0.4425644811531203 0 0.35618877932761139 0.45178510195065419 0 0.34851204990070939 0.45214291423709763 0 0.35222552074897989 0.4425644811531203 0 0.34851204990070939 0.45214291423709763 0 0.33948218256285728 0.44335645859440859 0 0.35222552074897989 0.4425644811531203 0 0.33948218256285728 0.44335645859440859 0 0.34916694671533127 0.43042675248831341 0 0.34553963170071372 0.4721154286718468 0 0.36439821132078892 0.47232405788500409 0 0.35282819386335562 0.46128182411974011 0 0.35618877932761139 0.45178510195065419 0 0.34851204990070939 0.45214291423709763 0 0.35282819386335562 0.46128182411974011 0 0.36464005111105913 0.45635270584987031 0 0.35618877932761139 0.45178510195065419 0 0.35282819386335562 0.46128182411974011 0 0.34851204990070939 0.45214291423709763 0 0.35282819386335562 0.46128182411974011 0 0.34363336442483822 0.46000475597635371 0 0.34553963170071372 0.4721154286718468 0 0.35282819386335562 0.46128182411974011 0 0.34363336442483822 0.46000475597635371 0 0.33948218256285728 0.44335645859440859 0 0.33356973843395971 0.47059914708505762 0 0.34553963170071372 0.4721154286718468 0 0.34363336442483822 0.46000475597635371 0 0.33356973843395971 0.47059914708505762 0 0.34363336442483822 0.46000475597635371 0 0.33948218256285728 0.44335645859440859 0 0.33356973843395971 0.47059914708505762 0 0.33948218256285728 0.44335645859440859 0 0.32150652785547629 0.46735497097653522 0 0.33948218256285728 0.44335645859440859 0 0.32150652785547629 0.46735497097653522 0 0.33356973843395971 0.47059914708505762 0 0.33948218256285728 0.44335645859440859 0 0.32495171500007258 0.44306470341757698 0 0.34140965013187979 0.43447529246175698 0 0.32495171500007258 0.44306470341757698 0 0.34140965013187979 0.43447529246175698 0 0.33948218256285728 0.44335645859440859 0 0.32495171500007258 0.44306470341757698 0 0.3210317331692486 0.46250470898946328 0 0.33948218256285728 0.44335645859440859 0 0.34140965013187979 0.43447529246175698 0 0.32495171500007258 0.44306470341757698 0 0.3210317331692486 0.46250470898946328 0 0.30915370085112859 0.44187241092927732 0 0.32495171500007258 0.44306470341757698 0 0.30915370085112859 0.44187241092927732 0 0.31532519964112737 0.42757557554631448 0 0.3210317331692486 0.46250470898946328 0 0.30915370085112859 0.44187241092927732 0 0.33948218256285728 0.44335645859440859 0 0.3210317331692486 0.46250470898946328 0 0.32150652785547629 0.46735497097653522 0 0.3210317331692486 0.46250470898946328 0 0.32150652785547629 0.46735497097653522 0 0.30007559445408882 0.4488714862540461 0 0.32150652785547629 0.46735497097653522 0 0.32376963668124409 0.46930682891118342 0 0.32709366503836051 0.47734375208107133 0 0.32376963668124409 0.46930682891118342 0 0.30928044149865602 0.48367748548827022 0 0.32150652785547629 0.46735497097653522 0 0.30928044149865602 0.48367748548827022 0 0.32709366503836051 0.47734375208107133 0 0.32603382596799868 0.48553766285521882 0 0.30928044149865602 0.48367748548827022 0 0.32150652785547629 0.46735497097653522 0 0.32376963668124409 0.46930682891118342 0 0.30928044149865602 0.48367748548827022 0 0.32150652785547629 0.46735497097653522 0 0.32376963668124409 0.46930682891118342 0 0.33356973843395971 0.47059914708505762 0 0.32709366503836051 0.47734375208107133 0 0.32376963668124409 0.46930682891118342 0 0.33356973843395971 0.47059914708505762 0 0.32709366503836051 0.47734375208107133 0 0.33633607026664541 0.48175602694167469 0 0.32603382596799868 0.48553766285521882 0 0.32709366503836051 0.47734375208107133 0 0.33356973843395971 0.47059914708505762 0 0.33633607026664541 0.48175602694167469 0 0.34553963170071372 0.4721154286718468 0 0.33356973843395971 0.47059914708505762 0 0.33633607026664541 0.48175602694167469 0 0.35263846407814059 0.48368543870321068 0 0.33633607026664541 0.48175602694167469 0 0.32769763283348291 0.5 0 0.33633607026664541 0.48175602694167469 0 0.32769763283348291 0.5 0 0.32603382596799868 0.48553766285521882 0 0.32769763283348291 0.5 0 0.32603382596799868 0.48553766285521882 0 0.30928044149865602 0.48367748548827022 0 0.29705435514183282 0.500000000000003 0 0.30928044149865602 0.48367748548827022 0 0.32769763283348291 0.5 0 0.29705435514183282 0.500000000000003 0 0.30928044149865602 0.48367748548827022 0 0.29705435514183282 0.500000000000003 0 0.30928044149865602 0.48367748548827022 0 0.29103792898816339 0.48592144532293202 0 0.30928044149865602 0.48367748548827022 0 0.29643560333766589 0.46913374061586449 0 0.29103792898816339 0.48592144532293202 0 0.32150652785547629 0.46735497097653522 0 0.30928044149865602 0.48367748548827022 0 0.29643560333766589 0.46913374061586449 0 0.29643560333766589 0.46913374061586449 0 0.29103792898816339 0.48592144532293202 0 0.27669663019560481 0.47679600051051979 0 0.29705435514183282 0.500000000000003 0 0.29103792898816339 0.48592144532293202 0 0.27572261476705628 0.50000000000000133 0 0.27572261476705628 0.50000000000000133 0 0.27669663019560481 0.47679600051051979 0 0.25760507754760792 0.47840190179457859 0 0.29103792898816339 0.48592144532293202 0 0.27572261476705628 0.50000000000000133 0 0.27669663019560481 0.47679600051051979 0 0.27572261476705628 0.50000000000000133 0 0.27669663019560481 0.47679600051051979 0 0.27669663019560481 0.47679600051051979 0 0.25760507754760792 0.47840190179457859 0 0.27767064562415322 0.45359200102103819 0 0.24829513684728141 0.5 0 0.27572261476705628 0.50000000000000133 0 0.25760507754760792 0.47840190179457859 0 0.2503723475550752 0.46066059636627121 0 0.27767064562415322 0.45359200102103819 0 0.26668446615578989 0.44102389028441302 0 0.2503723475550752 0.46066059636627121 0 0.26668446615578989 0.44102389028441302 0 0.251688116757742 0.43543122577928522 0 0.25760507754760792 0.47840190179457859 0 0.2503723475550752 0.46066059636627121 0 0.27767064562415322 0.45359200102103819 0 0.27669663019560481 0.47679600051051979 0 0.27767064562415322 0.45359200102103819 0 0.27767064562415322 0.45359200102103819 0 0.27864466105270153 0.43038800153155682 0 0.27767064562415322 0.45359200102103819 0 0.26668446615578989 0.44102389028441302 0 0.27864466105270153 0.43038800153155682 0 0.30007559445408882 0.4488714862540461 0 0.29492551134899953 0.43344335466547279 0 0.27864466105270153 0.43038800153155682 0 0.27767064562415322 0.45359200102103819 0 0.30007559445408882 0.4488714862540461 0 0.27864466105270153 0.43038800153155682 0 0.30007559445408882 0.4488714862540461 0 0.27864466105270153 0.43038800153155682 0 0.29643560333766589 0.46913374061586449 0 0.27767064562415322 0.45359200102103819 0 0.30007559445408882 0.4488714862540461 0 0.29643560333766589 0.46913374061586449 0 0.27669663019560481 0.47679600051051979 0 0.27767064562415322 0.45359200102103819 0 0.32150652785547629 0.46735497097653522 0 0.30007559445408882 0.4488714862540461 0 0.32150652785547629 0.46735497097653522 0 0.29643560333766589 0.46913374061586449 0 0.30007559445408882 0.4488714862540461 0 0.3210317331692486 0.46250470898946328 0 0.30007559445408882 0.4488714862540461 0 0.30915370085112859 0.44187241092927732 0 0.30007559445408882 0.4488714862540461 0 0.30915370085112859 0.44187241092927732 0 0.29492551134899953 0.43344335466547279 0 0.30915370085112859 0.44187241092927732 0 0.29727566853300852 0.42124011286909119 0 0.29492551134899953 0.43344335466547279 0 0.30915370085112859 0.44187241092927732 0 0.29727566853300852 0.42124011286909119 0 0.31532519964112737 0.42757557554631448 0 0.30915370085112859 0.44187241092927732 0 0.29727566853300852 0.42124011286909119 0 0.31097331250974652 0.41174786302432442 0 0.29727566853300852 0.42124011286909119 0 0.29979739280685253 0.40439478968912362 0 0.31097331250974652 0.41174786302432442 0 0.29727566853300852 0.42124011286909119 0 0.31532519964112737 0.42757557554631448 0 0.29727566853300852 0.42124011286909119 0 0.28539763621488839 0.40060781480890512 0 0.29979739280685253 0.40439478968912362 0 0.29727566853300852 0.42124011286909119 0 0.28539763621488839 0.40060781480890512 0 0.28571486580708788 0.42124117882993162 0 0.27943607946475879 0.41153401637783971 0 0.28539763621488839 0.40060781480890512 0 0.29727566853300852 0.42124011286909119 0 0.28571486580708788 0.42124117882993162 0 0.28539763621488839 0.40060781480890512 0 0.28571486580708788 0.42124117882993162 0 0.27864466105270153 0.43038800153155682 0 0.27943607946475879 0.41153401637783971 0 0.28571486580708788 0.42124117882993162 0 0.29492551134899953 0.43344335466547279 0 0.27864466105270153 0.43038800153155682 0 0.29727566853300852 0.42124011286909119 0 0.28571486580708788 0.42124117882993162 0 0.29492551134899953 0.43344335466547279 0 0.26668446615578989 0.44102389028441302 0 0.27864466105270153 0.43038800153155682 0 0.27544818717938579 0.42763114652684642 0 0.27864466105270153 0.43038800153155682 0 0.27544818717938579 0.42763114652684642 0 0.27943607946475879 0.41153401637783971 0 0.27864466105270153 0.43038800153155682 0 0.27544818717938579 0.42763114652684642 0 0.27544818717938579 0.42763114652684642 0 0.27943607946475879 0.41153401637783971 0 0.27254169443777959 0.4183685499920321 0 0.27544818717938579 0.42763114652684642 0 0.27254169443777959 0.4183685499920321 0 0.25815048972283039 0.41271244370208671 0 0.27544818717938579 0.42763114652684642 0 0.25815048972283039 0.41271244370208671 0 0.27864466105270153 0.43038800153155682 0 0.27943607946475879 0.41153401637783971 0 0.27943607946475879 0.41153401637783971 0 0.27078196806366123 0.41050017349077528 0 0.27021985131433729 0.4021722006486671 0 0.27943607946475879 0.41153401637783971 0 0.27078196806366123 0.41050017349077528 0 0.27254169443777959 0.4183685499920321 0 0.27078196806366123 0.41050017349077528 0 0.25815048972283039 0.41271244370208671 0 0.27021985131433729 0.4021722006486671 0 0.27078196806366123 0.41050017349077528 0 0.27254169443777959 0.4183685499920321 0 0.25815048972283039 0.41271244370208671 0 0.24248843447532109 0.41326986217469119 0 0.25815048972283039 0.41271244370208671 0 0.251688116757742 0.43543122577928522 0 0.27544818717938579 0.42763114652684642 0 0.251688116757742 0.43543122577928522 0 0.26668446615578989 0.44102389028441302 0 0.27544818717938579 0.42763114652684642 0 0.251688116757742 0.43543122577928522 0 0.27544818717938579 0.42763114652684642 0 0.25815048972283039 0.41271244370208671 0 0.251688116757742 0.43543122577928522 0 0.245295227055075 0.38280585108560827 0 0.26066345712785771 0.39391605678605002 0 0.27351960389676611 0.37997551674872021 0 0.245295227055075 0.38280585108560827 0 0.26239491884529309 0.37692961956979082 0 0.27351960389676611 0.37997551674872021 0 0.245295227055075 0.38280585108560827 0 0.26239491884529309 0.37692961956979082 0 0.25142039725092957 0.37655114140978863 0 0.245295227055075 0.38280585108560827 0 0.27351960389676611 0.37997551674872021 0 0.26239491884529309 0.37692961956979082 0 0.25142039725092957 0.37655114140978863 0 0.25834993716373061 0.37418453293975129 0 0.245295227055075 0.38280585108560827 0 0.25007708032583348 0.39237551745951882 0 0.26066345712785771 0.39391605678605002 0 0.25815048972283039 0.41271244370208671 0 0.26066345712785771 0.39391605678605002 0 0.27021985131433729 0.4021722006486671 0 0.25815048972283039 0.41271244370208671 0 0.25007708032583348 0.39237551745951882 0 0.26066345712785771 0.39391605678605002 0 0.27943607946475879 0.41153401637783971 0 0.27021985131433729 0.4021722006486671 0 0.28068272691517548 0.39241795546242098 0 0.26066345712785771 0.39391605678605002 0 0.27166114124435758 0.39208992565366318 0 0.27021985131433729 0.4021722006486671 0 0.27943607946475879 0.41153401637783971 0 0.28068272691517548 0.39241795546242098 0 0.27166114124435758 0.39208992565366318 0 0.27021985131433729 0.4021722006486671 0 0.28068272691517548 0.39241795546242098 0 0.28068272691517548 0.39241795546242098 0 0.27351960389676611 0.37997551674872021 0 0.28781678709037539 0.38801973720523952 0 0.28068272691517548 0.39241795546242098 0 0.27351960389676611 0.37997551674872021 0 0.27166114124435758 0.39208992565366318 0 0.28068272691517548 0.39241795546242098 0 0.27351960389676611 0.37997551674872021 0 0.26066345712785771 0.39391605678605002 0 0.27166114124435758 0.39208992565366318 0 0.27351960389676611 0.37997551674872021 0 0.26239491884529309 0.37692961956979082 0 0.26917928519803269 0.37724862686579541 0 0.27351960389676611 0.37997551674872021 0 0.26239491884529309 0.37692961956979082 0 0.26917928519803269 0.37724862686579541 0 0.26830797942023471 0.37389423251938941 0 0.27249463862983708 0.37819513862528159 0 0.27351960389676611 0.37997551674872021 0 0.26917928519803269 0.37724862686579541 0 0.27249463862983708 0.37819513862528159 0 0.27351960389676611 0.37997551674872021 0 0.26917928519803269 0.37724862686579541 0 0.27249463862983708 0.37819513862528159 0 0.26830797942023471 0.37389423251938941 0 0.27249463862983708 0.37819513862528159 0 0.27351960389676611 0.37997551674872021 0 0.2801954278592354 0.36788226301559329 0 0.27351960389676611 0.37997551674872021 0 0.29567686667290638 0.37775359128342262 0 0.2801954278592354 0.36788226301559329 0 0.27351960389676611 0.37997551674872021 0 0.29567686667290638 0.37775359128342262 0 0.29567686667290638 0.37775359128342262 0 0.28781678709037539 0.38801973720523952 0 0.29594530071756492 0.39374922287009728 0 0.27351960389676611 0.37997551674872021 0 0.29567686667290638 0.37775359128342262 0 0.28781678709037539 0.38801973720523952 0 0.27943607946475879 0.41153401637783971 0 0.28068272691517548 0.39241795546242098 0 0.28539763621488839 0.40060781480890512 0 0.28068272691517548 0.39241795546242098 0 0.28539763621488839 0.40060781480890512 0 0.28068272691517548 0.39241795546242098 0 0.28781678709037539 0.38801973720523952 0 0.28539763621488839 0.40060781480890512 0 0.28781678709037539 0.38801973720523952 0 0.28539763621488839 0.40060781480890512 0 0.29594530071756492 0.39374922287009728 0 0.28539763621488839 0.40060781480890512 0 0.29594530071756492 0.39374922287009728 0 0.29979739280685253 0.40439478968912362 0 0.31097331250974652 0.41174786302432442 0 0.29979739280685253 0.40439478968912362 0 0.31002954998428639 0.39491585739063673 0 0.29594530071756492 0.39374922287009728 0 0.29979739280685253 0.40439478968912362 0 0.31002954998428639 0.39491585739063673 0 0.29567686667290638 0.37775359128342262 0 0.31002954998428639 0.39491585739063673 0 0.31783412944904649 0.37553166581812392 0 0.29567686667290638 0.37775359128342262 0 0.31783412944904649 0.37553166581812392 0 0.29567686667290638 0.37775359128342262 0 0.29594530071756492 0.39374922287009728 0 0.31002954998428639 0.39491585739063673 0 0.31002954998428639 0.39491585739063673 0 0.31783412944904649 0.37553166581812392 0 0.33189046331220601 0.39476307917841702 0 0.31783412944904649 0.37553166581812392 0 0.33189046331220601 0.39476307917841702 0 0.33999139222518671 0.37330974035282533 0 0.33189046331220601 0.39476307917841702 0 0.35177940500103699 0.386694713826921 0 0.33999139222518671 0.37330974035282533 0 0.33189046331220601 0.39476307917841702 0 0.32190137555126708 0.40658460228003301 0 0.33200455357330882 0.41570387710326667 0 0.33189046331220601 0.39476307917841702 0 0.3465945275664587 0.4105850031443391 0 0.35177940500103699 0.386694713826921 0 0.31002954998428639 0.39491585739063673 0 0.33189046331220601 0.39476307917841702 0 0.32190137555126708 0.40658460228003301 0 0.31097331250974652 0.41174786302432442 0 0.31002954998428639 0.39491585739063673 0 0.32190137555126708 0.40658460228003301 0 0.31097331250974652 0.41174786302432442 0 0.32217232403792739 0.41864308367512942 0 0.32190137555126708 0.40658460228003301 0 0.31097331250974652 0.41174786302432442 0 0.32217232403792739 0.41864308367512942 0 0.31532519964112737 0.42757557554631448 0 0.32217232403792739 0.41864308367512942 0 0.32805898084011381 0.42917220187992522 0 0.33200455357330882 0.41570387710326667 0 0.32217232403792739 0.41864308367512942 0 0.32190137555126708 0.40658460228003301 0 0.33200455357330882 0.41570387710326667 0 0.32217232403792739 0.41864308367512942 0 0.31532519964112737 0.42757557554631448 0 0.32805898084011381 0.42917220187992522 0 0.32495171500007258 0.44306470341757698 0 0.31532519964112737 0.42757557554631448 0 0.32805898084011381 0.42917220187992522 0 0.32805898084011381 0.42917220187992522 0 0.34140965013187979 0.43447529246175698 0 0.33200455357330882 0.41570387710326667 0 0.32495171500007258 0.44306470341757698 0 0.32805898084011381 0.42917220187992522 0 0.34140965013187979 0.43447529246175698 0 0.33948218256285728 0.44335645859440859 0 0.34140965013187979 0.43447529246175698 0 0.34916694671533127 0.43042675248831341 0 0.33189046331220601 0.39476307917841702 0 0.33200455357330882 0.41570387710326667 0 0.3465945275664587 0.4105850031443391 0 0.34140965013187979 0.43447529246175698 0 0.33200455357330882 0.41570387710326667 0 0.3465945275664587 0.4105850031443391 0 0.35752449792488461 0.41521426553254559 0 0.3465945275664587 0.4105850031443391 0 0.3625374519891561 0.40146012812044191 0 0.35752449792488461 0.41521426553254559 0 0.3465945275664587 0.4105850031443391 0 0.34916694671533127 0.43042675248831341 0 0.34140965013187979 0.43447529246175698 0 0.3465945275664587 0.4105850031443391 0 0.34140965013187979 0.43447529246175698 0 0.3465945275664587 0.4105850031443391 0 0.34916694671533127 0.43042675248831341 0 0.33948218256285728 0.44335645859440859 0 0.34916694671533127 0.43042675248831341 0 0.34140965013187979 0.43447529246175698 0 0.34916694671533127 0.43042675248831341 0 0.35222552074897989 0.4425644811531203 0 0.34916694671533127 0.43042675248831341 0 0.36152889598394711 0.43391893951818389 0 0.34916694671533127 0.43042675248831341 0 0.36152889598394711 0.43391893951818389 0 0.37151639960737531 0.41876255318323158 0 0.36152889598394711 0.43391893951818389 0 0.37156008541952368 0.43516143078289199 0 0.37151639960737531 0.41876255318323158 0 0.34916694671533127 0.43042675248831341 0 0.37151639960737531 0.41876255318323158 0 0.37151639960737531 0.41876255318323158 0 0.3625374519891561 0.40146012812044191 0 0.37798391607034459 0.40349356389224378 0 0.35752449792488461 0.41521426553254559 0 0.34916694671533127 0.43042675248831341 0 0.37151639960737531 0.41876255318323158 0 0.35752449792488461 0.41521426553254559 0 0.37151639960737531 0.41876255318323158 0 0.3625374519891561 0.40146012812044191 0 0.3625374519891561 0.40146012812044191 0 0.37435230135160857 0.39153951262079129 0 0.37798391607034459 0.40349356389224378 0 0.3625374519891561 0.40146012812044191 0 0.37435230135160857 0.39153951262079129 0 0.36570750737500418 0.38172864816563712 0 0.37435230135160857 0.39153951262079129 0 0.36570750737500418 0.38172864816563712 0 0.37827907591097348 0.37394343728619989 0 0.3625374519891561 0.40146012812044191 0 0.36570750737500418 0.38172864816563712 0 0.35177940500103699 0.386694713826921 0 0.36570750737500418 0.38172864816563712 0 0.35177940500103699 0.386694713826921 0 0.35696428243561529 0.3628044245095029 0 0.3465945275664587 0.4105850031443391 0 0.3625374519891561 0.40146012812044191 0 0.35177940500103699 0.386694713826921 0 0.3465945275664587 0.4105850031443391 0 0.35177940500103699 0.386694713826921 0 0.35696428243561529 0.3628044245095029 0 0.36025280546379612 0.33517156888256711 0 0.33734715662538162 0.34967196336228162 0 0.35177940500103699 0.386694713826921 0 0.35696428243561529 0.3628044245095029 0 0.33999139222518671 0.37330974035282533 0 0.35696428243561529 0.3628044245095029 0 0.33734715662538162 0.34967196336228162 0 0.33999139222518671 0.37330974035282533 0 0.35177940500103699 0.386694713826921 0 0.35696428243561529 0.3628044245095029 0 0.36570750737500418 0.38172864816563712 0 0.35696428243561529 0.3628044245095029 0 0.37827907591097348 0.37394343728619989 0 0.35696428243561529 0.3628044245095029 0 0.37150169921618531 0.35137921658423282 0 0.37827907591097348 0.37394343728619989 0 0.35696428243561529 0.3628044245095029 0 0.37150169921618531 0.35137921658423282 0 0.36025280546379612 0.33517156888256711 0 0.37150169921618531 0.35137921658423282 0 0.36025280546379612 0.33517156888256711 0 0.38270513771793641 0.33215206621442112 0 0.36025280546379612 0.33517156888256711 0 0.35685820307866872 0.30945761889153489 0 0.37724880867256738 0.30797586350392542 0 0.36025280546379612 0.33517156888256711 0 0.37724880867256738 0.30797586350392542 0 0.38270513771793641 0.33215206621442112 0 0.36025280546379612 0.33517156888256711 0 0.34186684640199583 0.32887830075810931 0 0.35685820307866872 0.30945761889153489 0 0.36025280546379612 0.33517156888256711 0 0.34186684640199583 0.32887830075810931 0 0.33734715662538162 0.34967196336228162 0 0.34186684640199583 0.32887830075810931 0 0.31950117804325229 0.33406547842574608 0 0.33734715662538162 0.34967196336228162 0 0.34186684640199583 0.32887830075810931 0 0.32802778303437907 0.31527737662774841 0 0.35685820307866872 0.30945761889153489 0 0.34186684640199583 0.32887830075810931 0 0.32802778303437907 0.31527737662774841 0 0.31950117804325229 0.33406547842574608 0 0.32802778303437907 0.31527737662774841 0 0.29919736299008959 0.32109713436396192 0 0.32802778303437907 0.31527737662774841 0 0.31950117804325229 0.33406547842574608 0 0.29919736299008959 0.32109713436396192 0 0.31950117804325229 0.33406547842574608 0 0.31338769626685697 0.35043594600498718 0 0.33734715662538162 0.34967196336228162 0 0.31338769626685697 0.35043594600498718 0 0.33734715662538162 0.34967196336228162 0 0.32640958814472332 0.3622218159436032 0 0.31783412944904649 0.37553166581812392 0 0.33999139222518671 0.37330974035282533 0 0.33734715662538162 0.34967196336228162 0 0.33999139222518671 0.37330974035282533 0 0.32640958814472332 0.3622218159436032 0 0.31783412944904649 0.37553166581812392 0 0.33999139222518671 0.37330974035282533 0 0.32640958814472332 0.3622218159436032 0 0.31783412944904649 0.37553166581812392 0 0.32640958814472332 0.3622218159436032 0 0.30564303300851298 0.36554901587939159 0 0.31338769626685697 0.35043594600498718 0 0.32640958814472332 0.3622218159436032 0 0.30564303300851298 0.36554901587939159 0 0.29567686667290638 0.37775359128342262 0 0.30564303300851298 0.36554901587939159 0 0.29335608332756968 0.35568458483854348 0 0.29567686667290638 0.37775359128342262 0 0.31783412944904649 0.37553166581812392 0 0.30564303300851298 0.36554901587939159 0 0.31338769626685697 0.35043594600498718 0 0.29335608332756968 0.35568458483854348 0 0.29718022294081109 0.33903214943738852 0 0.31338769626685697 0.35043594600498718 0 0.30564303300851298 0.36554901587939159 0 0.29335608332756968 0.35568458483854348 0 0.29335608332756968 0.35568458483854348 0 0.28194994668015738 0.34438764150439399 0 0.29718022294081109 0.33903214943738852 0 0.29335608332756968 0.35568458483854348 0 0.28194994668015738 0.34438764150439399 0 0.28025773426081291 0.35580044610356337 0 0.29567686667290638 0.37775359128342262 0 0.29335608332756968 0.35568458483854348 0 0.2801954278592354 0.36788226301559329 0 0.29335608332756968 0.35568458483854348 0 0.2801954278592354 0.36788226301559329 0 0.28025773426081291 0.35580044610356337 0 0.27249463862983708 0.37819513862528159 0 0.2801954278592354 0.36788226301559329 0 0.27293956575688322 0.36874112332497921 0 0.27249463862983708 0.37819513862528159 0 0.27293956575688322 0.36874112332497921 0 0.26830797942023471 0.37389423251938941 0 0.27293956575688322 0.36874112332497921 0 0.26726488907382773 0.36951693215802828 0 0.26830797942023471 0.37389423251938941 0 0.26726488907382773 0.36951693215802828 0 0.26830797942023471 0.37389423251938941 0 0.26192927255472359 0.37062351937439297 0 0.27293956575688322 0.36874112332497921 0 0.27350538574587052 0.36047677003542222 0 0.2646933406860964 0.36191625852985088 0 0.27293956575688322 0.36874112332497921 0 0.26726488907382773 0.36951693215802828 0 0.2646933406860964 0.36191625852985088 0 0.2801954278592354 0.36788226301559329 0 0.27350538574587052 0.36047677003542222 0 0.28025773426081291 0.35580044610356337 0 0.2801954278592354 0.36788226301559329 0 0.27293956575688322 0.36874112332497921 0 0.27350538574587052 0.36047677003542222 0 0.27350538574587052 0.36047677003542222 0 0.28025773426081291 0.35580044610356337 0 0.27228182769123133 0.35057097112386398 0 0.27228182769123133 0.35057097112386398 0 0.2646933406860964 0.36191625852985088 0 0.2612742502626878 0.34195882196054928 0 0.28194994668015738 0.34438764150439399 0 0.27228182769123133 0.35057097112386398 0 0.2730344821003558 0.33862398375575919 0 0.28194994668015738 0.34438764150439399 0 0.28025773426081291 0.35580044610356337 0 0.27228182769123133 0.35057097112386398 0 0.27350538574587052 0.36047677003542222 0 0.27228182769123133 0.35057097112386398 0 0.2646933406860964 0.36191625852985088 0 0.25335459622779249 0.35202689044311691 0 0.25030429400542209 0.36146110213964461 0 0.2612742502626878 0.34195882196054928 0 0.25030429400542209 0.36146110213964461 0 0.2646933406860964 0.36191625852985088 0 0.2612742502626878 0.34195882196054928 0 0.25030429400542209 0.36146110213964461 0 0.2612742502626878 0.34195882196054928 0 0.25030429400542209 0.36146110213964461 0 0.2646933406860964 0.36191625852985088 0 0.25800736091712723 0.36670202101566518 0 0.25030429400542209 0.36146110213964461 0 0.25447401943894438 0.36957141166756902 0 0.25800736091712723 0.36670202101566518 0 0.24896054609932669 0.37109941323554652 0 0.25030429400542209 0.36146110213964461 0 0.25447401943894438 0.36957141166756902 0 0.24896054609932669 0.37109941323554652 0 0.25142039725092957 0.37655114140978863 0 0.25447401943894438 0.36957141166756902 0 0.25142039725092957 0.37655114140978863 0 0.25447401943894438 0.36957141166756902 0 0.25834993716373061 0.37418453293975129 0 0.26726488907382773 0.36951693215802828 0 0.26192927255472359 0.37062351937439297 0 0.2646933406860964 0.36191625852985088 0 0.25447401943894438 0.36957141166756902 0 0.26192927255472359 0.37062351937439297 0 0.25800736091712723 0.36670202101566518 0 0.26239491884529309 0.37692961956979082 0 0.25834993716373061 0.37418453293975129 0 0.26192927255472359 0.37062351937439297 0 0.25447401943894438 0.36957141166756902 0 0.25834993716373061 0.37418453293975129 0 0.26192927255472359 0.37062351937439297 0 0.26239491884529309 0.37692961956979082 0 0.26830797942023471 0.37389423251938941 0 0.26192927255472359 0.37062351937439297 0 0.26192927255472359 0.37062351937439297 0 0.2646933406860964 0.36191625852985088 0 0.25800736091712723 0.36670202101566518 0 0.25526367536650069 0.32053136070375321 0 0.25606395296601869 0.33142741492329331 0 0.26829524191285459 0.31860013410602961 0 0.25606395296601869 0.33142741492329331 0 0.26829524191285459 0.31860013410602961 0 0.25606395296601869 0.33142741492329331 0 0.26694056354374168 0.3288998718659415 0 0.26829524191285459 0.31860013410602961 0 0.25911307558366442 0.31320357626744072 0 0.26829524191285459 0.31860013410602961 0 0.26422323395388653 0.30807458031033508 0 0.25911307558366442 0.31320357626744072 0 0.25526367536650069 0.32053136070375321 0 0.26829524191285459 0.31860013410602961 0 0.24893864919030859 0.31594094937848233 0 0.25911307558366442 0.31320357626744072 0 0.25526367536650069 0.32053136070375321 0 0.2457116025576585 0.3236052478594541 0 0.25526367536650069 0.32053136070375321 0 0.25606395296601869 0.33142741492329331 0 0.25606395296601869 0.33142741492329331 0 0.25127893477613811 0.34041357370461328 0 0.26694056354374168 0.3288998718659415 0 0.25335459622779249 0.35202689044311691 0 0.25127893477613811 0.34041357370461328 0 0.26694056354374168 0.3288998718659415 0 0.25335459622779249 0.35202689044311691 0 0.26694056354374168 0.3288998718659415 0 0.2440697518618784 0.33296775494587461 0 0.25606395296601869 0.33142741492329331 0 0.25127893477613811 0.34041357370461328 0 0.25335459622779249 0.35202689044311691 0 0.2612742502626878 0.34195882196054928 0 0.26694056354374168 0.3288998718659415 0 0.2612742502626878 0.34195882196054928 0 0.2698871000911684 0.32664698237283429 0 0.2612742502626878 0.34195882196054928 0 0.2730344821003558 0.33862398375575919 0 0.2698871000911684 0.32664698237283429 0 0.2612742502626878 0.34195882196054928 0 0.26694056354374168 0.3288998718659415 0 0.2698871000911684 0.32664698237283429 0 0.27228182769123133 0.35057097112386398 0 0.2612742502626878 0.34195882196054928 0 0.2730344821003558 0.33862398375575919 0 0.28194994668015738 0.34438764150439399 0 0.2730344821003558 0.33862398375575919 0 0.28413793133136162 0.33391737895558149 0 0.2730344821003558 0.33862398375575919 0 0.2698871000911684 0.32664698237283429 0 0.28413793133136162 0.33391737895558149 0 0.26694056354374168 0.3288998718659415 0 0.27224420651995351 0.32245654178145389 0 0.2805265308596907 0.30577285328876591 0 0.26694056354374168 0.3288998718659415 0 0.26829524191285459 0.31860013410602961 0 0.2805265308596907 0.30577285328876591 0 0.27224420651995351 0.32245654178145389 0 0.28219498452177122 0.31318237028840851 0 0.28321416277721961 0.30295426160235872 0 0.26694056354374168 0.3288998718659415 0 0.2805265308596907 0.30577285328876591 0 0.27224420651995351 0.32245654178145389 0 0.28321416277721961 0.30295426160235872 0 0.2698871000911684 0.32664698237283429 0 0.27224420651995351 0.32245654178145389 0 0.28316704925797248 0.31792699956179082 0 0.26694056354374168 0.3288998718659415 0 0.2698871000911684 0.32664698237283429 0 0.27224420651995351 0.32245654178145389 0 0.2698871000911684 0.32664698237283429 0 0.27224420651995351 0.32245654178145389 0 0.27224420651995351 0.32245654178145389 0 0.28316704925797248 0.31792699956179082 0 0.28219498452177122 0.31318237028840851 0 0.2698871000911684 0.32664698237283429 0 0.29919736299008959 0.32109713436396192 0 0.28316704925797248 0.31792699956179082 0 0.28219498452177122 0.31318237028840851 0 0.29015451953193888 0.30939167820803049 0 0.2698871000911684 0.32664698237283429 0 0.28413793133136162 0.33391737895558149 0 0.29919736299008959 0.32109713436396192 0 0.2698871000911684 0.32664698237283429 0 0.28316704925797248 0.31792699956179082 0 0.29919736299008959 0.32109713436396192 0 0.28316704925797248 0.31792699956179082 0 0.29919736299008959 0.32109713436396192 0 0.29015451953193888 0.30939167820803049 0 0.28413793133136162 0.33391737895558149 0 0.29718022294081109 0.33903214943738852 0 0.29919736299008959 0.32109713436396192 0 0.28194994668015738 0.34438764150439399 0 0.28413793133136162 0.33391737895558149 0 0.29718022294081109 0.33903214943738852 0 0.31950117804325229 0.33406547842574608 0 0.29718022294081109 0.33903214943738852 0 0.29919736299008959 0.32109713436396192 0 0.31950117804325229 0.33406547842574608 0 0.31338769626685697 0.35043594600498718 0 0.29718022294081109 0.33903214943738852 0 0.32802778303437907 0.31527737662774841 0 0.29919736299008959 0.32109713436396192 0 0.30981635111461642 0.3065395168645037 0 0.29919736299008959 0.32109713436396192 0 0.30981635111461642 0.3065395168645037 0 0.29920314177399632 0.30498030282098748 0 0.30981635111461642 0.3065395168645037 0 0.30353997395512627 0.29603837313795051 0 0.31911349381949039 0.29530439737187009 0 0.29784761896864342 0.29759622574888328 0 0.29920314177399632 0.30498030282098748 0 0.30353997395512627 0.29603837313795051 0 0.30981635111461642 0.3065395168645037 0 0.29920314177399632 0.30498030282098748 0 0.30353997395512627 0.29603837313795051 0 0.30984802019540519 0.28761311508632809 0 0.29641925913436168 0.28910572283197039 0 0.30962435549150352 0.27525718406158167 0 0.30984802019540519 0.28761311508632809 0 0.30353997395512627 0.29603837313795051 0 0.31911349381949039 0.29530439737187009 0 0.30984802019540519 0.28761311508632809 0 0.30353997395512627 0.29603837313795051 0 0.29641925913436168 0.28910572283197039 0 0.29784761896864342 0.29759622574888328 0 0.30353997395512627 0.29603837313795051 0 0.29641925913436168 0.28910572283197039 0 0.29641925913436168 0.28910572283197039 0 0.30962435549150352 0.27525718406158167 0 0.29641925913436168 0.28910572283197039 0 0.30015400292998878 0.28034708690549009 0 0.30962435549150352 0.27525718406158167 0 0.29140708011148297 0.28838897386648871 0 0.29641925913436168 0.28910572283197039 0 0.30015400292998878 0.28034708690549009 0 0.28941025286646821 0.28461294843607993 0 0.28938563945081658 0.29069223634044938 0 0.2919794491567923 0.28121843359307991 0 0.29140708011148297 0.28838897386648871 0 0.29851027786041562 0.27576097887558332 0 0.28938563945081658 0.29069223634044938 0 0.2919794491567923 0.28121843359307991 0 0.29851027786041562 0.27576097887558332 0 0.28938563945081658 0.29069223634044938 0 0.29851027786041562 0.27576097887558332 0 0.29140708011148297 0.28838897386648871 0 0.28938563945081658 0.29069223634044938 0 0.29851027786041562 0.27576097887558332 0 0.29140708011148297 0.28838897386648871 0 0.30015400292998878 0.28034708690549009 0 0.29851027786041562 0.27576097887558332 0 0.28941025286646821 0.28461294843607993 0 0.2919794491567923 0.28121843359307991 0 0.28959759121843048 0.28054344322512531 0 0.29784761896864342 0.29759622574888328 0 0.29641925913436168 0.28910572283197039 0 0.29222810101108931 0.30026050420462519 0 0.29641925913436168 0.28910572283197039 0 0.28321416277721961 0.30295426160235872 0 0.29140708011148297 0.28838897386648871 0 0.29641925913436168 0.28910572283197039 0 0.28321416277721961 0.30295426160235872 0 0.29140708011148297 0.28838897386648871 0 0.28321416277721961 0.30295426160235872 0 0.28938563945081658 0.29069223634044938 0 0.28500175483514989 0.29385124616225949 0 0.2805265308596907 0.30577285328876591 0 0.29140708011148297 0.28838897386648871 0 0.28938563945081658 0.29069223634044938 0 0.28321416277721961 0.30295426160235872 0 0.28209321125599218 0.29655074951119442 0 0.28253593249777198 0.29353978318545948 0 0.27944390847968448 0.29279266607126803 0 0.28209321125599218 0.29655074951119442 0 0.28253593249777198 0.29353978318545948 0 0.28500175483514989 0.29385124616225949 0 0.28500175483514989 0.29385124616225949 0 0.2836048554202612 0.29096447099711609 0 0.28662230493640162 0.2890125505153921 0 0.28253593249777198 0.29353978318545948 0 0.28500175483514989 0.29385124616225949 0 0.2836048554202612 0.29096447099711609 0 0.2836048554202612 0.29096447099711609 0 0.28126722504441859 0.28890735401930451 0 0.27944390847968448 0.29279266607126803 0 0.28253593249777198 0.29353978318545948 0 0.2836048554202612 0.29096447099711609 0 0.27944390847968448 0.29279266607126803 0 0.28938563945081658 0.29069223634044938 0 0.28500175483514989 0.29385124616225949 0 0.28662230493640162 0.2890125505153921 0 0.28941025286646821 0.28461294843607993 0 0.28938563945081658 0.29069223634044938 0 0.28833997242290033 0.28736296948293638 0 0.28938563945081658 0.29069223634044938 0 0.28833997242290033 0.28736296948293638 0 0.28662230493640162 0.2890125505153921 0 0.28833997242290033 0.28736296948293638 0 0.28693449694773221 0.28561694186610459 0 0.28662230493640162 0.2890125505153921 0 0.28941025286646821 0.28461294843607993 0 0.28833997242290033 0.28736296948293638 0 0.28693449694773221 0.28561694186610459 0 0.28693449694773221 0.28561694186610459 0 0.28409394682323857 0.28703203254725801 0 0.28448229638524031 0.28436095797444227 0 0.28693449694773221 0.28561694186610459 0 0.28662230493640162 0.2890125505153921 0 0.28409394682323857 0.28703203254725801 0 0.2836048554202612 0.29096447099711609 0 0.28126722504441859 0.28890735401930451 0 0.28409394682323857 0.28703203254725801 0 0.2836048554202612 0.29096447099711609 0 0.28662230493640162 0.2890125505153921 0 0.28409394682323857 0.28703203254725801 0 0.28126722504441859 0.28890735401930451 0 0.28409394682323857 0.28703203254725801 0 0.28090825696695781 0.28514214383721581 0 0.28409394682323857 0.28703203254725801 0 0.28448229638524031 0.28436095797444227 0 0.28090825696695781 0.28514214383721581 0 0.28448229638524031 0.28436095797444227 0 0.28366701105559589 0.28144624318939498 0 0.28090825696695781 0.28514214383721581 0 0.28448229638524031 0.28436095797444227 0 0.28366701105559589 0.28144624318939498 0 0.28680777013267678 0.28256742843223809 0 0.28941025286646821 0.28461294843607993 0 0.28680777013267678 0.28256742843223809 0 0.28959759121843048 0.28054344322512531 0 0.28693449694773221 0.28561694186610459 0 0.28448229638524031 0.28436095797444227 0 0.28680777013267678 0.28256742843223809 0 0.28941025286646821 0.28461294843607993 0 0.28693449694773221 0.28561694186610459 0 0.28680777013267678 0.28256742843223809 0 0.29919736299008959 0.32109713436396192 0 0.29920314177399632 0.30498030282098748 0 0.29015451953193888 0.30939167820803049 0 0.29920314177399632 0.30498030282098748 0 0.29015451953193888 0.30939167820803049 0 0.29222810101108931 0.30026050420462519 0 0.29784761896864342 0.29759622574888328 0 0.29920314177399632 0.30498030282098748 0 0.29222810101108931 0.30026050420462519 0 0.29641925913436168 0.28910572283197039 0 0.29222810101108931 0.30026050420462519 0 0.28321416277721961 0.30295426160235872 0 0.28938563945081658 0.29069223634044938 0 0.2805265308596907 0.30577285328876591 0 0.28938563945081658 0.29069223634044938 0 0.28321416277721961 0.30295426160235872 0 0.2805265308596907 0.30577285328876591 0 0.29015451953193888 0.30939167820803049 0 0.29222810101108931 0.30026050420462519 0 0.28321416277721961 0.30295426160235872 0 0.28209321125599218 0.29655074951119442 0 0.28500175483514989 0.29385124616225949 0 0.2805265308596907 0.30577285328876591 0 0.28321416277721961 0.30295426160235872 0 0.2805265308596907 0.30577285328876591 0 0.28219498452177122 0.31318237028840851 0 0.29015451953193888 0.30939167820803049 0 0.28321416277721961 0.30295426160235872 0 0.27224420651995351 0.32245654178145389 0 0.28321416277721961 0.30295426160235872 0 0.2805265308596907 0.30577285328876591 0 0.2805265308596907 0.30577285328876591 0 0.27156842467170389 0.30897262368546902 0 0.27528413935121482 0.30382544488093272 0 0.26829524191285459 0.31860013410602961 0 0.2805265308596907 0.30577285328876591 0 0.27156842467170389 0.30897262368546902 0 0.26829524191285459 0.31860013410602961 0 0.2805265308596907 0.30577285328876591 0 0.26829524191285459 0.31860013410602961 0 0.27156842467170389 0.30897262368546902 0 0.26422323395388653 0.30807458031033508 0 0.27156842467170389 0.30897262368546902 0 0.27034652026731409 0.30337713881935691 0 0.27528413935121482 0.30382544488093272 0 0.27156842467170389 0.30897262368546902 0 0.27034652026731409 0.30337713881935691 0 0.26422323395388653 0.30807458031033508 0 0.26964601490358769 0.2976768527696102 0 0.26387116689879142 0.29425163607354432 0 0.26445263044544037 0.3003880350366363 0 0.27034652026731409 0.30337713881935691 0 0.26964601490358769 0.2976768527696102 0 0.26445263044544037 0.3003880350366363 0 0.27034652026731409 0.30337713881935691 0 0.26422323395388653 0.30807458031033508 0 0.26445263044544037 0.3003880350366363 0 0.26964601490358769 0.2976768527696102 0 0.27476493374151278 0.29975039123946301 0 0.27413064477214999 0.29522187747406847 0 0.27034652026731409 0.30337713881935691 0 0.26964601490358769 0.2976768527696102 0 0.27476493374151278 0.29975039123946301 0 0.27476493374151278 0.29975039123946301 0 0.27770960021611008 0.29709607833170087 0 0.27413064477214999 0.29522187747406847 0 0.28209321125599218 0.29655074951119442 0 0.2805265308596907 0.30577285328876591 0 0.27832272699229521 0.30059800695756922 0 0.27476493374151278 0.29975039123946301 0 0.27770960021611008 0.29709607833170087 0 0.27832272699229521 0.30059800695756922 0 0.27476493374151278 0.29975039123946301 0 0.27528413935121482 0.30382544488093272 0 0.27832272699229521 0.30059800695756922 0 0.27034652026731409 0.30337713881935691 0 0.27476493374151278 0.29975039123946301 0 0.27528413935121482 0.30382544488093272 0 0.2805265308596907 0.30577285328876591 0 0.27528413935121482 0.30382544488093272 0 0.27832272699229521 0.30059800695756922 0 0.28209321125599218 0.29655074951119442 0 0.27770960021611008 0.29709607833170087 0 0.27832272699229521 0.30059800695756922 0 0.28209321125599218 0.29655074951119442 0 0.27770960021611008 0.29709607833170087 0 0.27944390847968448 0.29279266607126803 0 0.28126722504441859 0.28890735401930451 0 0.27944390847968448 0.29279266607126803 0 0.2782851575319511 0.28860545664366433 0 0.27944390847968448 0.29279266607126803 0 0.27409117204476208 0.29080606830489902 0 0.27413064477214999 0.29522187747406847 0 0.27944390847968448 0.29279266607126803 0 0.27409117204476208 0.29080606830489902 0 0.2782851575319511 0.28860545664366433 0 0.27770960021611008 0.29709607833170087 0 0.27944390847968448 0.29279266607126803 0 0.27413064477214999 0.29522187747406847 0 0.28090825696695781 0.28514214383721581 0 0.27532393804107458 0.28563115220907498 0 0.27840897411708992 0.28037884552198628 0 0.28366701105559589 0.28144624318939498 0 0.28090825696695781 0.28514214383721581 0 0.27840897411708992 0.28037884552198628 0 0.28090825696695781 0.28514214383721581 0 0.2782851575319511 0.28860545664366433 0 0.27532393804107458 0.28563115220907498 0 0.28126722504441859 0.28890735401930451 0 0.28090825696695781 0.28514214383721581 0 0.2782851575319511 0.28860545664366433 0 0.27409117204476208 0.29080606830489902 0 0.2782851575319511 0.28860545664366433 0 0.27532393804107458 0.28563115220907498 0 0.27532393804107458 0.28563115220907498 0 0.27158428355968112 0.2812793106196102 0 0.27840897411708992 0.28037884552198628 0 0.27532393804107458 0.28563115220907498 0 0.27158428355968112 0.2812793106196102 0 0.26996314054930232 0.28660768003988191 0 0.27409117204476208 0.29080606830489902 0 0.27532393804107458 0.28563115220907498 0 0.26996314054930232 0.28660768003988191 0 0.26996314054930232 0.28660768003988191 0 0.26619702804327672 0.28220708392203209 0 0.26329211319188589 0.2883080645925597 0 0.26996314054930232 0.28660768003988191 0 0.26916570872674661 0.2921453632090939 0 0.26329211319188589 0.2883080645925597 0 0.27158428355968112 0.2812793106196102 0 0.26996314054930232 0.28660768003988191 0 0.26619702804327672 0.28220708392203209 0 0.26964601490358769 0.2976768527696102 0 0.27413064477214999 0.29522187747406847 0 0.26916570872674661 0.2921453632090939 0 0.27409117204476208 0.29080606830489902 0 0.26996314054930232 0.28660768003988191 0 0.26916570872674661 0.2921453632090939 0 0.27409117204476208 0.29080606830489902 0 0.27413064477214999 0.29522187747406847 0 0.26916570872674661 0.2921453632090939 0 0.26964601490358769 0.2976768527696102 0 0.26916570872674661 0.2921453632090939 0 0.26387116689879142 0.29425163607354432 0 0.26387116689879142 0.29425163607354432 0 0.26329211319188589 0.2883080645925597 0 0.25595534788311608 0.2919185536130785 0 0.26387116689879142 0.29425163607354432 0 0.25595534788311608 0.2919185536130785 0 0.25922681826092858 0.29769779923383299 0 0.26916570872674661 0.2921453632090939 0 0.26387116689879142 0.29425163607354432 0 0.26329211319188589 0.2883080645925597 0 0.26329211319188589 0.2883080645925597 0 0.25521062939157718 0.28554733585488562 0 0.25595534788311608 0.2919185536130785 0 0.26329211319188589 0.2883080645925597 0 0.26086416433664789 0.28310999173961238 0 0.25521062939157718 0.28554733585488562 0 0.26619702804327672 0.28220708392203209 0 0.26329211319188589 0.2883080645925597 0 0.26086416433664789 0.28310999173961238 0 0.24725213083804989 0.2921365449492937 0 0.24885806748521691 0.28188651867727799 0 0.25521062939157718 0.28554733585488562 0 0.26086416433664789 0.28310999173961238 0 0.25521062939157718 0.28554733585488562 0 0.25617015701118329 0.27942219511084121 0 0.24885806748521691 0.28188651867727799 0 0.25521062939157718 0.28554733585488562 0 0.25617015701118329 0.27942219511084121 0 0.24725213083804989 0.2921365449492937 0 0.25521062939157718 0.28554733585488562 0 0.25595534788311608 0.2919185536130785 0 0.24725213083804989 0.2921365449492937 0 0.25595534788311608 0.2919185536130785 0 0.25291198300887707 0.29853049589907638 0 0.25595534788311608 0.2919185536130785 0 0.25291198300887707 0.29853049589907638 0 0.25922681826092858 0.29769779923383299 0 0.2468421475835044 0.30296286057387017 0 0.25291198300887707 0.29853049589907638 0 0.25251238686667982 0.30771573563745053 0 0.25291198300887707 0.29853049589907638 0 0.25251238686667982 0.30771573563745053 0 0.25894296306841802 0.30340027554682958 0 0.25291198300887707 0.29853049589907638 0 0.25922681826092858 0.29769779923383299 0 0.25894296306841802 0.30340027554682958 0 0.25911307558366442 0.31320357626744072 0 0.25251238686667982 0.30771573563745053 0 0.25894296306841802 0.30340027554682958 0 0.24893864919030859 0.31594094937848233 0 0.25911307558366442 0.31320357626744072 0 0.25251238686667982 0.30771573563745053 0 0.25911307558366442 0.31320357626744072 0 0.26422323395388653 0.30807458031033508 0 0.25894296306841802 0.30340027554682958 0 0.26422323395388653 0.30807458031033508 0 0.26445263044544037 0.3003880350366363 0 0.25894296306841802 0.30340027554682958 0 0.26387116689879142 0.29425163607354432 0 0.26445263044544037 0.3003880350366363 0 0.25922681826092858 0.29769779923383299 0 0.26445263044544037 0.3003880350366363 0 0.25922681826092858 0.29769779923383299 0 0.25894296306841802 0.30340027554682958 0 0.2592285574020774 0.26287283465097477 0 0.25408234079549741 0.26515186640474309 0 0.26268703273566713 0.26720862553161268 0 0.26395008498089778 0.26077561591840459 0 0.26162222527153961 0.2546469959406813 0 0.25619477109624739 0.25835523074913869 0 0.2592285574020774 0.26287283465097477 0 0.26395008498089778 0.26077561591840459 0 0.25619477109624739 0.25835523074913869 0 0.26395008498089778 0.26077561591840459 0 0.26268703273566713 0.26720862553161268 0 0.2697129764883423 0.26378050597191899 0 0.2592285574020774 0.26287283465097477 0 0.26395008498089778 0.26077561591840459 0 0.26268703273566713 0.26720862553161268 0 0.26395008498089778 0.26077561591840459 0 0.26162222527153961 0.2546469959406813 0 0.26856392226194759 0.25755774934894421 0 0.26162222527153961 0.2546469959406813 0 0.27032403842469399 0.25101019468977348 0 0.26089251030042121 0.24810771000014839 0 0.26162222527153961 0.2546469959406813 0 0.26089251030042121 0.24810771000014839 0 0.25423555326891639 0.24942618361914939 0 0.24922957066550369 0.25696010310009199 0 0.25619477109624739 0.25835523074913869 0 0.25423555326891639 0.24942618361914939 0 0.26162222527153961 0.2546469959406813 0 0.25619477109624739 0.25835523074913869 0 0.25423555326891639 0.24942618361914939 0 0.24922957066550369 0.25696010310009199 0 0.25619477109624739 0.25835523074913869 0 0.25408234079549741 0.26515186640474309 0 0.2592285574020774 0.26287283465097477 0 0.25619477109624739 0.25835523074913869 0 0.25408234079549741 0.26515186640474309 0 0.24946214105173969 0.27307760343335341 0 0.25408234079549741 0.26515186640474309 0 0.2585275612638897 0.27224477759685972 0 0.24946214105173969 0.27307760343335341 0 0.25617015701118329 0.27942219511084121 0 0.2585275612638897 0.27224477759685972 0 0.24946214105173969 0.27307760343335341 0 0.24885806748521691 0.28188651867727799 0 0.25617015701118329 0.27942219511084121 0 0.26086416433664789 0.28310999173961238 0 0.25617015701118329 0.27942219511084121 0 0.26254098131980019 0.27741951710146651 0 0.25617015701118329 0.27942219511084121 0 0.26254098131980019 0.27741951710146651 0 0.2585275612638897 0.27224477759685972 0 0.26254098131980019 0.27741951710146651 0 0.2585275612638897 0.27224477759685972 0 0.26622271466945102 0.27118885799914161 0 0.26619702804327672 0.28220708392203209 0 0.26086416433664789 0.28310999173961238 0 0.26254098131980019 0.27741951710146651 0 0.25408234079549741 0.26515186640474309 0 0.2585275612638897 0.27224477759685972 0 0.26268703273566713 0.26720862553161268 0 0.2585275612638897 0.27224477759685972 0 0.26268703273566713 0.26720862553161268 0 0.26622271466945102 0.27118885799914161 0 0.26268703273566713 0.26720862553161268 0 0.26622271466945102 0.27118885799914161 0 0.2697129764883423 0.26378050597191899 0 0.26622271466945102 0.27118885799914161 0 0.27212940081087428 0.27060178393738848 0 0.2697129764883423 0.26378050597191899 0 0.26622271466945102 0.27118885799914161 0 0.27212940081087428 0.27060178393738848 0 0.26882630754950498 0.2762996363796526 0 0.27212940081087428 0.27060178393738848 0 0.2751318660078193 0.26584584631136909 0 0.2697129764883423 0.26378050597191899 0 0.27158428355968112 0.2812793106196102 0 0.26619702804327672 0.28220708392203209 0 0.26882630754950498 0.2762996363796526 0 0.26619702804327672 0.28220708392203209 0 0.26254098131980019 0.27741951710146651 0 0.26882630754950498 0.2762996363796526 0 0.26254098131980019 0.27741951710146651 0 0.26622271466945102 0.27118885799914161 0 0.26882630754950498 0.2762996363796526 0 0.27212940081087428 0.27060178393738848 0 0.26882630754950498 0.2762996363796526 0 0.27473036346549601 0.27575429432218213 0 0.27158428355968112 0.2812793106196102 0 0.26882630754950498 0.2762996363796526 0 0.27473036346549601 0.27575429432218213 0 0.27158428355968112 0.2812793106196102 0 0.27473036346549601 0.27575429432218213 0 0.27840897411708992 0.28037884552198628 0 0.27473036346549601 0.27575429432218213 0 0.27959085449468768 0.27491190772239987 0 0.27717208629301793 0.27056794107955001 0 0.27473036346549601 0.27575429432218213 0 0.27959085449468768 0.27491190772239987 0 0.27840897411708992 0.28037884552198628 0 0.27959085449468768 0.27491190772239987 0 0.27840897411708992 0.28037884552198628 0 0.28311762811889091 0.27736916371416931 0 0.27212940081087428 0.27060178393738848 0 0.2751318660078193 0.26584584631136909 0 0.27717208629301793 0.27056794107955001 0 0.27212940081087428 0.27060178393738848 0 0.27473036346549601 0.27575429432218213 0 0.27717208629301793 0.27056794107955001 0 0.27959085449468768 0.27491190772239987 0 0.27717208629301793 0.27056794107955001 0 0.28113869245895701 0.27063859988805861 0 0.27717208629301793 0.27056794107955001 0 0.28113869245895701 0.27063859988805861 0 0.28078870425490099 0.2657875642003466 0 0.2751318660078193 0.26584584631136909 0 0.27717208629301793 0.27056794107955001 0 0.28078870425490099 0.2657875642003466 0 0.2751318660078193 0.26584584631136909 0 0.28078870425490099 0.2657875642003466 0 0.27671294313430278 0.25840051631706101 0 0.28078870425490099 0.2657875642003466 0 0.27671294313430278 0.25840051631706101 0 0.28447185085267668 0.25957189210251569 0 0.2751318660078193 0.26584584631136909 0 0.27671294313430278 0.25840051631706101 0 0.2697129764883423 0.26378050597191899 0 0.27671294313430278 0.25840051631706101 0 0.2697129764883423 0.26378050597191899 0 0.26856392226194759 0.25755774934894421 0 0.26395008498089778 0.26077561591840459 0 0.2697129764883423 0.26378050597191899 0 0.26856392226194759 0.25755774934894421 0 0.27671294313430278 0.25840051631706101 0 0.27032403842469399 0.25101019468977348 0 0.26856392226194759 0.25755774934894421 0 0.26162222527153961 0.2546469959406813 0 0.27032403842469399 0.25101019468977348 0 0.26856392226194759 0.25755774934894421 0 0.27671294313430278 0.25840051631706101 0 0.27032403842469399 0.25101019468977348 0 0.28096781835121032 0.25150032781063802 0 0.27671294313430278 0.25840051631706101 0 0.28096781835121032 0.25150032781063802 0 0.28447185085267668 0.25957189210251569 0 0.28096781835121032 0.25150032781063802 0 0.28447185085267668 0.25957189210251569 0 0.29061403765979082 0.25300935222949777 0 0.28447185085267668 0.25957189210251569 0 0.29039249588189908 0.26221078951263721 0 0.29061403765979082 0.25300935222949777 0 0.28078870425490099 0.2657875642003466 0 0.28447185085267668 0.25957189210251569 0 0.2858565022084309 0.26472911297152729 0 0.28447185085267668 0.25957189210251569 0 0.2858565022084309 0.26472911297152729 0 0.29039249588189908 0.26221078951263721 0 0.2858565022084309 0.26472911297152729 0 0.29039249588189908 0.26221078951263721 0 0.28905042176905121 0.26733111394543929 0 0.29039249588189908 0.26221078951263721 0 0.29589532938272489 0.25917539095374642 0 0.29061403765979082 0.25300935222949777 0 0.29039249588189908 0.26221078951263721 0 0.28905042176905121 0.26733111394543929 0 0.29478549441296698 0.26645979127347191 0 0.29039249588189908 0.26221078951263721 0 0.29589532938272489 0.25917539095374642 0 0.29478549441296698 0.26645979127347191 0 0.29589532938272489 0.25917539095374642 0 0.29061403765979082 0.25300935222949777 0 0.30343372429700188 0.25314302137966899 0 0.28680777013267678 0.28256742843223809 0 0.28673198923757609 0.27914052402666722 0 0.28959759121843048 0.28054344322512531 0 0.28673198923757609 0.27914052402666722 0 0.2894621955866904 0.27699573524859661 0 0.28959759121843048 0.28054344322512531 0 0.28366701105559589 0.28144624318939498 0 0.28680777013267678 0.28256742843223809 0 0.28673198923757609 0.27914052402666722 0 0.28366701105559589 0.28144624318939498 0 0.28673198923757609 0.27914052402666722 0 0.28311762811889091 0.27736916371416931 0 0.28366701105559589 0.28144624318939498 0 0.27840897411708992 0.28037884552198628 0 0.28311762811889091 0.27736916371416931 0 0.27959085449468768 0.27491190772239987 0 0.28311762811889091 0.27736916371416931 0 0.28356277896855148 0.27318138134129838 0 0.28311762811889091 0.27736916371416931 0 0.28681503729577201 0.27508168785764608 0 0.28356277896855148 0.27318138134129838 0 0.28681503729577201 0.27508168785764608 0 0.29056659073278518 0.27301794497743842 0 0.2894621955866904 0.27699573524859661 0 0.28673198923757609 0.27914052402666722 0 0.28311762811889091 0.27736916371416931 0 0.28681503729577201 0.27508168785764608 0 0.28673198923757609 0.27914052402666722 0 0.28681503729577201 0.27508168785764608 0 0.2894621955866904 0.27699573524859661 0 0.28764270608733089 0.27122565084064371 0 0.28356277896855148 0.27318138134129838 0 0.28457903828362657 0.26874420509669789 0 0.28681503729577201 0.27508168785764608 0 0.28764270608733089 0.27122565084064371 0 0.28356277896855148 0.27318138134129838 0 0.28681503729577201 0.27508168785764608 0 0.28764270608733089 0.27122565084064371 0 0.29056659073278518 0.27301794497743842 0 0.27959085449468768 0.27491190772239987 0 0.28113869245895701 0.27063859988805861 0 0.28356277896855148 0.27318138134129838 0 0.28113869245895701 0.27063859988805861 0 0.28356277896855148 0.27318138134129838 0 0.28457903828362657 0.26874420509669789 0 0.28078870425490099 0.2657875642003466 0 0.2858565022084309 0.26472911297152729 0 0.28457903828362657 0.26874420509669789 0 0.28113869245895701 0.27063859988805861 0 0.28078870425490099 0.2657875642003466 0 0.28457903828362657 0.26874420509669789 0 0.28764270608733089 0.27122565084064371 0 0.28457903828362657 0.26874420509669789 0 0.28905042176905121 0.26733111394543929 0 0.2858565022084309 0.26472911297152729 0 0.28457903828362657 0.26874420509669789 0 0.28905042176905121 0.26733111394543929 0 0.28905042176905121 0.26733111394543929 0 0.29478549441296698 0.26645979127347191 0 0.2913532459301264 0.26992317919971859 0 0.28764270608733089 0.27122565084064371 0 0.28905042176905121 0.26733111394543929 0 0.2913532459301264 0.26992317919971859 0 0.29478549441296698 0.26645979127347191 0 0.29412207167225479 0.27112078731792189 0 0.2913532459301264 0.26992317919971859 0 0.29478549441296698 0.26645979127347191 0 0.29412207167225479 0.27112078731792189 0 0.2968406833282608 0.27050851103595591 0 0.29412207167225479 0.27112078731792189 0 0.2968406833282608 0.27050851103595591 0 0.29640182561144512 0.27324579307670172 0 0.29412207167225479 0.27112078731792189 0 0.29640182561144512 0.27324579307670172 0 0.29340451330306022 0.27376039234354282 0 0.29412207167225479 0.27112078731792189 0 0.29056659073278518 0.27301794497743842 0 0.29340451330306022 0.27376039234354282 0 0.29412207167225479 0.27112078731792189 0 0.2913532459301264 0.26992317919971859 0 0.29056659073278518 0.27301794497743842 0 0.28764270608733089 0.27122565084064371 0 0.2913532459301264 0.26992317919971859 0 0.29056659073278518 0.27301794497743842 0 0.29056659073278518 0.27301794497743842 0 0.2894621955866904 0.27699573524859661 0 0.29208436892033562 0.27562780383883262 0 0.2894621955866904 0.27699573524859661 0 0.29208436892033562 0.27562780383883262 0 0.29140318759947692 0.2782632453561692 0 0.29208436892033562 0.27562780383883262 0 0.29393308836621868 0.2764620266371326 0 0.29140318759947692 0.2782632453561692 0 0.29056659073278518 0.27301794497743842 0 0.29208436892033562 0.27562780383883262 0 0.29340451330306022 0.27376039234354282 0 0.29640182561144512 0.27324579307670172 0 0.29340451330306022 0.27376039234354282 0 0.29393308836621868 0.2764620266371326 0 0.29640182561144512 0.27324579307670172 0 0.29393308836621868 0.2764620266371326 0 0.29851027786041562 0.27576097887558332 0 0.29208436892033562 0.27562780383883262 0 0.29340451330306022 0.27376039234354282 0 0.29393308836621868 0.2764620266371326 0 0.29393308836621868 0.2764620266371326 0 0.2919794491567923 0.28121843359307991 0 0.29851027786041562 0.27576097887558332 0 0.29393308836621868 0.2764620266371326 0 0.2919794491567923 0.28121843359307991 0 0.29140318759947692 0.2782632453561692 0 0.2894621955866904 0.27699573524859661 0 0.29140318759947692 0.2782632453561692 0 0.28959759121843048 0.28054344322512531 0 0.2919794491567923 0.28121843359307991 0 0.29140318759947692 0.2782632453561692 0 0.28959759121843048 0.28054344322512531 0 0.30015400292998878 0.28034708690549009 0 0.30371932246684907 0.27515986763679079 0 0.30962435549150352 0.27525718406158167 0 0.30015400292998878 0.28034708690549009 0 0.29851027786041562 0.27576097887558332 0 0.29959999744574678 0.27382368613061892 0 0.29640182561144512 0.27324579307670172 0 0.29851027786041562 0.27576097887558332 0 0.29959999744574678 0.27382368613061892 0 0.29851027786041562 0.27576097887558332 0 0.29959999744574678 0.27382368613061892 0 0.30015400292998878 0.28034708690549009 0 0.29959999744574678 0.27382368613061892 0 0.30371932246684907 0.27515986763679079 0 0.29959999744574678 0.27382368613061892 0 0.29918024662811321 0.26849240046696737 0 0.30611110277138542 0.26977498904189162 0 0.29959999744574678 0.27382368613061892 0 0.30371932246684907 0.27515986763679079 0 0.30611110277138542 0.26977498904189162 0 0.2968406833282608 0.27050851103595591 0 0.29959999744574678 0.27382368613061892 0 0.29918024662811321 0.26849240046696737 0 0.2968406833282608 0.27050851103595591 0 0.29640182561144512 0.27324579307670172 0 0.29959999744574678 0.27382368613061892 0 0.29478549441296698 0.26645979127347191 0 0.29918024662811321 0.26849240046696737 0 0.30144310323746099 0.26337350063550707 0 0.29478549441296698 0.26645979127347191 0 0.2968406833282608 0.27050851103595591 0 0.29918024662811321 0.26849240046696737 0 0.29918024662811321 0.26849240046696737 0 0.30611110277138542 0.26977498904189162 0 0.30144310323746099 0.26337350063550707 0 0.30611110277138542 0.26977498904189162 0 0.30962435549150352 0.27525718406158167 0 0.31597146555746131 0.27031763972809197 0 0.30611110277138542 0.26977498904189162 0 0.31125283698277589 0.26181136947145478 0 0.31597146555746131 0.27031763972809197 0 0.30371932246684907 0.27515986763679079 0 0.30611110277138542 0.26977498904189162 0 0.30962435549150352 0.27525718406158167 0 0.29589532938272489 0.25917539095374642 0 0.30343372429700188 0.25314302137966899 0 0.30144310323746099 0.26337350063550707 0 0.29589532938272489 0.25917539095374642 0 0.29478549441296698 0.26645979127347191 0 0.30144310323746099 0.26337350063550707 0 0.30343372429700188 0.25314302137966899 0 0.30144310323746099 0.26337350063550707 0 0.31125283698277589 0.26181136947145478 0 0.30611110277138542 0.26977498904189162 0 0.30144310323746099 0.26337350063550707 0 0.31125283698277589 0.26181136947145478 0 0.30343372429700188 0.25314302137966899 0 0.31125283698277589 0.26181136947145478 0 0.31828467619276729 0.25309829935819061 0 0.31828467619276729 0.25309829935819061 0 0.33927815850956361 0.25562047078272843 0 0.32282158622527302 0.24177072913176681 0 0.31828467619276729 0.25309829935819061 0 0.32364157804106908 0.26330086734874852 0 0.33927815850956361 0.25562047078272843 0 0.31125283698277589 0.26181136947145478 0 0.31828467619276729 0.25309829935819061 0 0.32364157804106908 0.26330086734874852 0 0.31125283698277589 0.26181136947145478 0 0.32364157804106908 0.26330086734874852 0 0.31597146555746131 0.27031763972809197 0 0.32364157804106908 0.26330086734874852 0 0.33927815850956361 0.25562047078272843 0 0.33355502901055889 0.26821925557325071 0 0.33927815850956361 0.25562047078272843 0 0.34370097534282201 0.26666284465229573 0 0.33355502901055889 0.26821925557325071 0 0.34007526523134018 0.27440046405859447 0 0.33084790162268379 0.27816162056221111 0 0.33894721423047552 0.28602663026038921 0 0.34007526523134018 0.27440046405859447 0 0.33894721423047552 0.28602663026038921 0 0.34677191413850811 0.27929759992471148 0 0.34007526523134018 0.27440046405859447 0 0.34370097534282201 0.26666284465229573 0 0.33355502901055889 0.26821925557325071 0 0.33355502901055889 0.26821925557325071 0 0.33084790162268379 0.27816162056221111 0 0.32462313773066692 0.27226386073721121 0 0.34007526523134018 0.27440046405859447 0 0.33355502901055889 0.26821925557325071 0 0.33084790162268379 0.27816162056221111 0 0.33084790162268379 0.27816162056221111 0 0.32462313773066692 0.27226386073721121 0 0.31983173937078258 0.28081694227700182 0 0.32364157804106908 0.26330086734874852 0 0.33355502901055889 0.26821925557325071 0 0.32462313773066692 0.27226386073721121 0 0.32364157804106908 0.26330086734874852 0 0.32462313773066692 0.27226386073721121 0 0.31597146555746131 0.27031763972809197 0 0.30962435549150352 0.27525718406158167 0 0.31597146555746131 0.27031763972809197 0 0.31983173937078258 0.28081694227700182 0 0.32462313773066692 0.27226386073721121 0 0.31597146555746131 0.27031763972809197 0 0.31983173937078258 0.28081694227700182 0 0.30984802019540519 0.28761311508632809 0 0.30962435549150352 0.27525718406158167 0 0.31983173937078258 0.28081694227700182 0 0.30984802019540519 0.28761311508632809 0 0.31983173937078258 0.28081694227700182 0 0.31911349381949039 0.29530439737187009 0 0.33084790162268379 0.27816162056221111 0 0.31983173937078258 0.28081694227700182 0 0.32895221427525029 0.28689026025031888 0 0.31983173937078258 0.28081694227700182 0 0.31911349381949039 0.29530439737187009 0 0.32895221427525029 0.28689026025031888 0 0.32802778303437907 0.31527737662774841 0 0.31911349381949039 0.29530439737187009 0 0.33688406795824011 0.29714361825107632 0 0.32802778303437907 0.31527737662774841 0 0.30981635111461642 0.3065395168645037 0 0.31911349381949039 0.29530439737187009 0 0.32802778303437907 0.31527737662774841 0 0.33688406795824011 0.29714361825107632 0 0.35685820307866872 0.30945761889153489 0 0.32802778303437907 0.31527737662774841 0 0.35685820307866872 0.30945761889153489 0 0.31911349381949039 0.29530439737187009 0 0.33688406795824011 0.29714361825107632 0 0.32895221427525029 0.28689026025031888 0 0.33084790162268379 0.27816162056221111 0 0.32895221427525029 0.28689026025031888 0 0.33894721423047552 0.28602663026038921 0 0.33688406795824011 0.29714361825107632 0 0.32895221427525029 0.28689026025031888 0 0.33894721423047552 0.28602663026038921 0 0.33688406795824011 0.29714361825107632 0 0.33894721423047552 0.28602663026038921 0 0.34950450683702788 0.29024968154851361 0 0.34950450683702788 0.29024968154851361 0 0.34677191413850811 0.27929759992471148 0 0.35672871189033989 0.28070826738004673 0 0.33894721423047552 0.28602663026038921 0 0.34950450683702788 0.29024968154851361 0 0.34677191413850811 0.27929759992471148 0 0.34950450683702788 0.29024968154851361 0 0.36309812400869618 0.29484034657829922 0 0.35672871189033989 0.28070826738004673 0 0.33688406795824011 0.29714361825107632 0 0.34950450683702788 0.29024968154851361 0 0.35685820307866872 0.30945761889153489 0 0.34950450683702788 0.29024968154851361 0 0.35685820307866872 0.30945761889153489 0 0.36309812400869618 0.29484034657829922 0 0.35685820307866872 0.30945761889153489 0 0.36309812400869618 0.29484034657829922 0 0.37724880867256738 0.30797586350392542 0 0.36309812400869618 0.29484034657829922 0 0.37515038956487701 0.2858103015674755 0 0.37724880867256738 0.30797586350392542 0 0.36309812400869618 0.29484034657829922 0 0.35672871189033989 0.28070826738004673 0 0.37515038956487701 0.2858103015674755 0 0.37302112077521848 0.26824512542230278 0 0.35573473079385431 0.26947021243369013 0 0.37515038956487701 0.2858103015674755 0 0.35573473079385431 0.26947021243369013 0 0.37515038956487701 0.2858103015674755 0 0.35672871189033989 0.28070826738004673 0 0.35573473079385431 0.26947021243369013 0 0.37515038956487701 0.2858103015674755 0 0.37302112077521848 0.26824512542230278 0 0.36563027200280418 0.25685232300665939 0 0.35573473079385431 0.26947021243369013 0 0.37302112077521848 0.26824512542230278 0 0.36563027200280418 0.25685232300665939 0 0.37966042738449107 0.26020509756065002 0 0.36563027200280418 0.25685232300665939 0 0.37966042738449107 0.26020509756065002 0 0.37552581321175271 0.24423443357962751 0 0.36563027200280418 0.25685232300665939 0 0.37552581321175271 0.24423443357962751 0 0.36563027200280418 0.25685232300665939 0 0.35573473079385431 0.26947021243369013 0 0.36563027200280418 0.25685232300665939 0 0.35573473079385431 0.26947021243369013 0 0.35484810687583412 0.24832752908365241 0 0.33927815850956361 0.25562047078272843 0 0.34370097534282201 0.26666284465229573 0 0.35573473079385431 0.26947021243369013 0 0.33927815850956361 0.25562047078272843 0 0.35573473079385431 0.26947021243369013 0 0.35484810687583412 0.24832752908365241 0 0.33927815850956361 0.25562047078272843 0 0.35573473079385431 0.26947021243369013 0 0.34370097534282201 0.26666284465229573 0 0.34863697883849448 0.2706618606641924 0 0.35573473079385431 0.26947021243369013 0 0.34007526523134018 0.27440046405859447 0 0.34370097534282201 0.26666284465229573 0 0.34863697883849448 0.2706618606641924 0 0.34007526523134018 0.27440046405859447 0 0.34863697883849448 0.2706618606641924 0 0.34677191413850811 0.27929759992471148 0 0.34863697883849448 0.2706618606641924 0 0.34677191413850811 0.27929759992471148 0 0.3517200502713515 0.27588480986167829 0 0.34677191413850811 0.27929759992471148 0 0.35672871189033989 0.28070826738004673 0 0.3517200502713515 0.27588480986167829 0 0.35672871189033989 0.28070826738004673 0 0.3517200502713515 0.27588480986167829 0 0.35573473079385431 0.26947021243369013 0 0.34863697883849448 0.2706618606641924 0 0.3517200502713515 0.27588480986167829 0 0.35573473079385431 0.26947021243369013 0 0.39823428396211052 0.27238043953858693 0 0.39678095229401122 0.26151068958850388 0 0.41803609137626968 0.27878694559738021 0 0.39823428396211052 0.27238043953858693 0 0.39678095229401122 0.26151068958850388 0 0.38602303424348949 0.27163284586704511 0 0.39823428396211052 0.27238043953858693 0 0.38602303424348949 0.27163284586704511 0 0.39382510341564242 0.28247904640850008 0 0.39823428396211052 0.27238043953858693 0 0.40409433253949678 0.27933681257980708 0 0.39382510341564242 0.28247904640850008 0 0.39678095229401122 0.26151068958850388 0 0.4035467433890203 0.24879642155089371 0 0.39282457790793851 0.24453511317029389 0 0.39678095229401122 0.26151068958850388 0 0.409932017837072 0.25666666905022772 0 0.4035467433890203 0.24879642155089371 0 0.39678095229401122 0.26151068958850388 0 0.37966042738449107 0.26020509756065002 0 0.38602303424348949 0.27163284586704511 0 0.39678095229401122 0.26151068958850388 0 0.37966042738449107 0.26020509756065002 0 0.37552581321175271 0.24423443357962751 0 0.39678095229401122 0.26151068958850388 0 0.39282457790793851 0.24453511317029389 0 0.37552581321175271 0.24423443357962751 0 0.39678095229401122 0.26151068958850388 0 0.37552581321175271 0.24423443357962751 0 0.38602303424348949 0.27163284586704511 0 0.37515038956487701 0.2858103015674755 0 0.39382510341564242 0.28247904640850008 0 0.37302112077521848 0.26824512542230278 0 0.37966042738449107 0.26020509756065002 0 0.38602303424348949 0.27163284586704511 0 0.37302112077521848 0.26824512542230278 0 0.38602303424348949 0.27163284586704511 0 0.37515038956487701 0.2858103015674755 0 0.37515038956487701 0.2858103015674755 0 0.39484665555546861 0.29864460550244443 0 0.39382510341564242 0.28247904640850008 0 0.37515038956487701 0.2858103015674755 0 0.37724880867256738 0.30797586350392542 0 0.39484665555546861 0.29864460550244443 0 0.37724880867256738 0.30797586350392542 0 0.39484665555546861 0.29864460550244443 0 0.39600136558546051 0.31624834407928498 0 0.39484665555546861 0.29864460550244443 0 0.40944173941441703 0.30206530627503803 0 0.39600136558546051 0.31624834407928498 0 0.39484665555546861 0.29864460550244443 0 0.39382510341564242 0.28247904640850008 0 0.40381505216864622 0.28935282794027961 0 0.39484665555546861 0.29864460550244443 0 0.40381505216864622 0.28935282794027961 0 0.40944173941441703 0.30206530627503803 0 0.40409433253949678 0.27933681257980708 0 0.39382510341564242 0.28247904640850008 0 0.40381505216864622 0.28935282794027961 0 0.40381505216864622 0.28935282794027961 0 0.41386659920870728 0.28155071532667703 0 0.41377151413388091 0.29462707211321598 0 0.40409433253949678 0.27933681257980708 0 0.40381505216864622 0.28935282794027961 0 0.41386659920870728 0.28155071532667703 0 0.41386659920870728 0.28155071532667703 0 0.41377151413388091 0.29462707211321598 0 0.4279626657437533 0.30553943891086938 0 0.41386659920870728 0.28155071532667703 0 0.4279626657437533 0.30553943891086938 0 0.40381505216864622 0.28935282794027961 0 0.41377151413388091 0.29462707211321598 0 0.40944173941441703 0.30206530627503803 0 0.41386659920870728 0.28155071532667703 0 0.42559545952662969 0.29119991042176763 0 0.41803609137626968 0.27878694559738021 0 0.41377151413388091 0.29462707211321598 0 0.40944173941441703 0.30206530627503803 0 0.4279626657437533 0.30553943891086938 0 0.40944173941441703 0.30206530627503803 0 0.4279626657437533 0.30553943891086938 0 0.41261006283318802 0.32111581269245992 0 0.4279626657437533 0.30553943891086938 0 0.4392912304585288 0.29606320160625588 0 0.44209183777797573 0.3109208484452175 0 0.4279626657437533 0.30553943891086938 0 0.42559545952662969 0.29119991042176763 0 0.4392912304585288 0.29606320160625588 0 0.42559545952662969 0.29119991042176763 0 0.41803609137626968 0.27878694559738021 0 0.4392912304585288 0.29606320160625588 0 0.42461162414780068 0.27636493532824158 0 0.4392912304585288 0.29606320160625588 0 0.41803609137626968 0.27878694559738021 0 0.4392912304585288 0.29606320160625588 0 0.42461162414780068 0.27636493532824158 0 0.41803609137626968 0.27878694559738021 0 0.4392912304585288 0.29606320160625588 0 0.41386659920870728 0.28155071532667703 0 0.4279626657437533 0.30553943891086938 0 0.42559545952662969 0.29119991042176763 0 0.43429885329067242 0.27900848703404801 0 0.42461162414780068 0.27636493532824158 0 0.4392912304585288 0.29606320160625588 0 0.42909672067747578 0.26913114838404278 0 0.43560869262857549 0.2564393994542285 0 0.43851836228343682 0.27228237046632331 0 0.43429885329067242 0.27900848703404801 0 0.42909672067747578 0.26913114838404278 0 0.43851836228343682 0.27228237046632331 0 0.42909672067747578 0.26913114838404278 0 0.42461162414780068 0.27636493532824158 0 0.4228219285561059 0.26237973290948258 0 0.43429885329067242 0.27900848703404801 0 0.42909672067747578 0.26913114838404278 0 0.42461162414780068 0.27636493532824158 0 0.39823428396211052 0.27238043953858693 0 0.40409433253949678 0.27933681257980708 0 0.41803609137626968 0.27878694559738021 0 0.39678095229401122 0.26151068958850388 0 0.41803609137626968 0.27878694559738021 0 0.42461162414780068 0.27636493532824158 0 0.409932017837072 0.25666666905022772 0 0.42461162414780068 0.27636493532824158 0 0.41803609137626968 0.27878694559738021 0 0.409932017837072 0.25666666905022772 0 0.39678095229401122 0.26151068958850388 0 0.41803609137626968 0.27878694559738021 0 0.409932017837072 0.25666666905022772 0 0.40409433253949678 0.27933681257980708 0 0.41386659920870728 0.28155071532667703 0 0.41803609137626968 0.27878694559738021 0 0.409932017837072 0.25666666905022772 0 0.4228219285561059 0.26237973290948258 0 0.41989800424463281 0.24573313419056031 0 0.42461162414780068 0.27636493532824158 0 0.409932017837072 0.25666666905022772 0 0.4228219285561059 0.26237973290948258 0 0.409932017837072 0.25666666905022772 0 0.4035467433890203 0.24879642155089371 0 0.41989800424463281 0.24573313419056031 0 0.4228219285561059 0.26237973290948258 0 0.43560869262857549 0.2564393994542285 0 0.41989800424463281 0.24573313419056031 0 0.42909672067747578 0.26913114838404278 0 0.4228219285561059 0.26237973290948258 0 0.43560869262857549 0.2564393994542285 0 0.43560869262857549 0.2564393994542285 0 0.450500719019438 0.25885823736601521 0 0.45527223529045641 0.27794256692665192 0 0.43560869262857549 0.2564393994542285 0 0.450500719019438 0.25885823736601521 0 0.4463133982418781 0.24425703200430729 0 0.43851836228343682 0.27228237046632331 0 0.45527223529045641 0.27794256692665192 0 0.44213796586928861 0.28137144256706631 0 0.43560869262857549 0.2564393994542285 0 0.45527223529045641 0.27794256692665192 0 0.43560869262857549 0.2564393994542285 0 0.43851836228343682 0.27228237046632331 0 0.45527223529045641 0.27794256692665192 0 0.43429885329067242 0.27900848703404801 0 0.43851836228343682 0.27228237046632331 0 0.44213796586928861 0.28137144256706631 0 0.45871758996705198 0.26716983550850582 0 0.46445396802279248 0.25705747116404148 0 0.46969487298756379 0.27825160278155869 0 0.46445396802279248 0.25705747116404148 0 0.46969487298756379 0.27825160278155869 0 0.450500719019438 0.25885823736601521 0 0.45527223529045641 0.27794256692665192 0 0.45871758996705198 0.26716983550850582 0 0.45527223529045641 0.27794256692665192 0 0.45871758996705198 0.26716983550850582 0 0.46969487298756379 0.27825160278155869 0 0.46445396802279248 0.25705747116404148 0 0.4463133982418781 0.24425703200430729 0 0.450500719019438 0.25885823736601521 0 0.46445396802279248 0.25705747116404148 0 0.4463133982418781 0.24425703200430729 0 0.450500719019438 0.25885823736601521 0 0.45871758996705198 0.26716983550850582 0 0.46445396802279248 0.25705747116404148 0 0.46445396802279248 0.25705747116404148 0 0.48222698401139669 0.26959855518701498 0 0.46445396802279248 0.25705747116404148 0 0.4740428095428143 0.25555989095164361 0 0.48222698401139669 0.26959855518701498 0 0.4740428095428143 0.25555989095164361 0 0.47946762869715293 0.2491729055490467 0 0.47128113352388479 0.2453957623995362 0 0.46445396802279248 0.25705747116404148 0 0.4740428095428143 0.25555989095164361 0 0.47128113352388479 0.2453957623995362 0 0.49020039362354628 0.26370273374452807 0 0.47946762869715293 0.2491729055490467 0 0.48040078724709362 0.24675025558424191 0 0.48124197569364707 0.25942675544670157 0 0.49020039362354628 0.26370273374452807 0 0.47946762869715293 0.2491729055490467 0 0.4740428095428143 0.25555989095164361 0 0.48124197569364707 0.25942675544670157 0 0.47946762869715293 0.2491729055490467 0 0.4740428095428143 0.25555989095164361 0 0.48124197569364707 0.25942675544670157 0 0.48222698401139669 0.26959855518701498 0 0.46445396802279248 0.25705747116404148 0 0.46969487298756379 0.27825160278155869 0 0.48222698401139669 0.26959855518701498 0 0.46969487298756379 0.27825160278155869 0 0.48222698401139669 0.26959855518701498 0 0.48413339671147548 0.28576117232047282 0 0.48222698401139669 0.26959855518701498 0 0.49999999999999961 0.28065521190481407 0 0.49020039362354628 0.26370273374452807 0 0.48222698401139669 0.26959855518701498 0 0.50000000000000022 0.28213963920998941 0 0.48413339671147548 0.28576117232047282 0 0.48222698401139669 0.26959855518701498 0 0.50000000000000022 0.28213963920998941 0 0.49999999999999961 0.28065521190481407 0 0.49020039362354628 0.26370273374452807 0 0.48222698401139669 0.26959855518701498 0 0.49999999999999961 0.28065521190481407 0 0.50000000000000022 0.28213963920998941 0 0.49999999999999961 0.28065521190481407 0 0.5 0.25239251493620218 0 0.49020039362354628 0.26370273374452807 0 0.5 0.25239251493620218 0 0.49020039362354628 0.26370273374452807 0 0.48040078724709362 0.24675025558424191 0 0.49020039362354628 0.26370273374452807 0 0.48040078724709362 0.24675025558424191 0 0.48124197569364707 0.25942675544670157 0 0.48222698401139669 0.26959855518701498 0 0.49020039362354628 0.26370273374452807 0 0.5 0.30322893114751731 0 0.4917163058522846 0.31987783529741992 0 0.4877261471724893 0.31343270796250289 0 0.48795516926650068 0.29925729451656752 0 0.5 0.30322893114751731 0 0.4877261471724893 0.31343270796250289 0 0.48795516926650068 0.29925729451656752 0 0.5 0.30322893114751731 0 0.49302214149449408 0.29259675929863671 0 0.5 0.30322893114751731 0 0.50000000000000022 0.28213963920998941 0 0.49302214149449408 0.29259675929863671 0 0.50000000000000022 0.28213963920998941 0 0.49302214149449408 0.29259675929863671 0 0.48413339671147548 0.28576117232047282 0 0.48795516926650068 0.29925729451656752 0 0.49302214149449408 0.29259675929863671 0 0.48413339671147548 0.28576117232047282 0 0.46969487298756379 0.27825160278155869 0 0.48413339671147548 0.28576117232047282 0 0.47493577795233699 0.29944573439907529 0 0.46969487298756379 0.27825160278155869 0 0.47493577795233699 0.29944573439907529 0 0.48795516926650068 0.29925729451656752 0 0.48413339671147548 0.28576117232047282 0 0.47493577795233699 0.29944573439907529 0 0.46878287087496823 0.30749873987317677 0 0.45952748697235252 0.31251130607836192 0 0.47872144415021212 0.31475490489482938 0 0.48795516926650068 0.29925729451656752 0 0.47493577795233699 0.29944573439907529 0 0.4877261471724893 0.31343270796250289 0 0.47493577795233699 0.29944573439907529 0 0.47872144415021212 0.31475490489482938 0 0.4877261471724893 0.31343270796250289 0 0.47493577795233699 0.29944573439907529 0 0.4877261471724893 0.31343270796250289 0 0.47493577795233699 0.29944573439907529 0 0.47872144415021212 0.31475490489482938 0 0.47493577795233699 0.29944573439907529 0 0.46878287087496823 0.30749873987317677 0 0.47872144415021212 0.31475490489482938 0 0.47493577795233699 0.29944573439907529 0 0.46180587930330119 0.302601877754617 0 0.45710011217369712 0.2943819252656984 0 0.46878287087496823 0.30749873987317677 0 0.46180587930330119 0.302601877754617 0 0.45952748697235252 0.31251130607836192 0 0.47493577795233699 0.29944573439907529 0 0.46878287087496823 0.30749873987317677 0 0.46180587930330119 0.302601877754617 0 0.46180587930330119 0.302601877754617 0 0.45325953538303598 0.29875085548903102 0 0.45952748697235252 0.31251130607836192 0 0.46180587930330119 0.302601877754617 0 0.45325953538303598 0.29875085548903102 0 0.45710011217369712 0.2943819252656984 0 0.45527223529045641 0.27794256692665192 0 0.46969487298756379 0.27825160278155869 0 0.47493577795233699 0.29944573439907529 0 0.45527223529045641 0.27794256692665192 0 0.47493577795233699 0.29944573439907529 0 0.45710011217369712 0.2943819252656984 0 0.45527223529045641 0.27794256692665192 0 0.45710011217369712 0.2943819252656984 0 0.4485729680073004 0.28819596674022158 0 0.45527223529045641 0.27794256692665192 0 0.47493577795233699 0.29944573439907529 0 0.43429885329067242 0.27900848703404801 0 0.4392912304585288 0.29606320160625588 0 0.44213796586928861 0.28137144256706631 0 0.45527223529045641 0.27794256692665192 0 0.4485729680073004 0.28819596674022158 0 0.44213796586928861 0.28137144256706631 0 0.45325953538303598 0.29875085548903102 0 0.45710011217369712 0.2943819252656984 0 0.4485729680073004 0.28819596674022158 0 0.45325953538303598 0.29875085548903102 0 0.4485729680073004 0.28819596674022158 0 0.4392912304585288 0.29606320160625588 0 0.4485729680073004 0.28819596674022158 0 0.4392912304585288 0.29606320160625588 0 0.44213796586928861 0.28137144256706631 0 0.4392912304585288 0.29606320160625588 0 0.45952748697235252 0.31251130607836192 0 0.4392912304585288 0.29606320160625588 0 0.44209183777797573 0.3109208484452175 0 0.4555287851367652 0.31785204723230831 0 0.4392912304585288 0.29606320160625588 0 0.45952748697235252 0.31251130607836192 0 0.4555287851367652 0.31785204723230831 0 0.4392912304585288 0.29606320160625588 0 0.4555287851367652 0.31785204723230831 0 0.45325953538303598 0.29875085548903102 0 0.4392912304585288 0.29606320160625588 0 0.45952748697235252 0.31251130607836192 0 0.44209183777797573 0.3109208484452175 0 0.44801795737901051 0.32110548400522648 0 0.44205873227879922 0.32952816249506189 0 0.45119991263492099 0.32567255272828022 0 0.44801795737901051 0.32110548400522648 0 0.44205873227879922 0.32952816249506189 0 0.45119991263492099 0.32567255272828022 0 0.44801795737901051 0.32110548400522648 0 0.4555287851367652 0.31785204723230831 0 0.44209183777797573 0.3109208484452175 0 0.44801795737901051 0.32110548400522648 0 0.4555287851367652 0.31785204723230831 0 0.44205873227879922 0.32952816249506189 0 0.45728607704497959 0.33348719698846357 0 0.45615479881384507 0.3535168860792543 0 0.44205873227879922 0.32952816249506189 0 0.45615479881384507 0.3535168860792543 0 0.45119991263492099 0.32567255272828022 0 0.44205873227879922 0.32952816249506189 0 0.45728607704497959 0.33348719698846357 0 0.4555287851367652 0.31785204723230831 0 0.47176633981500088 0.33964089285836108 0 0.4555287851367652 0.31785204723230831 0 0.47065523248236368 0.32985061358653961 0 0.47176633981500088 0.33964089285836108 0 0.45728607704497959 0.33348719698846357 0 0.4555287851367652 0.31785204723230831 0 0.47176633981500088 0.33964089285836108 0 0.45728607704497959 0.33348719698846357 0 0.47176633981500088 0.33964089285836108 0 0.45615479881384507 0.3535168860792543 0 0.45119991263492099 0.32567255272828022 0 0.45728607704497959 0.33348719698846357 0 0.4555287851367652 0.31785204723230831 0 0.45952748697235252 0.31251130607836192 0 0.4665246458222847 0.32256595445142611 0 0.47976374348617667 0.32895941055046718 0 0.45952748697235252 0.31251130607836192 0 0.4555287851367652 0.31785204723230831 0 0.4665246458222847 0.32256595445142611 0 0.4555287851367652 0.31785204723230831 0 0.4665246458222847 0.32256595445142611 0 0.47065523248236368 0.32985061358653961 0 0.45952748697235252 0.31251130607836192 0 0.47872144415021212 0.31475490489482938 0 0.47976374348617667 0.32895941055046718 0 0.45952748697235252 0.31251130607836192 0 0.47976374348617667 0.32895941055046718 0 0.47872144415021212 0.31475490489482938 0 0.4877261471724893 0.31343270796250289 0 0.48485489855974612 0.32119166733868382 0 0.47872144415021212 0.31475490489482938 0 0.48250711034808719 0.33006407539058319 0 0.47872144415021212 0.31475490489482938 0 0.47976374348617667 0.32895941055046718 0 0.48250711034808719 0.33006407539058319 0 0.47872144415021212 0.31475490489482938 0 0.48250711034808719 0.33006407539058319 0 0.48485489855974612 0.32119166733868382 0 0.4665246458222847 0.32256595445142611 0 0.47065523248236368 0.32985061358653961 0 0.47976374348617667 0.32895941055046718 0 0.47065523248236368 0.32985061358653961 0 0.47176633981500088 0.33964089285836108 0 0.47669493178853012 0.33511922693071289 0 0.47065523248236368 0.32985061358653961 0 0.47976374348617667 0.32895941055046718 0 0.47669493178853012 0.33511922693071289 0 0.47176633981500088 0.33964089285836108 0 0.47669493178853012 0.33511922693071289 0 0.48459441137057913 0.34202599072748358 0 0.47976374348617667 0.32895941055046718 0 0.47669493178853012 0.33511922693071289 0 0.48459441137057913 0.34202599072748358 0 0.5 0.32431822308504499 0 0.49133815321282609 0.32744870270046722 0 0.50000000000000067 0.34540751502257278 0 0.47976374348617667 0.32895941055046718 0 0.48459441137057913 0.34202599072748358 0 0.50000000000000067 0.34540751502257278 0 0.48250711034808719 0.33006407539058319 0 0.49133815321282609 0.32744870270046722 0 0.50000000000000067 0.34540751502257278 0 0.47976374348617667 0.32895941055046718 0 0.48250711034808719 0.33006407539058319 0 0.50000000000000067 0.34540751502257278 0 0.47976374348617667 0.32895941055046718 0 0.50000000000000067 0.34540751502257278 0 0.5 0.32431822308504499 0 0.4917163058522846 0.31987783529741992 0 0.49133815321282609 0.32744870270046722 0 0.5 0.30322893114751731 0 0.5 0.32431822308504499 0 0.4917163058522846 0.31987783529741992 0 0.4917163058522846 0.31987783529741992 0 0.4877261471724893 0.31343270796250289 0 0.48485489855974612 0.32119166733868382 0 0.48250711034808719 0.33006407539058319 0 0.48672191827711608 0.32574195783986248 0 0.49133815321282609 0.32744870270046722 0 0.4917163058522846 0.31987783529741992 0 0.48485489855974612 0.32119166733868382 0 0.48672191827711608 0.32574195783986248 0 0.48250711034808719 0.33006407539058319 0 0.48485489855974612 0.32119166733868382 0 0.48672191827711608 0.32574195783986248 0 0.4917163058522846 0.31987783529741992 0 0.48672191827711608 0.32574195783986248 0 0.49133815321282609 0.32744870270046722 0 0.5 0.37109490242676441 0 0.48800389449323661 0.36142973848441379 0 0.4843008702602476 0.3783030001328167 0 0.5 0.37109490242676441 0 0.48800389449323661 0.36142973848441379 0 0.50000000000000067 0.34540751502257278 0 0.48459441137057913 0.34202599072748358 0 0.48800389449323661 0.36142973848441379 0 0.50000000000000067 0.34540751502257278 0 0.47176633981500088 0.33964089285836108 0 0.48459441137057913 0.34202599072748358 0 0.48800389449323661 0.36142973848441379 0 0.47176633981500088 0.33964089285836108 0 0.48800389449323661 0.36142973848441379 0 0.47231116644482052 0.35741082878253683 0 0.47176633981500088 0.33964089285836108 0 0.48800389449323661 0.36142973848441379 0 0.48800389449323661 0.36142973848441379 0 0.47804855035452792 0.36829568236969712 0 0.4843008702602476 0.3783030001328167 0 0.47231116644482052 0.35741082878253683 0 0.47804855035452792 0.36829568236969712 0 0.46757827021980708 0.37603916207902099 0 0.48800389449323661 0.36142973848441379 0 0.47231116644482052 0.35741082878253683 0 0.47804855035452792 0.36829568236969712 0 0.47804855035452792 0.36829568236969712 0 0.46757827021980708 0.37603916207902099 0 0.4843008702602476 0.3783030001328167 0 0.47231116644482052 0.35741082878253683 0 0.45615479881384507 0.3535168860792543 0 0.46757827021980708 0.37603916207902099 0 0.45615479881384507 0.3535168860792543 0 0.4490765811844637 0.37900430322903322 0 0.46757827021980708 0.37603916207902099 0 0.47176633981500088 0.33964089285836108 0 0.47231116644482052 0.35741082878253683 0 0.45615479881384507 0.3535168860792543 0 0.44205873227879922 0.32952816249506189 0 0.45615479881384507 0.3535168860792543 0 0.43473990769231319 0.34957261869759548 0 0.45615479881384507 0.3535168860792543 0 0.43812604865828142 0.36616339482633031 0 0.43473990769231319 0.34957261869759548 0 0.45615479881384507 0.3535168860792543 0 0.43812604865828142 0.36616339482633031 0 0.4490765811844637 0.37900430322903322 0 0.43812604865828142 0.36616339482633031 0 0.42551358760119418 0.36537646812703811 0 0.43473990769231319 0.34957261869759548 0 0.43812604865828142 0.36616339482633031 0 0.42551358760119418 0.36537646812703811 0 0.4299254386316731 0.3803786502327931 0 0.42551358760119418 0.36537646812703811 0 0.41246220195229721 0.3506278298569771 0 0.41231434107140641 0.38013984702149428 0 0.41246220195229721 0.3506278298569771 0 0.40114352225198108 0.36744524850132809 0 0.41231434107140641 0.38013984702149428 0 0.41246220195229721 0.3506278298569771 0 0.41231434107140641 0.38013984702149428 0 0.42551358760119418 0.36537646812703811 0 0.41246220195229721 0.3506278298569771 0 0.43473990769231319 0.34957261869759548 0 0.41246220195229721 0.3506278298569771 0 0.43473990769231319 0.34957261869759548 0 0.42588866899440297 0.33427069067667792 0 0.44205873227879922 0.32952816249506189 0 0.42588866899440297 0.33427069067667792 0 0.42713003246253589 0.32261352619376732 0 0.44205873227879922 0.32952816249506189 0 0.43473990769231319 0.34957261869759548 0 0.42588866899440297 0.33427069067667792 0 0.4279626657437533 0.30553943891086938 0 0.44205873227879922 0.32952816249506189 0 0.4279626657437533 0.30553943891086938 0 0.44205873227879922 0.32952816249506189 0 0.42713003246253589 0.32261352619376732 0 0.4279626657437533 0.30553943891086938 0 0.44209183777797573 0.3109208484452175 0 0.44205873227879922 0.32952816249506189 0 0.4279626657437533 0.30553943891086938 0 0.42713003246253589 0.32261352619376732 0 0.41261006283318802 0.32111581269245992 0 0.42588866899440297 0.33427069067667792 0 0.42713003246253589 0.32261352619376732 0 0.41261006283318802 0.32111581269245992 0 0.41246220195229721 0.3506278298569771 0 0.41261006283318802 0.32111581269245992 0 0.39915578931918572 0.33553641028742148 0 0.41246220195229721 0.3506278298569771 0 0.41261006283318802 0.32111581269245992 0 0.41246220195229721 0.3506278298569771 0 0.42588866899440297 0.33427069067667792 0 0.41261006283318802 0.32111581269245992 0 0.40944173941441703 0.30206530627503803 0 0.41261006283318802 0.32111581269245992 0 0.39600136558546051 0.31624834407928498 0 0.41261006283318802 0.32111581269245992 0 0.39915578931918572 0.33553641028742148 0 0.39600136558546051 0.31624834407928498 0 0.39915578931918572 0.33553641028742148 0 0.39600136558546051 0.31624834407928498 0 0.38270513771793641 0.33215206621442112 0 0.37724880867256738 0.30797586350392542 0 0.39600136558546051 0.31624834407928498 0 0.38270513771793641 0.33215206621442112 0 0.39915578931918572 0.33553641028742148 0 0.38270513771793641 0.33215206621442112 0 0.3877622844562843 0.35615631786364083 0 0.37150169921618531 0.35137921658423282 0 0.38270513771793641 0.33215206621442112 0 0.3877622844562843 0.35615631786364083 0 0.3877622844562843 0.35615631786364083 0 0.37827907591097348 0.37394343728619989 0 0.39584772940739771 0.38382550569260332 0 0.37150169921618531 0.35137921658423282 0 0.3877622844562843 0.35615631786364083 0 0.37827907591097348 0.37394343728619989 0 0.3877622844562843 0.35615631786364083 0 0.39584772940739771 0.38382550569260332 0 0.3877622844562843 0.35615631786364083 0 0.40114352225198108 0.36744524850132809 0 0.39584772940739771 0.38382550569260332 0 0.41246220195229721 0.3506278298569771 0 0.39915578931918572 0.33553641028742148 0 0.3877622844562843 0.35615631786364083 0 0.41246220195229721 0.3506278298569771 0 0.3877622844562843 0.35615631786364083 0 0.40114352225198108 0.36744524850132809 0 0.39584772940739771 0.38382550569260332 0 0.39386585249941908 0.40709835387814941 0 0.40393317435851123 0.41149469352156581 0 0.40571417877250748 0.39625995706159162 0 0.39584772940739771 0.38382550569260332 0 0.40393317435851123 0.41149469352156581 0 0.39584772940739771 0.38382550569260332 0 0.38616903859001972 0.39367463056651009 0 0.39386585249941908 0.40709835387814941 0 0.39584772940739771 0.38382550569260332 0 0.40393317435851123 0.41149469352156581 0 0.40571417877250748 0.39625995706159162 0 0.39584772940739771 0.38382550569260332 0 0.41231434107140641 0.38013984702149428 0 0.40114352225198108 0.36744524850132809 0 0.39584772940739771 0.38382550569260332 0 0.41231434107140641 0.38013984702149428 0 0.37435230135160857 0.39153951262079129 0 0.37827907591097348 0.37394343728619989 0 0.38616903859001972 0.39367463056651009 0 0.37827907591097348 0.37394343728619989 0 0.39584772940739771 0.38382550569260332 0 0.38616903859001972 0.39367463056651009 0 0.38616903859001972 0.39367463056651009 0 0.37798391607034459 0.40349356389224378 0 0.39386585249941908 0.40709835387814941 0 0.37435230135160857 0.39153951262079129 0 0.38616903859001972 0.39367463056651009 0 0.37798391607034459 0.40349356389224378 0 0.37151639960737531 0.41876255318323158 0 0.39386585249941908 0.40709835387814941 0 0.37151639960737531 0.41876255318323158 0 0.39386585249941908 0.40709835387814941 0 0.39237840329809492 0.41915211363747851 0 0.37151639960737531 0.41876255318323158 0 0.37798391607034459 0.40349356389224378 0 0.39386585249941908 0.40709835387814941 0 0.37151639960737531 0.41876255318323158 0 0.38505264961882668 0.43225744899003149 0 0.39237840329809492 0.41915211363747851 0 0.37156008541952368 0.43516143078289199 0 0.37151639960737531 0.41876255318323158 0 0.38505264961882668 0.43225744899003149 0 0.38505264961882668 0.43225744899003149 0 0.39568144026521929 0.43652402566315451 0 0.38970610171148068 0.44327750396765431 0 0.38505264961882668 0.43225744899003149 0 0.39568144026521929 0.43652402566315451 0 0.39801285309994189 0.42777668469282037 0 0.39801285309994189 0.42777668469282037 0 0.39237840329809492 0.41915211363747851 0 0.40007875783013158 0.42152441471476032 0 0.38505264961882668 0.43225744899003149 0 0.39801285309994189 0.42777668469282037 0 0.39237840329809492 0.41915211363747851 0 0.39801285309994189 0.42777668469282037 0 0.40366602594471079 0.42696371216638868 0 0.40007875783013158 0.42152441471476032 0 0.39568144026521929 0.43652402566315451 0 0.39801285309994189 0.42777668469282037 0 0.40428672512534453 0.43485888655226901 0 0.39801285309994189 0.42777668469282037 0 0.40366602594471079 0.42696371216638868 0 0.40428672512534453 0.43485888655226901 0 0.39386585249941908 0.40709835387814941 0 0.39237840329809492 0.41915211363747851 0 0.40393317435851123 0.41149469352156581 0 0.39237840329809492 0.41915211363747851 0 0.40007875783013158 0.42152441471476032 0 0.40393317435851123 0.41149469352156581 0 0.40366602594471079 0.42696371216638868 0 0.40007875783013158 0.42152441471476032 0 0.40393317435851123 0.41149469352156581 0 0.41216648019051549 0.40965186418601141 0 0.41857657278051569 0.4217646138347273 0 0.41486991095899262 0.43195540679153299 0 0.40393317435851123 0.41149469352156581 0 0.41216648019051549 0.40965186418601141 0 0.41201861930962458 0.43916388135052842 0 0.41216648019051549 0.40965186418601141 0 0.41857657278051569 0.4217646138347273 0 0.421365176617915 0.41446171113154068 0 0.41216648019051549 0.40965186418601141 0 0.421365176617915 0.41446171113154068 0 0.42076519487991648 0.4068826326242953 0 0.41216648019051549 0.40965186418601141 0 0.41486991095899262 0.43195540679153299 0 0.41201861930962458 0.43916388135052842 0 0.41216648019051549 0.40965186418601141 0 0.41201861930962458 0.43916388135052842 0 0.40366602594471079 0.42696371216638868 0 0.40393317435851123 0.41149469352156581 0 0.41201861930962458 0.43916388135052842 0 0.40393317435851123 0.41149469352156581 0 0.41201861930962458 0.43916388135052842 0 0.40366602594471079 0.42696371216638868 0 0.40428672512534453 0.43485888655226901 0 0.41201861930962458 0.43916388135052842 0 0.41857657278051569 0.4217646138347273 0 0.41486991095899262 0.43195540679153299 0 0.42388377578790809 0.42955806622728487 0 0.41486991095899262 0.43195540679153299 0 0.42388377578790809 0.42955806622728487 0 0.41958588215837239 0.43773227861000857 0 0.41486991095899262 0.43195540679153299 0 0.41548707834818521 0.43706187025445892 0 0.41958588215837239 0.43773227861000857 0 0.41486991095899262 0.43195540679153299 0 0.41548707834818521 0.43706187025445892 0 0.41201861930962458 0.43916388135052842 0 0.42788829566844178 0.43707297026652953 0 0.43764556320604953 0.42711346122130572 0 0.43474400622717368 0.44762831711216328 0 0.42788829566844178 0.43707297026652953 0 0.42388377578790809 0.42955806622728487 0 0.41958588215837239 0.43773227861000857 0 0.41857657278051569 0.4217646138347273 0 0.42388377578790809 0.42955806622728487 0 0.42593216479801321 0.42123099486673338 0 0.42388377578790809 0.42955806622728487 0 0.42593216479801321 0.42123099486673338 0 0.43764556320604953 0.42711346122130572 0 0.42788829566844178 0.43707297026652953 0 0.42388377578790809 0.42955806622728487 0 0.43764556320604953 0.42711346122130572 0 0.421365176617915 0.41446171113154068 0 0.42076519487991648 0.4068826326242953 0 0.43058120528355048 0.41229977837306431 0 0.421365176617915 0.41446171113154068 0 0.42593216479801321 0.42123099486673338 0 0.43058120528355048 0.41229977837306431 0 0.41857657278051569 0.4217646138347273 0 0.421365176617915 0.41446171113154068 0 0.42593216479801321 0.42123099486673338 0 0.42593216479801321 0.42123099486673338 0 0.43058120528355048 0.41229977837306431 0 0.43764556320604953 0.42711346122130572 0 0.42076519487991648 0.4068826326242953 0 0.42110095915452977 0.39494024865565991 0 0.43824192471650891 0.39337696829873547 0 0.42076519487991648 0.4068826326242953 0 0.43058120528355048 0.41229977837306431 0 0.43824192471650891 0.39337696829873547 0 0.41216648019051549 0.40965186418601141 0 0.42076519487991648 0.4068826326242953 0 0.42110095915452977 0.39494024865565991 0 0.40571417877250748 0.39625995706159162 0 0.41216648019051549 0.40965186418601141 0 0.41231434107140641 0.38013984702149428 0 0.41216648019051549 0.40965186418601141 0 0.41231434107140641 0.38013984702149428 0 0.41216648019051549 0.40965186418601141 0 0.42110095915452977 0.39494024865565991 0 0.41231434107140641 0.38013984702149428 0 0.40571417877250748 0.39625995706159162 0 0.40393317435851123 0.41149469352156581 0 0.41216648019051549 0.40965186418601141 0 0.42110095915452977 0.39494024865565991 0 0.41231434107140641 0.38013984702149428 0 0.4299254386316731 0.3803786502327931 0 0.42551358760119418 0.36537646812703811 0 0.41231434107140641 0.38013984702149428 0 0.4299254386316731 0.3803786502327931 0 0.42110095915452977 0.39494024865565991 0 0.4299254386316731 0.3803786502327931 0 0.43824192471650891 0.39337696829873547 0 0.4299254386316731 0.3803786502327931 0 0.4490765811844637 0.37900430322903322 0 0.43824192471650891 0.39337696829873547 0 0.43812604865828142 0.36616339482633031 0 0.4299254386316731 0.3803786502327931 0 0.4490765811844637 0.37900430322903322 0 0.43824192471650891 0.39337696829873547 0 0.45882794981100611 0.40307453794420622 0 0.4490765811844637 0.37900430322903322 0 0.43824192471650891 0.39337696829873547 0 0.45882794981100611 0.40307453794420622 0 0.43058120528355048 0.41229977837306431 0 0.43824192471650891 0.39337696829873547 0 0.44519597037238817 0.41233995057263573 0 0.43824192471650891 0.39337696829873547 0 0.45882794981100611 0.40307453794420622 0 0.44519597037238817 0.41233995057263573 0 0.45882794981100611 0.40307453794420622 0 0.46757827021980708 0.37603916207902099 0 0.47621199910751738 0.39403309023356659 0 0.4490765811844637 0.37900430322903322 0 0.45882794981100611 0.40307453794420622 0 0.46757827021980708 0.37603916207902099 0 0.46757827021980708 0.37603916207902099 0 0.4843008702602476 0.3783030001328167 0 0.47621199910751738 0.39403309023356659 0 0.45882794981100611 0.40307453794420622 0 0.47621199910751738 0.39403309023356659 0 0.47941397490550308 0.41277210758967681 0 0.47621199910751738 0.39403309023356659 0 0.5 0.39678228983095593 0 0.47941397490550308 0.41277210758967681 0 0.4843008702602476 0.3783030001328167 0 0.47621199910751738 0.39403309023356659 0 0.5 0.39678228983095593 0 0.5 0.37109490242676441 0 0.4843008702602476 0.3783030001328167 0 0.5 0.39678228983095593 0 0.50000000000000022 0.4224696772351475 0 0.46068320884482628 0.42583500702586691 0 0.45497646240178419 0.45382805712076041 0 0.50000000000000022 0.4224696772351475 0 0.47941397490550308 0.41277210758967681 0 0.46068320884482628 0.42583500702586691 0 0.5 0.39678228983095593 0 0.50000000000000022 0.4224696772351475 0 0.47941397490550308 0.41277210758967681 0 0.50000000000000022 0.4224696772351475 0 0.47941397490550308 0.41277210758967681 0 0.45882794981100611 0.40307453794420622 0 0.47941397490550308 0.41277210758967681 0 0.45882794981100611 0.40307453794420622 0 0.47941397490550308 0.41277210758967681 0 0.46068320884482628 0.42583500702586691 0 0.45882794981100611 0.40307453794420622 0 0.46068320884482628 0.42583500702586691 0 0.44519597037238817 0.41233995057263573 0 0.46068320884482628 0.42583500702586691 0 0.44519597037238817 0.41233995057263573 0 0.43764556320604953 0.42711346122130572 0 0.43058120528355048 0.41229977837306431 0 0.44519597037238817 0.41233995057263573 0 0.43764556320604953 0.42711346122130572 0 0.46068320884482628 0.42583500702586691 0 0.43764556320604953 0.42711346122130572 0 0.45497646240178419 0.45382805712076041 0 0.50000000000000022 0.4224696772351475 0 0.5 0.5 0 0.45497646240178419 0.45382805712076041 0 0.5 0.5 0 0.45497646240178419 0.45382805712076041 0 0.42478734457643569 0.5 0 0.43764556320604953 0.42711346122130572 0 0.45497646240178419 0.45382805712076041 0 0.43474400622717368 0.44762831711216328 0 0.42478734457643569 0.5 0 0.42200961191344027 0.47079791428829998 0 0.40362052340265608 0.46661217345573869 0 0.45497646240178419 0.45382805712076041 0 0.42478734457643569 0.5 0 0.42200961191344027 0.47079791428829998 0 0.45497646240178419 0.45382805712076041 0 0.42200961191344027 0.47079791428829998 0 0.43474400622717368 0.44762831711216328 0 0.42200961191344027 0.47079791428829998 0 0.43474400622717368 0.44762831711216328 0 0.41849420806161047 0.45295310575748488 0 0.43474400622717368 0.44762831711216328 0 0.4243636224466979 0.44403244129040648 0 0.41849420806161047 0.45295310575748488 0 0.42788829566844178 0.43707297026652953 0 0.43474400622717368 0.44762831711216328 0 0.4243636224466979 0.44403244129040648 0 0.42788829566844178 0.43707297026652953 0 0.4243636224466979 0.44403244129040648 0 0.41958588215837239 0.43773227861000857 0 0.41547390096575099 0.43939591426576519 0 0.41958588215837239 0.43773227861000857 0 0.41708400714708738 0.44377592463240828 0 0.41548707834818521 0.43706187025445892 0 0.41547390096575099 0.43939591426576519 0 0.41958588215837239 0.43773227861000857 0 0.41548707834818521 0.43706187025445892 0 0.41547390096575099 0.43939591426576519 0 0.41201861930962458 0.43916388135052842 0 0.4243636224466979 0.44403244129040648 0 0.41958588215837239 0.43773227861000857 0 0.41708400714708738 0.44377592463240828 0 0.41547390096575099 0.43939591426576519 0 0.41708400714708738 0.44377592463240828 0 0.41260886430160282 0.44118375776387297 0 0.4243636224466979 0.44403244129040648 0 0.41708400714708738 0.44377592463240828 0 0.41849420806161047 0.45295310575748488 0 0.41708400714708738 0.44377592463240828 0 0.41849420806161047 0.45295310575748488 0 0.41197756494848992 0.44735805010691199 0 0.40676471562492911 0.45228847529768013 0 0.41197756494848992 0.44735805010691199 0 0.40694605687331109 0.44382944901953492 0 0.41849420806161047 0.45295310575748488 0 0.40676471562492911 0.45228847529768013 0 0.41197756494848992 0.44735805010691199 0 0.41197756494848992 0.44735805010691199 0 0.40948133139943932 0.44243369369099528 0 0.41201861930962458 0.43916388135052842 0 0.41197756494848992 0.44735805010691199 0 0.41201861930962458 0.43916388135052842 0 0.41260886430160282 0.44118375776387297 0 0.41197756494848992 0.44735805010691199 0 0.41201861930962458 0.43916388135052842 0 0.41708400714708738 0.44377592463240828 0 0.41197756494848992 0.44735805010691199 0 0.41260886430160282 0.44118375776387297 0 0.40694605687331109 0.44382944901953492 0 0.40948133139943932 0.44243369369099528 0 0.40698308446633152 0.43938339428700568 0 0.41197756494848992 0.44735805010691199 0 0.40694605687331109 0.44382944901953492 0 0.40948133139943932 0.44243369369099528 0 0.40428672512534453 0.43485888655226901 0 0.40698308446633152 0.43938339428700568 0 0.41201861930962458 0.43916388135052842 0 0.40948133139943932 0.44243369369099528 0 0.40698308446633152 0.43938339428700568 0 0.41201861930962458 0.43916388135052842 0 0.41201861930962458 0.43916388135052842 0 0.41260886430160282 0.44118375776387297 0 0.41547390096575099 0.43939591426576519 0 0.41201861930962458 0.43916388135052842 0 0.41260886430160282 0.44118375776387297 0 0.42200961191344027 0.47079791428829998 0 0.41272226475065898 0.46066291719980101 0 0.40362052340265608 0.46661217345573869 0 0.42200961191344027 0.47079791428829998 0 0.41849420806161047 0.45295310575748488 0 0.41272226475065898 0.46066291719980101 0 0.40676471562492911 0.45228847529768013 0 0.41272226475065898 0.46066291719980101 0 0.40362052340265608 0.46661217345573869 0 0.41849420806161047 0.45295310575748488 0 0.40676471562492911 0.45228847529768013 0 0.41272226475065898 0.46066291719980101 0 0.40362052340265608 0.46661217345573869 0 0.38711720682763628 0.45762413034329369 0 0.38276930030154988 0.47710752476068918 0 0.40362052340265608 0.46661217345573869 0 0.39661141373206021 0.45122203721990101 0 0.38711720682763628 0.45762413034329369 0 0.40676471562492911 0.45228847529768013 0 0.40362052340265608 0.46661217345573869 0 0.39661141373206021 0.45122203721990101 0 0.39568144026521929 0.43652402566315451 0 0.40428672512534453 0.43485888655226901 0 0.40063484626483498 0.44249904619565839 0 0.40428672512534453 0.43485888655226901 0 0.40698308446633152 0.43938339428700568 0 0.40063484626483498 0.44249904619565839 0 0.40694605687331109 0.44382944901953492 0 0.40698308446633152 0.43938339428700568 0 0.40063484626483498 0.44249904619565839 0 0.40676471562492911 0.45228847529768013 0 0.40694605687331109 0.44382944901953492 0 0.40063484626483498 0.44249904619565839 0 0.40676471562492911 0.45228847529768013 0 0.40063484626483498 0.44249904619565839 0 0.39661141373206021 0.45122203721990101 0 0.39661141373206021 0.45122203721990101 0 0.38970610171148068 0.44327750396765431 0 0.38711720682763628 0.45762413034329369 0 0.40063484626483498 0.44249904619565839 0 0.39661141373206021 0.45122203721990101 0 0.38970610171148068 0.44327750396765431 0 0.39568144026521929 0.43652402566315451 0 0.40063484626483498 0.44249904619565839 0 0.38970610171148068 0.44327750396765431 0 0.38505264961882668 0.43225744899003149 0 0.38970610171148068 0.44327750396765431 0 0.37627041262828298 0.44695832522674428 0 0.38970610171148068 0.44327750396765431 0 0.37627041262828298 0.44695832522674428 0 0.38711720682763628 0.45762413034329369 0 0.37156008541952368 0.43516143078289199 0 0.38505264961882668 0.43225744899003149 0 0.37627041262828298 0.44695832522674428 0 0.37472264026712959 0.46185703892081009 0 0.38711720682763628 0.45762413034329369 0 0.38276930030154988 0.47710752476068918 0 0.37472264026712959 0.46185703892081009 0 0.37627041262828298 0.44695832522674428 0 0.38711720682763628 0.45762413034329369 0 0.36903060901715601 0.5 0 0.42478734457643569 0.5 0 0.38276930030154988 0.47710752476068918 0 0.42478734457643569 0.5 0 0.40362052340265608 0.46661217345573869 0 0.38276930030154988 0.47710752476068918 0 0.32459897064356619 0.084640749277851021 0 0.35273665705428559 0.085678113706387754 0 0.339125529483771 0.070199482391870224 0 0.32459897064356619 0.084640749277851021 0 0.35273665705428559 0.085678113706387754 0 0.32459897064356619 0.084640749277851021 0 0.3359223047517243 0.098921809231400995 0 0.35273665705428559 0.085678113706387754 0 0.339125529483771 0.070199482391870224 0 0.32459897064356619 0.084640749277851021 0 0.31104274252274328 0.070217789934621383 0 0.339125529483771 0.070199482391870224 0 0.32105097642383662 0.053140661040651821 0 0.31104274252274328 0.070217789934621383 0 0.32459897064356619 0.084640749277851021 0 0.3168868060317338 0.10228912566811441 0 0.29646128423284701 0.083603384849314274 0 0.32459897064356619 0.084640749277851021 0 0.3168868060317338 0.10228912566811441 0 0.3359223047517243 0.098921809231400995 0 0.3168868060317338 0.10228912566811441 0 0.31427324526771122 0.1213708439436044 0 0.33272431375805822 0.1132488711592755 0 0.31427324526771122 0.1213708439436044 0 0.33272431375805822 0.1132488711592755 0 0.32978372129040701 0.13486821785425909 0 0.31427324526771122 0.1213708439436044 0 0.33272431375805822 0.1132488711592755 0 0.3168868060317338 0.10228912566811441 0 0.33272431375805822 0.1132488711592755 0 0.3359223047517243 0.098921809231400995 0 0.33272431375805822 0.1132488711592755 0 0.3359223047517243 0.098921809231400995 0 0.35266477627097759 0.1087521863453763 0 0.35266477627097759 0.1087521863453763 0 0.36456973871010367 0.1003771057836885 0 0.35273665705428559 0.085678113706387754 0 0.3359223047517243 0.098921809231400995 0 0.35266477627097759 0.1087521863453763 0 0.35273665705428559 0.085678113706387754 0 0.35266477627097759 0.1087521863453763 0 0.3488808109854532 0.12791011145999631 0 0.36411093596175798 0.12690374318287939 0 0.33272431375805822 0.1132488711592755 0 0.35266477627097759 0.1087521863453763 0 0.3488808109854532 0.12791011145999631 0 0.35266477627097759 0.1087521863453763 0 0.37024669518420877 0.1151536679212747 0 0.36411093596175798 0.12690374318287939 0 0.37024669518420877 0.1151536679212747 0 0.36411093596175798 0.12690374318287939 0 0.37633887699913299 0.1296709172031929 0 0.35266477627097759 0.1087521863453763 0 0.37024669518420877 0.1151536679212747 0 0.36456973871010367 0.1003771057836885 0 0.37024669518420877 0.1151536679212747 0 0.37556051932460721 0.1009345730281008 0 0.37024669518420877 0.1151536679212747 0 0.36456973871010367 0.1003771057836885 0 0.37556051932460721 0.1009345730281008 0 0.36456973871010367 0.1003771057836885 0 0.36843531463850038 0.093426317663276012 0 0.37556051932460721 0.1009345730281008 0 0.35273665705428559 0.085678113706387754 0 0.38087434346500482 0.086715478134926777 0 0.36843531463850038 0.093426317663276012 0 0.38087434346500482 0.086715478134926777 0 0.37556051932460721 0.1009345730281008 0 0.36456973871010367 0.1003771057836885 0 0.36843531463850038 0.093426317663276012 0 0.35273665705428559 0.085678113706387754 0 0.3696377925119913 0.080804975754819389 0 0.35273665705428559 0.085678113706387754 0 0.38087434346500482 0.086715478134926777 0 0.36843531463850038 0.093426317663276012 0 0.35273665705428559 0.085678113706387754 0 0.38087434346500482 0.086715478134926777 0 0.339125529483771 0.070199482391870224 0 0.35273665705428559 0.085678113706387754 0 0.36329866283310219 0.066163661003796836 0 0.3696377925119913 0.080804975754819389 0 0.35273665705428559 0.085678113706387754 0 0.36329866283310219 0.066163661003796836 0 0.3696377925119913 0.080804975754819389 0 0.36329866283310219 0.066163661003796836 0 0.38164150669557162 0.084662650174165882 0 0.36329866283310219 0.066163661003796836 0 0.38164150669557162 0.084662650174165882 0 0.36329866283310219 0.066163661003796836 0 0.34495581897063332 0.047664671833427437 0 0.37558052902725658 0.0450699776536828 0 0.35660074465772951 0.028908256510907771 0 0.3791310270837307 0.024659175924217729 0 0.37558052902725658 0.0450699776536828 0 0.34495581897063332 0.047664671833427437 0 0.35660074465772951 0.028908256510907771 0 0.37558052902725658 0.0450699776536828 0 0.339125529483771 0.070199482391870224 0 0.36329866283310219 0.066163661003796836 0 0.34495581897063332 0.047664671833427437 0 0.36329866283310219 0.066163661003796836 0 0.34495581897063332 0.047664671833427437 0 0.36082271584702019 0.0074572906701818112 0 0.37003255214226072 0.0037635888938520922 0 0.3791310270837307 0.024659175924217729 0 0.36082271584702019 0.0074572906701818112 0 0.36062521711878898 0.0006066021732962501 0 0.37003255214226072 0.0037635888938520922 0 0.36062521711878898 0.0006066021732962501 0 0.37003255214226072 0.0037635888938520922 0 0.36886835747302382 -0.0031896416934029249 0 0.37003255214226072 0.0037635888938520922 0 0.37995136004431668 0.003477639248481944 0 0.36886835747302382 -0.0031896416934029249 0 0.36082271584702019 0.0074572906701818112 0 0.3791310270837307 0.024659175924217729 0 0.36082271584702019 0.0074572906701818112 0 0.35660074465772951 0.028908256510907771 0 0.3791310270837307 0.024659175924217729 0 0.36082271584702019 0.0074572906701818112 0 0.35660074465772951 0.028908256510907771 0 0.3416103771385664 0.013133709647199831 0 0.36082271584702019 0.0074572906701818112 0 0.3416103771385664 0.013133709647199831 0 0.34251440461031052 -0.00974459458385484 0 0.3416103771385664 0.013133709647199831 0 0.32539226792800302 0.0004610494544162614 0 0.34251440461031052 -0.00974459458385484 0 0.3416103771385664 0.013133709647199831 0 0.32661297510816423 0.02916568266305803 0 0.32539226792800302 0.0004610494544162614 0 0.35660074465772951 0.028908256510907771 0 0.3416103771385664 0.013133709647199831 0 0.32661297510816423 0.02916568266305803 0 0.32661297510816423 0.02916568266305803 0 0.30827013124569591 0.01066669349268779 0 0.31131700194320622 0.024560209601648311 0 0.32661297510816423 0.02916568266305803 0 0.30297642336390229 0.036081839689433473 0 0.31131700194320622 0.024560209601648311 0 0.32661297510816423 0.02916568266305803 0 0.30827013124569591 0.01066669349268779 0 0.32661297510816423 0.02916568266305803 0 0.32539226792800302 0.0004610494544162614 0 0.30827013124569591 0.01066669349268779 0 0.32539226792800302 0.0004610494544162614 0 0.30827013124569591 0.01066669349268779 0 0.32539226792800302 0.0004610494544162614 0 0.30827013124569591 0.01066669349268779 0 0.30626763640331711 -0.0069586591564612874 0 0.339125529483771 0.070199482391870224 0 0.34495581897063332 0.047664671833427437 0 0.32105097642383662 0.053140661040651821 0 0.339125529483771 0.070199482391870224 0 0.32105097642383662 0.053140661040651821 0 0.34495581897063332 0.047664671833427437 0 0.32661297510816423 0.02916568266305803 0 0.32105097642383662 0.053140661040651821 0 0.34495581897063332 0.047664671833427437 0 0.32661297510816423 0.02916568266305803 0 0.34495581897063332 0.047664671833427437 0 0.35660074465772951 0.028908256510907771 0 0.32661297510816423 0.02916568266305803 0 0.32661297510816423 0.02916568266305803 0 0.32105097642383662 0.053140661040651821 0 0.30297642336390229 0.036081839689433473 0 0.32105097642383662 0.053140661040651821 0 0.30297642336390229 0.036081839689433473 0 0.29360991984897888 0.059964065934719209 0 0.32105097642383662 0.053140661040651821 0 0.29360991984897888 0.059964065934719209 0 0.31104274252274328 0.070217789934621383 0 0.32105097642383662 0.053140661040651821 0 0.30297642336390229 0.036081839689433473 0 0.30297642336390229 0.036081839689433473 0 0.29360991984897888 0.059964065934719209 0 0.28055063866122781 0.040574695532535003 0 0.30297642336390229 0.036081839689433473 0 0.28490187030396802 0.01902301833821517 0 0.28055063866122781 0.040574695532535003 0 0.29360991984897888 0.059964065934719209 0 0.27026956287213427 0.05699063941888851 0 0.28055063866122781 0.040574695532535003 0 0.30827013124569591 0.01066669349268779 0 0.29362878847169321 -0.0040992851879733828 0 0.30827013124569591 0.01066669349268779 0 0.29584586053809708 0.0048266698578377266 0 0.29362878847169321 -0.0040992851879733828 0 0.30827013124569591 0.01066669349268779 0 0.29482212921718531 0.0092067100560863542 0 0.29584586053809708 0.0048266698578377266 0 0.30827013124569591 0.01066669349268779 0 0.3005457147968284 0.01527082942170211 0 0.29482212921718531 0.0092067100560863542 0 0.30827013124569591 0.01066669349268779 0 0.3005457147968284 0.01527082942170211 0 0.30297642336390229 0.036081839689433473 0 0.3005457147968284 0.01527082942170211 0 0.29379592977530827 0.01814565937361079 0 0.30297642336390229 0.036081839689433473 0 0.3005457147968284 0.01527082942170211 0 0.31131700194320622 0.024560209601648311 0 0.30827013124569591 0.01066669349268779 0 0.3005457147968284 0.01527082942170211 0 0.31131700194320622 0.024560209601648311 0 0.30297642336390229 0.036081839689433473 0 0.28490187030396802 0.01902301833821517 0 0.30297642336390229 0.036081839689433473 0 0.28490187030396802 0.01902301833821517 0 0.29379592977530827 0.01814565937361079 0 0.28490187030396802 0.01902301833821517 0 0.29379592977530827 0.01814565937361079 0 0.28832330241349807 0.011426634941197261 0 0.28666239321781428 0.0035325610705503451 0 0.26682731724403391 0.0019641969869965701 0 0.29362878847169321 -0.0040992851879733828 0 0.29482212921718531 0.0092067100560863542 0 0.28832330241349807 0.011426634941197261 0 0.28666239321781428 0.0035325610705503451 0 0.3005457147968284 0.01527082942170211 0 0.29379592977530827 0.01814565937361079 0 0.29482212921718531 0.0092067100560863542 0 0.29379592977530827 0.01814565937361079 0 0.29482212921718531 0.0092067100560863542 0 0.28832330241349807 0.011426634941197261 0 0.28490187030396802 0.01902301833821517 0 0.28832330241349807 0.011426634941197261 0 0.28143418955321481 0.007225225867523658 0 0.28832330241349807 0.011426634941197261 0 0.28143418955321481 0.007225225867523658 0 0.28666239321781428 0.0035325610705503451 0 0.29482212921718531 0.0092067100560863542 0 0.28666239321781428 0.0035325610705503451 0 0.29584586053809708 0.0048266698578377266 0 0.28666239321781428 0.0035325610705503451 0 0.29584586053809708 0.0048266698578377266 0 0.29362878847169321 -0.0040992851879733828 0 0.28490187030396802 0.01902301833821517 0 0.28143418955321481 0.007225225867523658 0 0.26682731724403391 0.0019641969869965701 0 0.28490187030396802 0.01902301833821517 0 0.26682731724403391 0.0019641969869965701 0 0.26805678875890893 0.017726063824607639 0 0.28490187030396802 0.01902301833821517 0 0.26682731724403391 0.0019641969869965701 0 0.28143418955321481 0.007225225867523658 0 0.28666239321781428 0.0035325610705503451 0 0.26682731724403391 0.0019641969869965701 0 0.28490187030396802 0.01902301833821517 0 0.27175918104286079 0.029257275147333239 0 0.28055063866122781 0.040574695532535003 0 0.28490187030396802 0.01902301833821517 0 0.27175918104286079 0.029257275147333239 0 0.26805678875890893 0.017726063824607639 0 0.27175918104286079 0.029257275147333239 0 0.26805678875890893 0.017726063824607639 0 0.25577337963678798 0.027212692525896549 0 0.26805678875890893 0.017726063824607639 0 0.25577337963678798 0.027212692525896549 0 0.25418737821655463 0.015399963457620141 0 0.2442639786172042 0.0070688571158914679 0 0.26682731724403391 0.0019641969869965701 0 0.2442639786172042 0.0070688571158914679 0 0.26682731724403391 0.0019641969869965701 0 0.25418737821655463 0.015399963457620141 0 0.2442639786172042 0.0070688571158914679 0 0.26682731724403391 0.0019641969869965701 0 0.26205797115204887 -0.0025371272048387711 0 0.26682731724403391 0.0019641969869965701 0 0.26805678875890893 0.017726063824607639 0 0.25418737821655463 0.015399963457620141 0 0.27026956287213427 0.05699063941888851 0 0.28055063866122781 0.040574695532535003 0 0.26198110274896208 0.043557872009436539 0 0.27175918104286079 0.029257275147333239 0 0.28055063866122781 0.040574695532535003 0 0.26198110274896208 0.043557872009436539 0 0.27175918104286079 0.029257275147333239 0 0.25577337963678798 0.027212692525896549 0 0.26198110274896208 0.043557872009436539 0 0.23768776443311579 0.043688008318092109 0 0.25577337963678798 0.027212692525896549 0 0.26198110274896208 0.043557872009436539 0 0.23768776443311579 0.043688008318092109 0 0.26198110274896208 0.043557872009436539 0 0.25208002729542178 0.064527904360886248 0 0.27026956287213427 0.05699063941888851 0 0.26198110274896208 0.043557872009436539 0 0.25208002729542178 0.064527904360886248 0 0.24644776461963311 0.089106363291110768 0 0.25208002729542178 0.064527904360886248 0 0.27078163830953422 0.080239385276048888 0 0.27026956287213427 0.05699063941888851 0 0.25208002729542178 0.064527904360886248 0 0.27078163830953422 0.080239385276048888 0 0.24644776461963311 0.089106363291110768 0 0.27078163830953422 0.080239385276048888 0 0.26374747289525657 0.095196675322374691 0 0.27078163830953422 0.080239385276048888 0 0.27834864504377949 0.099235072999047894 0 0.26374747289525657 0.095196675322374691 0 0.29360991984897888 0.059964065934719209 0 0.27026956287213427 0.05699063941888851 0 0.27078163830953422 0.080239385276048888 0 0.29360991984897888 0.059964065934719209 0 0.27078163830953422 0.080239385276048888 0 0.29646128423284701 0.083603384849314274 0 0.27078163830953422 0.080239385276048888 0 0.29646128423284701 0.083603384849314274 0 0.27834864504377949 0.099235072999047894 0 0.32459897064356619 0.084640749277851021 0 0.29646128423284701 0.083603384849314274 0 0.31104274252274328 0.070217789934621383 0 0.32459897064356619 0.084640749277851021 0 0.29646128423284701 0.083603384849314274 0 0.29360991984897888 0.059964065934719209 0 0.29646128423284701 0.083603384849314274 0 0.31104274252274328 0.070217789934621383 0 0.3168868060317338 0.10228912566811441 0 0.31427324526771122 0.1213708439436044 0 0.29673894651680699 0.1065564182854849 0 0.31427324526771122 0.1213708439436044 0 0.29673894651680699 0.1065564182854849 0 0.29582217677736422 0.12949281672793331 0 0.3168868060317338 0.10228912566811441 0 0.29646128423284701 0.083603384849314274 0 0.29673894651680699 0.1065564182854849 0 0.29646128423284701 0.083603384849314274 0 0.29673894651680699 0.1065564182854849 0 0.27834864504377949 0.099235072999047894 0 0.29673894651680699 0.1065564182854849 0 0.28201408738318567 0.1171756832833751 0 0.27834864504377949 0.099235072999047894 0 0.29673894651680699 0.1065564182854849 0 0.28201408738318567 0.1171756832833751 0 0.29582217677736422 0.12949281672793331 0 0.28201408738318567 0.1171756832833751 0 0.27834864504377949 0.099235072999047894 0 0.26190943645332521 0.11336057640168661 0 0.28201408738318567 0.1171756832833751 0 0.26190943645332521 0.11336057640168661 0 0.27737110828701739 0.1376147895122625 0 0.27834864504377949 0.099235072999047894 0 0.26374747289525657 0.095196675322374691 0 0.26190943645332521 0.11336057640168661 0 0.24644776461963311 0.089106363291110768 0 0.26190943645332521 0.11336057640168661 0 0.24644776461963311 0.089106363291110768 0 0.26374747289525657 0.095196675322374691 0 0.26190943645332521 0.11336057640168661 0 0.2407900118549258 0.1224227284823214 0 0.26190943645332521 0.11336057640168661 0 0.25724954753185281 0.13102681759278989 0 0.24082077887232661 0.13822745745909271 0 0.25724954753185281 0.13102681759278989 0 0.25314426042736299 0.14827920166102929 0 0.26190943645332521 0.11336057640168661 0 0.25724954753185281 0.13102681759278989 0 0.27737110828701739 0.1376147895122625 0 0.25724954753185281 0.13102681759278989 0 0.27737110828701739 0.1376147895122625 0 0.25314426042736299 0.14827920166102929 0 0.26190943645332521 0.11336057640168661 0 0.27737110828701739 0.1376147895122625 0 0.27737110828701739 0.1376147895122625 0 0.27389285165032701 0.15136518207865421 0 0.29241755080354342 0.16121764612939821 0 0.27737110828701739 0.1376147895122625 0 0.27389285165032701 0.15136518207865421 0 0.26216225783781522 0.15209211462621691 0 0.27737110828701739 0.1376147895122625 0 0.26216225783781522 0.15209211462621691 0 0.25314426042736299 0.14827920166102929 0 0.27737110828701739 0.1376147895122625 0 0.25314426042736299 0.14827920166102929 0 0.26216225783781522 0.15209211462621691 0 0.25314426042736299 0.14827920166102929 0 0.25040386024834022 0.15833548980136 0 0.2491144448195933 0.16826536546051801 0 0.25040386024834022 0.15833548980136 0 0.25868092558922018 0.1640971534492395 0 0.26216225783781522 0.15209211462621691 0 0.25040386024834022 0.15833548980136 0 0.25868092558922018 0.1640971534492395 0 0.2491144448195933 0.16826536546051801 0 0.25868092558922018 0.1640971534492395 0 0.26180322687967378 0.17551786778706649 0 0.25868092558922018 0.1640971534492395 0 0.26180322687967378 0.17551786778706649 0 0.26881699930175729 0.1670435218419746 0 0.26216225783781522 0.15209211462621691 0 0.25868092558922018 0.1640971534492395 0 0.26881699930175729 0.1670435218419746 0 0.2491144448195933 0.16826536546051801 0 0.25167137028295861 0.17663220115905981 0 0.26180322687967378 0.17551786778706649 0 0.25352284263599512 0.1850986446351863 0 0.25167137028295861 0.17663220115905981 0 0.26180322687967378 0.17551786778706649 0 0.25352284263599512 0.1850986446351863 0 0.26180322687967378 0.17551786778706649 0 0.263359315694985 0.18931254124208949 0 0.26180322687967378 0.17551786778706649 0 0.27201182318509343 0.1834258476609105 0 0.263359315694985 0.18931254124208949 0 0.26180322687967378 0.17551786778706649 0 0.27440853736769472 0.17530106004628679 0 0.26881699930175729 0.1670435218419746 0 0.26180322687967378 0.17551786778706649 0 0.27201182318509343 0.1834258476609105 0 0.27440853736769472 0.17530106004628679 0 0.27440853736769472 0.17530106004628679 0 0.28483496891260263 0.17052057841689899 0 0.28202086836253393 0.18257761201819689 0 0.27201182318509343 0.1834258476609105 0 0.28202086836253393 0.18257761201819689 0 0.27801586280998519 0.18956109449012129 0 0.27201182318509343 0.1834258476609105 0 0.27440853736769472 0.17530106004628679 0 0.28202086836253393 0.18257761201819689 0 0.27440853736769472 0.17530106004628679 0 0.26881699930175729 0.1670435218419746 0 0.28483496891260263 0.17052057841689899 0 0.26216225783781522 0.15209211462621691 0 0.28483496891260263 0.17052057841689899 0 0.26216225783781522 0.15209211462621691 0 0.26881699930175729 0.1670435218419746 0 0.28483496891260263 0.17052057841689899 0 0.27389285165032701 0.15136518207865421 0 0.26216225783781522 0.15209211462621691 0 0.28483496891260263 0.17052057841689899 0 0.27389285165032701 0.15136518207865421 0 0.29241755080354342 0.16121764612939821 0 0.28483496891260263 0.17052057841689899 0 0.29241755080354342 0.16121764612939821 0 0.30155235058850682 0.17554710435940449 0 0.27389285165032701 0.15136518207865421 0 0.28483496891260263 0.17052057841689899 0 0.29241755080354342 0.16121764612939821 0 0.28483496891260263 0.17052057841689899 0 0.29321072782398733 0.18515995551533221 0 0.30750767998739009 0.1889490422075811 0 0.28483496891260263 0.17052057841689899 0 0.30750767998739009 0.1889490422075811 0 0.28202086836253393 0.18257761201819689 0 0.29321072782398733 0.18515995551533221 0 0.2878844033820997 0.19251019759147969 0 0.28483496891260263 0.17052057841689899 0 0.28202086836253393 0.18257761201819689 0 0.29321072782398733 0.18515995551533221 0 0.30155235058850682 0.17554710435940449 0 0.31068715037347061 0.18987656258941071 0 0.31887606476485519 0.1752897536159399 0 0.28483496891260263 0.17052057841689899 0 0.30155235058850682 0.17554710435940449 0 0.30750767998739009 0.1889490422075811 0 0.30155235058850682 0.17554710435940449 0 0.31068715037347061 0.18987656258941071 0 0.30155235058850682 0.17554710435940449 0 0.31068715037347061 0.18987656258941071 0 0.30750767998739009 0.1889490422075811 0 0.29241755080354342 0.16121764612939821 0 0.31055069816591108 0.16007077111000781 0 0.30135676112932291 0.15272719464239731 0 0.29241755080354342 0.16121764612939821 0 0.31055069816591108 0.16007077111000781 0 0.31887606476485519 0.1752897536159399 0 0.29241755080354342 0.16121764612939821 0 0.30155235058850682 0.17554710435940449 0 0.31887606476485519 0.1752897536159399 0 0.29241755080354342 0.16121764612939821 0 0.31887606476485519 0.1752897536159399 0 0.29241755080354342 0.16121764612939821 0 0.30155235058850682 0.17554710435940449 0 0.31055069816591108 0.16007077111000781 0 0.30135676112932291 0.15272719464239731 0 0.31690436447805698 0.14984981901748459 0 0.30135676112932291 0.15272719464239731 0 0.3087734872663036 0.13873507601808241 0 0.29450065465495989 0.14410156392281559 0 0.30135676112932291 0.15272719464239731 0 0.3087734872663036 0.13873507601808241 0 0.31690436447805698 0.14984981901748459 0 0.31427324526771122 0.1213708439436044 0 0.29582217677736422 0.12949281672793331 0 0.31427324526771122 0.1213708439436044 0 0.3087734872663036 0.13873507601808241 0 0.29582217677736422 0.12949281672793331 0 0.3087734872663036 0.13873507601808241 0 0.29582217677736422 0.12949281672793331 0 0.29450065465495989 0.14410156392281559 0 0.27737110828701739 0.1376147895122625 0 0.29582217677736422 0.12949281672793331 0 0.28201408738318567 0.1171756832833751 0 0.27737110828701739 0.1376147895122625 0 0.29582217677736422 0.12949281672793331 0 0.27737110828701739 0.1376147895122625 0 0.29582217677736422 0.12949281672793331 0 0.29450065465495989 0.14410156392281559 0 0.29241755080354342 0.16121764612939821 0 0.30135676112932291 0.15272719464239731 0 0.29450065465495989 0.14410156392281559 0 0.27737110828701739 0.1376147895122625 0 0.29241755080354342 0.16121764612939821 0 0.29450065465495989 0.14410156392281559 0 0.27737110828701739 0.1376147895122625 0 0.29241755080354342 0.16121764612939821 0 0.27032403842469399 0.25101019468977348 0 0.28096781835121032 0.25150032781063802 0 0.27680362970064581 0.24330272308228651 0 0.27680362970064581 0.24330272308228651 0 0.27087513658918583 0.23336308227471211 0 0.28387528678617568 0.23203127263236811 0 0.27680362970064581 0.24330272308228651 0 0.26483337672556923 0.24260958630106361 0 0.27087513658918583 0.23336308227471211 0 0.27032403842469399 0.25101019468977348 0 0.27680362970064581 0.24330272308228651 0 0.26483337672556923 0.24260958630106361 0 0.26483337672556923 0.24260958630106361 0 0.26089251030042121 0.24810771000014839 0 0.25614657990104461 0.24278038359189899 0 0.27032403842469399 0.25101019468977348 0 0.26483337672556923 0.24260958630106361 0 0.26089251030042121 0.24810771000014839 0 0.26089251030042121 0.24810771000014839 0 0.25423555326891639 0.24942618361914939 0 0.25614657990104461 0.24278038359189899 0 0.24900361558079781 0.24088944576215021 0 0.25423555326891639 0.24942618361914939 0 0.25614657990104461 0.24278038359189899 0 0.24900361558079781 0.24088944576215021 0 0.25614657990104461 0.24278038359189899 0 0.2572121397024596 0.234773379395813 0 0.24651796552036409 0.23110242665056199 0 0.24900361558079781 0.24088944576215021 0 0.2572121397024596 0.234773379395813 0 0.26483337672556923 0.24260958630106361 0 0.2572121397024596 0.234773379395813 0 0.27087513658918583 0.23336308227471211 0 0.26483337672556923 0.24260958630106361 0 0.25614657990104461 0.24278038359189899 0 0.2572121397024596 0.234773379395813 0 0.2572121397024596 0.234773379395813 0 0.26442441436682351 0.22159190193844919 0 0.27087513658918583 0.23336308227471211 0 0.2572121397024596 0.234773379395813 0 0.25315194677898373 0.22493079252654741 0 0.26442441436682351 0.22159190193844919 0 0.24651796552036409 0.23110242665056199 0 0.2572121397024596 0.234773379395813 0 0.25315194677898373 0.22493079252654741 0 0.25315194677898373 0.22493079252654741 0 0.26442441436682351 0.22159190193844919 0 0.2519799366662534 0.21517004449020219 0 0.2456252776390182 0.2220162101577105 0 0.25315194677898373 0.22493079252654741 0 0.2519799366662534 0.21517004449020219 0 0.26442441436682351 0.22159190193844919 0 0.27087513658918583 0.23336308227471211 0 0.27547162196129582 0.2227807368515706 0 0.27087513658918583 0.23336308227471211 0 0.27547162196129582 0.2227807368515706 0 0.28387528678617568 0.23203127263236811 0 0.27547162196129582 0.2227807368515706 0 0.27213467759196652 0.20880254044037011 0 0.28488557674244008 0.2144659966254705 0 0.27213467759196652 0.20880254044037011 0 0.28054080374397072 0.20111749908660739 0 0.28488557674244008 0.2144659966254705 0 0.26442441436682351 0.22159190193844919 0 0.27547162196129582 0.2227807368515706 0 0.27213467759196652 0.20880254044037011 0 0.26442441436682351 0.22159190193844919 0 0.27213467759196652 0.20880254044037011 0 0.26013859644790588 0.20809763340879281 0 0.26442441436682351 0.22159190193844919 0 0.2519799366662534 0.21517004449020219 0 0.26013859644790588 0.20809763340879281 0 0.2478987992535544 0.20483769197021839 0 0.2519799366662534 0.21517004449020219 0 0.26013859644790588 0.20809763340879281 0 0.27213467759196652 0.20880254044037011 0 0.26013859644790588 0.20809763340879281 0 0.26457211674712222 0.1995180417235872 0 0.26013859644790588 0.20809763340879281 0 0.26457211674712222 0.1995180417235872 0 0.25535634550368269 0.19617232584258071 0 0.2478987992535544 0.20483769197021839 0 0.26013859644790588 0.20809763340879281 0 0.25535634550368269 0.19617232584258071 0 0.2460804663796631 0.19159688976212991 0 0.25352284263599512 0.1850986446351863 0 0.25535634550368269 0.19617232584258071 0 0.25352284263599512 0.1850986446351863 0 0.25535634550368269 0.19617232584258071 0 0.263359315694985 0.18931254124208949 0 0.26457211674712222 0.1995180417235872 0 0.25535634550368269 0.19617232584258071 0 0.263359315694985 0.18931254124208949 0 0.26457211674712222 0.1995180417235872 0 0.263359315694985 0.18931254124208949 0 0.2725987473808737 0.1959204962463745 0 0.27201182318509343 0.1834258476609105 0 0.263359315694985 0.18931254124208949 0 0.2725987473808737 0.1959204962463745 0 0.27213467759196652 0.20880254044037011 0 0.26457211674712222 0.1995180417235872 0 0.2725987473808737 0.1959204962463745 0 0.2725987473808737 0.1959204962463745 0 0.28054080374397072 0.20111749908660739 0 0.27801586280998519 0.18956109449012129 0 0.27213467759196652 0.20880254044037011 0 0.2725987473808737 0.1959204962463745 0 0.28054080374397072 0.20111749908660739 0 0.27201182318509343 0.1834258476609105 0 0.2725987473808737 0.1959204962463745 0 0.27801586280998519 0.18956109449012129 0 0.28202086836253393 0.18257761201819689 0 0.27801586280998519 0.18956109449012129 0 0.2878844033820997 0.19251019759147969 0 0.28054080374397072 0.20111749908660739 0 0.27801586280998519 0.18956109449012129 0 0.2878844033820997 0.19251019759147969 0 0.28054080374397072 0.20111749908660739 0 0.2878844033820997 0.19251019759147969 0 0.29032941138383261 0.20283468195237561 0 0.2878844033820997 0.19251019759147969 0 0.29032941138383261 0.20283468195237561 0 0.29438004356894287 0.19613703201090599 0 0.29032941138383261 0.20283468195237561 0 0.29438004356894287 0.19613703201090599 0 0.29759047163522612 0.2010533192504034 0 0.2878844033820997 0.19251019759147969 0 0.29438004356894287 0.19613703201090599 0 0.29660684583479152 0.19162574474956101 0 0.29321072782398733 0.18515995551533221 0 0.2878844033820997 0.19251019759147969 0 0.29660684583479152 0.19162574474956101 0 0.29660684583479152 0.19162574474956101 0 0.30750767998739009 0.1889490422075811 0 0.30005137441153762 0.1953724964225059 0 0.29321072782398733 0.18515995551533221 0 0.29660684583479152 0.19162574474956101 0 0.30750767998739009 0.1889490422075811 0 0.30750767998739009 0.1889490422075811 0 0.30412463819907848 0.20025868210362671 0 0.31295221582279192 0.20975639367669791 0 0.30750767998739009 0.1889490422075811 0 0.30412463819907848 0.20025868210362671 0 0.30005137441153762 0.1953724964225059 0 0.29438004356894287 0.19613703201090599 0 0.29660684583479152 0.19162574474956101 0 0.30005137441153762 0.1953724964225059 0 0.30412463819907848 0.20025868210362671 0 0.30005137441153762 0.1953724964225059 0 0.29759047163522612 0.2010533192504034 0 0.29438004356894287 0.19613703201090599 0 0.30005137441153762 0.1953724964225059 0 0.29759047163522612 0.2010533192504034 0 0.30412463819907848 0.20025868210362671 0 0.29759047163522612 0.2010533192504034 0 0.29940755759425969 0.20821426907635271 0 0.29940755759425969 0.20821426907635271 0 0.30636501394098231 0.22792098748080511 0 0.31295221582279192 0.20975639367669791 0 0.30412463819907848 0.20025868210362671 0 0.29940755759425969 0.20821426907635271 0 0.31295221582279192 0.20975639367669791 0 0.29940755759425969 0.20821426907635271 0 0.28488557674244008 0.2144659966254705 0 0.29439369573710911 0.22446429203193291 0 0.29032941138383261 0.20283468195237561 0 0.29940755759425969 0.20821426907635271 0 0.28488557674244008 0.2144659966254705 0 0.29032941138383261 0.20283468195237561 0 0.29759047163522612 0.2010533192504034 0 0.29940755759425969 0.20821426907635271 0 0.28054080374397072 0.20111749908660739 0 0.29032941138383261 0.20283468195237561 0 0.28488557674244008 0.2144659966254705 0 0.28488557674244008 0.2144659966254705 0 0.28387528678617568 0.23203127263236811 0 0.29439369573710911 0.22446429203193291 0 0.27547162196129582 0.2227807368515706 0 0.28488557674244008 0.2144659966254705 0 0.28387528678617568 0.23203127263236811 0 0.28387528678617568 0.23203127263236811 0 0.29439369573710911 0.22446429203193291 0 0.29743504362168749 0.23968893434466809 0 0.29940755759425969 0.20821426907635271 0 0.29439369573710911 0.22446429203193291 0 0.30636501394098231 0.22792098748080511 0 0.29439369573710911 0.22446429203193291 0 0.30636501394098231 0.22792098748080511 0 0.29743504362168749 0.23968893434466809 0 0.30636501394098231 0.22792098748080511 0 0.29743504362168749 0.23968893434466809 0 0.30928017310092082 0.24294333803477611 0 0.30343372429700188 0.25314302137966899 0 0.31828467619276729 0.25309829935819061 0 0.30928017310092082 0.24294333803477611 0 0.30343372429700188 0.25314302137966899 0 0.29743504362168749 0.23968893434466809 0 0.30928017310092082 0.24294333803477611 0 0.29061403765979082 0.25300935222949777 0 0.30343372429700188 0.25314302137966899 0 0.29743504362168749 0.23968893434466809 0 0.29061403765979082 0.25300935222949777 0 0.29743504362168749 0.23968893434466809 0 0.28620809096997329 0.24384959814069221 0 0.28387528678617568 0.23203127263236811 0 0.29743504362168749 0.23968893434466809 0 0.28620809096997329 0.24384959814069221 0 0.27680362970064581 0.24330272308228651 0 0.28387528678617568 0.23203127263236811 0 0.28620809096997329 0.24384959814069221 0 0.28096781835121032 0.25150032781063802 0 0.27680362970064581 0.24330272308228651 0 0.28620809096997329 0.24384959814069221 0 0.28096781835121032 0.25150032781063802 0 0.29061403765979082 0.25300935222949777 0 0.28620809096997329 0.24384959814069221 0 0.33927815850956361 0.25562047078272843 0 0.33946815320913559 0.23932538479030999 0 0.32282158622527302 0.24177072913176681 0 0.33946815320913559 0.23932538479030999 0 0.32282158622527302 0.24177072913176681 0 0.32753981229804241 0.22510222516445691 0 0.33927815850956361 0.25562047078272843 0 0.32282158622527302 0.24177072913176681 0 0.30636501394098231 0.22792098748080511 0 0.30928017310092082 0.24294333803477611 0 0.32282158622527302 0.24177072913176681 0 0.30636501394098231 0.22792098748080511 0 0.32282158622527302 0.24177072913176681 0 0.31828467619276729 0.25309829935819061 0 0.30928017310092082 0.24294333803477611 0 0.32282158622527302 0.24177072913176681 0 0.30636501394098231 0.22792098748080511 0 0.32282158622527302 0.24177072913176681 0 0.32753981229804241 0.22510222516445691 0 0.30636501394098231 0.22792098748080511 0 0.32753981229804241 0.22510222516445691 0 0.31295221582279192 0.20975639367669791 0 0.33946815320913559 0.23932538479030999 0 0.32753981229804241 0.22510222516445691 0 0.35285310213696508 0.2258059697889454 0 0.32753981229804241 0.22510222516445691 0 0.33018039106217761 0.20737750599826321 0 0.35285310213696508 0.2258059697889454 0 0.33018039106217761 0.20737750599826321 0 0.35285310213696508 0.2258059697889454 0 0.32753981229804241 0.22510222516445691 0 0.33018039106217761 0.20737750599826321 0 0.31295221582279192 0.20975639367669791 0 0.31068715037347061 0.18987656258941071 0 0.33018039106217761 0.20737750599826321 0 0.32626954623166748 0.190476420826524 0 0.30750767998739009 0.1889490422075811 0 0.33018039106217761 0.20737750599826321 0 0.31295221582279192 0.20975639367669791 0 0.31068715037347061 0.18987656258941071 0 0.30750767998739009 0.1889490422075811 0 0.33018039106217761 0.20737750599826321 0 0.30750767998739009 0.1889490422075811 0 0.33018039106217761 0.20737750599826321 0 0.33018039106217761 0.20737750599826321 0 0.32626954623166748 0.190476420826524 0 0.3453345787261668 0.18936186110248199 0 0.33018039106217761 0.20737750599826321 0 0.3453345787261668 0.18936186110248199 0 0.36022936817491408 0.20519769474681551 0 0.3453345787261668 0.18936186110248199 0 0.36022936817491408 0.20519769474681551 0 0.36253611872238878 0.18529756162784591 0 0.36022936817491408 0.20519769474681551 0 0.38218543468674221 0.2100400042310562 0 0.37802822460218483 0.19176540931237129 0 0.36022936817491408 0.20519769474681551 0 0.36253611872238878 0.18529756162784591 0 0.37802822460218483 0.19176540931237129 0 0.36022936817491408 0.20519769474681551 0 0.35285310213696508 0.2258059697889454 0 0.37184227675346532 0.222614804896549 0 0.36022936817491408 0.20519769474681551 0 0.37184227675346532 0.222614804896549 0 0.38218543468674221 0.2100400042310562 0 0.33018039106217761 0.20737750599826321 0 0.36022936817491408 0.20519769474681551 0 0.35285310213696508 0.2258059697889454 0 0.35285310213696508 0.2258059697889454 0 0.37184227675346532 0.222614804896549 0 0.37552581321175271 0.24423443357962751 0 0.35285310213696508 0.2258059697889454 0 0.37552581321175271 0.24423443357962751 0 0.36563027200280418 0.25685232300665939 0 0.35484810687583412 0.24832752908365241 0 0.37552581321175271 0.24423443357962751 0 0.35285310213696508 0.2258059697889454 0 0.35484810687583412 0.24832752908365241 0 0.37552581321175271 0.24423443357962751 0 0.33927815850956361 0.25562047078272843 0 0.33946815320913559 0.23932538479030999 0 0.35484810687583412 0.24832752908365241 0 0.33946815320913559 0.23932538479030999 0 0.35285310213696508 0.2258059697889454 0 0.35484810687583412 0.24832752908365241 0 0.33131337817090789 0.15022733177554681 0 0.32978372129040701 0.13486821785425909 0 0.34792663058868167 0.14878562112196331 0 0.33131337817090789 0.15022733177554681 0 0.33859505257741179 0.1683156226007495 0 0.34792663058868167 0.14878562112196331 0 0.33272431375805822 0.1132488711592755 0 0.32978372129040701 0.13486821785425909 0 0.3488808109854532 0.12791011145999631 0 0.32978372129040701 0.13486821785425909 0 0.34792663058868167 0.14878562112196331 0 0.3488808109854532 0.12791011145999631 0 0.31427324526771122 0.1213708439436044 0 0.3087734872663036 0.13873507601808241 0 0.32978372129040701 0.13486821785425909 0 0.3087734872663036 0.13873507601808241 0 0.32978372129040701 0.13486821785425909 0 0.31690436447805698 0.14984981901748459 0 0.33131337817090789 0.15022733177554681 0 0.32978372129040701 0.13486821785425909 0 0.31690436447805698 0.14984981901748459 0 0.33131337817090789 0.15022733177554681 0 0.31690436447805698 0.14984981901748459 0 0.32321241089851283 0.1610642655153007 0 0.31055069816591108 0.16007077111000781 0 0.31690436447805698 0.14984981901748459 0 0.32321241089851283 0.1610642655153007 0 0.32321241089851283 0.1610642655153007 0 0.31887606476485519 0.1752897536159399 0 0.33859505257741179 0.1683156226007495 0 0.31055069816591108 0.16007077111000781 0 0.32321241089851283 0.1610642655153007 0 0.31887606476485519 0.1752897536159399 0 0.31068715037347061 0.18987656258941071 0 0.32626954623166748 0.190476420826524 0 0.31887606476485519 0.1752897536159399 0 0.3453345787261668 0.18936186110248199 0 0.31887606476485519 0.1752897536159399 0 0.33859505257741179 0.1683156226007495 0 0.3453345787261668 0.18936186110248199 0 0.31887606476485519 0.1752897536159399 0 0.32626954623166748 0.190476420826524 0 0.3453345787261668 0.18936186110248199 0 0.31887606476485519 0.1752897536159399 0 0.33131337817090789 0.15022733177554681 0 0.32321241089851283 0.1610642655153007 0 0.33859505257741179 0.1683156226007495 0 0.33859505257741179 0.1683156226007495 0 0.35605414142567932 0.17031678688630961 0 0.34792663058868167 0.14878562112196331 0 0.35605414142567932 0.17031678688630961 0 0.36717712842408512 0.15533418292102261 0 0.34792663058868167 0.14878562112196331 0 0.3453345787261668 0.18936186110248199 0 0.35605414142567932 0.17031678688630961 0 0.36253611872238878 0.18529756162784591 0 0.3453345787261668 0.18936186110248199 0 0.33859505257741179 0.1683156226007495 0 0.35605414142567932 0.17031678688630961 0 0.35605414142567932 0.17031678688630961 0 0.36253611872238878 0.18529756162784591 0 0.37488564378793021 0.17518138798350891 0 0.36253611872238878 0.18529756162784591 0 0.37488564378793021 0.17518138798350891 0 0.37802822460218483 0.19176540931237129 0 0.37488564378793021 0.17518138798350891 0 0.36717712842408512 0.15533418292102261 0 0.38232168458587051 0.16049297802692869 0 0.35605414142567932 0.17031678688630961 0 0.37488564378793021 0.17518138798350891 0 0.36717712842408512 0.15533418292102261 0 0.36717712842408512 0.15533418292102261 0 0.36477533418230379 0.13860894457638681 0 0.3795578266745665 0.14455804438472919 0 0.36717712842408512 0.15533418292102261 0 0.34792663058868167 0.14878562112196331 0 0.36477533418230379 0.13860894457638681 0 0.34792663058868167 0.14878562112196331 0 0.3488808109854532 0.12791011145999631 0 0.36477533418230379 0.13860894457638681 0 0.3488808109854532 0.12791011145999631 0 0.36411093596175798 0.12690374318287939 0 0.36477533418230379 0.13860894457638681 0 0.36477533418230379 0.13860894457638681 0 0.37633887699913299 0.1296709172031929 0 0.3795578266745665 0.14455804438472919 0 0.36411093596175798 0.12690374318287939 0 0.36477533418230379 0.13860894457638681 0 0.37633887699913299 0.1296709172031929 0 0.37633887699913299 0.1296709172031929 0 0.392148204934473 0.13359833999259349 0 0.38643837966719741 0.1170012986435769 0 0.37633887699913299 0.1296709172031929 0 0.392148204934473 0.13359833999259349 0 0.3795578266745665 0.14455804438472919 0 0.392148204934473 0.13359833999259349 0 0.41080701416179871 0.13877182551072129 0 0.40156428246908449 0.1210181057817573 0 0.392148204934473 0.13359833999259349 0 0.3945857309215336 0.14964290358825089 0 0.41080701416179871 0.13877182551072129 0 0.3945857309215336 0.14964290358825089 0 0.41080701416179871 0.13877182551072129 0 0.40894047137084549 0.15497622861417881 0 0.3945857309215336 0.14964290358825089 0 0.39741382692646382 0.16404699095314559 0 0.40894047137084549 0.15497622861417881 0 0.392148204934473 0.13359833999259349 0 0.3945857309215336 0.14964290358825089 0 0.3795578266745665 0.14455804438472919 0 0.36717712842408512 0.15533418292102261 0 0.3795578266745665 0.14455804438472919 0 0.38232168458587051 0.16049297802692869 0 0.3945857309215336 0.14964290358825089 0 0.3795578266745665 0.14455804438472919 0 0.38232168458587051 0.16049297802692869 0 0.37488564378793021 0.17518138798350891 0 0.38232168458587051 0.16049297802692869 0 0.39447887505558699 0.179614182418462 0 0.37488564378793021 0.17518138798350891 0 0.39447887505558699 0.179614182418462 0 0.37802822460218483 0.19176540931237129 0 0.39447887505558699 0.179614182418462 0 0.39741382692646382 0.16404699095314559 0 0.41538678119726069 0.17411391994604511 0 0.38232168458587051 0.16049297802692869 0 0.39447887505558699 0.179614182418462 0 0.39741382692646382 0.16404699095314559 0 0.3945857309215336 0.14964290358825089 0 0.38232168458587051 0.16049297802692869 0 0.39741382692646382 0.16404699095314559 0 0.39741382692646382 0.16404699095314559 0 0.41538678119726069 0.17411391994604511 0 0.40894047137084549 0.15497622861417881 0 0.41538678119726069 0.17411391994604511 0 0.42590349582027398 0.15299215228851551 0 0.40894047137084549 0.15497622861417881 0 0.39447887505558699 0.179614182418462 0 0.41538678119726069 0.17411391994604511 0 0.41420137024734549 0.19491889924964181 0 0.41538678119726069 0.17411391994604511 0 0.43234116209288842 0.16881104005916589 0 0.4360776926859401 0.1887892259674131 0 0.41538678119726069 0.17411391994604511 0 0.41420137024734549 0.19491889924964181 0 0.4360776926859401 0.1887892259674131 0 0.41538678119726069 0.17411391994604511 0 0.43234116209288842 0.16881104005916589 0 0.42590349582027398 0.15299215228851551 0 0.42590349582027398 0.15299215228851551 0 0.43516771131317972 0.13864450200566489 0 0.41080701416179871 0.13877182551072129 0 0.43516771131317972 0.13864450200566489 0 0.41803959074485181 0.12137057658395931 0 0.43516771131317972 0.13864450200566489 0 0.44333049959965298 0.1222226742459452 0 0.41803959074485181 0.12137057658395931 0 0.41080701416179871 0.13877182551072129 0 0.41803959074485181 0.12137057658395931 0 0.40156428246908449 0.1210181057817573 0 0.43516771131317972 0.13864450200566489 0 0.41080701416179871 0.13877182551072129 0 0.41803959074485181 0.12137057658395931 0 0.42590349582027398 0.15299215228851551 0 0.41080701416179871 0.13877182551072129 0 0.40894047137084549 0.15497622861417881 0 0.40339280741137917 0.237420071492107 0 0.39282457790793851 0.24453511317029389 0 0.38841766555695217 0.2277959221363004 0 0.4035467433890203 0.24879642155089371 0 0.40339280741137917 0.237420071492107 0 0.39282457790793851 0.24453511317029389 0 0.39282457790793851 0.24453511317029389 0 0.37552581321175271 0.24423443357962751 0 0.38841766555695217 0.2277959221363004 0 0.37552581321175271 0.24423443357962751 0 0.38841766555695217 0.2277959221363004 0 0.37184227675346532 0.222614804896549 0 0.38841766555695217 0.2277959221363004 0 0.38218543468674221 0.2100400042310562 0 0.37184227675346532 0.222614804896549 0 0.37552581321175271 0.24423443357962751 0 0.38841766555695217 0.2277959221363004 0 0.38841766555695217 0.2277959221363004 0 0.40130951790214892 0.21135741069297109 0 0.38841766555695217 0.2277959221363004 0 0.40210482355155119 0.22526404605995029 0 0.40130951790214892 0.21135741069297109 0 0.40339280741137917 0.237420071492107 0 0.38841766555695217 0.2277959221363004 0 0.40210482355155119 0.22526404605995029 0 0.40339280741137917 0.237420071492107 0 0.40210482355155119 0.22526404605995029 0 0.41272014446971489 0.2317059996544065 0 0.38841766555695217 0.2277959221363004 0 0.40130951790214892 0.21135741069297109 0 0.38218543468674221 0.2100400042310562 0 0.40130951790214892 0.21135741069297109 0 0.38218543468674221 0.2100400042310562 0 0.39404068449880159 0.1975391811809005 0 0.40210482355155119 0.22526404605995029 0 0.40130951790214892 0.21135741069297109 0 0.41003225868004822 0.2186561536848409 0 0.38218543468674221 0.2100400042310562 0 0.37802822460218483 0.19176540931237129 0 0.39404068449880159 0.1975391811809005 0 0.39447887505558699 0.179614182418462 0 0.37802822460218483 0.19176540931237129 0 0.39404068449880159 0.1975391811809005 0 0.39447887505558699 0.179614182418462 0 0.39404068449880159 0.1975391811809005 0 0.41420137024734549 0.19491889924964181 0 0.40130951790214892 0.21135741069297109 0 0.39404068449880159 0.1975391811809005 0 0.41420137024734549 0.19491889924964181 0 0.41420137024734549 0.19491889924964181 0 0.4360776926859401 0.1887892259674131 0 0.43104064038701689 0.2065489828153704 0 0.43104064038701689 0.2065489828153704 0 0.4254979172482215 0.21759211019865121 0 0.44193948792807891 0.2224742195134248 0 0.43104064038701689 0.2065489828153704 0 0.4254979172482215 0.21759211019865121 0 0.41630437078500032 0.20882460213504539 0 0.4254979172482215 0.21759211019865121 0 0.41630437078500032 0.20882460213504539 0 0.41003225868004822 0.2186561536848409 0 0.40130951790214892 0.21135741069297109 0 0.41420137024734549 0.19491889924964181 0 0.41420137024734549 0.19491889924964181 0 0.43104064038701689 0.2065489828153704 0 0.41630437078500032 0.20882460213504539 0 0.40130951790214892 0.21135741069297109 0 0.41420137024734549 0.19491889924964181 0 0.41630437078500032 0.20882460213504539 0 0.40130951790214892 0.21135741069297109 0 0.41630437078500032 0.20882460213504539 0 0.41003225868004822 0.2186561536848409 0 0.41003225868004822 0.2186561536848409 0 0.42817282846096322 0.23145659284457409 0 0.41003225868004822 0.2186561536848409 0 0.41272014446971489 0.2317059996544065 0 0.42817282846096322 0.23145659284457409 0 0.4254979172482215 0.21759211019865121 0 0.41003225868004822 0.2186561536848409 0 0.42817282846096322 0.23145659284457409 0 0.40210482355155119 0.22526404605995029 0 0.41003225868004822 0.2186561536848409 0 0.41272014446971489 0.2317059996544065 0 0.4254979172482215 0.21759211019865121 0 0.42817282846096322 0.23145659284457409 0 0.44193948792807891 0.2224742195134248 0 0.43560869262857549 0.2564393994542285 0 0.41989800424463281 0.24573313419056031 0 0.4463133982418781 0.24425703200430729 0 0.42817282846096322 0.23145659284457409 0 0.4463133982418781 0.24425703200430729 0 0.42817282846096322 0.23145659284457409 0 0.41989800424463281 0.24573313419056031 0 0.4463133982418781 0.24425703200430729 0 0.40339280741137917 0.237420071492107 0 0.41272014446971489 0.2317059996544065 0 0.41989800424463281 0.24573313419056031 0 0.4035467433890203 0.24879642155089371 0 0.40339280741137917 0.237420071492107 0 0.41989800424463281 0.24573313419056031 0 0.41272014446971489 0.2317059996544065 0 0.42817282846096322 0.23145659284457409 0 0.41989800424463281 0.24573313419056031 0 0.46445396802279248 0.25705747116404148 0 0.4463133982418781 0.24425703200430729 0 0.45820805841382622 0.2317991176519501 0 0.46445396802279248 0.25705747116404148 0 0.45820805841382622 0.2317991176519501 0 0.47128113352388479 0.2453957623995362 0 0.46445396802279248 0.25705747116404148 0 0.45820805841382622 0.2317991176519501 0 0.45820805841382622 0.2317991176519501 0 0.47208346231995091 0.23236199714172051 0 0.47128113352388479 0.2453957623995362 0 0.44193948792807891 0.2224742195134248 0 0.45820805841382622 0.2317991176519501 0 0.45196214880486141 0.2065407641398582 0 0.4463133982418781 0.24425703200430729 0 0.44193948792807891 0.2224742195134248 0 0.45820805841382622 0.2317991176519501 0 0.42817282846096322 0.23145659284457409 0 0.4463133982418781 0.24425703200430729 0 0.44193948792807891 0.2224742195134248 0 0.45820805841382622 0.2317991176519501 0 0.46376613739280848 0.217973738699199 0 0.45196214880486141 0.2065407641398582 0 0.45820805841382622 0.2317991176519501 0 0.45196214880486141 0.2065407641398582 0 0.45820805841382622 0.2317991176519501 0 0.46376613739280848 0.217973738699199 0 0.47208346231995091 0.23236199714172051 0 0.46376613739280848 0.217973738699199 0 0.47208346231995091 0.23236199714172051 0 0.46376613739280848 0.217973738699199 0 0.46540710403382651 0.20446951216288631 0 0.47565348830025322 0.21807599586872611 0 0.46376613739280848 0.217973738699199 0 0.46540710403382651 0.20446951216288631 0 0.45196214880486141 0.2065407641398582 0 0.43104064038701689 0.2065489828153704 0 0.44193948792807891 0.2224742195134248 0 0.45196214880486141 0.2065407641398582 0 0.4360776926859401 0.1887892259674131 0 0.43104064038701689 0.2065489828153704 0 0.45196214880486141 0.2065407641398582 0 0.4360776926859401 0.1887892259674131 0 0.45196214880486141 0.2065407641398582 0 0.45481882329013518 0.19081444930143529 0 0.46540710403382651 0.20446951216288631 0 0.45196214880486141 0.2065407641398582 0 0.45481882329013518 0.19081444930143529 0 0.46540710403382651 0.20446951216288631 0 0.45481882329013518 0.19081444930143529 0 0.47053389557721342 0.18465038223464211 0 0.50000000000000033 0.19586712099897841 0 0.4806170310199348 0.20525000803684251 0 0.47053389557721342 0.18465038223464211 0 0.46540710403382651 0.20446951216288631 0 0.4806170310199348 0.20525000803684251 0 0.47053389557721342 0.18465038223464211 0 0.50000000000000033 0.19586712099897841 0 0.49020039362354723 0.2213086882916101 0 0.5 0.22412981796759041 0 0.50000000000000033 0.19586712099897841 0 0.4806170310199348 0.20525000803684251 0 0.49020039362354723 0.2213086882916101 0 0.50000000000000033 0.19586712099897841 0 0.49020039362354723 0.2213086882916101 0 0.4806170310199348 0.20525000803684251 0 0.47565348830025322 0.21807599586872611 0 0.49020039362354723 0.2213086882916101 0 0.46540710403382651 0.20446951216288631 0 0.4806170310199348 0.20525000803684251 0 0.47565348830025322 0.21807599586872611 0 0.47565348830025322 0.21807599586872611 0 0.47208346231995091 0.23236199714172051 0 0.49020039362354723 0.2213086882916101 0 0.47208346231995091 0.23236199714172051 0 0.49020039362354723 0.2213086882916101 0 0.48040078724709362 0.24675025558424191 0 0.46376613739280848 0.217973738699199 0 0.47565348830025322 0.21807599586872611 0 0.47208346231995091 0.23236199714172051 0 0.49020039362354723 0.2213086882916101 0 0.5 0.22412981796759041 0 0.49345640133408769 0.23826116645189621 0 0.49020039362354723 0.2213086882916101 0 0.48040078724709362 0.24675025558424191 0 0.5 0.25239251493620218 0 0.49345640133408769 0.23826116645189621 0 0.48040078724709362 0.24675025558424191 0 0.5 0.25239251493620218 0 0.5 0.22412981796759041 0 0.49345640133408769 0.23826116645189621 0 0.49020039362354723 0.2213086882916101 0 0.49345640133408769 0.23826116645189621 0 0.48040078724709362 0.24675025558424191 0 0.47946762869715293 0.2491729055490467 0 0.48040078724709362 0.24675025558424191 0 0.47128113352388479 0.2453957623995362 0 0.47946762869715293 0.2491729055490467 0 0.48040078724709362 0.24675025558424191 0 0.47208346231995091 0.23236199714172051 0 0.48040078724709362 0.24675025558424191 0 0.47128113352388479 0.2453957623995362 0 0.47208346231995091 0.23236199714172051 0 0.48040078724709362 0.24675025558424191 0 0.46171333421340111 0.13171995534526851 0 0.45489410806192587 0.15920007844951281 0 0.47744705403096338 0.1495891168398597 0 0.45489410806192587 0.15920007844951281 0 0.47744705403096338 0.1495891168398597 0 0.43516771131317972 0.13864450200566489 0 0.46171333421340111 0.13171995534526851 0 0.44333049959965298 0.1222226742459452 0 0.43516771131317972 0.13864450200566489 0 0.46171333421340111 0.13171995534526851 0 0.45489410806192587 0.15920007844951281 0 0.42590349582027398 0.15299215228851551 0 0.43516771131317972 0.13864450200566489 0 0.45489410806192587 0.15920007844951281 0 0.43234116209288842 0.16881104005916589 0 0.45489410806192587 0.15920007844951281 0 0.43234116209288842 0.16881104005916589 0 0.42590349582027398 0.15299215228851551 0 0.45489410806192587 0.15920007844951281 0 0.43234116209288842 0.16881104005916589 0 0.44771935057795131 0.17701271268464661 0 0.45489410806192587 0.15920007844951281 0 0.4360776926859401 0.1887892259674131 0 0.45481882329013518 0.19081444930143529 0 0.44771935057795131 0.17701271268464661 0 0.43234116209288842 0.16881104005916589 0 0.4360776926859401 0.1887892259674131 0 0.44771935057795131 0.17701271268464661 0 0.44771935057795131 0.17701271268464661 0 0.45489410806192587 0.15920007844951281 0 0.47053389557721342 0.18465038223464211 0 0.45481882329013518 0.19081444930143529 0 0.44771935057795131 0.17701271268464661 0 0.47053389557721342 0.18465038223464211 0 0.45489410806192587 0.15920007844951281 0 0.48115516540284659 0.16876009306950771 0 0.47053389557721342 0.18465038223464211 0 0.45489410806192587 0.15920007844951281 0 0.48115516540284659 0.16876009306950771 0 0.47744705403096338 0.1495891168398597 0 0.50000000000000033 0.19586712099897841 0 0.48115516540284659 0.16876009306950771 0 0.47053389557721342 0.18465038223464211 0 0.50000000000000033 0.19586712099897841 0 0.48115516540284659 0.16876009306950771 0 0.5 0.16792263811459229 0 0.48115516540284659 0.16876009306950771 0 0.5 0.16792263811459229 0 0.47744705403096338 0.1495891168398597 0 0.5 0.16792263811459229 0 0.47744705403096338 0.1495891168398597 0 0.50000000000000078 0.13997815523020629 0 0.47744705403096338 0.1495891168398597 0 0.48358356620006049 0.13555515446509511 0 0.50000000000000078 0.13997815523020629 0 0.47744705403096338 0.1495891168398597 0 0.50000000000000078 0.13997815523020629 0 0.46171333421340111 0.13171995534526851 0 0.48358356620006049 0.13555515446509511 0 0.47875744275593818 0.1182648694536072 0 0.46171333421340111 0.13171995534526851 0 0.47744705403096338 0.1495891168398597 0 0.48358356620006049 0.13555515446509511 0 0.48358356620006049 0.13555515446509511 0 0.500000000000002 0.13822367545653391 0 0.47875744275593818 0.1182648694536072 0 0.48358356620006049 0.13555515446509511 0 0.500000000000002 0.13822367545653391 0 0.50000000000000078 0.13997815523020629 0 0.500000000000002 0.13822367545653391 0 0.47875744275593818 0.1182648694536072 0 0.500000000000002 0.13822367545653391 0 0.5 0.11056670339080429 0 0.47875744275593818 0.1182648694536072 0 0.5 0.11056670339080429 0 0.48297248409307553 0.096738217357939513 0 0.47875744275593818 0.1182648694536072 0 0.5 0.11056670339080429 0 0.48297248409307553 0.096738217357939513 0 0.5 0.082909731325074731 0 0.48297248409307553 0.096738217357939513 0 0.47875744275593818 0.1182648694536072 0 0.45751488551187353 0.098306063450681436 0 0.5 0.082909731325074731 0 0.4749531063222564 0.075117097466960367 0 0.5 0.055252759259345141 0 0.48297248409307553 0.096738217357939513 0 0.5 0.082909731325074731 0 0.4749531063222564 0.075117097466960367 0 0.48297248409307553 0.096738217357939513 0 0.4749531063222564 0.075117097466960367 0 0.45751488551187353 0.098306063450681436 0 0.4749531063222564 0.075117097466960367 0 0.45571047004153292 0.077665389413580893 0 0.45518956980138542 0.055689457719082867 0 0.4749531063222564 0.075117097466960367 0 0.45571047004153292 0.077665389413580893 0 0.45751488551187353 0.098306063450681436 0 0.45571047004153292 0.077665389413580893 0 0.45751488551187353 0.098306063450681436 0 0.43627232826780982 0.078347257447754587 0 0.45751488551187353 0.098306063450681436 0 0.43627232826780982 0.078347257447754587 0 0.42951842890224978 0.086436623909606936 0 0.45751488551187353 0.098306063450681436 0 0.43627232826780982 0.078347257447754587 0 0.45571047004153292 0.077665389413580893 0 0.43627232826780982 0.078347257447754587 0 0.45518956980138542 0.055689457719082867 0 0.43627232826780982 0.078347257447754587 0 0.45518956980138542 0.055689457719082867 0 0.43627232826780982 0.078347257447754587 0 0.4349201761408803 0.056382578001145073 0 0.45518956980138542 0.055689457719082867 0 0.46171333421340111 0.13171995534526851 0 0.45751488551187353 0.098306063450681436 0 0.44333049959965298 0.1222226742459452 0 0.46171333421340111 0.13171995534526851 0 0.47875744275593818 0.1182648694536072 0 0.45751488551187353 0.098306063450681436 0 0.47875744275593818 0.1182648694536072 0 0.45751488551187353 0.098306063450681436 0 0.45751488551187353 0.098306063450681436 0 0.43491492659001102 0.10671555560088759 0 0.42951842890224978 0.086436623909606936 0 0.45751488551187353 0.098306063450681436 0 0.44333049959965298 0.1222226742459452 0 0.43491492659001102 0.10671555560088759 0 0.44333049959965298 0.1222226742459452 0 0.41803959074485181 0.12137057658395931 0 0.43491492659001102 0.10671555560088759 0 0.41803959074485181 0.12137057658395931 0 0.40156428246908449 0.1210181057817573 0 0.40091147017652401 0.10409665116225381 0 0.41803959074485181 0.12137057658395931 0 0.40091147017652401 0.10409665116225381 0 0.41803959074485181 0.12137057658395931 0 0.41797750745288897 0.09721137997296983 0 0.40091147017652401 0.10409665116225381 0 0.41797750745288897 0.09721137997296983 0 0.40576005662602138 0.085043972118203276 0 0.40091147017652401 0.10409665116225381 0 0.41797750745288897 0.09721137997296983 0 0.43491492659001102 0.10671555560088759 0 0.42951842890224978 0.086436623909606936 0 0.41803959074485181 0.12137057658395931 0 0.41797750745288897 0.09721137997296983 0 0.43491492659001102 0.10671555560088759 0 0.41797750745288897 0.09721137997296983 0 0.42951842890224978 0.086436623909606936 0 0.41872057167767629 0.079604900462908273 0 0.43627232826780982 0.078347257447754587 0 0.42951842890224978 0.086436623909606936 0 0.41872057167767629 0.079604900462908273 0 0.43627232826780982 0.078347257447754587 0 0.42951842890224978 0.086436623909606936 0 0.43627232826780982 0.078347257447754587 0 0.4169289459519141 0.060172853554305579 0 0.43627232826780982 0.078347257447754587 0 0.4169289459519141 0.060172853554305579 0 0.4349201761408803 0.056382578001145073 0 0.43627232826780982 0.078347257447754587 0 0.41872057167767629 0.079604900462908273 0 0.4169289459519141 0.060172853554305579 0 0.40784434728041802 0.071091474651996625 0 0.41872057167767629 0.079604900462908273 0 0.4169289459519141 0.060172853554305579 0 0.41797750745288897 0.09721137997296983 0 0.41872057167767629 0.079604900462908273 0 0.40576005662602138 0.085043972118203276 0 0.40784434728041802 0.071091474651996625 0 0.41872057167767629 0.079604900462908273 0 0.40576005662602138 0.085043972118203276 0 0.40576005662602138 0.085043972118203276 0 0.39486784526866131 0.085273133156918327 0 0.40091147017652401 0.10409665116225381 0 0.39486784526866131 0.085273133156918327 0 0.38378334960819599 0.086822725740548251 0 0.40091147017652401 0.10409665116225381 0 0.40576005662602138 0.085043972118203276 0 0.39486784526866131 0.085273133156918327 0 0.39944626994985633 0.077021649788870258 0 0.39486784526866131 0.085273133156918327 0 0.39944626994985633 0.077021649788870258 0 0.39009643268261052 0.076412881285407061 0 0.39486784526866131 0.085273133156918327 0 0.39009643268261052 0.076412881285407061 0 0.38810315628182718 0.082767154917978758 0 0.40784434728041802 0.071091474651996625 0 0.39812314033946428 0.067745908090823426 0 0.40387366142478393 0.054889595264491622 0 0.40784434728041802 0.071091474651996625 0 0.39944626994985633 0.077021649788870258 0 0.39812314033946428 0.067745908090823426 0 0.40784434728041802 0.071091474651996625 0 0.40576005662602138 0.085043972118203276 0 0.39944626994985633 0.077021649788870258 0 0.39944626994985633 0.077021649788870258 0 0.39812314033946428 0.067745908090823426 0 0.39009643268261052 0.076412881285407061 0 0.39812314033946428 0.067745908090823426 0 0.38954694441776272 0.063508738005841489 0 0.39009643268261052 0.076412881285407061 0 0.38954694441776272 0.063508738005841489 0 0.38164150669557162 0.084662650174165882 0 0.36329866283310219 0.066163661003796836 0 0.38954694441776272 0.063508738005841489 0 0.38164150669557162 0.084662650174165882 0 0.38954694441776272 0.063508738005841489 0 0.39009643268261052 0.076412881285407061 0 0.38164150669557162 0.084662650174165882 0 0.39486784526866131 0.085273133156918327 0 0.38378334960819599 0.086822725740548251 0 0.38810315628182718 0.082767154917978758 0 0.39009643268261052 0.076412881285407061 0 0.38810315628182718 0.082767154917978758 0 0.38164150669557162 0.084662650174165882 0 0.38378334960819599 0.086822725740548251 0 0.38810315628182718 0.082767154917978758 0 0.38164150669557162 0.084662650174165882 0 0.38164150669557162 0.084662650174165882 0 0.38087434346500482 0.086715478134926777 0 0.38378334960819599 0.086822725740548251 0 0.38164150669557162 0.084662650174165882 0 0.3696377925119913 0.080804975754819389 0 0.38164150669557162 0.084662650174165882 0 0.38087434346500482 0.086715478134926777 0 0.38378334960819599 0.086822725740548251 0 0.38087434346500482 0.086715478134926777 0 0.37556051932460721 0.1009345730281008 0 0.38378334960819599 0.086822725740548251 0 0.38164150669557162 0.084662650174165882 0 0.38087434346500482 0.086715478134926777 0 0.38378334960819599 0.086822725740548251 0 0.38087434346500482 0.086715478134926777 0 0.37556051932460721 0.1009345730281008 0 0.38643837966719741 0.1170012986435769 0 0.40091147017652401 0.10409665116225381 0 0.38087434346500482 0.086715478134926777 0 0.37556051932460721 0.1009345730281008 0 0.38378334960819599 0.086822725740548251 0 0.37556051932460721 0.1009345730281008 0 0.40091147017652401 0.10409665116225381 0 0.37024669518420877 0.1151536679212747 0 0.37633887699913299 0.1296709172031929 0 0.38643837966719741 0.1170012986435769 0 0.37024669518420877 0.1151536679212747 0 0.37556051932460721 0.1009345730281008 0 0.38643837966719741 0.1170012986435769 0 0.392148204934473 0.13359833999259349 0 0.38643837966719741 0.1170012986435769 0 0.40156428246908449 0.1210181057817573 0 0.38643837966719741 0.1170012986435769 0 0.40156428246908449 0.1210181057817573 0 0.40091147017652401 0.10409665116225381 0 0.38378334960819599 0.086822725740548251 0 0.40091147017652401 0.10409665116225381 0 0.39669151796167018 0.013552844812989229 0 0.3791310270837307 0.024659175924217729 0 0.39758556363602138 0.041998449660853553 0 0.40547915374878668 0.020876240137977072 0 0.39669151796167018 0.013552844812989229 0 0.39758556363602138 0.041998449660853553 0 0.39669151796167018 0.013552844812989229 0 0.39758556363602138 0.041998449660853553 0 0.40547915374878668 0.020876240137977072 0 0.39669151796167018 0.013552844812989229 0 0.41337274386155098 -0.00024596938489981901 0 0.39669151796167018 0.013552844812989229 0 0.37995136004431668 0.003477639248481944 0 0.3791310270837307 0.024659175924217729 0 0.37003255214226072 0.0037635888938520922 0 0.37995136004431668 0.003477639248481944 0 0.3791310270837307 0.024659175924217729 0 0.39669151796167018 0.013552844812989229 0 0.37995136004431668 0.003477639248481944 0 0.38433325765117909 -0.0078990557892637588 0 0.3791310270837307 0.024659175924217729 0 0.37558052902725658 0.0450699776536828 0 0.39758556363602138 0.041998449660853553 0 0.3791310270837307 0.024659175924217729 0 0.39758556363602138 0.041998449660853553 0 0.36329866283310219 0.066163661003796836 0 0.38954694441776272 0.063508738005841489 0 0.37558052902725658 0.0450699776536828 0 0.38954694441776272 0.063508738005841489 0 0.37558052902725658 0.0450699776536828 0 0.39758556363602138 0.041998449660853553 0 0.40387366142478393 0.054889595264491622 0 0.39758556363602138 0.041998449660853553 0 0.4169289459519141 0.060172853554305579 0 0.39812314033946428 0.067745908090823426 0 0.39758556363602138 0.041998449660853553 0 0.39812314033946428 0.067745908090823426 0 0.40387366142478393 0.054889595264491622 0 0.39758556363602138 0.041998449660853553 0 0.39812314033946428 0.067745908090823426 0 0.38954694441776272 0.063508738005841489 0 0.39758556363602138 0.041998449660853553 0 0.38954694441776272 0.063508738005841489 0 0.39758556363602138 0.041998449660853553 0 0.40547915374878668 0.020876240137977072 0 0.39758556363602138 0.041998449660853553 0 0.4095666966814393 0.034438748197309042 0 0.40547915374878668 0.020876240137977072 0 0.39758556363602138 0.041998449660853553 0 0.39758556363602138 0.041998449660853553 0 0.4095666966814393 0.034438748197309042 0 0.41104260146427418 0.043804006940638733 0 0.4095666966814393 0.034438748197309042 0 0.41104260146427418 0.043804006940638733 0 0.42008919958772128 0.038605976350086398 0 0.4095666966814393 0.034438748197309042 0 0.42008919958772128 0.038605976350086398 0 0.41540229663658501 0.026316087897222881 0 0.41104260146427418 0.043804006940638733 0 0.42008919958772128 0.038605976350086398 0 0.4169289459519141 0.060172853554305579 0 0.40784434728041802 0.071091474651996625 0 0.40387366142478393 0.054889595264491622 0 0.4169289459519141 0.060172853554305579 0 0.39758556363602138 0.041998449660853553 0 0.4169289459519141 0.060172853554305579 0 0.39758556363602138 0.041998449660853553 0 0.41104260146427418 0.043804006940638733 0 0.4169289459519141 0.060172853554305579 0 0.42008919958772128 0.038605976350086398 0 0.4169289459519141 0.060172853554305579 0 0.4349201761408803 0.056382578001145073 0 0.42008919958772128 0.038605976350086398 0 0.42765751691990578 0.021837857762226149 0 0.44002217430849883 0.036278712198876233 0 0.42008919958772128 0.038605976350086398 0 0.4349201761408803 0.056382578001145073 0 0.44002217430849883 0.036278712198876233 0 0.42765751691990578 0.021837857762226149 0 0.44450244254881799 0.01408760497532351 0 0.44002217430849883 0.036278712198876233 0 0.42008919958772128 0.038605976350086398 0 0.42765751691990578 0.021837857762226149 0 0.41540229663658501 0.026316087897222881 0 0.42765751691990578 0.021837857762226149 0 0.41540229663658501 0.026316087897222881 0 0.41806394303582839 0.01469747430978012 0 0.40547915374878668 0.020876240137977072 0 0.41540229663658501 0.026316087897222881 0 0.41806394303582839 0.01469747430978012 0 0.40547915374878668 0.020876240137977072 0 0.4095666966814393 0.034438748197309042 0 0.41540229663658501 0.026316087897222881 0 0.40547915374878668 0.020876240137977072 0 0.41337274386155098 -0.00024596938489981901 0 0.40547915374878668 0.020876240137977072 0 0.41806394303582839 0.01469747430978012 0 0.41337274386155098 -0.00024596938489981901 0 0.41806394303582839 0.01469747430978012 0 0.42840800401231388 0.0047031551363743099 0 0.41337274386155098 -0.00024596938489981901 0 0.42765751691990578 0.021837857762226149 0 0.42840800401231388 0.0047031551363743099 0 0.44450244254881799 0.01408760497532351 0 0.42765751691990578 0.021837857762226149 0 0.41806394303582839 0.01469747430978012 0 0.42840800401231388 0.0047031551363743099 0 0.42840800401231388 0.0047031551363743099 0 0.44450244254881799 0.01408760497532351 0 0.44555966035318101 -0.0086069465346454242 0 0.44450244254881799 0.01408760497532351 0 0.46856222715242568 0.0094419697021327301 0 0.44555966035318101 -0.0086069465346454242 0 0.44450244254881799 0.01408760497532351 0 0.45650358610497521 0.028398249898805929 0 0.44002217430849883 0.036278712198876233 0 0.44450244254881799 0.01408760497532351 0 0.45650358610497521 0.028398249898805929 0 0.46856222715242568 0.0094419697021327301 0 0.45650358610497521 0.028398249898805929 0 0.46856222715242568 0.0094419697021327301 0 0.47410681133496091 0.033031657990411079 0 0.4349201761408803 0.056382578001145073 0 0.44002217430849883 0.036278712198876233 0 0.45518956980138542 0.055689457719082867 0 0.45650358610497521 0.028398249898805929 0 0.44002217430849883 0.036278712198876233 0 0.45518956980138542 0.055689457719082867 0 0.45650358610497521 0.028398249898805929 0 0.45518956980138542 0.055689457719082867 0 0.47410681133496091 0.033031657990411079 0 0.45518956980138542 0.055689457719082867 0 0.47410681133496091 0.033031657990411079 0 0.45518956980138542 0.055689457719082867 0 0.47840480263017943 0.05332578129967401 0 0.47410681133496091 0.033031657990411079 0 0.4749531063222564 0.075117097466960367 0 0.45518956980138542 0.055689457719082867 0 0.47840480263017943 0.05332578129967401 0 0.47840480263017943 0.05332578129967401 0 0.47410681133496091 0.033031657990411079 0 0.4881279034912851 0.042301496435761449 0 0.47410681133496091 0.033031657990411079 0 0.4881279034912851 0.042301496435761449 0 0.5 0.027595787193615551 0 0.4881279034912851 0.042301496435761449 0 0.5 0.055252759259345141 0 0.5 0.027595787193615551 0 0.4749531063222564 0.075117097466960367 0 0.47840480263017943 0.05332578129967401 0 0.5 0.055252759259345141 0 0.47840480263017943 0.05332578129967401 0 0.4881279034912851 0.042301496435761449 0 0.5 0.055252759259345141 0 0.46856222715242568 0.0094419697021327301 0 0.49302405286853629 0.010373858261739319 0 0.48330946377534573 -0.0040510560023657386 0 0.46856222715242568 0.0094419697021327301 0 0.47410681133496091 0.033031657990411079 0 0.49302405286853629 0.010373858261739319 0 0.47410681133496091 0.033031657990411079 0 0.49302405286853629 0.010373858261739319 0 0.47410681133496091 0.033031657990411079 0 0.5 0.027595787193615551 0 0.49302405286853629 0.010373858261739319 0 0.5 0.027595787193615551 0 0.49302405286853629 0.010373858261739319 0 0.5 -6.1184872114095068e-05 0 0.49302405286853629 0.010373858261739319 0 0.5 -6.1184872114095068e-05 0 0.48330946377534573 -0.0040510560023657386 0 0.5 -6.1184872114095068e-05 0 0.49208095248142719 -0.013071370892070571 0 0.48330946377534573 -0.0040510560023657386 0 0.49208095248142719 -0.013071370892070571 0 0.48330946377534573 -0.0040510560023657386 0 0.4850143461503631 -0.020455085755958651 0 0.5 -6.1184872114095068e-05 0 0.49208095248142719 -0.013071370892070571 0 0.5 -0.0277181569378438 0 0.46856222715242568 0.0094419697021327301 0 0.48330946377534573 -0.0040510560023657386 0 0.46866645578272897 -0.01424122051150689 0 0.48330946377534573 -0.0040510560023657386 0 0.4850143461503631 -0.020455085755958651 0 0.46866645578272897 -0.01424122051150689 0 0.4850143461503631 -0.020455085755958651 0 0.47437474210913783 -0.031327293021014148 0 0.46866645578272897 -0.01424122051150689 0 0.4850143461503631 -0.020455085755958651 0 0.48693307515783191 -0.035668000266931343 0 0.47437474210913783 -0.031327293021014148 0 0.4850143461503631 -0.020455085755958651 0 0.5 -0.0277181569378438 0 0.48693307515783191 -0.035668000266931343 0 0.49208095248142719 -0.013071370892070571 0 0.4850143461503631 -0.020455085755958651 0 0.5 -0.0277181569378438 0 0.49813222133702029 -0.044765763279818432 0 0.48693307515783191 -0.035668000266931343 0 0.4699960624998033 -0.054801281202251258 0 0.5 -0.0277181569378438 0 0.49813222133702029 -0.044765763279818432 0 0.48693307515783191 -0.035668000266931343 0 0.5 -0.0277181569378438 0 0.49813222133702029 -0.044765763279818432 0 0.5 -0.055375129003573553 0 0.5 -0.055375129003573553 0 0.4699960624998033 -0.054801281202251258 0 0.48475497493349301 -0.070759313019251091 0 0.49813222133702029 -0.044765763279818432 0 0.5 -0.055375129003573553 0 0.4699960624998033 -0.054801281202251258 0 0.49813222133702029 -0.044765763279818432 0 0.4699960624998033 -0.054801281202251258 0 0.48693307515783191 -0.035668000266931343 0 0.4699960624998033 -0.054801281202251258 0 0.47437474210913783 -0.031327293021014148 0 0.4699960624998033 -0.054801281202251258 0 0.47437474210913783 -0.031327293021014148 0 0.45513370413048537 -0.031185077481102028 0 0.4699960624998033 -0.054801281202251258 0 0.44492587465037042 -0.046410287578278343 0 0.45513370413048537 -0.031185077481102028 0 0.4699960624998033 -0.054801281202251258 0 0.44185990366258632 -0.064836799124684097 0 0.4699960624998033 -0.054801281202251258 0 0.44492587465037042 -0.046410287578278343 0 0.44185990366258632 -0.064836799124684097 0 0.44492587465037042 -0.046410287578278343 0 0.45513370413048537 -0.031185077481102028 0 0.43343356261908489 -0.031158496193341319 0 0.44555966035318101 -0.0086069465346454242 0 0.45513370413048537 -0.031185077481102028 0 0.43343356261908489 -0.031158496193341319 0 0.46856222715242568 0.0094419697021327301 0 0.44555966035318101 -0.0086069465346454242 0 0.46866645578272897 -0.01424122051150689 0 0.44555966035318101 -0.0086069465346454242 0 0.46866645578272897 -0.01424122051150689 0 0.45513370413048537 -0.031185077481102028 0 0.47437474210913783 -0.031327293021014148 0 0.46866645578272897 -0.01424122051150689 0 0.45513370413048537 -0.031185077481102028 0 0.47326801494301479 -0.11422845771805409 0 0.5 -0.11068907313503309 0 0.4866320036825022 -0.12620170068426859 0 0.47326801494301479 -0.11422845771805409 0 0.5 -0.11068907313503309 0 0.4847026055787349 -0.096255503935799708 0 0.5 -0.11068907313503309 0 0.4847026055787349 -0.096255503935799708 0 0.5 -0.083032101069303366 0 0.47326801494301479 -0.11422845771805409 0 0.4847026055787349 -0.096255503935799708 0 0.46734324226795398 -0.084346183002301872 0 0.4847026055787349 -0.096255503935799708 0 0.48475497493349301 -0.070759313019251091 0 0.46734324226795398 -0.084346183002301872 0 0.4847026055787349 -0.096255503935799708 0 0.5 -0.083032101069303366 0 0.48475497493349301 -0.070759313019251091 0 0.5 -0.055375129003573553 0 0.5 -0.083032101069303366 0 0.48475497493349301 -0.070759313019251091 0 0.4699960624998033 -0.054801281202251258 0 0.48475497493349301 -0.070759313019251091 0 0.46734324226795398 -0.084346183002301872 0 0.4699960624998033 -0.054801281202251258 0 0.44185990366258632 -0.064836799124684097 0 0.46734324226795398 -0.084346183002301872 0 0.44185990366258632 -0.064836799124684097 0 0.44453922508151039 -0.085583584646918065 0 0.4303713627275001 -0.081465869733928387 0 0.44453922508151039 -0.085583584646918065 0 0.46734324226795398 -0.084346183002301872 0 0.44669579213863803 -0.1049875196552482 0 0.44185990366258632 -0.064836799124684097 0 0.44453922508151039 -0.085583584646918065 0 0.46734324226795398 -0.084346183002301872 0 0.47326801494301479 -0.11422845771805409 0 0.46734324226795398 -0.084346183002301872 0 0.44669579213863803 -0.1049875196552482 0 0.44453922508151039 -0.085583584646918065 0 0.44669579213863803 -0.1049875196552482 0 0.43257759990510469 -0.093108897807177862 0 0.44669579213863803 -0.1049875196552482 0 0.43425522192389399 -0.12532418806616721 0 0.45479980567330403 -0.1261647600576756 0 0.47326801494301479 -0.11422845771805409 0 0.44669579213863803 -0.1049875196552482 0 0.45479980567330403 -0.1261647600576756 0 0.41546343126495938 -0.121497802527544 0 0.40815004741602789 -0.1050333694180795 0 0.3955567173094644 -0.11819618925973201 0 0.41546343126495938 -0.121497802527544 0 0.42539562965790068 -0.10815452286444829 0 0.40815004741602789 -0.1050333694180795 0 0.44669579213863803 -0.1049875196552482 0 0.42539562965790068 -0.10815452286444829 0 0.43425522192389399 -0.12532418806616721 0 0.41546343126495938 -0.121497802527544 0 0.42539562965790068 -0.10815452286444829 0 0.43425522192389399 -0.12532418806616721 0 0.42539562965790068 -0.10815452286444829 0 0.41723222781004538 -0.089341423088119959 0 0.43257759990510469 -0.093108897807177862 0 0.44669579213863803 -0.1049875196552482 0 0.42539562965790068 -0.10815452286444829 0 0.43257759990510469 -0.093108897807177862 0 0.42539562965790068 -0.10815452286444829 0 0.40815004741602789 -0.1050333694180795 0 0.41723222781004538 -0.089341423088119959 0 0.40815004741602789 -0.1050333694180795 0 0.41723222781004538 -0.089341423088119959 0 0.40332319190634869 -0.090172565554934844 0 0.41723222781004538 -0.089341423088119959 0 0.4303713627275001 -0.081465869733928387 0 0.41372374482536922 -0.074872317047116957 0 0.41723222781004538 -0.089341423088119959 0 0.41372374482536922 -0.074872317047116957 0 0.40332319190634869 -0.090172565554934844 0 0.41723222781004538 -0.089341423088119959 0 0.43257759990510469 -0.093108897807177862 0 0.4303713627275001 -0.081465869733928387 0 0.44453922508151039 -0.085583584646918065 0 0.43257759990510469 -0.093108897807177862 0 0.4303713627275001 -0.081465869733928387 0 0.44185990366258632 -0.064836799124684097 0 0.41859815833738678 -0.062605336860081656 0 0.41372374482536922 -0.074872317047116957 0 0.44185990366258632 -0.064836799124684097 0 0.41372374482536922 -0.074872317047116957 0 0.44185990366258632 -0.064836799124684097 0 0.4303713627275001 -0.081465869733928387 0 0.41372374482536922 -0.074872317047116957 0 0.41859815833738678 -0.062605336860081656 0 0.41372374482536922 -0.074872317047116957 0 0.4052298310059515 -0.068320346354506525 0 0.39444805688532331 -0.071371804282791163 0 0.4052298310059515 -0.068320346354506525 0 0.40797117185313481 -0.054927437884087701 0 0.4052298310059515 -0.068320346354506525 0 0.38558758598815179 -0.084907834969548568 0 0.41372374482536922 -0.074872317047116957 0 0.4052298310059515 -0.068320346354506525 0 0.38558758598815179 -0.084907834969548568 0 0.39444805688532331 -0.071371804282791163 0 0.4052298310059515 -0.068320346354506525 0 0.38558758598815179 -0.084907834969548568 0 0.39444805688532331 -0.071371804282791163 0 0.37692366058349552 -0.06956858971040486 0 0.38558758598815179 -0.084907834969548568 0 0.39444805688532331 -0.071371804282791163 0 0.37692366058349552 -0.06956858971040486 0 0.38561201702549552 -0.059162176666530647 0 0.37692366058349552 -0.06956858971040486 0 0.38558758598815179 -0.084907834969548568 0 0.3724389763665491 -0.07899487238330867 0 0.38558758598815179 -0.084907834969548568 0 0.3724389763665491 -0.07899487238330867 0 0.36792295458853658 -0.091208400943376511 0 0.38558758598815179 -0.084907834969548568 0 0.36792295458853658 -0.091208400943376511 0 0.38558758598815179 -0.084907834969548568 0 0.38308266881021352 -0.097483111087933477 0 0.37055329063471543 -0.097604000951811293 0 0.38558758598815179 -0.084907834969548568 0 0.37055329063471543 -0.097604000951811293 0 0.38558758598815179 -0.084907834969548568 0 0.39157602709819977 -0.093839175150645174 0 0.38308266881021352 -0.097483111087933477 0 0.41372374482536922 -0.074872317047116957 0 0.38558758598815179 -0.084907834969548568 0 0.40332319190634869 -0.090172565554934844 0 0.38558758598815179 -0.084907834969548568 0 0.40332319190634869 -0.090172565554934844 0 0.39157602709819977 -0.093839175150645174 0 0.41372374482536922 -0.074872317047116957 0 0.38558758598815179 -0.084907834969548568 0 0.40815004741602789 -0.1050333694180795 0 0.40332319190634869 -0.090172565554934844 0 0.39223007095766882 -0.1039502748481341 0 0.40815004741602789 -0.1050333694180795 0 0.39223007095766882 -0.1039502748481341 0 0.3955567173094644 -0.11819618925973201 0 0.40332319190634869 -0.090172565554934844 0 0.39223007095766882 -0.1039502748481341 0 0.39157602709819977 -0.093839175150645174 0 0.39223007095766882 -0.1039502748481341 0 0.38308266881021352 -0.097483111087933477 0 0.37645122036474982 -0.1119446778725184 0 0.39223007095766882 -0.1039502748481341 0 0.39157602709819977 -0.093839175150645174 0 0.38308266881021352 -0.097483111087933477 0 0.38308266881021352 -0.097483111087933477 0 0.37645122036474982 -0.1119446778725184 0 0.37055329063471543 -0.097604000951811293 0 0.37645122036474982 -0.1119446778725184 0 0.3955567173094644 -0.11819618925973201 0 0.38234915009478337 -0.12628535479322589 0 0.39223007095766882 -0.1039502748481341 0 0.37645122036474982 -0.1119446778725184 0 0.3955567173094644 -0.11819618925973201 0 0.37645122036474982 -0.1119446778725184 0 0.38234915009478337 -0.12628535479322589 0 0.41546343126495938 -0.121497802527544 0 0.3955567173094644 -0.11819618925973201 0 0.40135576793102579 -0.13294379327452499 0 0.42430916979281358 -0.01469937339559082 0 0.41321032131798519 -0.032998922025339633 0 0.39594369760288778 -0.01475537155227102 0 0.41337274386155098 -0.00024596938489981901 0 0.42430916979281358 -0.01469937339559082 0 0.39594369760288778 -0.01475537155227102 0 0.42840800401231388 0.0047031551363743099 0 0.41337274386155098 -0.00024596938489981901 0 0.42430916979281358 -0.01469937339559082 0 0.42840800401231388 0.0047031551363743099 0 0.44555966035318101 -0.0086069465346454242 0 0.42430916979281358 -0.01469937339559082 0 0.44555966035318101 -0.0086069465346454242 0 0.42430916979281358 -0.01469937339559082 0 0.43343356261908489 -0.031158496193341319 0 0.42430916979281358 -0.01469937339559082 0 0.43343356261908489 -0.031158496193341319 0 0.41321032131798519 -0.032998922025339633 0 0.43343356261908489 -0.031158496193341319 0 0.42420614033989201 -0.050069783890012959 0 0.41321032131798519 -0.032998922025339633 0 0.44492587465037042 -0.046410287578278343 0 0.43343356261908489 -0.031158496193341319 0 0.42420614033989201 -0.050069783890012959 0 0.44185990366258632 -0.064836799124684097 0 0.41859815833738678 -0.062605336860081656 0 0.42420614033989201 -0.050069783890012959 0 0.44492587465037042 -0.046410287578278343 0 0.44185990366258632 -0.064836799124684097 0 0.42420614033989201 -0.050069783890012959 0 0.41859815833738678 -0.062605336860081656 0 0.42420614033989201 -0.050069783890012959 0 0.40797117185313481 -0.054927437884087701 0 0.41859815833738678 -0.062605336860081656 0 0.4052298310059515 -0.068320346354506525 0 0.40797117185313481 -0.054927437884087701 0 0.42420614033989201 -0.050069783890012959 0 0.40797117185313481 -0.054927437884087701 0 0.41321032131798519 -0.032998922025339633 0 0.40797117185313481 -0.054927437884087701 0 0.41321032131798519 -0.032998922025339633 0 0.39519587724410549 -0.043063587917531079 0 0.39444805688532331 -0.071371804282791163 0 0.40797117185313481 -0.054927437884087701 0 0.39519587724410549 -0.043063587917531079 0 0.39444805688532331 -0.071371804282791163 0 0.39519587724410549 -0.043063587917531079 0 0.38561201702549552 -0.059162176666530647 0 0.39444805688532331 -0.071371804282791163 0 0.39519587724410549 -0.043063587917531079 0 0.37692366058349552 -0.06956858971040486 0 0.38561201702549552 -0.059162176666530647 0 0.37588047338905761 -0.0526447247553955 0 0.39519587724410549 -0.043063587917531079 0 0.38561201702549552 -0.059162176666530647 0 0.37588047338905761 -0.0526447247553955 0 0.39519587724410549 -0.043063587917531079 0 0.37588047338905761 -0.0526447247553955 0 0.37408456901029102 -0.028561980875884799 0 0.39594369760288778 -0.01475537155227102 0 0.38433325765117909 -0.0078990557892637588 0 0.37408456901029102 -0.028561980875884799 0 0.38433325765117909 -0.0078990557892637588 0 0.37295816391247461 -0.01062744743575489 0 0.37408456901029102 -0.028561980875884799 0 0.39519587724410549 -0.043063587917531079 0 0.39594369760288778 -0.01475537155227102 0 0.37408456901029102 -0.028561980875884799 0 0.41321032131798519 -0.032998922025339633 0 0.39519587724410549 -0.043063587917531079 0 0.39594369760288778 -0.01475537155227102 0 0.39519587724410549 -0.043063587917531079 0 0.39594369760288778 -0.01475537155227102 0 0.39669151796167018 0.013552844812989229 0 0.39594369760288778 -0.01475537155227102 0 0.38433325765117909 -0.0078990557892637588 0 0.39669151796167018 0.013552844812989229 0 0.41337274386155098 -0.00024596938489981901 0 0.39594369760288778 -0.01475537155227102 0 0.39669151796167018 0.013552844812989229 0 0.39594369760288778 -0.01475537155227102 0 0.37995136004431668 0.003477639248481944 0 0.38433325765117909 -0.0078990557892637588 0 0.37295816391247461 -0.01062744743575489 0 0.37995136004431668 0.003477639248481944 0 0.36886835747302382 -0.0031896416934029249 0 0.37295816391247461 -0.01062744743575489 0 0.36886835747302382 -0.0031896416934029249 0 0.37295816391247461 -0.01062744743575489 0 0.36350541453881979 -0.0109616189587521 0 0.36062521711878898 0.0006066021732962501 0 0.36886835747302382 -0.0031896416934029249 0 0.36350541453881979 -0.0109616189587521 0 0.37408456901029102 -0.028561980875884799 0 0.35187397973788631 -0.01532336631508428 0 0.35396193151887889 -0.036520114917268892 0 0.36350541453881979 -0.0109616189587521 0 0.37408456901029102 -0.028561980875884799 0 0.35187397973788631 -0.01532336631508428 0 0.37408456901029102 -0.028561980875884799 0 0.35187397973788631 -0.01532336631508428 0 0.37295816391247461 -0.01062744743575489 0 0.36350541453881979 -0.0109616189587521 0 0.37408456901029102 -0.028561980875884799 0 0.35187397973788631 -0.01532336631508428 0 0.33976163852965652 -0.037371587083110759 0 0.35187397973788631 -0.01532336631508428 0 0.33976163852965652 -0.037371587083110759 0 0.35396193151887889 -0.036520114917268892 0 0.35187397973788631 -0.01532336631508428 0 0.34251440461031052 -0.00974459458385484 0 0.33760664860554879 -0.025005426098542199 0 0.36062521711878898 0.0006066021732962501 0 0.35187397973788631 -0.01532336631508428 0 0.36082271584702019 0.0074572906701818112 0 0.36062521711878898 0.0006066021732962501 0 0.34251440461031052 -0.00974459458385484 0 0.36062521711878898 0.0006066021732962501 0 0.35187397973788631 -0.01532336631508428 0 0.34251440461031052 -0.00974459458385484 0 0.36082271584702019 0.0074572906701818112 0 0.34251440461031052 -0.00974459458385484 0 0.36062521711878898 0.0006066021732962501 0 0.36350541453881979 -0.0109616189587521 0 0.35187397973788631 -0.01532336631508428 0 0.35187397973788631 -0.01532336631508428 0 0.34251440461031052 -0.00974459458385484 0 0.32539226792800302 0.0004610494544162614 0 0.34251440461031052 -0.00974459458385484 0 0.32539226792800302 0.0004610494544162614 0 0.34251440461031052 -0.00974459458385484 0 0.32755316497129289 -0.01242913116501543 0 0.35187397973788631 -0.01532336631508428 0 0.33760664860554879 -0.025005426098542199 0 0.33976163852965652 -0.037371587083110759 0 0.34251440461031052 -0.00974459458385484 0 0.32513009303305379 -0.026078320240251331 0 0.32755316497129289 -0.01242913116501543 0 0.34251440461031052 -0.00974459458385484 0 0.33760664860554879 -0.025005426098542199 0 0.32513009303305379 -0.026078320240251331 0 0.34251440461031052 -0.00974459458385484 0 0.32513009303305379 -0.026078320240251331 0 0.33760664860554879 -0.025005426098542199 0 0.32513009303305379 -0.026078320240251331 0 0.32875312711683718 -0.036509262270409543 0 0.32513009303305379 -0.026078320240251331 0 0.31717589431380427 -0.014354659290371609 0 0.32755316497129289 -0.01242913116501543 0 0.32513009303305379 -0.026078320240251331 0 0.310418551095691 -0.024672561288953069 0 0.30774578145579662 -0.042412045896647349 0 0.32513009303305379 -0.026078320240251331 0 0.31717589431380427 -0.014354659290371609 0 0.310418551095691 -0.024672561288953069 0 0.32539226792800302 0.0004610494544162614 0 0.31717589431380427 -0.014354659290371609 0 0.30626763640331711 -0.0069586591564612874 0 0.32539226792800302 0.0004610494544162614 0 0.31717589431380427 -0.014354659290371609 0 0.32755316497129289 -0.01242913116501543 0 0.31349820087182961 -0.053122894398841283 0 0.32421759446602111 -0.046577026231794529 0 0.30774578145579662 -0.042412045896647349 0 0.32764929732142789 -0.059419807851138012 0 0.31349820087182961 -0.053122894398841283 0 0.30936372826065672 -0.06604705864745479 0 0.32764929732142789 -0.059419807851138012 0 0.31349820087182961 -0.053122894398841283 0 0.32421759446602111 -0.046577026231794529 0 0.32421759446602111 -0.046577026231794529 0 0.32875312711683718 -0.036509262270409543 0 0.30774578145579662 -0.042412045896647349 0 0.32513009303305379 -0.026078320240251331 0 0.32875312711683718 -0.036509262270409543 0 0.30774578145579662 -0.042412045896647349 0 0.32513009303305379 -0.026078320240251331 0 0.30774578145579662 -0.042412045896647349 0 0.32421759446602111 -0.046577026231794529 0 0.30774578145579662 -0.042412045896647349 0 0.32421759446602111 -0.046577026231794529 0 0.32875312711683718 -0.036509262270409543 0 0.33976163852965652 -0.037371587083110759 0 0.33760664860554879 -0.025005426098542199 0 0.32875312711683718 -0.036509262270409543 0 0.33976163852965652 -0.037371587083110759 0 0.32764929732142789 -0.059419807851138012 0 0.32421759446602111 -0.046577026231794529 0 0.33976163852965652 -0.037371587083110759 0 0.32764929732142789 -0.059419807851138012 0 0.33976163852965652 -0.037371587083110759 0 0.32764929732142789 -0.059419807851138012 0 0.33976163852965652 -0.037371587083110759 0 0.3446483034916521 -0.059731357713442582 0 0.3446483034916521 -0.059731357713442582 0 0.3507204540234895 -0.049380926876434729 0 0.35396193151887889 -0.036520114917268892 0 0.3507204540234895 -0.049380926876434729 0 0.36279382644954611 -0.047480482266977909 0 0.35932170430601312 -0.07029466390990563 0 0.3507204540234895 -0.049380926876434729 0 0.35932170430601312 -0.07029466390990563 0 0.3446483034916521 -0.059731357713442582 0 0.35396193151887889 -0.036520114917268892 0 0.3446483034916521 -0.059731357713442582 0 0.3507204540234895 -0.049380926876434729 0 0.35932170430601312 -0.07029466390990563 0 0.33976163852965652 -0.037371587083110759 0 0.3446483034916521 -0.059731357713442582 0 0.35396193151887889 -0.036520114917268892 0 0.3507204540234895 -0.049380926876434729 0 0.35396193151887889 -0.036520114917268892 0 0.36279382644954611 -0.047480482266977909 0 0.37408456901029102 -0.028561980875884799 0 0.35396193151887889 -0.036520114917268892 0 0.36279382644954611 -0.047480482266977909 0 0.37588047338905761 -0.0526447247553955 0 0.37408456901029102 -0.028561980875884799 0 0.36279382644954611 -0.047480482266977909 0 0.37588047338905761 -0.0526447247553955 0 0.36279382644954611 -0.047480482266977909 0 0.35932170430601312 -0.07029466390990563 0 0.37692366058349552 -0.06956858971040486 0 0.3724389763665491 -0.07899487238330867 0 0.35932170430601312 -0.07029466390990563 0 0.37692366058349552 -0.06956858971040486 0 0.37588047338905761 -0.0526447247553955 0 0.35932170430601312 -0.07029466390990563 0 0.38558758598815179 -0.084907834969548568 0 0.36792295458853658 -0.091208400943376511 0 0.37055329063471543 -0.097604000951811293 0 0.36792295458853658 -0.091208400943376511 0 0.35932170430601312 -0.07029466390990563 0 0.3724389763665491 -0.07899487238330867 0 0.36792295458853658 -0.091208400943376511 0 0.35932170430601312 -0.07029466390990563 0 0.36792295458853658 -0.091208400943376511 0 0.35382261549752497 -0.084781887797564986 0 0.35932170430601312 -0.07029466390990563 0 0.36792295458853658 -0.091208400943376511 0 0.35382261549752497 -0.084781887797564986 0 0.34697200101286929 -0.098681122124585324 0 0.35382261549752497 -0.084781887797564986 0 0.34410433710098581 -0.088629843507914849 0 0.34697200101286929 -0.098681122124585324 0 0.35382261549752497 -0.084781887797564986 0 0.34410433710098581 -0.088629843507914849 0 0.34744632717212032 -0.077276070687688866 0 0.3446483034916521 -0.059731357713442582 0 0.34744632717212032 -0.077276070687688866 0 0.35932170430601312 -0.07029466390990563 0 0.35382261549752497 -0.084781887797564986 0 0.34744632717212032 -0.077276070687688866 0 0.35932170430601312 -0.07029466390990563 0 0.37645122036474982 -0.1119446778725184 0 0.36572388693975733 -0.1247397052319703 0 0.38234915009478337 -0.12628535479322589 0 0.37645122036474982 -0.1119446778725184 0 0.36572388693975733 -0.1247397052319703 0 0.36599732018555742 -0.11204611075438189 0 0.36572388693975733 -0.1247397052319703 0 0.36599732018555742 -0.11204611075438189 0 0.35126088280300749 -0.1138960589612278 0 0.36792295458853658 -0.091208400943376511 0 0.37055329063471543 -0.097604000951811293 0 0.34697200101286929 -0.098681122124585324 0 0.36599732018555742 -0.11204611075438189 0 0.37055329063471543 -0.097604000951811293 0 0.35126088280300749 -0.1138960589612278 0 0.37055329063471543 -0.097604000951811293 0 0.35126088280300749 -0.1138960589612278 0 0.37645122036474982 -0.1119446778725184 0 0.37055329063471543 -0.097604000951811293 0 0.37645122036474982 -0.1119446778725184 0 0.36599732018555742 -0.11204611075438189 0 0.37055329063471543 -0.097604000951811293 0 0.36792295458853658 -0.091208400943376511 0 0.37055329063471543 -0.097604000951811293 0 0.37055329063471543 -0.097604000951811293 0 0.34697200101286929 -0.098681122124585324 0 0.35126088280300749 -0.1138960589612278 0 0.34697200101286929 -0.098681122124585324 0 0.35126088280300749 -0.1138960589612278 0 0.33544113890561789 -0.1152232440781624 0 0.36792295458853658 -0.091208400943376511 0 0.34697200101286929 -0.098681122124585324 0 0.36572388693975733 -0.1247397052319703 0 0.35126088280300749 -0.1138960589612278 0 0.35347539996268779 -0.1360870826520019 0 0.33544113890561789 -0.1152232440781624 0 0.31840695915105433 -0.12512952618302589 0 0.33196847497129978 -0.1301881169706445 0 0.35126088280300749 -0.1138960589612278 0 0.33544113890561789 -0.1152232440781624 0 0.33196847497129978 -0.1301881169706445 0 0.35126088280300749 -0.1138960589612278 0 0.33196847497129978 -0.1301881169706445 0 0.32602104743720067 -0.10615384330579079 0 0.33533467546442519 -0.082942600509616257 0 0.34697200101286929 -0.098681122124585324 0 0.32602104743720067 -0.10615384330579079 0 0.34697200101286929 -0.098681122124585324 0 0.33544113890561789 -0.1152232440781624 0 0.32602104743720067 -0.10615384330579079 0 0.34410433710098581 -0.088629843507914849 0 0.34697200101286929 -0.098681122124585324 0 0.32602104743720067 -0.10615384330579079 0 0.3142141934535615 -0.098103744808269916 0 0.32602104743720067 -0.10615384330579079 0 0.32527443105669762 -0.090916650331071214 0 0.3142141934535615 -0.098103744808269916 0 0.32602104743720067 -0.10615384330579079 0 0.31186659992852678 -0.1112024077696645 0 0.32602104743720067 -0.10615384330579079 0 0.31186659992852678 -0.1112024077696645 0 0.33544113890561789 -0.1152232440781624 0 0.32602104743720067 -0.10615384330579079 0 0.31840695915105433 -0.12512952618302589 0 0.32602104743720067 -0.10615384330579079 0 0.31186659992852678 -0.1112024077696645 0 0.31840695915105433 -0.12512952618302589 0 0.32602104743720067 -0.10615384330579079 0 0.31840695915105433 -0.12512952618302589 0 0.31186659992852678 -0.1112024077696645 0 0.30866926922661508 -0.12573227813847929 0 0.31840695915105433 -0.12512952618302589 0 0.3446483034916521 -0.059731357713442582 0 0.33355345755950161 -0.069885808951497444 0 0.33533467546442519 -0.082942600509616257 0 0.32764929732142789 -0.059419807851138012 0 0.3446483034916521 -0.059731357713442582 0 0.33355345755950161 -0.069885808951497444 0 0.3446483034916521 -0.059731357713442582 0 0.33533467546442519 -0.082942600509616257 0 0.3446483034916521 -0.059731357713442582 0 0.34744632717212032 -0.077276070687688866 0 0.33533467546442519 -0.082942600509616257 0 0.32764929732142789 -0.059419807851138012 0 0.33355345755950161 -0.069885808951497444 0 0.32658155396050143 -0.077449469731792925 0 0.33355345755950161 -0.069885808951497444 0 0.33533467546442519 -0.082942600509616257 0 0.32658155396050143 -0.077449469731792925 0 0.34410433710098581 -0.088629843507914849 0 0.32602104743720067 -0.10615384330579079 0 0.33533467546442519 -0.082942600509616257 0 0.34410433710098581 -0.088629843507914849 0 0.34744632717212032 -0.077276070687688866 0 0.33533467546442519 -0.082942600509616257 0 0.32602104743720067 -0.10615384330579079 0 0.33533467546442519 -0.082942600509616257 0 0.32527443105669762 -0.090916650331071214 0 0.33533467546442519 -0.082942600509616257 0 0.32527443105669762 -0.090916650331071214 0 0.32658155396050143 -0.077449469731792925 0 0.3142141934535615 -0.098103744808269916 0 0.32658155396050143 -0.077449469731792925 0 0.3142141934535615 -0.098103744808269916 0 0.31553695611319932 -0.081468028619165356 0 0.32658155396050143 -0.077449469731792925 0 0.3142141934535615 -0.098103744808269916 0 0.32527443105669762 -0.090916650331071214 0 0.32658155396050143 -0.077449469731792925 0 0.32764929732142789 -0.059419807851138012 0 0.31553695611319932 -0.081468028619165356 0 0.30936372826065672 -0.06604705864745479 0 0.32764929732142789 -0.059419807851138012 0 0.31553695611319932 -0.081468028619165356 0 0.32764929732142789 -0.059419807851138012 0 0.31553695611319932 -0.081468028619165356 0 0.32658155396050143 -0.077449469731792925 0 0.30936372826065672 -0.06604705864745479 0 0.29629631641704041 -0.070314563129292587 0 0.29663906056470718 -0.052847554439569469 0 0.30936372826065672 -0.06604705864745479 0 0.30297573157869279 -0.079407911782304955 0 0.29629631641704041 -0.070314563129292587 0 0.31553695611319932 -0.081468028619165356 0 0.30936372826065672 -0.06604705864745479 0 0.30297573157869279 -0.079407911782304955 0 0.31553695611319932 -0.081468028619165356 0 0.30042230582549312 -0.090961246862171982 0 0.30297573157869279 -0.079407911782304955 0 0.31553695611319932 -0.081468028619165356 0 0.30042230582549312 -0.090961246862171982 0 0.3034246149049708 -0.1035162493871926 0 0.31553695611319932 -0.081468028619165356 0 0.3034246149049708 -0.1035162493871926 0 0.30042230582549312 -0.090961246862171982 0 0.30297573157869279 -0.079407911782304955 0 0.29528295245350528 -0.084692462095189255 0 0.30297573157869279 -0.079407911782304955 0 0.29528295245350528 -0.084692462095189255 0 0.29629631641704041 -0.070314563129292587 0 0.29528295245350528 -0.084692462095189255 0 0.28893847642995868 -0.098609183310505999 0 0.27477555537880127 -0.084431118052557555 0 0.29528295245350528 -0.084692462095189255 0 0.28528899024297749 -0.074580122217338757 0 0.27477555537880127 -0.084431118052557555 0 0.30042230582549312 -0.090961246862171982 0 0.29528295245350528 -0.084692462095189255 0 0.28893847642995868 -0.098609183310505999 0 0.28528899024297749 -0.074580122217338757 0 0.28553233967361652 -0.063283062982490257 0 0.27486048300168042 -0.071562195169003071 0 0.28528899024297749 -0.074580122217338757 0 0.28553233967361652 -0.063283062982490257 0 0.29629631641704041 -0.070314563129292587 0 0.29528295245350528 -0.084692462095189255 0 0.28528899024297749 -0.074580122217338757 0 0.29629631641704041 -0.070314563129292587 0 0.30184683294662162 -0.1187580198847468 0 0.31186659992852678 -0.1112024077696645 0 0.30866926922661508 -0.12573227813847929 0 0.30184683294662162 -0.1187580198847468 0 0.3034246149049708 -0.1035162493871926 0 0.29294092871090449 -0.110512252080931 0 0.3142141934535615 -0.098103744808269916 0 0.30184683294662162 -0.1187580198847468 0 0.3142141934535615 -0.098103744808269916 0 0.31553695611319932 -0.081468028619165356 0 0.3034246149049708 -0.1035162493871926 0 0.3142141934535615 -0.098103744808269916 0 0.30184683294662162 -0.1187580198847468 0 0.3034246149049708 -0.1035162493871926 0 0.3142141934535615 -0.098103744808269916 0 0.30184683294662162 -0.1187580198847468 0 0.31186659992852678 -0.1112024077696645 0 0.30042230582549312 -0.090961246862171982 0 0.3034246149049708 -0.1035162493871926 0 0.28893847642995868 -0.098609183310505999 0 0.28893847642995868 -0.098609183310505999 0 0.29294092871090449 -0.110512252080931 0 0.27987075258117161 -0.1116611378814943 0 0.3034246149049708 -0.1035162493871926 0 0.28893847642995868 -0.098609183310505999 0 0.29294092871090449 -0.110512252080931 0 0.29294092871090449 -0.110512252080931 0 0.28800501304270543 -0.12304776942922881 0 0.27987075258117161 -0.1116611378814943 0 0.28800501304270543 -0.12304776942922881 0 0.27987075258117161 -0.1116611378814943 0 0.27817623239398132 -0.12510624367170889 0 0.30184683294662162 -0.1187580198847468 0 0.29294092871090449 -0.110512252080931 0 0.28800501304270543 -0.12304776942922881 0 0.26727773164751301 -0.12133678399615561 0 0.27987075258117161 -0.1116611378814943 0 0.26094565753913429 -0.1037101887603526 0 0.26727773164751301 -0.12133678399615561 0 0.27987075258117161 -0.1116611378814943 0 0.27817623239398132 -0.12510624367170889 0 0.27987075258117161 -0.1116611378814943 0 0.27422518711020322 -0.098420219115788854 0 0.26094565753913429 -0.1037101887603526 0 0.28893847642995868 -0.098609183310505999 0 0.27987075258117161 -0.1116611378814943 0 0.27422518711020322 -0.098420219115788854 0 0.28893847642995868 -0.098609183310505999 0 0.27422518711020322 -0.098420219115788854 0 0.27477555537880127 -0.084431118052557555 0 0.27422518711020322 -0.098420219115788854 0 0.26094565753913429 -0.1037101887603526 0 0.26332962084870959 -0.090641986047642634 0 0.26094565753913429 -0.1037101887603526 0 0.25003980615660742 -0.083535413830390357 0 0.2395881071336681 -0.1002168430126066 0 0.26094565753913429 -0.1037101887603526 0 0.25411809373254007 -0.1218374527257427 0 0.23839366808956949 -0.1193040881922396 0 0.26727773164751301 -0.12133678399615561 0 0.26094565753913429 -0.1037101887603526 0 0.25411809373254007 -0.1218374527257427 0 0.27486048300168042 -0.071562195169003071 0 0.26359879828081972 -0.076028817577939695 0 0.26510673143218683 -0.059487855014689041 0 0.28553233967361652 -0.063283062982490257 0 0.27486048300168042 -0.071562195169003071 0 0.26510673143218683 -0.059487855014689041 0 0.27486048300168042 -0.071562195169003071 0 0.27477555537880127 -0.084431118052557555 0 0.26359879828081972 -0.076028817577939695 0 0.28528899024297749 -0.074580122217338757 0 0.27486048300168042 -0.071562195169003071 0 0.27477555537880127 -0.084431118052557555 0 0.27422518711020322 -0.098420219115788854 0 0.27477555537880127 -0.084431118052557555 0 0.26332962084870959 -0.090641986047642634 0 0.27477555537880127 -0.084431118052557555 0 0.25916151517391389 -0.0832075825679012 0 0.26332962084870959 -0.090641986047642634 0 0.27477555537880127 -0.084431118052557555 0 0.25916151517391389 -0.0832075825679012 0 0.26359879828081972 -0.076028817577939695 0 0.26094565753913429 -0.1037101887603526 0 0.26332962084870959 -0.090641986047642634 0 0.25003980615660742 -0.083535413830390357 0 0.25916151517391389 -0.0832075825679012 0 0.26332962084870959 -0.090641986047642634 0 0.25003980615660742 -0.083535413830390357 0 0.25916151517391389 -0.0832075825679012 0 0.25003980615660742 -0.083535413830390357 0 0.26359879828081972 -0.076028817577939695 0 0.25003980615660742 -0.083535413830390357 0 0.26510673143218683 -0.059487855014689041 0 0.2484029069974942 -0.061374248800601452 0 0.25003980615660742 -0.083535413830390357 0 0.26510673143218683 -0.059487855014689041 0 0.25003980615660742 -0.083535413830390357 0 0.26359879828081972 -0.076028817577939695 0 0.26510673143218683 -0.059487855014689041 0 0.26510673143218683 -0.059487855014689041 0 0.25578588158283011 -0.042253170371938917 0 0.2484029069974942 -0.061374248800601452 0 0.28553233967361652 -0.063283062982490257 0 0.26510673143218683 -0.059487855014689041 0 0.28215914096180572 -0.051789838846807053 0 0.26510673143218683 -0.059487855014689041 0 0.28017365670776351 -0.035440296198986053 0 0.26510673143218683 -0.059487855014689041 0 0.28017365670776351 -0.035440296198986053 0 0.28215914096180572 -0.051789838846807053 0 0.26510673143218683 -0.059487855014689041 0 0.27459418640118038 -0.034029499215496362 0 0.28017365670776351 -0.035440296198986053 0 0.27459418640118038 -0.034029499215496362 0 0.28135763145700021 -0.031072276405631729 0 0.27459418640118038 -0.034029499215496362 0 0.28017365670776351 -0.035440296198986053 0 0.28135763145700021 -0.031072276405631729 0 0.27459418640118038 -0.034029499215496362 0 0.28017365670776351 -0.035440296198986053 0 0.26510673143218683 -0.059487855014689041 0 0.27459418640118038 -0.034029499215496362 0 0.25578588158283011 -0.042253170371938917 0 0.27459418640118038 -0.034029499215496362 0 0.25339072374993599 -0.028668097594149119 0 0.27459418640118038 -0.034029499215496362 0 0.25578588158283011 -0.042253170371938917 0 0.27459418640118038 -0.034029499215496362 0 0.25578588158283011 -0.042253170371938917 0 0.25339072374993599 -0.028668097594149119 0 0.25339072374993599 -0.028668097594149119 0 0.25421338193595477 -0.013900968893139781 0 0.24449674383892731 -0.011473417160980499 0 0.27459418640118038 -0.034029499215496362 0 0.25339072374993599 -0.028668097594149119 0 0.26760440500138971 -0.02311570256251445 0 0.25339072374993599 -0.028668097594149119 0 0.2608090170215992 -0.017554215155937091 0 0.25421338193595477 -0.013900968893139781 0 0.25339072374993599 -0.028668097594149119 0 0.2608090170215992 -0.017554215155937091 0 0.26760440500138971 -0.02311570256251445 0 0.2442639786172042 0.0070688571158914679 0 0.25328617053865732 -0.0061358056175155294 0 0.26205797115204887 -0.0025371272048387711 0 0.25328617053865732 -0.0061358056175155294 0 0.25421338193595477 -0.013900968893139781 0 0.24449674383892731 -0.011473417160980499 0 0.25328617053865732 -0.0061358056175155294 0 0.25421338193595477 -0.013900968893139781 0 0.26157401356787419 -0.010151564479897211 0 0.2608090170215992 -0.017554215155937091 0 0.26157401356787419 -0.010151564479897211 0 0.26931783119031022 -0.015193990021981549 0 0.2608090170215992 -0.017554215155937091 0 0.25421338193595477 -0.013900968893139781 0 0.26157401356787419 -0.010151564479897211 0 0.26157401356787419 -0.010151564479897211 0 0.26205797115204887 -0.0025371272048387711 0 0.26986958907590908 -0.0073366434825999534 0 0.25328617053865732 -0.0061358056175155294 0 0.26157401356787419 -0.010151564479897211 0 0.26205797115204887 -0.0025371272048387711 0 0.26682731724403391 0.0019641969869965701 0 0.26205797115204887 -0.0025371272048387711 0 0.26682731724403391 0.0019641969869965701 0 0.29362878847169321 -0.0040992851879733828 0 0.26682731724403391 0.0019641969869965701 0 0.27646626111778699 -0.0040620591925382811 0 0.29362878847169321 -0.0040992851879733828 0 0.26682731724403391 0.0019641969869965701 0 0.26880528464744469 -0.0029929082232451089 0 0.27646626111778699 -0.0040620591925382811 0 0.26682731724403391 0.0019641969869965701 0 0.26205797115204887 -0.0025371272048387711 0 0.26880528464744469 -0.0029929082232451089 0 0.26205797115204887 -0.0025371272048387711 0 0.26880528464744469 -0.0029929082232451089 0 0.26986958907590908 -0.0073366434825999534 0 0.26880528464744469 -0.0029929082232451089 0 0.26986958907590908 -0.0073366434825999534 0 0.27646626111778699 -0.0040620591925382811 0 0.26986958907590908 -0.0073366434825999534 0 0.26931783119031022 -0.015193990021981549 0 0.27480909375847601 -0.011270163147933091 0 0.26157401356787419 -0.010151564479897211 0 0.26986958907590908 -0.0073366434825999534 0 0.26931783119031022 -0.015193990021981549 0 0.26986958907590908 -0.0073366434825999534 0 0.27480909375847601 -0.011270163147933091 0 0.27552024140822851 -0.0076198643093177447 0 0.26931783119031022 -0.015193990021981549 0 0.27480909375847601 -0.011270163147933091 0 0.27743139664219402 -0.017283930886436111 0 0.27480909375847601 -0.011270163147933091 0 0.27743139664219402 -0.017283930886436111 0 0.28355403049963662 -0.01492697745577479 0 0.27480909375847601 -0.011270163147933091 0 0.28093602168074172 -0.0078105914141996559 0 0.28355403049963662 -0.01492697745577479 0 0.27480909375847601 -0.011270163147933091 0 0.27552024140822851 -0.0076198643093177447 0 0.28093602168074172 -0.0078105914141996559 0 0.27646626111778699 -0.0040620591925382811 0 0.28093602168074172 -0.0078105914141996559 0 0.28532251392531771 -0.0068254814896856614 0 0.26986958907590908 -0.0073366434825999534 0 0.27552024140822851 -0.0076198643093177447 0 0.27646626111778699 -0.0040620591925382811 0 0.27552024140822851 -0.0076198643093177447 0 0.27646626111778699 -0.0040620591925382811 0 0.28093602168074172 -0.0078105914141996559 0 0.27459418640118038 -0.034029499215496362 0 0.26760440500138971 -0.02311570256251445 0 0.27537224636820212 -0.026190048469630901 0 0.26760440500138971 -0.02311570256251445 0 0.27383078754160067 -0.0214938143818829 0 0.27537224636820212 -0.026190048469630901 0 0.26931783119031022 -0.015193990021981549 0 0.26760440500138971 -0.02311570256251445 0 0.27383078754160067 -0.0214938143818829 0 0.2608090170215992 -0.017554215155937091 0 0.26931783119031022 -0.015193990021981549 0 0.26760440500138971 -0.02311570256251445 0 0.27383078754160067 -0.0214938143818829 0 0.27743139664219402 -0.017283930886436111 0 0.28017770571671008 -0.023087053725958439 0 0.26931783119031022 -0.015193990021981549 0 0.27383078754160067 -0.0214938143818829 0 0.27743139664219402 -0.017283930886436111 0 0.27743139664219402 -0.017283930886436111 0 0.28017770571671008 -0.023087053725958439 0 0.28355403049963662 -0.01492697745577479 0 0.27459418640118038 -0.034029499215496362 0 0.27537224636820212 -0.026190048469630901 0 0.28135763145700021 -0.031072276405631729 0 0.28017770571671008 -0.023087053725958439 0 0.27537224636820212 -0.026190048469630901 0 0.28135763145700021 -0.031072276405631729 0 0.27383078754160067 -0.0214938143818829 0 0.28017770571671008 -0.023087053725958439 0 0.27537224636820212 -0.026190048469630901 0 0.28017365670776351 -0.035440296198986053 0 0.28767928828449341 -0.02346093654270576 0 0.28017365670776351 -0.035440296198986053 0 0.28767928828449341 -0.02346093654270576 0 0.29754529916935979 -0.02435286664122523 0 0.28017365670776351 -0.035440296198986053 0 0.28767928828449341 -0.02346093654270576 0 0.28135763145700021 -0.031072276405631729 0 0.28017770571671008 -0.023087053725958439 0 0.28767928828449341 -0.02346093654270576 0 0.28135763145700021 -0.031072276405631729 0 0.28017770571671008 -0.023087053725958439 0 0.28767928828449341 -0.02346093654270576 0 0.28355403049963662 -0.01492697745577479 0 0.28767928828449341 -0.02346093654270576 0 0.28355403049963662 -0.01492697745577479 0 0.29102703241078531 -0.01460073140174018 0 0.29102703241078531 -0.01460073140174018 0 0.29912234557164508 -0.013992081845741159 0 0.29754529916935979 -0.02435286664122523 0 0.28767928828449341 -0.02346093654270576 0 0.29102703241078531 -0.01460073140174018 0 0.29754529916935979 -0.02435286664122523 0 0.27646626111778699 -0.0040620591925382811 0 0.28532251392531771 -0.0068254814896856614 0 0.29362878847169321 -0.0040992851879733828 0 0.28532251392531771 -0.0068254814896856614 0 0.28569523963658972 -0.01028179805195231 0 0.28988625871977691 -0.0078736736017646775 0 0.28569523963658972 -0.01028179805195231 0 0.29102703241078531 -0.01460073140174018 0 0.28988625871977691 -0.0078736736017646775 0 0.28093602168074172 -0.0078105914141996559 0 0.28532251392531771 -0.0068254814896856614 0 0.28569523963658972 -0.01028179805195231 0 0.28093602168074172 -0.0078105914141996559 0 0.28569523963658972 -0.01028179805195231 0 0.28355403049963662 -0.01492697745577479 0 0.28569523963658972 -0.01028179805195231 0 0.28355403049963662 -0.01492697745577479 0 0.29102703241078531 -0.01460073140174018 0 0.29102703241078531 -0.01460073140174018 0 0.29598641231544348 -0.0095048862387361391 0 0.29912234557164508 -0.013992081845741159 0 0.29102703241078531 -0.01460073140174018 0 0.29598641231544348 -0.0095048862387361391 0 0.28988625871977691 -0.0078736736017646775 0 0.28532251392531771 -0.0068254814896856614 0 0.28988625871977691 -0.0078736736017646775 0 0.29362878847169321 -0.0040992851879733828 0 0.28988625871977691 -0.0078736736017646775 0 0.29362878847169321 -0.0040992851879733828 0 0.29598641231544348 -0.0095048862387361391 0 0.28988625871977691 -0.0078736736017646775 0 0.29362878847169321 -0.0040992851879733828 0 0.30827013124569591 0.01066669349268779 0 0.29362878847169321 -0.0040992851879733828 0 0.30626763640331711 -0.0069586591564612874 0 0.29362878847169321 -0.0040992851879733828 0 0.30626763640331711 -0.0069586591564612874 0 0.29598641231544348 -0.0095048862387361391 0 0.29362878847169321 -0.0040992851879733828 0 0.30626763640331711 -0.0069586591564612874 0 0.29912234557164508 -0.013992081845741159 0 0.30626763640331711 -0.0069586591564612874 0 0.30610594531076352 -0.016866165644550471 0 0.29598641231544348 -0.0095048862387361391 0 0.29912234557164508 -0.013992081845741159 0 0.30626763640331711 -0.0069586591564612874 0 0.31717589431380427 -0.014354659290371609 0 0.30626763640331711 -0.0069586591564612874 0 0.30610594531076352 -0.016866165644550471 0 0.29754529916935979 -0.02435286664122523 0 0.310418551095691 -0.024672561288953069 0 0.30774578145579662 -0.042412045896647349 0 0.29912234557164508 -0.013992081845741159 0 0.29754529916935979 -0.02435286664122523 0 0.30610594531076352 -0.016866165644550471 0 0.29754529916935979 -0.02435286664122523 0 0.30610594531076352 -0.016866165644550471 0 0.310418551095691 -0.024672561288953069 0 0.31717589431380427 -0.014354659290371609 0 0.30610594531076352 -0.016866165644550471 0 0.310418551095691 -0.024672561288953069 0 0.31349820087182961 -0.053122894398841283 0 0.30936372826065672 -0.06604705864745479 0 0.29663906056470718 -0.052847554439569469 0 0.31349820087182961 -0.053122894398841283 0 0.30774578145579662 -0.042412045896647349 0 0.29663906056470718 -0.052847554439569469 0 0.30774578145579662 -0.042412045896647349 0 0.29663906056470718 -0.052847554439569469 0 0.28553233967361652 -0.063283062982490257 0 0.29629631641704041 -0.070314563129292587 0 0.29663906056470718 -0.052847554439569469 0 0.28553233967361652 -0.063283062982490257 0 0.29663906056470718 -0.052847554439569469 0 0.28553233967361652 -0.063283062982490257 0 0.29663906056470718 -0.052847554439569469 0 0.28215914096180572 -0.051789838846807053 0 0.28017365670776351 -0.035440296198986053 0 0.29754529916935979 -0.02435286664122523 0 0.30774578145579662 -0.042412045896647349 0 0.28017365670776351 -0.035440296198986053 0 0.30774578145579662 -0.042412045896647349 0 0.29663906056470718 -0.052847554439569469 0 0.28017365670776351 -0.035440296198986053 0 0.30774578145579662 -0.042412045896647349 0 0.28017365670776351 -0.035440296198986053 0 0.29663906056470718 -0.052847554439569469 0 0.28215914096180572 -0.051789838846807053 0 0.29052328907101682 -0.2054407640365134 0 0.30466433428446482 -0.21043014500735349 0 0.29219451314912992 -0.21942796382546681 0 0.29052328907101682 -0.2054407640365134 0 0.29219451314912992 -0.21942796382546681 0 0.28013818721905248 -0.2140000813258422 0 0.29644077895924692 -0.19220379223881101 0 0.27288161726823018 -0.19391256994672409 0 0.28712353987217532 -0.18454593184566331 0 0.29052328907101682 -0.2054407640365134 0 0.29644077895924692 -0.19220379223881101 0 0.27288161726823018 -0.19391256994672409 0 0.29644077895924692 -0.19220379223881101 0 0.27288161726823018 -0.19391256994672409 0 0.29052328907101682 -0.2054407640365134 0 0.29644077895924692 -0.19220379223881101 0 0.29918917707914222 -0.20156776992774481 0 0.29644077895924692 -0.19220379223881101 0 0.30727760937958709 -0.19975425959053211 0 0.31999994065026338 -0.19049501453089701 0 0.29644077895924692 -0.19220379223881101 0 0.31999994065026338 -0.19049501453089701 0 0.29644077895924692 -0.19220379223881101 0 0.29918917707914222 -0.20156776992774481 0 0.30727760937958709 -0.19975425959053211 0 0.29644077895924692 -0.19220379223881101 0 0.3003858936387207 -0.182631120418802 0 0.31999994065026338 -0.19049501453089701 0 0.30466433428446482 -0.21043014500735349 0 0.30702379635189397 -0.22545861834249931 0 0.32127139759284662 -0.21742181604267649 0 0.30727760937958709 -0.19975425959053211 0 0.30466433428446482 -0.21043014500735349 0 0.31628290863471298 -0.2042116364570877 0 0.29052328907101682 -0.2054407640365134 0 0.29918917707914222 -0.20156776992774481 0 0.30466433428446482 -0.21043014500735349 0 0.29918917707914222 -0.20156776992774481 0 0.30727760937958709 -0.19975425959053211 0 0.30466433428446482 -0.21043014500735349 0 0.30466433428446482 -0.21043014500735349 0 0.30702379635189397 -0.22545861834249931 0 0.29219451314912992 -0.21942796382546681 0 0.30702379635189397 -0.22545861834249931 0 0.31122873499901749 -0.2414141641502838 0 0.29517974016366488 -0.23200308416157389 0 0.30702379635189397 -0.22545861834249931 0 0.31122873499901749 -0.2414141641502838 0 0.31888706210848489 -0.22987830943466139 0 0.30702379635189397 -0.22545861834249931 0 0.29219451314912992 -0.21942796382546681 0 0.29517974016366488 -0.23200308416157389 0 0.31122873499901749 -0.2414141641502838 0 0.28800960804428533 -0.24563086090229341 0 0.30250877060147469 -0.26103797640199738 0 0.31122873499901749 -0.2414141641502838 0 0.28800960804428533 -0.24563086090229341 0 0.29517974016366488 -0.23200308416157389 0 0.28800960804428533 -0.24563086090229341 0 0.29517974016366488 -0.23200308416157389 0 0.2774420482739976 -0.22808381358732641 0 0.29219451314912992 -0.21942796382546681 0 0.29517974016366488 -0.23200308416157389 0 0.2774420482739976 -0.22808381358732641 0 0.29219451314912992 -0.21942796382546681 0 0.2774420482739976 -0.22808381358732641 0 0.28013818721905248 -0.2140000813258422 0 0.2774420482739976 -0.22808381358732641 0 0.26561392803651052 -0.21433176510262009 0 0.28013818721905248 -0.2140000813258422 0 0.2774420482739976 -0.22808381358732641 0 0.25514475533097453 -0.2276816072048613 0 0.26561392803651052 -0.21433176510262009 0 0.2774420482739976 -0.22808381358732641 0 0.26544806631453821 -0.24230099698390439 0 0.25514475533097453 -0.2276816072048613 0 0.28800960804428533 -0.24563086090229341 0 0.2774420482739976 -0.22808381358732641 0 0.26544806631453821 -0.24230099698390439 0 0.28800960804428533 -0.24563086090229341 0 0.26544806631453821 -0.24230099698390439 0 0.27382308897938978 -0.25757477385260902 0 0.26544806631453821 -0.24230099698390439 0 0.25387513984481591 -0.25857931195517603 0 0.24332510085663281 -0.23797516366695659 0 0.26544806631453821 -0.24230099698390439 0 0.25514475533097453 -0.2276816072048613 0 0.24332510085663281 -0.23797516366695659 0 0.25514475533097453 -0.2276816072048613 0 0.26561392803651052 -0.21433176510262009 0 0.24511752324188171 -0.21502126601511071 0 0.26561392803651052 -0.21433176510262009 0 0.25551259201776633 -0.2018500530230013 0 0.24511752324188171 -0.21502126601511071 0 0.26561392803651052 -0.21433176510262009 0 0.27288161726823018 -0.19391256994672409 0 0.25551259201776633 -0.2018500530230013 0 0.26561392803651052 -0.21433176510262009 0 0.28013818721905248 -0.2140000813258422 0 0.27288161726823018 -0.19391256994672409 0 0.29052328907101682 -0.2054407640365134 0 0.28013818721905248 -0.2140000813258422 0 0.27288161726823018 -0.19391256994672409 0 0.27288161726823018 -0.19391256994672409 0 0.25551259201776633 -0.2018500530230013 0 0.25452631915530111 -0.1872025564447036 0 0.25452631915530111 -0.1872025564447036 0 0.25864843743782828 -0.17649875239977339 0 0.2490821810095811 -0.177020029302313 0 0.27288161726823018 -0.19391256994672409 0 0.25452631915530111 -0.1872025564447036 0 0.26710771065056471 -0.18130062581788101 0 0.25452631915530111 -0.1872025564447036 0 0.25864843743782828 -0.17649875239977339 0 0.26710771065056471 -0.18130062581788101 0 0.26396423765557891 -0.17429391587395679 0 0.25864843743782828 -0.17649875239977339 0 0.26710771065056471 -0.18130062581788101 0 0.26396423765557891 -0.17429391587395679 0 0.26115779961563201 -0.1669033321946192 0 0.2701239884113007 -0.17638624820115301 0 0.26396423765557891 -0.17429391587395679 0 0.25864843743782828 -0.17649875239977339 0 0.25921769944076678 -0.17250771106001431 0 0.25864843743782828 -0.17649875239977339 0 0.25921769944076678 -0.17250771106001431 0 0.25310032305402841 -0.17233484377170791 0 0.25864843743782828 -0.17649875239977339 0 0.25310032305402841 -0.17233484377170791 0 0.2490821810095811 -0.177020029302313 0 0.25312937396458451 -0.16432342264118821 0 0.26115779961563201 -0.1669033321946192 0 0.2367550277378207 -0.16982106180370901 0 0.25310032305402841 -0.17233484377170791 0 0.26115779961563201 -0.1669033321946192 0 0.2367550277378207 -0.16982106180370901 0 0.25312937396458451 -0.16432342264118821 0 0.25883690725227759 -0.16421295805420419 0 0.26115779961563201 -0.1669033321946192 0 0.25312937396458451 -0.16432342264118821 0 0.25212124448027978 -0.15950273652282421 0 0.2461464393348303 -0.16309120823700429 0 0.25312937396458451 -0.16432342264118821 0 0.25789320308751151 -0.16132926496889999 0 0.25883690725227759 -0.16421295805420419 0 0.25312937396458451 -0.16432342264118821 0 0.25212124448027978 -0.15950273652282421 0 0.25789320308751151 -0.16132926496889999 0 0.25212124448027978 -0.15950273652282421 0 0.25789320308751151 -0.16132926496889999 0 0.2586354839602284 -0.1552602100457193 0 0.26335303951332251 -0.16099630925850669 0 0.26115779961563201 -0.1669033321946192 0 0.27054072391777279 -0.16048339480070539 0 0.26335303951332251 -0.16099630925850669 0 0.2586354839602284 -0.1552602100457193 0 0.26620255598902859 -0.15292802445397191 0 0.25789320308751151 -0.16132926496889999 0 0.26335303951332251 -0.16099630925850669 0 0.2586354839602284 -0.1552602100457193 0 0.25789320308751151 -0.16132926496889999 0 0.26106457513210168 -0.163441220334996 0 0.26335303951332251 -0.16099630925850669 0 0.25789320308751151 -0.16132926496889999 0 0.26106457513210168 -0.163441220334996 0 0.25883690725227759 -0.16421295805420419 0 0.26106457513210168 -0.163441220334996 0 0.26335303951332251 -0.16099630925850669 0 0.26115779961563201 -0.1669033321946192 0 0.25921769944076678 -0.17250771106001431 0 0.25310032305402841 -0.17233484377170791 0 0.26115779961563201 -0.1669033321946192 0 0.26396423765557891 -0.17429391587395679 0 0.25921769944076678 -0.17250771106001431 0 0.26115779961563201 -0.1669033321946192 0 0.25883690725227759 -0.16421295805420419 0 0.26047971788265922 -0.16533532022210279 0 0.26115779961563201 -0.1669033321946192 0 0.26106457513210168 -0.163441220334996 0 0.26047971788265922 -0.16533532022210279 0 0.26115779961563201 -0.1669033321946192 0 0.26106457513210168 -0.163441220334996 0 0.25883690725227759 -0.16421295805420419 0 0.26047971788265922 -0.16533532022210279 0 0.26115779961563201 -0.1669033321946192 0 0.28077184662717758 -0.17476722630670749 0 0.26115779961563201 -0.1669033321946192 0 0.28077184662717758 -0.17476722630670749 0 0.28698889906226771 -0.16381482388630519 0 0.26115779961563201 -0.1669033321946192 0 0.27054072391777279 -0.16048339480070539 0 0.28698889906226771 -0.16381482388630519 0 0.27054072391777279 -0.16048339480070539 0 0.27763136581378128 -0.1591993831802061 0 0.28698889906226771 -0.16381482388630519 0 0.26115779961563201 -0.1669033321946192 0 0.28698889906226771 -0.16381482388630519 0 0.26335303951332251 -0.16099630925850669 0 0.27054072391777279 -0.16048339480070539 0 0.26620255598902859 -0.15292802445397191 0 0.27054072391777279 -0.16048339480070539 0 0.27763136581378128 -0.1591993831802061 0 0.27237724983574069 -0.1527512252560318 0 0.28077184662717758 -0.17476722630670749 0 0.27560174056588971 -0.18218252042362579 0 0.2701239884113007 -0.17638624820115301 0 0.26115779961563201 -0.1669033321946192 0 0.28077184662717758 -0.17476722630670749 0 0.2701239884113007 -0.17638624820115301 0 0.28077184662717758 -0.17476722630670749 0 0.27560174056588971 -0.18218252042362579 0 0.28712353987217532 -0.18454593184566331 0 0.27288161726823018 -0.19391256994672409 0 0.27560174056588971 -0.18218252042362579 0 0.28712353987217532 -0.18454593184566331 0 0.27288161726823018 -0.19391256994672409 0 0.27560174056588971 -0.18218252042362579 0 0.26710771065056471 -0.18130062581788101 0 0.27560174056588971 -0.18218252042362579 0 0.26710771065056471 -0.18130062581788101 0 0.2701239884113007 -0.17638624820115301 0 0.26396423765557891 -0.17429391587395679 0 0.26710771065056471 -0.18130062581788101 0 0.2701239884113007 -0.17638624820115301 0 0.26727773164751301 -0.12133678399615561 0 0.25411809373254007 -0.1218374527257427 0 0.25871631096411563 -0.13274986879829589 0 0.25411809373254007 -0.1218374527257427 0 0.25871631096411563 -0.13274986879829589 0 0.24525710042236801 -0.13208633388166979 0 0.25871631096411563 -0.13274986879829589 0 0.25170293511638508 -0.14198310364294889 0 0.24525710042236801 -0.13208633388166979 0 0.25871631096411563 -0.13274986879829589 0 0.26158220745268479 -0.144408007328723 0 0.25170293511638508 -0.14198310364294889 0 0.25871631096411563 -0.13274986879829589 0 0.26158220745268479 -0.144408007328723 0 0.27270368993153271 -0.13596824105807209 0 0.26158220745268479 -0.144408007328723 0 0.25170293511638508 -0.14198310364294889 0 0.25144013321275083 -0.15159102871840449 0 0.25212124448027978 -0.15950273652282421 0 0.25144013321275083 -0.15159102871840449 0 0.2586354839602284 -0.1552602100457193 0 0.26158220745268479 -0.144408007328723 0 0.25144013321275083 -0.15159102871840449 0 0.2586354839602284 -0.1552602100457193 0 0.26158220745268479 -0.144408007328723 0 0.2586354839602284 -0.1552602100457193 0 0.26620255598902859 -0.15292802445397191 0 0.26620255598902859 -0.15292802445397191 0 0.27237724983574069 -0.1527512252560318 0 0.27011666706121712 -0.1463731577674322 0 0.27054072391777279 -0.16048339480070539 0 0.26620255598902859 -0.15292802445397191 0 0.27237724983574069 -0.1527512252560318 0 0.27763136581378128 -0.1591993831802061 0 0.27237724983574069 -0.1527512252560318 0 0.27771763209709838 -0.14581029074036239 0 0.27771763209709838 -0.14581029074036239 0 0.27011666706121712 -0.1463731577674322 0 0.27270368993153271 -0.13596824105807209 0 0.26158220745268479 -0.144408007328723 0 0.26620255598902859 -0.15292802445397191 0 0.27011666706121712 -0.1463731577674322 0 0.26158220745268479 -0.144408007328723 0 0.27011666706121712 -0.1463731577674322 0 0.27270368993153271 -0.13596824105807209 0 0.27237724983574069 -0.1527512252560318 0 0.27771763209709838 -0.14581029074036239 0 0.27011666706121712 -0.1463731577674322 0 0.27771763209709838 -0.14581029074036239 0 0.27270368993153271 -0.13596824105807209 0 0.28073119230882432 -0.1386770281883131 0 0.27270368993153271 -0.13596824105807209 0 0.28073119230882432 -0.1386770281883131 0 0.28302397476698349 -0.13351728599359369 0 0.27270368993153271 -0.13596824105807209 0 0.27817623239398132 -0.12510624367170889 0 0.28302397476698349 -0.13351728599359369 0 0.26727773164751301 -0.12133678399615561 0 0.25871631096411563 -0.13274986879829589 0 0.27270368993153271 -0.13596824105807209 0 0.26727773164751301 -0.12133678399615561 0 0.27270368993153271 -0.13596824105807209 0 0.27817623239398132 -0.12510624367170889 0 0.30184683294662162 -0.1187580198847468 0 0.28800501304270543 -0.12304776942922881 0 0.28947947243968242 -0.13941229496122409 0 0.30184683294662162 -0.1187580198847468 0 0.28947947243968242 -0.13941229496122409 0 0.28800501304270543 -0.12304776942922881 0 0.28302397476698349 -0.13351728599359369 0 0.28947947243968242 -0.13941229496122409 0 0.28800501304270543 -0.12304776942922881 0 0.27817623239398132 -0.12510624367170889 0 0.28302397476698349 -0.13351728599359369 0 0.28302397476698349 -0.13351728599359369 0 0.28947947243968242 -0.13941229496122409 0 0.28073119230882432 -0.1386770281883131 0 0.28302397476698349 -0.13351728599359369 0 0.28947947243968242 -0.13941229496122409 0 0.27763136581378128 -0.1591993831802061 0 0.28947947243968242 -0.13941229496122409 0 0.27763136581378128 -0.1591993831802061 0 0.27771763209709838 -0.14581029074036239 0 0.28947947243968242 -0.13941229496122409 0 0.27763136581378128 -0.1591993831802061 0 0.28947947243968242 -0.13941229496122409 0 0.29003474991685602 -0.15406373276272969 0 0.28947947243968242 -0.13941229496122409 0 0.29003474991685602 -0.15406373276272969 0 0.30114973547429502 -0.15006930526959919 0 0.28947947243968242 -0.13941229496122409 0 0.30114973547429502 -0.15006930526959919 0 0.27771763209709838 -0.14581029074036239 0 0.28073119230882432 -0.1386770281883131 0 0.28947947243968242 -0.13941229496122409 0 0.29003474991685602 -0.15406373276272969 0 0.30114973547429502 -0.15006930526959919 0 0.29774834574058018 -0.15716854437415359 0 0.30114973547429502 -0.15006930526959919 0 0.31079287086491009 -0.14410520906026189 0 0.31281999850890208 -0.16072631557798031 0 0.30114973547429502 -0.15006930526959919 0 0.29774834574058018 -0.15716854437415359 0 0.31281999850890208 -0.16072631557798031 0 0.30114973547429502 -0.15006930526959919 0 0.31281999850890208 -0.16072631557798031 0 0.30114973547429502 -0.15006930526959919 0 0.31079287086491009 -0.14410520906026189 0 0.30086029736927922 -0.1416897553938879 0 0.28947947243968242 -0.13941229496122409 0 0.30114973547429502 -0.15006930526959919 0 0.30086029736927922 -0.1416897553938879 0 0.30184683294662162 -0.1187580198847468 0 0.28947947243968242 -0.13941229496122409 0 0.30201911069822918 -0.13317221228446641 0 0.31079287086491009 -0.14410520906026189 0 0.30201911069822918 -0.13317221228446641 0 0.30866926922661508 -0.12573227813847929 0 0.28947947243968242 -0.13941229496122409 0 0.30086029736927922 -0.1416897553938879 0 0.30201911069822918 -0.13317221228446641 0 0.31079287086491009 -0.14410520906026189 0 0.30086029736927922 -0.1416897553938879 0 0.30201911069822918 -0.13317221228446641 0 0.30184683294662162 -0.1187580198847468 0 0.30201911069822918 -0.13317221228446641 0 0.30866926922661508 -0.12573227813847929 0 0.28077184662717758 -0.17476722630670749 0 0.2922390998388904 -0.1731213738295114 0 0.3003858936387207 -0.182631120418802 0 0.28077184662717758 -0.17476722630670749 0 0.28712353987217532 -0.18454593184566331 0 0.3003858936387207 -0.182631120418802 0 0.28077184662717758 -0.17476722630670749 0 0.3003858936387207 -0.182631120418802 0 0.29644077895924692 -0.19220379223881101 0 0.28712353987217532 -0.18454593184566331 0 0.3003858936387207 -0.182631120418802 0 0.28077184662717758 -0.17476722630670749 0 0.2922390998388904 -0.1731213738295114 0 0.28698889906226771 -0.16381482388630519 0 0.27763136581378128 -0.1591993831802061 0 0.29003474991685602 -0.15406373276272969 0 0.28698889906226771 -0.16381482388630519 0 0.29003474991685602 -0.15406373276272969 0 0.28698889906226771 -0.16381482388630519 0 0.29774834574058018 -0.15716854437415359 0 0.2922390998388904 -0.1731213738295114 0 0.28698889906226771 -0.16381482388630519 0 0.30080976002739568 -0.17127232470623091 0 0.28698889906226771 -0.16381482388630519 0 0.30080976002739568 -0.17127232470623091 0 0.31281999850890208 -0.16072631557798031 0 0.28698889906226771 -0.16381482388630519 0 0.29774834574058018 -0.15716854437415359 0 0.31281999850890208 -0.16072631557798031 0 0.28698889906226771 -0.16381482388630519 0 0.31281999850890208 -0.16072631557798031 0 0.30080976002739568 -0.17127232470623091 0 0.31250094213562291 -0.17565651759621129 0 0.31281999850890208 -0.16072631557798031 0 0.3003858936387207 -0.182631120418802 0 0.31999994065026338 -0.19049501453089701 0 0.3003858936387207 -0.182631120418802 0 0.31250094213562291 -0.17565651759621129 0 0.31999994065026338 -0.19049501453089701 0 0.30080976002739568 -0.17127232470623091 0 0.3003858936387207 -0.182631120418802 0 0.31250094213562291 -0.17565651759621129 0 0.2922390998388904 -0.1731213738295114 0 0.30080976002739568 -0.17127232470623091 0 0.3003858936387207 -0.182631120418802 0 0.32621783543385552 -0.17296090581776841 0 0.31250094213562291 -0.17565651759621129 0 0.31999994065026338 -0.19049501453089701 0 0.32621783543385552 -0.17296090581776841 0 0.31281999850890208 -0.16072631557798031 0 0.32621783543385552 -0.17296090581776841 0 0.31281999850890208 -0.16072631557798031 0 0.33955999872191778 -0.1575291340955253 0 0.32621783543385552 -0.17296090581776841 0 0.31250094213562291 -0.17565651759621129 0 0.31281999850890208 -0.16072631557798031 0 0.31281999850890208 -0.16072631557798031 0 0.33955999872191778 -0.1575291340955253 0 0.32621783543385552 -0.17296090581776841 0 0.33955999872191778 -0.1575291340955253 0 0.33950745725439813 -0.17366117281088039 0 0.32621783543385552 -0.17296090581776841 0 0.33961567235880341 -0.18519549605756239 0 0.31999994065026338 -0.19049501453089701 0 0.33961567235880341 -0.18519549605756239 0 0.34613439069062868 -0.18029583503588681 0 0.34384989249042908 -0.18876514542206541 0 0.33950745725439813 -0.17366117281088039 0 0.33961567235880341 -0.18519549605756239 0 0.34613439069062868 -0.18029583503588681 0 0.32621783543385552 -0.17296090581776841 0 0.33961567235880341 -0.18519549605756239 0 0.32621783543385552 -0.17296090581776841 0 0.33950745725439813 -0.17366117281088039 0 0.33961567235880341 -0.18519549605756239 0 0.31079287086491009 -0.14410520906026189 0 0.31840695915105433 -0.12512952618302589 0 0.32189633802940859 -0.13891110459438499 0 0.31079287086491009 -0.14410520906026189 0 0.30866926922661508 -0.12573227813847929 0 0.31840695915105433 -0.12512952618302589 0 0.31079287086491009 -0.14410520906026189 0 0.31840695915105433 -0.12512952618302589 0 0.31840695915105433 -0.12512952618302589 0 0.32189633802940859 -0.13891110459438499 0 0.33196847497129978 -0.1301881169706445 0 0.32189633802940859 -0.13891110459438499 0 0.33007216625777341 -0.14350170149411379 0 0.33196847497129978 -0.1301881169706445 0 0.31281999850890208 -0.16072631557798031 0 0.33955999872191778 -0.1575291340955253 0 0.32166054431241758 -0.14971934333571771 0 0.31079287086491009 -0.14410520906026189 0 0.31281999850890208 -0.16072631557798031 0 0.32166054431241758 -0.14971934333571771 0 0.32189633802940859 -0.13891110459438499 0 0.32166054431241758 -0.14971934333571771 0 0.33007216625777341 -0.14350170149411379 0 0.31079287086491009 -0.14410520906026189 0 0.32189633802940859 -0.13891110459438499 0 0.32166054431241758 -0.14971934333571771 0 0.33955999872191778 -0.1575291340955253 0 0.32166054431241758 -0.14971934333571771 0 0.33007216625777341 -0.14350170149411379 0 0.33955999872191778 -0.1575291340955253 0 0.33925644690330048 -0.14168451278202471 0 0.33007216625777341 -0.14350170149411379 0 0.33925644690330048 -0.14168451278202471 0 0.33196847497129978 -0.1301881169706445 0 0.35347539996268779 -0.1360870826520019 0 0.33925644690330048 -0.14168451278202471 0 0.33007216625777341 -0.14350170149411379 0 0.33196847497129978 -0.1301881169706445 0 0.35126088280300749 -0.1138960589612278 0 0.33196847497129978 -0.1301881169706445 0 0.35347539996268779 -0.1360870826520019 0 0.33955999872191778 -0.1575291340955253 0 0.33925644690330048 -0.14168451278202471 0 0.35347539996268779 -0.1360870826520019 0 0.33955999872191778 -0.1575291340955253 0 0.36629999893493298 -0.15433195261306501 0 0.33955999872191778 -0.1575291340955253 0 0.35347539996268779 -0.1360870826520019 0 0.36629999893493298 -0.15433195261306501 0 0.35347539996268779 -0.1360870826520019 0 0.36629999893493298 -0.15433195261306501 0 0.37274495995281509 -0.1394047482439742 0 0.36572388693975733 -0.1247397052319703 0 0.37274495995281509 -0.1394047482439742 0 0.38234915009478337 -0.12628535479322589 0 0.36572388693975733 -0.1247397052319703 0 0.35347539996268779 -0.1360870826520019 0 0.37274495995281509 -0.1394047482439742 0 0.35515020137169312 -0.1818527833811284 0 0.36769984433059483 -0.187035276313233 0 0.34384989249042908 -0.18876514542206541 0 0.35426960916493427 -0.17192038920783381 0 0.35515020137169312 -0.1818527833811284 0 0.34613439069062868 -0.18029583503588681 0 0.35426960916493427 -0.17192038920783381 0 0.35515020137169312 -0.1818527833811284 0 0.36111110596432522 -0.1788049677614611 0 0.35515020137169312 -0.1818527833811284 0 0.34613439069062868 -0.18029583503588681 0 0.34384989249042908 -0.18876514542206541 0 0.33950745725439813 -0.17366117281088039 0 0.35426960916493427 -0.17192038920783381 0 0.34613439069062868 -0.18029583503588681 0 0.33955999872191778 -0.1575291340955253 0 0.33950745725439813 -0.17366117281088039 0 0.35426960916493427 -0.17192038920783381 0 0.33955999872191778 -0.1575291340955253 0 0.36629999893493298 -0.15433195261306501 0 0.35426960916493427 -0.17192038920783381 0 0.36629999893493298 -0.15433195261306501 0 0.36732476899007899 -0.17441142214364919 0 0.38341821961558042 -0.16680430628106691 0 0.36629999893493298 -0.15433195261306501 0 0.35426960916493427 -0.17192038920783381 0 0.36732476899007899 -0.17441142214364919 0 0.35426960916493427 -0.17192038920783381 0 0.36732476899007899 -0.17441142214364919 0 0.36111110596432522 -0.1788049677614611 0 0.35515020137169312 -0.1818527833811284 0 0.36111110596432522 -0.1788049677614611 0 0.36769984433059483 -0.187035276313233 0 0.36732476899007899 -0.17441142214364919 0 0.36111110596432522 -0.1788049677614611 0 0.36769984433059483 -0.187035276313233 0 0.36732476899007899 -0.17441142214364919 0 0.36769984433059483 -0.187035276313233 0 0.37556806920755598 -0.1834322379555855 0 0.36769984433059483 -0.187035276313233 0 0.37500685752530949 -0.1925994132844164 0 0.37556806920755598 -0.1834322379555855 0 0.36769984433059483 -0.187035276313233 0 0.36810224524208901 -0.1983380546838501 0 0.37500685752530949 -0.1925994132844164 0 0.36810224524208901 -0.1983380546838501 0 0.37500685752530949 -0.1925994132844164 0 0.38036762098368398 -0.20238724289746271 0 0.36810224524208901 -0.1983380546838501 0 0.3658639580224865 -0.2115655439823399 0 0.35645361614872612 -0.1972582026286302 0 0.36769984433059483 -0.187035276313233 0 0.36810224524208901 -0.1983380546838501 0 0.35645361614872612 -0.1972582026286302 0 0.36810224524208901 -0.1983380546838501 0 0.3658639580224865 -0.2115655439823399 0 0.38036762098368398 -0.20238724289746271 0 0.3658639580224865 -0.2115655439823399 0 0.35025060771937783 -0.20706889885133961 0 0.35170375217913769 -0.2244052135294678 0 0.35025060771937783 -0.20706889885133961 0 0.33754652924451611 -0.21477022803451501 0 0.35170375217913769 -0.2244052135294678 0 0.3658639580224865 -0.2115655439823399 0 0.35025060771937783 -0.20706889885133961 0 0.35645361614872612 -0.1972582026286302 0 0.36769984433059483 -0.187035276313233 0 0.35645361614872612 -0.1972582026286302 0 0.34384989249042908 -0.18876514542206541 0 0.36769984433059483 -0.187035276313233 0 0.34384989249042908 -0.18876514542206541 0 0.35025060771937783 -0.20706889885133961 0 0.35645361614872612 -0.1972582026286302 0 0.34797917308319021 -0.1980380550274872 0 0.35025060771937783 -0.20706889885133961 0 0.34797917308319021 -0.1980380550274872 0 0.3413625759742277 -0.19905997320791369 0 0.35645361614872612 -0.1972582026286302 0 0.34797917308319021 -0.1980380550274872 0 0.34384989249042908 -0.18876514542206541 0 0.34797917308319021 -0.1980380550274872 0 0.34384989249042908 -0.18876514542206541 0 0.3413625759742277 -0.19905997320791369 0 0.33961567235880341 -0.18519549605756239 0 0.34384989249042908 -0.18876514542206541 0 0.31999994065026338 -0.19049501453089701 0 0.3413625759742277 -0.19905997320791369 0 0.32785421383089902 -0.20544016049225361 0 0.31999994065026338 -0.19049501453089701 0 0.34384989249042908 -0.18876514542206541 0 0.3413625759742277 -0.19905997320791369 0 0.31999994065026338 -0.19049501453089701 0 0.3413625759742277 -0.19905997320791369 0 0.31999994065026338 -0.19049501453089701 0 0.34384989249042908 -0.18876514542206541 0 0.31999994065026338 -0.19049501453089701 0 0.35025060771937783 -0.20706889885133961 0 0.3413625759742277 -0.19905997320791369 0 0.33754652924451611 -0.21477022803451501 0 0.33754652924451611 -0.21477022803451501 0 0.32785421383089902 -0.20544016049225361 0 0.32127139759284662 -0.21742181604267649 0 0.3413625759742277 -0.19905997320791369 0 0.33754652924451611 -0.21477022803451501 0 0.32785421383089902 -0.20544016049225361 0 0.30466433428446482 -0.21043014500735349 0 0.32127139759284662 -0.21742181604267649 0 0.31628290863471298 -0.2042116364570877 0 0.32785421383089902 -0.20544016049225361 0 0.32127139759284662 -0.21742181604267649 0 0.31628290863471298 -0.2042116364570877 0 0.30727760937958709 -0.19975425959053211 0 0.31628290863471298 -0.2042116364570877 0 0.31999994065026338 -0.19049501453089701 0 0.32785421383089902 -0.20544016049225361 0 0.31628290863471298 -0.2042116364570877 0 0.31999994065026338 -0.19049501453089701 0 0.31122873499901749 -0.2414141641502838 0 0.31888706210848489 -0.22987830943466139 0 0.33199129940744182 -0.23457216617293111 0 0.31122873499901749 -0.2414141641502838 0 0.33199129940744182 -0.23457216617293111 0 0.32388162392129172 -0.25615283207316319 0 0.32127139759284662 -0.21742181604267649 0 0.31888706210848489 -0.22987830943466139 0 0.33199129940744182 -0.23457216617293111 0 0.30702379635189397 -0.22545861834249931 0 0.32127139759284662 -0.21742181604267649 0 0.31888706210848489 -0.22987830943466139 0 0.33754652924451611 -0.21477022803451501 0 0.32127139759284662 -0.21742181604267649 0 0.33199129940744182 -0.23457216617293111 0 0.33754652924451611 -0.21477022803451501 0 0.33199129940744182 -0.23457216617293111 0 0.35170375217913769 -0.2244052135294678 0 0.33199129940744182 -0.23457216617293111 0 0.35316874847761298 -0.2416891535577684 0 0.34124894915081899 -0.25453472896255819 0 0.33199129940744182 -0.23457216617293111 0 0.32388162392129172 -0.25615283207316319 0 0.34124894915081899 -0.25453472896255819 0 0.33199129940744182 -0.23457216617293111 0 0.35316874847761298 -0.2416891535577684 0 0.35170375217913769 -0.2244052135294678 0 0.35316874847761298 -0.2416891535577684 0 0.35170375217913769 -0.2244052135294678 0 0.36903297503479771 -0.2301704602647458 0 0.3658639580224865 -0.2115655439823399 0 0.36903297503479771 -0.2301704602647458 0 0.38551178444804418 -0.2191994909918441 0 0.3658639580224865 -0.2115655439823399 0 0.35170375217913769 -0.2244052135294678 0 0.36903297503479771 -0.2301704602647458 0 0.35316874847761298 -0.2416891535577684 0 0.36903297503479771 -0.2301704602647458 0 0.36865369314460372 -0.2478336067944816 0 0.36903297503479771 -0.2301704602647458 0 0.36865369314460372 -0.2478336067944816 0 0.3880482727306116 -0.24535733545938601 0 0.3880482727306116 -0.24535733545938601 0 0.40668602471274218 -0.23283882138861009 0 0.40582648171202468 -0.26085703770335511 0 0.3880482727306116 -0.24535733545938601 0 0.38551178444804418 -0.2191994909918441 0 0.40668602471274218 -0.23283882138861009 0 0.36903297503479771 -0.2301704602647458 0 0.3880482727306116 -0.24535733545938601 0 0.38551178444804418 -0.2191994909918441 0 0.38551178444804418 -0.2191994909918441 0 0.38036762098368398 -0.20238724289746271 0 0.39959767793857143 -0.20123934926334169 0 0.3658639580224865 -0.2115655439823399 0 0.38551178444804418 -0.2191994909918441 0 0.38036762098368398 -0.20238724289746271 0 0.38551178444804418 -0.2191994909918441 0 0.39959767793857143 -0.20123934926334169 0 0.40668602471274218 -0.23283882138861009 0 0.38036762098368398 -0.20238724289746271 0 0.38896243976743178 -0.19000019194783671 0 0.39959767793857143 -0.20123934926334169 0 0.37500685752530949 -0.1925994132844164 0 0.38896243976743178 -0.19000019194783671 0 0.37556806920755598 -0.1834322379555855 0 0.37500685752530949 -0.1925994132844164 0 0.38036762098368398 -0.20238724289746271 0 0.38896243976743178 -0.19000019194783671 0 0.38896243976743178 -0.19000019194783671 0 0.39959767793857143 -0.20123934926334169 0 0.40045445536604513 -0.18048805444773511 0 0.39959767793857143 -0.20123934926334169 0 0.41699451162966472 -0.1943079193776098 0 0.40045445536604513 -0.18048805444773511 0 0.39959767793857143 -0.20123934926334169 0 0.42120396745746441 -0.21255552262763111 0 0.40668602471274218 -0.23283882138861009 0 0.39959767793857143 -0.20123934926334169 0 0.42120396745746441 -0.21255552262763111 0 0.41699451162966472 -0.1943079193776098 0 0.42120396745746441 -0.21255552262763111 0 0.41699451162966472 -0.1943079193776098 0 0.43964454562348998 -0.19730616419211741 0 0.41699451162966472 -0.1943079193776098 0 0.42534084152453427 -0.1775438709398848 0 0.43964454562348998 -0.19730616419211741 0 0.42120396745746441 -0.21255552262763111 0 0.44199923571354272 -0.2200420018048421 0 0.43964454562348998 -0.19730616419211741 0 0.42636346859220731 -0.23098123191226019 0 0.44045624393496929 -0.242089898046532 0 0.44199923571354272 -0.2200420018048421 0 0.42120396745746441 -0.21255552262763111 0 0.42636346859220731 -0.23098123191226019 0 0.44199923571354272 -0.2200420018048421 0 0.42636346859220731 -0.23098123191226019 0 0.42147187114231788 -0.2473799156936857 0 0.44045624393496929 -0.242089898046532 0 0.42636346859220731 -0.23098123191226019 0 0.42147187114231788 -0.2473799156936857 0 0.40668602471274218 -0.23283882138861009 0 0.42147187114231788 -0.2473799156936857 0 0.40668602471274218 -0.23283882138861009 0 0.40582648171202468 -0.26085703770335511 0 0.42120396745746441 -0.21255552262763111 0 0.42636346859220731 -0.23098123191226019 0 0.40668602471274218 -0.23283882138861009 0 0.3955567173094644 -0.11819618925973201 0 0.40135576793102579 -0.13294379327452499 0 0.38234915009478337 -0.12628535479322589 0 0.40135576793102579 -0.13294379327452499 0 0.38234915009478337 -0.12628535479322589 0 0.39303999914794818 -0.15113477113060481 0 0.37274495995281509 -0.1394047482439742 0 0.38234915009478337 -0.12628535479322589 0 0.39303999914794818 -0.15113477113060481 0 0.36629999893493298 -0.15433195261306501 0 0.37274495995281509 -0.1394047482439742 0 0.39303999914794818 -0.15113477113060481 0 0.36629999893493298 -0.15433195261306501 0 0.39303999914794818 -0.15113477113060481 0 0.40135576793102579 -0.13294379327452499 0 0.39303999914794818 -0.15113477113060481 0 0.41977999936096327 -0.1479375896481446 0 0.39303999914794818 -0.15113477113060481 0 0.38341821961558042 -0.16680430628106691 0 0.4096163245377592 -0.1642016279712821 0 0.38341821961558042 -0.16680430628106691 0 0.40045445536604513 -0.18048805444773511 0 0.4096163245377592 -0.1642016279712821 0 0.36629999893493298 -0.15433195261306501 0 0.39303999914794818 -0.15113477113060481 0 0.38341821961558042 -0.16680430628106691 0 0.38896243976743178 -0.19000019194783671 0 0.37556806920755598 -0.1834322379555855 0 0.40045445536604513 -0.18048805444773511 0 0.37556806920755598 -0.1834322379555855 0 0.40045445536604513 -0.18048805444773511 0 0.36732476899007899 -0.17441142214364919 0 0.38341821961558042 -0.16680430628106691 0 0.37556806920755598 -0.1834322379555855 0 0.38341821961558042 -0.16680430628106691 0 0.37556806920755598 -0.1834322379555855 0 0.40045445536604513 -0.18048805444773511 0 0.40045445536604513 -0.18048805444773511 0 0.42534084152453427 -0.1775438709398848 0 0.40045445536604513 -0.18048805444773511 0 0.42534084152453427 -0.1775438709398848 0 0.4096163245377592 -0.1642016279712821 0 0.41699451162966472 -0.1943079193776098 0 0.40045445536604513 -0.18048805444773511 0 0.42534084152453427 -0.1775438709398848 0 0.42534084152453427 -0.1775438709398848 0 0.43566443221148432 -0.1613011753802564 0 0.45022722768302342 -0.17459968743203449 0 0.42534084152453427 -0.1775438709398848 0 0.43566443221148432 -0.1613011753802564 0 0.4096163245377592 -0.1642016279712821 0 0.43566443221148432 -0.1613011753802564 0 0.4096163245377592 -0.1642016279712821 0 0.41977999936096327 -0.1479375896481446 0 0.39303999914794818 -0.15113477113060481 0 0.41977999936096327 -0.1479375896481446 0 0.39303999914794818 -0.15113477113060481 0 0.4096163245377592 -0.1642016279712821 0 0.41977999936096327 -0.1479375896481446 0 0.41977999936096327 -0.1479375896481446 0 0.44651999957397859 -0.1447404081656844 0 0.43566443221148432 -0.1613011753802564 0 0.41977999936096327 -0.1479375896481446 0 0.44651999957397859 -0.1447404081656844 0 0.41977999936096327 -0.1479375896481446 0 0.43425522192389399 -0.12532418806616721 0 0.44651999957397859 -0.1447404081656844 0 0.41546343126495938 -0.121497802527544 0 0.41977999936096327 -0.1479375896481446 0 0.43425522192389399 -0.12532418806616721 0 0.41546343126495938 -0.121497802527544 0 0.40135576793102579 -0.13294379327452499 0 0.41977999936096327 -0.1479375896481446 0 0.47326801494301479 -0.11422845771805409 0 0.45479980567330403 -0.1261647600576756 0 0.4732599997869939 -0.14154322668322419 0 0.45479980567330403 -0.1261647600576756 0 0.44651999957397859 -0.1447404081656844 0 0.4732599997869939 -0.14154322668322419 0 0.43425522192389399 -0.12532418806616721 0 0.45479980567330403 -0.1261647600576756 0 0.44651999957397859 -0.1447404081656844 0 0.43566443221148432 -0.1613011753802564 0 0.44651999957397859 -0.1447404081656844 0 0.46089441584820268 -0.1581155069299181 0 0.44651999957397859 -0.1447404081656844 0 0.46089441584820268 -0.1581155069299181 0 0.4732599997869939 -0.14154322668322419 0 0.44651999957397859 -0.1447404081656844 0 0.4732599997869939 -0.14154322668322419 0 0.46089441584820268 -0.1581155069299181 0 0.45022722768302342 -0.17459968743203449 0 0.47511361384151263 -0.17165550392418411 0 0.43566443221148432 -0.1613011753802564 0 0.46089441584820268 -0.1581155069299181 0 0.45022722768302342 -0.17459968743203449 0 0.45022722768302342 -0.17459968743203449 0 0.43964454562348998 -0.19730616419211741 0 0.46116163146162581 -0.1896215199756881 0 0.42534084152453427 -0.1775438709398848 0 0.45022722768302342 -0.17459968743203449 0 0.43964454562348998 -0.19730616419211741 0 0.42534084152453427 -0.1775438709398848 0 0.45022722768302342 -0.17459968743203449 0 0.45022722768302342 -0.17459968743203449 0 0.47511361384151263 -0.17165550392418411 0 0.46116163146162581 -0.1896215199756881 0 0.45022722768302342 -0.17459968743203449 0 0.47511361384151263 -0.17165550392418411 0 0.47511361384151263 -0.17165550392418411 0 0.46116163146162581 -0.1896215199756881 0 0.47804872966958117 -0.1936776668199123 0 0.48873287561546119 -0.18161837380832299 0 0.47511361384151263 -0.17165550392418411 0 0.47804872966958117 -0.1936776668199123 0 0.48873287561546119 -0.18161837380832299 0 0.50000000000000189 -0.16871132041633349 0 0.47511361384151263 -0.17165550392418411 0 0.48873287561546119 -0.18161837380832299 0 0.50000000000000189 -0.16871132041633349 0 0.5 -0.19445585824566899 0 0.50000000000000189 -0.16871132041633349 0 0.47511361384151263 -0.17165550392418411 0 0.48317673572033121 -0.15939917771244139 0 0.50000000000000189 -0.16871132041633349 0 0.48317673572033121 -0.15939917771244139 0 0.5 -0.1535286828085482 0 0.50000000000000189 -0.16871132041633349 0 0.47511361384151263 -0.17165550392418411 0 0.46089441584820268 -0.1581155069299181 0 0.47511361384151263 -0.17165550392418411 0 0.48317673572033121 -0.15939917771244139 0 0.46089441584820268 -0.1581155069299181 0 0.48317673572033121 -0.15939917771244139 0 0.4732599997869939 -0.14154322668322419 0 0.4732599997869939 -0.14154322668322419 0 0.5 -0.1535286828085482 0 0.5000000000000091 -0.13834604520076291 0 0.48317673572033121 -0.15939917771244139 0 0.4732599997869939 -0.14154322668322419 0 0.5 -0.1535286828085482 0 0.4732599997869939 -0.14154322668322419 0 0.5000000000000091 -0.13834604520076291 0 0.4866320036825022 -0.12620170068426859 0 0.4732599997869939 -0.14154322668322419 0 0.5000000000000091 -0.13834604520076291 0 0.5 -0.11068907313503309 0 0.5000000000000091 -0.13834604520076291 0 0.4866320036825022 -0.12620170068426859 0 0.47326801494301479 -0.11422845771805409 0 0.4732599997869939 -0.14154322668322419 0 0.4866320036825022 -0.12620170068426859 0 0.45727499042607139 -0.2368742902685258 0 0.46277404049052168 -0.21086857751019231 0 0.47977790120372921 -0.23407907643659101 0 0.45727499042607139 -0.2368742902685258 0 0.44199923571354272 -0.2200420018048421 0 0.46277404049052168 -0.21086857751019231 0 0.45727499042607139 -0.2368742902685258 0 0.47977790120372921 -0.23407907643659101 0 0.46823615042422267 -0.25808245886221842 0 0.45727499042607139 -0.2368742902685258 0 0.44045624393496929 -0.242089898046532 0 0.45040637078944318 -0.2560837289507793 0 0.45727499042607139 -0.2368742902685258 0 0.44045624393496929 -0.242089898046532 0 0.44199923571354272 -0.2200420018048421 0 0.44199923571354272 -0.2200420018048421 0 0.43964454562348998 -0.19730616419211741 0 0.46277404049052168 -0.21086857751019231 0 0.43964454562348998 -0.19730616419211741 0 0.46116163146162581 -0.1896215199756881 0 0.46277404049052168 -0.21086857751019231 0 0.46116163146162581 -0.1896215199756881 0 0.46277404049052168 -0.21086857751019231 0 0.47804872966958117 -0.1936776668199123 0 0.46277404049052168 -0.21086857751019231 0 0.4841201342727664 -0.21065631501747381 0 0.47804872966958117 -0.1936776668199123 0 0.46277404049052168 -0.21086857751019231 0 0.4841201342727664 -0.21065631501747381 0 0.47977790120372921 -0.23407907643659101 0 0.4841201342727664 -0.21065631501747381 0 0.47804872966958117 -0.1936776668199123 0 0.5 -0.19445585824566899 0 0.48873287561546119 -0.18161837380832299 0 0.47804872966958117 -0.1936776668199123 0 0.5 -0.19445585824566899 0 0.4841201342727664 -0.21065631501747381 0 0.5 -0.19445585824566899 0 0.5 -0.2202003960750045 0 0.4841201342727664 -0.21065631501747381 0 0.5 -0.2202003960750045 0 0.47977790120372921 -0.23407907643659101 0 0.5 -0.2202003960750045 0 0.47977790120372921 -0.23407907643659101 0 0.5 -0.24594493390434 0 0.47977790120372921 -0.23407907643659101 0 0.5 -0.24594493390434 0 0.48717962629308381 -0.25881720281900789 0 0.5 -0.24594493390434 0 0.48717962629308381 -0.25881720281900789 0 0.5 -0.27168947173367569 0 0.48717962629308381 -0.25881720281900789 0 0.5 -0.27168947173367569 0 0.48087209135596981 -0.27913739152934602 0 0.48717962629308381 -0.25881720281900789 0 0.48087209135596981 -0.27913739152934602 0 0.46823615042422267 -0.25808245886221842 0 0.47977790120372921 -0.23407907643659101 0 0.48717962629308381 -0.25881720281900789 0 0.46823615042422267 -0.25808245886221842 0 0.46823615042422267 -0.25808245886221842 0 0.45040637078944318 -0.2560837289507793 0 0.45529247086008251 -0.28169879597022701 0 0.45727499042607139 -0.2368742902685258 0 0.46823615042422267 -0.25808245886221842 0 0.45040637078944318 -0.2560837289507793 0 0.48087209135596981 -0.27913739152934602 0 0.46823615042422267 -0.25808245886221842 0 0.45529247086008251 -0.28169879597022701 0 0.45040637078944318 -0.2560837289507793 0 0.45529247086008251 -0.28169879597022701 0 0.43033570257993919 -0.26632796356785449 0 0.45529247086008251 -0.28169879597022701 0 0.43033570257993919 -0.26632796356785449 0 0.43184846188595288 -0.28816885170587853 0 0.44045624393496929 -0.242089898046532 0 0.45040637078944318 -0.2560837289507793 0 0.43033570257993919 -0.26632796356785449 0 0.44597938620559829 -0.30551230128349671 0 0.45529247086008251 -0.28169879597022701 0 0.43184846188595288 -0.28816885170587853 0 0.44597938620559829 -0.30551230128349671 0 0.45529247086008251 -0.28169879597022701 0 0.47452430055842981 -0.30710241022793611 0 0.48087209135596981 -0.27913739152934602 0 0.45529247086008251 -0.28169879597022701 0 0.47452430055842981 -0.30710241022793611 0 0.48087209135596981 -0.27913739152934602 0 0.47452430055842981 -0.30710241022793611 0 0.5 -0.29743400956301119 0 0.5 -0.27168947173367569 0 0.48087209135596981 -0.27913739152934602 0 0.5 -0.29743400956301119 0 0.47452430055842981 -0.30710241022793611 0 0.5 -0.29743400956301119 0 0.5 -0.32317854739234692 0 0.47452430055842981 -0.30710241022793611 0 0.5 -0.32317854739234692 0 0.47966270135614397 -0.32823607127019699 0 0.5 -0.32317854739234692 0 0.49351383261445753 -0.34667755445293658 0 0.5 -0.34990348767587659 0 0.5 -0.32317854739234692 0 0.47966270135614397 -0.32823607127019699 0 0.49351383261445753 -0.34667755445293658 0 0.5 -0.32317854739234692 0 0.49351383261445753 -0.34667755445293658 0 0.47966270135614397 -0.32823607127019699 0 0.49351383261445753 -0.34667755445293658 0 0.47234643020362099 -0.34391108891657851 0 0.47966270135614397 -0.32823607127019699 0 0.47234643020362099 -0.34391108891657851 0 0.45617393914551219 -0.32814542526302598 0 0.47452430055842981 -0.30710241022793611 0 0.47966270135614397 -0.32823607127019699 0 0.45617393914551219 -0.32814542526302598 0 0.49094565872530632 -0.36956269710462142 0 0.5 -0.34990348767587659 0 0.5 -0.37662842795940632 0 0.48702766522891439 -0.37017656151352618 0 0.49094565872530632 -0.36956269710462142 0 0.49351383261445753 -0.34667755445293658 0 0.48702766522891439 -0.37017656151352618 0 0.49094565872530632 -0.36956269710462142 0 0.48702766522891439 -0.37017656151352618 0 0.49094565872530632 -0.36956269710462142 0 0.49198026820943458 -0.37665222827214673 0 0.49094565872530632 -0.36956269710462142 0 0.5 -0.37662842795940632 0 0.49198026820943458 -0.37665222827214673 0 0.48702766522891439 -0.37017656151352618 0 0.49351383261445753 -0.34667755445293658 0 0.48301684286657398 -0.35642484364493499 0 0.48702766522891439 -0.37017656151352618 0 0.49351383261445753 -0.34667755445293658 0 0.49094565872530632 -0.36956269710462142 0 0.49351383261445753 -0.34667755445293658 0 0.5 -0.34990348767587659 0 0.47234643020362099 -0.34391108891657851 0 0.48301684286657398 -0.35642484364493499 0 0.46726208249228679 -0.3558375894890331 0 0.49351383261445753 -0.34667755445293658 0 0.47234643020362099 -0.34391108891657851 0 0.48301684286657398 -0.35642484364493499 0 0.48301684286657398 -0.35642484364493499 0 0.47246094790930382 -0.36610831007027539 0 0.46726208249228679 -0.3558375894890331 0 0.48301684286657398 -0.35642484364493499 0 0.48074839418945747 -0.36454721540453261 0 0.47246094790930382 -0.36610831007027539 0 0.48702766522891439 -0.37017656151352618 0 0.48301684286657398 -0.35642484364493499 0 0.48074839418945747 -0.36454721540453261 0 0.48074839418945747 -0.36454721540453261 0 0.47246094790930382 -0.36610831007027539 0 0.4731929253263466 -0.37234416450736291 0 0.47246094790930382 -0.36610831007027539 0 0.4731929253263466 -0.37234416450736291 0 0.48702766522891439 -0.37017656151352618 0 0.48074839418945747 -0.36454721540453261 0 0.4731929253263466 -0.37234416450736291 0 0.48702766522891439 -0.37017656151352618 0 0.4731929253263466 -0.37234416450736291 0 0.4731929253263466 -0.37234416450736291 0 0.44807513488246747 -0.37627957624247832 0 0.4731929253263466 -0.37234416450736291 0 0.45999978328099661 -0.36361394390237872 0 0.44807513488246747 -0.37627957624247832 0 0.47246094790930382 -0.36610831007027539 0 0.4731929253263466 -0.37234416450736291 0 0.45999978328099661 -0.36361394390237872 0 0.47246094790930382 -0.36610831007027539 0 0.45999978328099661 -0.36361394390237872 0 0.46726208249228679 -0.3558375894890331 0 0.47234643020362099 -0.34391108891657851 0 0.46726208249228679 -0.3558375894890331 0 0.4555564907170449 -0.34994767000307597 0 0.45999978328099661 -0.36361394390237872 0 0.4555564907170449 -0.34994767000307597 0 0.44602944996045479 -0.35995268110195949 0 0.45999978328099661 -0.36361394390237872 0 0.46726208249228679 -0.3558375894890331 0 0.4555564907170449 -0.34994767000307597 0 0.44602944996045479 -0.35995268110195949 0 0.43164643388747459 -0.36237406098973729 0 0.43708020252309471 -0.34478001491692511 0 0.4555564907170449 -0.34994767000307597 0 0.44602944996045479 -0.35995268110195949 0 0.43708020252309471 -0.34478001491692511 0 0.45999978328099661 -0.36361394390237872 0 0.44602944996045479 -0.35995268110195949 0 0.44807513488246747 -0.37627957624247832 0 0.44602944996045479 -0.35995268110195949 0 0.43164643388747459 -0.36237406098973729 0 0.44807513488246747 -0.37627957624247832 0 0.44597938620559829 -0.30551230128349671 0 0.47452430055842981 -0.30710241022793611 0 0.45617393914551219 -0.32814542526302598 0 0.47234643020362099 -0.34391108891657851 0 0.4555564907170449 -0.34994767000307597 0 0.45617393914551219 -0.32814542526302598 0 0.4555564907170449 -0.34994767000307597 0 0.45617393914551219 -0.32814542526302598 0 0.43708020252309471 -0.34478001491692511 0 0.45617393914551219 -0.32814542526302598 0 0.43142430955722672 -0.32248827420404252 0 0.43708020252309471 -0.34478001491692511 0 0.44597938620559829 -0.30551230128349671 0 0.45617393914551219 -0.32814542526302598 0 0.43142430955722672 -0.32248827420404252 0 0.43142430955722672 -0.32248827420404252 0 0.41843250260328912 -0.3359820795378553 0 0.43708020252309471 -0.34478001491692511 0 0.41843250260328912 -0.3359820795378553 0 0.43708020252309471 -0.34478001491692511 0 0.41919550203184192 -0.350481790449713 0 0.41843250260328912 -0.3359820795378553 0 0.41030171945660548 -0.31673774696243251 0 0.40349640824504662 -0.33311804296869257 0 0.41843250260328912 -0.3359820795378553 0 0.40566419581383151 -0.34671519333235162 0 0.40349640824504662 -0.33311804296869257 0 0.43142430955722672 -0.32248827420404252 0 0.41843250260328912 -0.3359820795378553 0 0.41030171945660548 -0.31673774696243251 0 0.43142430955722672 -0.32248827420404252 0 0.41030171945660548 -0.31673774696243251 0 0.42057810740926033 -0.30377207726051969 0 0.43164643388747459 -0.36237406098973729 0 0.44807513488246747 -0.37627957624247832 0 0.42295734443858812 -0.38021498797759151 0 0.43164643388747459 -0.36237406098973729 0 0.43708020252309471 -0.34478001491692511 0 0.41919550203184192 -0.350481790449713 0 0.43164643388747459 -0.36237406098973729 0 0.41919550203184192 -0.350481790449713 0 0.40405437842701009 -0.36175831297315642 0 0.41843250260328912 -0.3359820795378553 0 0.41919550203184192 -0.350481790449713 0 0.40566419581383151 -0.34671519333235162 0 0.41919550203184192 -0.350481790449713 0 0.40405437842701009 -0.36175831297315642 0 0.40566419581383151 -0.34671519333235162 0 0.43164643388747459 -0.36237406098973729 0 0.40668165489894942 -0.37284450871662972 0 0.42295734443858812 -0.38021498797759151 0 0.43164643388747459 -0.36237406098973729 0 0.40668165489894942 -0.37284450871662972 0 0.40405437842701009 -0.36175831297315642 0 0.43164643388747459 -0.36237406098973729 0 0.40405437842701009 -0.36175831297315642 0 0.39803437733293989 -0.36794732226318311 0 0.40405437842701009 -0.36175831297315642 0 0.37646232296654569 -0.36114256495657537 0 0.39803437733293989 -0.36794732226318311 0 0.39091936250208847 -0.37059295452639368 0 0.40357115043854858 -0.37439269219349641 0 0.39091936250208847 -0.37059295452639368 0 0.40357115043854858 -0.37439269219349641 0 0.40668165489894942 -0.37284450871662972 0 0.39803437733293989 -0.36794732226318311 0 0.40357115043854858 -0.37439269219349641 0 0.40668165489894942 -0.37284450871662972 0 0.39803437733293989 -0.36794732226318311 0 0.40405437842701009 -0.36175831297315642 0 0.40668165489894942 -0.37284450871662972 0 0.40357115043854858 -0.37439269219349641 0 0.40405437842701009 -0.36175831297315642 0 0.40566419581383151 -0.34671519333235162 0 0.39060798498420368 -0.34578310689110892 0 0.40405437842701009 -0.36175831297315642 0 0.39060798498420368 -0.34578310689110892 0 0.37646232296654569 -0.36114256495657537 0 0.39060798498420368 -0.34578310689110892 0 0.37646232296654569 -0.36114256495657537 0 0.37413339736655882 -0.34579044102089762 0 0.40405437842701009 -0.36175831297315642 0 0.37646232296654569 -0.36114256495657537 0 0.39803437733293989 -0.36794732226318311 0 0.39091936250208847 -0.37059295452639368 0 0.37646232296654569 -0.36114256495657537 0 0.37646232296654569 -0.36114256495657537 0 0.38036028683270479 -0.37321989441499259 0 0.36899850096155717 -0.37572055277630589 0 0.39091936250208847 -0.37059295452639368 0 0.37646232296654569 -0.36114256495657537 0 0.38036028683270479 -0.37321989441499259 0 0.41030171945660548 -0.31673774696243251 0 0.38702013903678112 -0.32772017169980222 0 0.3961970068422499 -0.30588119799069668 0 0.41030171945660548 -0.31673774696243251 0 0.40349640824504662 -0.33311804296869257 0 0.38702013903678112 -0.32772017169980222 0 0.39060798498420368 -0.34578310689110892 0 0.40349640824504662 -0.33311804296869257 0 0.38702013903678112 -0.32772017169980222 0 0.40566419581383151 -0.34671519333235162 0 0.39060798498420368 -0.34578310689110892 0 0.40349640824504662 -0.33311804296869257 0 0.39060798498420368 -0.34578310689110892 0 0.38702013903678112 -0.32772017169980222 0 0.37413339736655882 -0.34579044102089762 0 0.38702013903678112 -0.32772017169980222 0 0.3961970068422499 -0.30588119799069668 0 0.36979367555604942 -0.30870678273150859 0 0.3961970068422499 -0.30588119799069668 0 0.38545040777748718 -0.29142915665489572 0 0.36979367555604942 -0.30870678273150859 0 0.3961970068422499 -0.30588119799069668 0 0.38545040777748718 -0.29142915665489572 0 0.40705664237488398 -0.28353312044729428 0 0.38545040777748718 -0.29142915665489572 0 0.38309938493879597 -0.26981773359180272 0 0.40705664237488398 -0.28353312044729428 0 0.38545040777748718 -0.29142915665489572 0 0.38309938493879597 -0.26981773359180272 0 0.36764157541181391 -0.28804634346535241 0 0.36865369314460372 -0.2478336067944816 0 0.3880482727306116 -0.24535733545938601 0 0.38309938493879597 -0.26981773359180272 0 0.3880482727306116 -0.24535733545938601 0 0.38309938493879597 -0.26981773359180272 0 0.40582648171202468 -0.26085703770335511 0 0.38309938493879597 -0.26981773359180272 0 0.40582648171202468 -0.26085703770335511 0 0.40705664237488398 -0.28353312044729428 0 0.40582648171202468 -0.26085703770335511 0 0.43033570257993919 -0.26632796356785449 0 0.40705664237488398 -0.28353312044729428 0 0.42147187114231788 -0.2473799156936857 0 0.40582648171202468 -0.26085703770335511 0 0.43033570257993919 -0.26632796356785449 0 0.42147187114231788 -0.2473799156936857 0 0.44045624393496929 -0.242089898046532 0 0.43033570257993919 -0.26632796356785449 0 0.43033570257993919 -0.26632796356785449 0 0.43184846188595288 -0.28816885170587853 0 0.40705664237488398 -0.28353312044729428 0 0.44597938620559829 -0.30551230128349671 0 0.43184846188595288 -0.28816885170587853 0 0.42057810740926033 -0.30377207726051969 0 0.44597938620559829 -0.30551230128349671 0 0.43142430955722672 -0.32248827420404252 0 0.42057810740926033 -0.30377207726051969 0 0.41030171945660548 -0.31673774696243251 0 0.3961970068422499 -0.30588119799069668 0 0.42057810740926033 -0.30377207726051969 0 0.3961970068422499 -0.30588119799069668 0 0.42057810740926033 -0.30377207726051969 0 0.40705664237488398 -0.28353312044729428 0 0.43184846188595288 -0.28816885170587853 0 0.42057810740926033 -0.30377207726051969 0 0.40705664237488398 -0.28353312044729428 0 0.45955589891442772 -0.49204659804166362 0 0.48787843690615279 -0.49745282279878711 0 0.42430596369054058 -0.50000000000000044 0 0.48787843690615279 -0.49745282279878711 0 0.5 -0.5 0 0.42430596369054058 -0.50000000000000044 0 0.45955589891442772 -0.49204659804166362 0 0.43041231502455729 -0.49398250445380121 0 0.42430596369054058 -0.50000000000000044 0 0.44745993809711271 -0.47718294768068747 0 0.43041231502455729 -0.49398250445380121 0 0.45955589891442772 -0.49204659804166362 0 0.45787429368695892 -0.4848890726327858 0 0.43041231502455729 -0.49398250445380121 0 0.44745993809711271 -0.47718294768068747 0 0.45787429368695892 -0.4848890726327858 0 0.43041231502455729 -0.49398250445380121 0 0.45787429368695892 -0.4848890726327858 0 0.43041231502455729 -0.49398250445380121 0 0.44745993809711271 -0.47718294768068747 0 0.46136976243517541 -0.4728641277716561 0 0.45787429368695892 -0.4848890726327858 0 0.46136976243517541 -0.4728641277716561 0 0.45787429368695892 -0.4848890726327858 0 0.47430227439622968 -0.46892692453781981 0 0.44745993809711271 -0.47718294768068747 0 0.46450756116966802 -0.46038339090757369 0 0.44745993809711271 -0.47718294768068747 0 0.46136976243517541 -0.4728641277716561 0 0.46450756116966802 -0.46038339090757369 0 0.45955589891442772 -0.49204659804166362 0 0.45787429368695892 -0.4848890726327858 0 0.48665719221216358 -0.48704880763866332 0 0.45955589891442772 -0.49204659804166362 0 0.48665719221216358 -0.48704880763866332 0 0.45955589891442772 -0.49204659804166362 0 0.48787843690615279 -0.49745282279878711 0 0.48665719221216358 -0.48704880763866332 0 0.48787843690615279 -0.49745282279878711 0 0.48665719221216358 -0.48704880763866332 0 0.48787843690615279 -0.49745282279878711 0 0.48665719221216358 -0.48704880763866332 0 0.50000000000000044 -0.48458824031522468 0 0.48665719221216358 -0.48704880763866332 0 0.50000000000000044 -0.48458824031522468 0 0.48787843690615279 -0.49745282279878711 0 0.50000000000000044 -0.48458824031522468 0 0.5 -0.5 0 0.49999999999999739 -0.47094006906757052 0 0.4853362723493605 -0.47579564081177073 0 0.48344572829578969 -0.4596897374731142 0 0.49999999999999739 -0.47094006906757052 0 0.49237969830685779 -0.4806729785473407 0 0.4853362723493605 -0.47579564081177073 0 0.49999999999999739 -0.47094006906757052 0 0.4853362723493605 -0.47579564081177073 0 0.50000000000000044 -0.48458824031522468 0 0.49999999999999739 -0.47094006906757052 0 0.49237969830685779 -0.4806729785473407 0 0.48665719221216358 -0.48704880763866332 0 0.50000000000000044 -0.48458824031522468 0 0.49237969830685779 -0.4806729785473407 0 0.48665719221216358 -0.48704880763866332 0 0.49237969830685779 -0.4806729785473407 0 0.4853362723493605 -0.47579564081177073 0 0.48665719221216358 -0.48704880763866332 0 0.4853362723493605 -0.47579564081177073 0 0.45787429368695892 -0.4848890726327858 0 0.4853362723493605 -0.47579564081177073 0 0.47430227439622968 -0.46892692453781981 0 0.45787429368695892 -0.4848890726327858 0 0.48665719221216358 -0.48704880763866332 0 0.4853362723493605 -0.47579564081177073 0 0.45787429368695892 -0.4848890726327858 0 0.4853362723493605 -0.47579564081177073 0 0.47430227439622968 -0.46892692453781981 0 0.48344572829578969 -0.4596897374731142 0 0.46450756116966802 -0.46038339090757369 0 0.4853362723493605 -0.47579564081177073 0 0.47430227439622968 -0.46892692453781981 0 0.48344572829578969 -0.4596897374731142 0 0.48344572829578969 -0.4596897374731142 0 0.48155518424222088 -0.44358383413445751 0 0.46450756116966802 -0.46038339090757369 0 0.49999999999999739 -0.47094006906757052 0 0.48344572829578969 -0.4596897374731142 0 0.5 -0.44817374240687968 0 0.4853362723493605 -0.47579564081177073 0 0.48344572829578969 -0.4596897374731142 0 0.5 -0.44817374240687968 0 0.48155518424222088 -0.44358383413445751 0 0.4999999999999975 -0.42540741574618901 0 0.48344572829578969 -0.4596897374731142 0 0.5 -0.44817374240687968 0 0.48155518424222088 -0.44358383413445751 0 0.48344572829578969 -0.4596897374731142 0 0.48155518424222088 -0.44358383413445751 0 0.48155518424222088 -0.44358383413445751 0 0.46450756116966802 -0.46038339090757369 0 0.48155518424222088 -0.44358383413445751 0 0.46053632801761762 -0.43816526300049169 0 0.46450756116966802 -0.46038339090757369 0 0.46053632801761762 -0.43816526300049169 0 0.46450756116966802 -0.46038339090757369 0 0.44812208307880819 -0.45519141794678653 0 0.44745993809711271 -0.47718294768068747 0 0.46450756116966802 -0.46038339090757369 0 0.44812208307880819 -0.45519141794678653 0 0.46136976243517541 -0.4728641277716561 0 0.47430227439622968 -0.46892692453781981 0 0.46450756116966802 -0.46038339090757369 0 0.44745993809711271 -0.47718294768068747 0 0.44812208307880819 -0.45519141794678653 0 0.42949595956011699 -0.46166905847051609 0 0.44812208307880819 -0.45519141794678653 0 0.43861062854952598 -0.43855642967466352 0 0.42949595956011699 -0.46166905847051609 0 0.46053632801761762 -0.43816526300049169 0 0.44812208307880819 -0.45519141794678653 0 0.43861062854952598 -0.43855642967466352 0 0.46053632801761762 -0.43816526300049169 0 0.43861062854952598 -0.43855642967466352 0 0.45119057353417241 -0.41426993015950392 0 0.43861062854952598 -0.43855642967466352 0 0.45119057353417241 -0.41426993015950392 0 0.42701607134504438 -0.42096118467114318 0 0.45119057353417241 -0.41426993015950392 0 0.47877073183244501 -0.41986255597741101 0 0.47598627942267108 -0.39614127782036429 0 0.46053632801761762 -0.43816526300049169 0 0.45119057353417241 -0.41426993015950392 0 0.47877073183244501 -0.41986255597741101 0 0.48155518424222088 -0.44358383413445751 0 0.46053632801761762 -0.43816526300049169 0 0.47877073183244501 -0.41986255597741101 0 0.48155518424222088 -0.44358383413445751 0 0.47877073183244501 -0.41986255597741101 0 0.48155518424222088 -0.44358383413445751 0 0.4999999999999975 -0.42540741574618901 0 0.47877073183244501 -0.41986255597741101 0 0.48155518424222088 -0.44358383413445751 0 0.4999999999999975 -0.42540741574618901 0 0.47877073183244501 -0.41986255597741101 0 0.47598627942267108 -0.39614127782036429 0 0.49999999999999839 -0.40335336824293611 0 0.4999999999999975 -0.42540741574618901 0 0.47877073183244501 -0.41986255597741101 0 0.49999999999999839 -0.40335336824293611 0 0.47877073183244501 -0.41986255597741101 0 0.47598627942267108 -0.39614127782036429 0 0.47988431838496642 -0.39605649151600281 0 0.49999999999999839 -0.40335336824293611 0 0.48941535485016718 -0.38451351196575451 0 0.47988431838496642 -0.39605649151600281 0 0.47598627942267108 -0.39614127782036429 0 0.49999999999999839 -0.40335336824293611 0 0.47598627942267108 -0.39614127782036429 0 0.49999999999999839 -0.40335336824293611 0 0.48702766522891439 -0.37017656151352618 0 0.47988431838496642 -0.39605649151600281 0 0.48941535485016718 -0.38451351196575451 0 0.49999999999999839 -0.40335336824293611 0 0.5 -0.37662842795940632 0 0.48941535485016718 -0.38451351196575451 0 0.5 -0.37662842795940632 0 0.48941535485016718 -0.38451351196575451 0 0.49198026820943458 -0.37665222827214673 0 0.48702766522891439 -0.37017656151352618 0 0.48941535485016718 -0.38451351196575451 0 0.49198026820943458 -0.37665222827214673 0 0.4731929253263466 -0.37234416450736291 0 0.47598627942267108 -0.39614127782036429 0 0.4731929253263466 -0.37234416450736291 0 0.47988431838496642 -0.39605649151600281 0 0.47598627942267108 -0.39614127782036429 0 0.48702766522891439 -0.37017656151352618 0 0.47988431838496642 -0.39605649151600281 0 0.48702766522891439 -0.37017656151352618 0 0.4731929253263466 -0.37234416450736291 0 0.47988431838496642 -0.39605649151600281 0 0.4731929253263466 -0.37234416450736291 0 0.47598627942267108 -0.39614127782036429 0 0.44947181193062957 -0.38817813289897812 0 0.4731929253263466 -0.37234416450736291 0 0.44807513488246747 -0.37627957624247832 0 0.44947181193062957 -0.38817813289897812 0 0.45119057353417241 -0.41426993015950392 0 0.47598627942267108 -0.39614127782036429 0 0.44947181193062957 -0.38817813289897812 0 0.47598627942267108 -0.39614127782036429 0 0.44947181193062957 -0.38817813289897812 0 0.45119057353417241 -0.41426993015950392 0 0.44947181193062957 -0.38817813289897812 0 0.43300808371403049 -0.39487305750607138 0 0.44807513488246747 -0.37627957624247832 0 0.44947181193062957 -0.38817813289897812 0 0.42295734443858812 -0.38021498797759151 0 0.44947181193062957 -0.38817813289897812 0 0.42295734443858812 -0.38021498797759151 0 0.44807513488246747 -0.37627957624247832 0 0.42295734443858812 -0.38021498797759151 0 0.44947181193062957 -0.38817813289897812 0 0.42295734443858812 -0.38021498797759151 0 0.43300808371403049 -0.39487305750607138 0 0.42295734443858812 -0.38021498797759151 0 0.43300808371403049 -0.39487305750607138 0 0.41899807483591311 -0.39267416011215378 0 0.43300808371403049 -0.39487305750607138 0 0.41899807483591311 -0.39267416011215378 0 0.41895001483980338 -0.405747203992677 0 0.41899807483591311 -0.39267416011215378 0 0.41895001483980338 -0.405747203992677 0 0.40824131197950891 -0.39230655886605958 0 0.41895001483980338 -0.405747203992677 0 0.40824131197950891 -0.39230655886605958 0 0.39264419916589011 -0.39933583330857958 0 0.40668165489894942 -0.37284450871662972 0 0.40357115043854858 -0.37439269219349641 0 0.42295734443858812 -0.38021498797759151 0 0.40357115043854858 -0.37439269219349641 0 0.42295734443858812 -0.38021498797759151 0 0.41141791323045201 -0.38202296599598029 0 0.41899807483591311 -0.39267416011215378 0 0.40824131197950891 -0.39230655886605958 0 0.41141791323045201 -0.38202296599598029 0 0.40357115043854858 -0.37439269219349641 0 0.42295734443858812 -0.38021498797759151 0 0.42295734443858812 -0.38021498797759151 0 0.41899807483591311 -0.39267416011215378 0 0.41141791323045201 -0.38202296599598029 0 0.42295734443858812 -0.38021498797759151 0 0.41141791323045201 -0.38202296599598029 0 0.40357115043854858 -0.37439269219349641 0 0.39878737953395271 -0.38716202398524519 0 0.38495476696526271 -0.38365857740898879 0 0.40357115043854858 -0.37439269219349641 0 0.38495476696526271 -0.38365857740898879 0 0.39091936250208847 -0.37059295452639368 0 0.40357115043854858 -0.37439269219349641 0 0.38495476696526271 -0.38365857740898879 0 0.40357115043854858 -0.37439269219349641 0 0.41141791323045201 -0.38202296599598029 0 0.39878737953395271 -0.38716202398524519 0 0.39878737953395271 -0.38716202398524519 0 0.38495476696526271 -0.38365857740898879 0 0.39264419916589011 -0.39933583330857958 0 0.40824131197950891 -0.39230655886605958 0 0.41141791323045201 -0.38202296599598029 0 0.39878737953395271 -0.38716202398524519 0 0.38495476696526271 -0.38365857740898879 0 0.36633838349197689 -0.39292446262448172 0 0.39091936250208847 -0.37059295452639368 0 0.38036028683270479 -0.37321989441499259 0 0.38495476696526271 -0.38365857740898879 0 0.38036028683270479 -0.37321989441499259 0 0.38495476696526271 -0.38365857740898879 0 0.36899850096155717 -0.37572055277630589 0 0.38495476696526271 -0.38365857740898879 0 0.39264419916589011 -0.39933583330857958 0 0.36633838349197689 -0.39292446262448172 0 0.39264419916589011 -0.39933583330857958 0 0.36633838349197689 -0.39292446262448172 0 0.39264419916589011 -0.39933583330857958 0 0.37648157324877413 -0.40698587339059478 0 0.36633838349197689 -0.39292446262448172 0 0.41895001483980338 -0.405747203992677 0 0.39264419916589011 -0.39933583330857958 0 0.40824131197950891 -0.39230655886605958 0 0.39878737953395271 -0.38716202398524519 0 0.39264419916589011 -0.39933583330857958 0 0.41895001483980338 -0.405747203992677 0 0.39075351468544928 -0.41566029786235742 0 0.40403751563283441 -0.42820703599144011 0 0.41895001483980338 -0.405747203992677 0 0.39264419916589011 -0.39933583330857958 0 0.39075351468544928 -0.41566029786235742 0 0.39264419916589011 -0.39933583330857958 0 0.39075351468544928 -0.41566029786235742 0 0.37648157324877413 -0.40698587339059478 0 0.39075351468544928 -0.41566029786235742 0 0.37648157324877413 -0.40698587339059478 0 0.37023017712561412 -0.42034675555211037 0 0.39075351468544928 -0.41566029786235742 0 0.38227505077110352 -0.433375422661055 0 0.37023017712561412 -0.42034675555211037 0 0.39075351468544928 -0.41566029786235742 0 0.38227505077110352 -0.433375422661055 0 0.40403751563283441 -0.42820703599144011 0 0.38227505077110352 -0.433375422661055 0 0.40403751563283441 -0.42820703599144011 0 0.39423870699599839 -0.44869216397824152 0 0.40403751563283441 -0.42820703599144011 0 0.42701607134504438 -0.42096118467114318 0 0.41629961179989983 -0.44411345070250358 0 0.41895001483980338 -0.405747203992677 0 0.40403751563283441 -0.42820703599144011 0 0.42701607134504438 -0.42096118467114318 0 0.45119057353417241 -0.41426993015950392 0 0.43300808371403049 -0.39487305750607138 0 0.42701607134504438 -0.42096118467114318 0 0.43300808371403049 -0.39487305750607138 0 0.41895001483980338 -0.405747203992677 0 0.42701607134504438 -0.42096118467114318 0 0.43861062854952598 -0.43855642967466352 0 0.42701607134504438 -0.42096118467114318 0 0.41629961179989983 -0.44411345070250358 0 0.43861062854952598 -0.43855642967466352 0 0.42949595956011699 -0.46166905847051609 0 0.41629961179989983 -0.44411345070250358 0 0.42949595956011699 -0.46166905847051609 0 0.40830736469633022 -0.46340758814225802 0 0.41629961179989983 -0.44411345070250358 0 0.42949595956011699 -0.46166905847051609 0 0.40830736469633022 -0.46340758814225802 0 0.41583984194657481 -0.48042329330229638 0 0.40830736469633022 -0.46340758814225802 0 0.41629961179989983 -0.44411345070250358 0 0.39423870699599839 -0.44869216397824152 0 0.40403751563283441 -0.42820703599144011 0 0.41629961179989983 -0.44411345070250358 0 0.39423870699599839 -0.44869216397824152 0 0.38227505077110352 -0.433375422661055 0 0.39423870699599839 -0.44869216397824152 0 0.37314956506518782 -0.45196806562242842 0 0.39423870699599839 -0.44869216397824152 0 0.38501363514060072 -0.47295533180638238 0 0.37314956506518782 -0.45196806562242842 0 0.40830736469633022 -0.46340758814225802 0 0.39423870699599839 -0.44869216397824152 0 0.38501363514060072 -0.47295533180638238 0 0.40830736469633022 -0.46340758814225802 0 0.38501363514060072 -0.47295533180638238 0 0.40002807837980658 -0.48644517078868732 0 0.38501363514060072 -0.47295533180638238 0 0.38669653994593312 -0.5 0 0.37039827280714571 -0.48475755307470508 0 0.38501363514060072 -0.47295533180638238 0 0.38669653994593312 -0.5 0 0.40002807837980658 -0.48644517078868732 0 0.38669653994593312 -0.5 0 0.40002807837980658 -0.48644517078868732 0 0.41223960118632652 -0.49999999999999928 0 0.41223960118632652 -0.49999999999999928 0 0.41583984194657481 -0.48042329330229638 0 0.43041231502455729 -0.49398250445380121 0 0.40002807837980658 -0.48644517078868732 0 0.41223960118632652 -0.49999999999999928 0 0.41583984194657481 -0.48042329330229638 0 0.41223960118632652 -0.49999999999999928 0 0.43041231502455729 -0.49398250445380121 0 0.40830736469633022 -0.46340758814225802 0 0.40002807837980658 -0.48644517078868732 0 0.41583984194657481 -0.48042329330229638 0 0.44745993809711271 -0.47718294768068747 0 0.43157964097191648 -0.4781176128412053 0 0.43041231502455729 -0.49398250445380121 0 0.42949595956011699 -0.46166905847051609 0 0.41583984194657481 -0.48042329330229638 0 0.43157964097191648 -0.4781176128412053 0 0.44745993809711271 -0.47718294768068747 0 0.42949595956011699 -0.46166905847051609 0 0.43157964097191648 -0.4781176128412053 0 0.41583984194657481 -0.48042329330229638 0 0.43157964097191648 -0.4781176128412053 0 0.43041231502455729 -0.49398250445380121 0 0.41223960118632652 -0.49999999999999928 0 0.43041231502455729 -0.49398250445380121 0 0.42430596369054058 -0.50000000000000044 0 0.43041231502455729 -0.49398250445380121 0 0.42430596369054058 -0.50000000000000044 0 0.32371784282563848 -0.48205325689406309 0 0.33561041746514603 -0.5 0 0.31006735622475229 -0.5 0 0.32371784282563848 -0.48205325689406309 0 0.33785131120774081 -0.46456607236518999 0 0.31398521063784263 -0.46284922631806608 0 0.32371784282563848 -0.48205325689406309 0 0.31398521063784263 -0.46284922631806608 0 0.30228261589437577 -0.48406570964432089 0 0.32371784282563848 -0.48205325689406309 0 0.34842299388708359 -0.48327581457048763 0 0.33785131120774081 -0.46456607236518999 0 0.32371784282563848 -0.48205325689406309 0 0.33561041746514603 -0.5 0 0.34842299388708359 -0.48327581457048763 0 0.33561041746514603 -0.5 0 0.3611534787055396 -0.5 0 0.34842299388708359 -0.48327581457048763 0 0.38669653994593312 -0.5 0 0.3611534787055396 -0.5 0 0.37039827280714571 -0.48475755307470508 0 0.3611534787055396 -0.5 0 0.37039827280714571 -0.48475755307470508 0 0.34842299388708359 -0.48327581457048763 0 0.37039827280714571 -0.48475755307470508 0 0.34842299388708359 -0.48327581457048763 0 0.36113295193717848 -0.46833262244907609 0 0.38501363514060072 -0.47295533180638238 0 0.37039827280714571 -0.48475755307470508 0 0.36113295193717848 -0.46833262244907609 0 0.34842299388708359 -0.48327581457048763 0 0.36113295193717848 -0.46833262244907609 0 0.33785131120774081 -0.46456607236518999 0 0.36113295193717848 -0.46833262244907609 0 0.354555349947206 -0.45160137520551252 0 0.33785131120774081 -0.46456607236518999 0 0.36113295193717848 -0.46833262244907609 0 0.37314956506518782 -0.45196806562242842 0 0.354555349947206 -0.45160137520551252 0 0.38501363514060072 -0.47295533180638238 0 0.36113295193717848 -0.46833262244907609 0 0.37314956506518782 -0.45196806562242842 0 0.37314956506518782 -0.45196806562242842 0 0.354555349947206 -0.45160137520551252 0 0.36226046523427108 -0.43575845488602999 0 0.38227505077110352 -0.433375422661055 0 0.37314956506518782 -0.45196806562242842 0 0.36226046523427108 -0.43575845488602999 0 0.354555349947206 -0.45160137520551252 0 0.34541136837851483 -0.43498323239747982 0 0.36226046523427108 -0.43575845488602999 0 0.354555349947206 -0.45160137520551252 0 0.32841434352729959 -0.44457473259923758 0 0.34541136837851483 -0.43498323239747982 0 0.354555349947206 -0.45160137520551252 0 0.32841434352729959 -0.44457473259923758 0 0.33785131120774081 -0.46456607236518999 0 0.32841434352729959 -0.44457473259923758 0 0.33785131120774081 -0.46456607236518999 0 0.31398521063784263 -0.46284922631806608 0 0.32841434352729959 -0.44457473259923758 0 0.31398521063784263 -0.46284922631806608 0 0.30843560249324692 -0.43926338866271691 0 0.32841434352729959 -0.44457473259923758 0 0.31674074099330068 -0.42505017548520668 0 0.33282330755302669 -0.42416279160020021 0 0.32841434352729959 -0.44457473259923758 0 0.31674074099330068 -0.42505017548520668 0 0.30843560249324692 -0.43926338866271691 0 0.31674074099330068 -0.42505017548520668 0 0.32048383823400078 -0.41081822986691779 0 0.33282330755302669 -0.42416279160020021 0 0.31674074099330068 -0.42505017548520668 0 0.32048383823400078 -0.41081822986691779 0 0.30906799382957018 -0.41459408459516001 0 0.32048383823400078 -0.41081822986691779 0 0.30885427907486479 -0.40534056280619862 0 0.30906799382957018 -0.41459408459516001 0 0.32048383823400078 -0.41081822986691779 0 0.33339076208455792 -0.40932339846090371 0 0.3215804685578717 -0.39887123257788021 0 0.32048383823400078 -0.41081822986691779 0 0.33339076208455792 -0.40932339846090371 0 0.33282330755302669 -0.42416279160020021 0 0.33339076208455792 -0.40932339846090371 0 0.33282330755302669 -0.42416279160020021 0 0.35107395227997729 -0.41903878193001121 0 0.32841434352729959 -0.44457473259923758 0 0.33282330755302669 -0.42416279160020021 0 0.34541136837851483 -0.43498323239747982 0 0.33282330755302669 -0.42416279160020021 0 0.34541136837851483 -0.43498323239747982 0 0.35107395227997729 -0.41903878193001121 0 0.34541136837851483 -0.43498323239747982 0 0.36226046523427108 -0.43575845488602999 0 0.35107395227997729 -0.41903878193001121 0 0.38227505077110352 -0.433375422661055 0 0.36226046523427108 -0.43575845488602999 0 0.37023017712561412 -0.42034675555211037 0 0.36226046523427108 -0.43575845488602999 0 0.37023017712561412 -0.42034675555211037 0 0.35107395227997729 -0.41903878193001121 0 0.37023017712561412 -0.42034675555211037 0 0.36289718843831109 -0.4072513824456056 0 0.35107395227997729 -0.41903878193001121 0 0.37648157324877413 -0.40698587339059478 0 0.37023017712561412 -0.42034675555211037 0 0.36289718843831109 -0.4072513824456056 0 0.36289718843831109 -0.4072513824456056 0 0.35107395227997729 -0.41903878193001121 0 0.34986457278826733 -0.40112393054269252 0 0.33339076208455792 -0.40932339846090371 0 0.35107395227997729 -0.41903878193001121 0 0.34986457278826733 -0.40112393054269252 0 0.34986457278826733 -0.40112393054269252 0 0.36633838349197689 -0.39292446262448172 0 0.3438195785459458 -0.3874360790798857 0 0.34986457278826733 -0.40112393054269252 0 0.36633838349197689 -0.39292446262448172 0 0.36289718843831109 -0.4072513824456056 0 0.34986457278826733 -0.40112393054269252 0 0.36633838349197689 -0.39292446262448172 0 0.37648157324877413 -0.40698587339059478 0 0.36289718843831109 -0.4072513824456056 0 0.36633838349197689 -0.39292446262448172 0 0.38495476696526271 -0.38365857740898879 0 0.36633838349197689 -0.39292446262448172 0 0.36899850096155717 -0.37572055277630589 0 0.36633838349197689 -0.39292446262448172 0 0.36899850096155717 -0.37572055277630589 0 0.35501734848800531 -0.38018616039313091 0 0.36633838349197689 -0.39292446262448172 0 0.3438195785459458 -0.3874360790798857 0 0.35501734848800531 -0.38018616039313091 0 0.3438195785459458 -0.3874360790798857 0 0.33765213266359068 -0.37373781892019597 0 0.36633838349197689 -0.39292446262448172 0 0.35501734848800531 -0.38018616039313091 0 0.3438195785459458 -0.3874360790798857 0 0.3438195785459458 -0.3874360790798857 0 0.32130077359991482 -0.38194769553528929 0 0.3438195785459458 -0.3874360790798857 0 0.33399123111531148 -0.39574046723933021 0 0.32130077359991482 -0.38194769553528929 0 0.3438195785459458 -0.3874360790798857 0 0.32130077359991482 -0.38194769553528929 0 0.33765213266359068 -0.37373781892019597 0 0.34986457278826733 -0.40112393054269252 0 0.3438195785459458 -0.3874360790798857 0 0.33399123111531148 -0.39574046723933021 0 0.33339076208455792 -0.40932339846090371 0 0.34986457278826733 -0.40112393054269252 0 0.33399123111531148 -0.39574046723933021 0 0.33339076208455792 -0.40932339846090371 0 0.34986457278826733 -0.40112393054269252 0 0.33339076208455792 -0.40932339846090371 0 0.33399123111531148 -0.39574046723933021 0 0.3215804685578717 -0.39887123257788021 0 0.33399123111531148 -0.39574046723933021 0 0.3215804685578717 -0.39887123257788021 0 0.32130077359991482 -0.38194769553528929 0 0.3215804685578717 -0.39887123257788021 0 0.32130077359991482 -0.38194769553528929 0 0.30466906774705282 -0.39121468863847259 0 0.32048383823400078 -0.41081822986691779 0 0.3215804685578717 -0.39887123257788021 0 0.30885427907486479 -0.40534056280619862 0 0.32130077359991482 -0.38194769553528929 0 0.29878196865388379 -0.37645931199069271 0 0.30466906774705282 -0.39121468863847259 0 0.29878196865388379 -0.37645931199069271 0 0.30466906774705282 -0.39121468863847259 0 0.28862562973128159 -0.39089398106269613 0 0.32130077359991482 -0.38194769553528929 0 0.29878196865388379 -0.37645931199069271 0 0.3215804685578717 -0.39887123257788021 0 0.30885427907486479 -0.40534056280619862 0 0.30466906774705282 -0.39121468863847259 0 0.29918907261480471 -0.40051898250306028 0 0.30466906774705282 -0.39121468863847259 0 0.28862562973128159 -0.39089398106269613 0 0.30885427907486479 -0.40534056280619862 0 0.29918907261480471 -0.40051898250306028 0 0.29743753759175479 -0.41002686131399629 0 0.30885427907486479 -0.40534056280619862 0 0.29918907261480471 -0.40051898250306028 0 0.30466906774705282 -0.39121468863847259 0 0.29918907261480471 -0.40051898250306028 0 0.28986046656329179 -0.40317789049621072 0 0.28862562973128159 -0.39089398106269613 0 0.29918907261480471 -0.40051898250306028 0 0.28986046656329179 -0.40317789049621072 0 0.29743753759175479 -0.41002686131399629 0 0.28986046656329179 -0.40317789049621072 0 0.28862562973128159 -0.39089398106269613 0 0.27846929080867849 -0.40532865013469888 0 0.28986046656329179 -0.40317789049621072 0 0.27846929080867849 -0.40532865013469888 0 0.28422697241040279 -0.40871661742540821 0 0.28862562973128159 -0.39089398106269613 0 0.27846929080867849 -0.40532865013469888 0 0.29878196865388379 -0.37645931199069271 0 0.28862562973128159 -0.39089398106269613 0 0.27770733801910819 -0.37132290904828291 0 0.29878196865388379 -0.37645931199069271 0 0.28862562973128159 -0.39089398106269613 0 0.28862562973128159 -0.39089398106269613 0 0.27128623477601987 -0.38632513062642998 0 0.27770733801910819 -0.37132290904828291 0 0.27128623477601987 -0.38632513062642998 0 0.25448461696667801 -0.39121545387343037 0 0.25663270738433253 -0.36618650610587289 0 0.25448461696667801 -0.39121545387343037 0 0.26068422816608422 -0.40938718727899909 0 0.24496802185639921 -0.41243428252497238 0 0.25448461696667801 -0.39121545387343037 0 0.27846929080867849 -0.40532865013469888 0 0.26068422816608422 -0.40938718727899909 0 0.28862562973128159 -0.39089398106269613 0 0.27128623477601987 -0.38632513062642998 0 0.27846929080867849 -0.40532865013469888 0 0.25448461696667801 -0.39121545387343037 0 0.27846929080867849 -0.40532865013469888 0 0.27128623477601987 -0.38632513062642998 0 0.25448461696667801 -0.39121545387343037 0 0.27846929080867849 -0.40532865013469888 0 0.27846929080867849 -0.40532865013469888 0 0.26493281720365969 -0.42456732643128609 0 0.27846929080867849 -0.40532865013469888 0 0.26493281720365969 -0.42456732643128609 0 0.28163283050480631 -0.41669359152189561 0 0.27846929080867849 -0.40532865013469888 0 0.26068422816608422 -0.40938718727899909 0 0.26493281720365969 -0.42456732643128609 0 0.26068422816608422 -0.40938718727899909 0 0.25073675000485562 -0.42557707815232632 0 0.24496802185639921 -0.41243428252497238 0 0.26068422816608422 -0.40938718727899909 0 0.26493281720365969 -0.42456732643128609 0 0.25073675000485562 -0.42557707815232632 0 0.26493281720365969 -0.42456732643128609 0 0.26994752303230318 -0.4413048538242571 0 0.25139634359863838 -0.44380600272787141 0 0.26493281720365969 -0.42456732643128609 0 0.25139634359863838 -0.44380600272787141 0 0.26493281720365969 -0.42456732643128609 0 0.25073675000485562 -0.42557707815232632 0 0.25139634359863838 -0.44380600272787141 0 0.26493281720365969 -0.42456732643128609 0 0.28079098114173268 -0.42766325912415731 0 0.26994752303230318 -0.4413048538242571 0 0.26493281720365969 -0.42456732643128609 0 0.28079098114173268 -0.42766325912415731 0 0.28163283050480631 -0.41669359152189561 0 0.28079098114173268 -0.42766325912415731 0 0.28465575163186629 -0.4415335759210246 0 0.26994752303230318 -0.4413048538242571 0 0.28079098114173268 -0.42766325912415731 0 0.29345725883947732 -0.43391433529940432 0 0.28465575163186629 -0.4415335759210246 0 0.29345725883947732 -0.43391433529940432 0 0.28964253403250378 -0.41954833692320331 0 0.30179744493943439 -0.42246381098213331 0 0.28079098114173268 -0.42766325912415731 0 0.29345725883947732 -0.43391433529940432 0 0.28964253403250378 -0.41954833692320331 0 0.28163283050480631 -0.41669359152189561 0 0.28422697241040279 -0.40871661742540821 0 0.28964253403250378 -0.41954833692320331 0 0.28079098114173268 -0.42766325912415731 0 0.28163283050480631 -0.41669359152189561 0 0.28964253403250378 -0.41954833692320331 0 0.27846929080867849 -0.40532865013469888 0 0.28163283050480631 -0.41669359152189561 0 0.28422697241040279 -0.40871661742540821 0 0.27846929080867849 -0.40532865013469888 0 0.28422697241040279 -0.40871661742540821 0 0.28422697241040279 -0.40871661742540821 0 0.28964253403250378 -0.41954833692320331 0 0.29743753759175479 -0.41002686131399629 0 0.28986046656329179 -0.40317789049621072 0 0.28422697241040279 -0.40871661742540821 0 0.29743753759175479 -0.41002686131399629 0 0.28964253403250378 -0.41954833692320331 0 0.29743753759175479 -0.41002686131399629 0 0.30179744493943439 -0.42246381098213331 0 0.29743753759175479 -0.41002686131399629 0 0.30906799382957018 -0.41459408459516001 0 0.30179744493943439 -0.42246381098213331 0 0.30885427907486479 -0.40534056280619862 0 0.29743753759175479 -0.41002686131399629 0 0.30906799382957018 -0.41459408459516001 0 0.31674074099330068 -0.42505017548520668 0 0.30906799382957018 -0.41459408459516001 0 0.30179744493943439 -0.42246381098213331 0 0.29345725883947732 -0.43391433529940432 0 0.30179744493943439 -0.42246381098213331 0 0.30843560249324692 -0.43926338866271691 0 0.31674074099330068 -0.42505017548520668 0 0.30179744493943439 -0.42246381098213331 0 0.30843560249324692 -0.43926338866271691 0 0.29345725883947732 -0.43391433529940432 0 0.30843560249324692 -0.43926338866271691 0 0.29542123879807919 -0.45301364018319018 0 0.31398521063784263 -0.46284922631806608 0 0.30843560249324692 -0.43926338866271691 0 0.29542123879807919 -0.45301364018319018 0 0.31398521063784263 -0.46284922631806608 0 0.29925239761485678 -0.46764359587110371 0 0.29542123879807919 -0.45301364018319018 0 0.29925239761485678 -0.46764359587110371 0 0.29542123879807919 -0.45301364018319018 0 0.28532052512912998 -0.47064580733883782 0 0.28235398880495183 -0.45477520671254779 0 0.29542123879807919 -0.45301364018319018 0 0.28532052512912998 -0.47064580733883782 0 0.28235398880495183 -0.45477520671254779 0 0.29542123879807919 -0.45301364018319018 0 0.28465575163186629 -0.4415335759210246 0 0.29345725883947732 -0.43391433529940432 0 0.29542123879807919 -0.45301364018319018 0 0.28465575163186629 -0.4415335759210246 0 0.28235398880495183 -0.45477520671254779 0 0.26994752303230318 -0.4413048538242571 0 0.26835843436388418 -0.45722590503335458 0 0.28235398880495183 -0.45477520671254779 0 0.28465575163186629 -0.4415335759210246 0 0.26994752303230318 -0.4413048538242571 0 0.26994752303230318 -0.4413048538242571 0 0.25139634359863838 -0.44380600272787141 0 0.26835843436388418 -0.45722590503335458 0 0.25139634359863838 -0.44380600272787141 0 0.26835843436388418 -0.45722590503335458 0 0.25139634359863838 -0.44380600272787141 0 0.26835843436388418 -0.45722590503335458 0 0.24469860926869169 -0.45332513942878072 0 0.26835843436388418 -0.45722590503335458 0 0.25399581965349771 -0.47063745275044289 0 0.24469860926869169 -0.45332513942878072 0 0.26835843436388418 -0.45722590503335458 0 0.28532052512912998 -0.47064580733883782 0 0.28235398880495183 -0.45477520671254779 0 0.26835843436388418 -0.45722590503335458 0 0.28532052512912998 -0.47064580733883782 0 0.26835843436388418 -0.45722590503335458 0 0.26965485409915663 -0.48308323932486757 0 0.28532052512912998 -0.47064580733883782 0 0.26835843436388418 -0.45722590503335458 0 0.26965485409915663 -0.48308323932486757 0 0.25399581965349771 -0.47063745275044289 0 0.25399581965349771 -0.47063745275044289 0 0.25898123374396531 -0.50000000000000011 0 0.23987556616473091 -0.48430393565204211 0 0.26965485409915663 -0.48308323932486757 0 0.25399581965349771 -0.47063745275044289 0 0.25898123374396531 -0.50000000000000011 0 0.26965485409915663 -0.48308323932486757 0 0.25898123374396531 -0.50000000000000011 0 0.28452429498435883 -0.5 0 0.26965485409915663 -0.48308323932486757 0 0.28452429498435883 -0.5 0 0.28532052512912998 -0.47064580733883782 0 0.28452429498435883 -0.5 0 0.28532052512912998 -0.47064580733883782 0 0.30228261589437577 -0.48406570964432089 0 0.29925239761485678 -0.46764359587110371 0 0.28532052512912998 -0.47064580733883782 0 0.30228261589437577 -0.48406570964432089 0 0.28532052512912998 -0.47064580733883782 0 0.30228261589437577 -0.48406570964432089 0 0.31398521063784263 -0.46284922631806608 0 0.29925239761485678 -0.46764359587110371 0 0.30228261589437577 -0.48406570964432089 0 0.32371784282563848 -0.48205325689406309 0 0.30228261589437577 -0.48406570964432089 0 0.31006735622475229 -0.5 0 0.28452429498435883 -0.5 0 0.30228261589437577 -0.48406570964432089 0 0.31006735622475229 -0.5 0 0.3282397865577637 -0.29124385228111138 0 0.33720037334803538 -0.27361982776263838 0 0.34992952871958211 -0.29447562862915228 0 0.3282397865577637 -0.29124385228111138 0 0.34992952871958211 -0.29447562862915228 0 0.34056744650707121 -0.31779663954648768 0 0.3282397865577637 -0.29124385228111138 0 0.34056744650707121 -0.31779663954648768 0 0.31246999240240347 -0.3054852848128663 0 0.3282397865577637 -0.29124385228111138 0 0.30574556293327831 -0.28566907640554151 0 0.31246999240240347 -0.3054852848128663 0 0.3282397865577637 -0.29124385228111138 0 0.32061074080666302 -0.27415730691802831 0 0.30574556293327831 -0.28566907640554151 0 0.32061074080666302 -0.27415730691802831 0 0.32388162392129172 -0.25615283207316319 0 0.33720037334803538 -0.27361982776263838 0 0.32061074080666302 -0.27415730691802831 0 0.32388162392129172 -0.25615283207316319 0 0.30250877060147469 -0.26103797640199738 0 0.31122873499901749 -0.2414141641502838 0 0.32388162392129172 -0.25615283207316319 0 0.30250877060147469 -0.26103797640199738 0 0.32388162392129172 -0.25615283207316319 0 0.34124894915081899 -0.25453472896255819 0 0.33720037334803538 -0.27361982776263838 0 0.3282397865577637 -0.29124385228111138 0 0.32061074080666302 -0.27415730691802831 0 0.33720037334803538 -0.27361982776263838 0 0.33720037334803538 -0.27361982776263838 0 0.35929161093209289 -0.27115461771181698 0 0.34992952871958211 -0.29447562862915228 0 0.34124894915081899 -0.25453472896255819 0 0.33720037334803538 -0.27361982776263838 0 0.35929161093209289 -0.27115461771181698 0 0.35316874847761298 -0.2416891535577684 0 0.34124894915081899 -0.25453472896255819 0 0.35929161093209289 -0.27115461771181698 0 0.36865369314460372 -0.2478336067944816 0 0.35929161093209289 -0.27115461771181698 0 0.36865369314460372 -0.2478336067944816 0 0.38309938493879597 -0.26981773359180272 0 0.35929161093209289 -0.27115461771181698 0 0.35316874847761298 -0.2416891535577684 0 0.36865369314460372 -0.2478336067944816 0 0.35929161093209289 -0.27115461771181698 0 0.38309938493879597 -0.26981773359180272 0 0.35929161093209289 -0.27115461771181698 0 0.36764157541181391 -0.28804634346535241 0 0.38545040777748718 -0.29142915665489572 0 0.36764157541181391 -0.28804634346535241 0 0.36979367555604942 -0.30870678273150859 0 0.35929161093209289 -0.27115461771181698 0 0.34992952871958211 -0.29447562862915228 0 0.35929161093209289 -0.27115461771181698 0 0.36764157541181391 -0.28804634346535241 0 0.34992952871958211 -0.29447562862915228 0 0.34992952871958211 -0.29447562862915228 0 0.36979367555604942 -0.30870678273150859 0 0.34056744650707121 -0.31779663954648768 0 0.34992952871958211 -0.29447562862915228 0 0.34056744650707121 -0.31779663954648768 0 0.36764157541181391 -0.28804634346535241 0 0.34992952871958211 -0.29447562862915228 0 0.36979367555604942 -0.30870678273150859 0 0.38702013903678112 -0.32772017169980222 0 0.36979367555604942 -0.30870678273150859 0 0.36300739566301382 -0.33418661938928718 0 0.38702013903678112 -0.32772017169980222 0 0.36300739566301382 -0.33418661938928718 0 0.37413339736655882 -0.34579044102089762 0 0.36300739566301382 -0.33418661938928718 0 0.34615443739583879 -0.33709691621371712 0 0.34056744650707121 -0.31779663954648768 0 0.36979367555604942 -0.30870678273150859 0 0.36300739566301382 -0.33418661938928718 0 0.34056744650707121 -0.31779663954648768 0 0.37646232296654569 -0.36114256495657537 0 0.36899850096155717 -0.37572055277630589 0 0.34887026750608108 -0.36052681693999439 0 0.37646232296654569 -0.36114256495657537 0 0.34887026750608108 -0.36052681693999439 0 0.37646232296654569 -0.36114256495657537 0 0.37413339736655882 -0.34579044102089762 0 0.34887026750608108 -0.36052681693999439 0 0.36300739566301382 -0.33418661938928718 0 0.37413339736655882 -0.34579044102089762 0 0.34887026750608108 -0.36052681693999439 0 0.36300739566301382 -0.33418661938928718 0 0.34615443739583879 -0.33709691621371712 0 0.34887026750608108 -0.36052681693999439 0 0.36899850096155717 -0.37572055277630589 0 0.35501734848800531 -0.38018616039313091 0 0.34887026750608108 -0.36052681693999439 0 0.35501734848800531 -0.38018616039313091 0 0.34887026750608108 -0.36052681693999439 0 0.33765213266359068 -0.37373781892019597 0 0.34887026750608108 -0.36052681693999439 0 0.33765213266359068 -0.37373781892019597 0 0.32127821204561657 -0.3599110689234134 0 0.34887026750608108 -0.36052681693999439 0 0.32127821204561657 -0.3599110689234134 0 0.34615443739583879 -0.33709691621371712 0 0.34887026750608108 -0.36052681693999439 0 0.33120536429456038 -0.34111765046382297 0 0.34887026750608108 -0.36052681693999439 0 0.32127821204561657 -0.3599110689234134 0 0.33120536429456038 -0.34111765046382297 0 0.32127821204561657 -0.3599110689234134 0 0.31682565270839541 -0.34316615280772411 0 0.30881998725932852 -0.35191458203632731 0 0.32127821204561657 -0.3599110689234134 0 0.33120536429456038 -0.34111765046382297 0 0.31682565270839541 -0.34316615280772411 0 0.32130077359991482 -0.38194769553528929 0 0.33765213266359068 -0.37373781892019597 0 0.32127821204561657 -0.3599110689234134 0 0.32130077359991482 -0.38194769553528929 0 0.32127821204561657 -0.3599110689234134 0 0.30584787188077678 -0.36641691624629491 0 0.34615443739583879 -0.33709691621371712 0 0.34056744650707121 -0.31779663954648768 0 0.33120536429456038 -0.34111765046382297 0 0.34056744650707121 -0.31779663954648768 0 0.33120536429456038 -0.34111765046382297 0 0.31807899870266237 -0.32624288340420582 0 0.34056744650707121 -0.31779663954648768 0 0.33120536429456038 -0.34111765046382297 0 0.33120536429456038 -0.34111765046382297 0 0.31682565270839541 -0.34316615280772411 0 0.31807899870266237 -0.32624288340420582 0 0.31682565270839541 -0.34316615280772411 0 0.31807899870266237 -0.32624288340420582 0 0.30474570123980882 -0.336644579210851 0 0.34056744650707121 -0.31779663954648768 0 0.31807899870266237 -0.32624288340420582 0 0.31246999240240347 -0.3054852848128663 0 0.31807899870266237 -0.32624288340420582 0 0.30013620387024459 -0.31965333461457701 0 0.30474570123980882 -0.336644579210851 0 0.31807899870266237 -0.32624288340420582 0 0.30013620387024459 -0.31965333461457701 0 0.31246999240240347 -0.3054852848128663 0 0.30013620387024459 -0.31965333461457701 0 0.30474570123980882 -0.336644579210851 0 0.28870427923014141 -0.33331457667972658 0 0.30474570123980882 -0.336644579210851 0 0.28870427923014141 -0.33331457667972658 0 0.29483241988575248 -0.34977922392313471 0 0.30013620387024459 -0.31965333461457701 0 0.28870427923014141 -0.33331457667972658 0 0.28123445599872249 -0.31454931711021272 0 0.32130077359991482 -0.38194769553528929 0 0.29878196865388379 -0.37645931199069271 0 0.30584787188077678 -0.36641691624629491 0 0.30584787188077678 -0.36641691624629491 0 0.29483241988575248 -0.34977922392313471 0 0.29100430930826121 -0.36317553190325158 0 0.29878196865388379 -0.37645931199069271 0 0.30584787188077678 -0.36641691624629491 0 0.29100430930826121 -0.36317553190325158 0 0.29878196865388379 -0.37645931199069271 0 0.30584787188077678 -0.36641691624629491 0 0.32127821204561657 -0.3599110689234134 0 0.30584787188077678 -0.36641691624629491 0 0.30881998725932852 -0.35191458203632731 0 0.30584787188077678 -0.36641691624629491 0 0.30881998725932852 -0.35191458203632731 0 0.29483241988575248 -0.34977922392313471 0 0.31682565270839541 -0.34316615280772411 0 0.30474570123980882 -0.336644579210851 0 0.30881998725932852 -0.35191458203632731 0 0.30474570123980882 -0.336644579210851 0 0.30881998725932852 -0.35191458203632731 0 0.29483241988575248 -0.34977922392313471 0 0.28870427923014141 -0.33331457667972658 0 0.29483241988575248 -0.34977922392313471 0 0.28054665757563058 -0.34947106152152041 0 0.29483241988575248 -0.34977922392313471 0 0.29100430930826121 -0.36317553190325158 0 0.28054665757563058 -0.34947106152152041 0 0.29878196865388379 -0.37645931199069271 0 0.27770733801910819 -0.37132290904828291 0 0.29100430930826121 -0.36317553190325158 0 0.27770733801910819 -0.37132290904828291 0 0.28054665757563058 -0.34947106152152041 0 0.29878196865388379 -0.37645931199069271 0 0.29100430930826121 -0.36317553190325158 0 0.27770733801910819 -0.37132290904828291 0 0.27770733801910819 -0.37132290904828291 0 0.25663270738433253 -0.36618650610587289 0 0.27128623477601987 -0.38632513062642998 0 0.27770733801910819 -0.37132290904828291 0 0.25663270738433253 -0.36618650610587289 0 0.27770733801910819 -0.37132290904828291 0 0.28054665757563058 -0.34947106152152041 0 0.26162096775264942 -0.34975617949046289 0 0.26162096775264942 -0.34975617949046289 0 0.25304954345961872 -0.3334372371444172 0 0.23644703553802521 -0.35085830281332209 0 0.26162096775264942 -0.34975617949046289 0 0.25663270738433253 -0.36618650610587289 0 0.23644703553802521 -0.35085830281332209 0 0.27770733801910819 -0.37132290904828291 0 0.26162096775264942 -0.34975617949046289 0 0.25663270738433253 -0.36618650610587289 0 0.28123445599872249 -0.31454931711021272 0 0.27073023681068958 -0.32978994369806403 0 0.25604243601545917 -0.30950902631316018 0 0.28870427923014141 -0.33331457667972658 0 0.28123445599872249 -0.31454931711021272 0 0.27073023681068958 -0.32978994369806403 0 0.28870427923014141 -0.33331457667972658 0 0.28054665757563058 -0.34947106152152041 0 0.27073023681068958 -0.32978994369806403 0 0.28054665757563058 -0.34947106152152041 0 0.26162096775264942 -0.34975617949046289 0 0.27073023681068958 -0.32978994369806403 0 0.26162096775264942 -0.34975617949046289 0 0.27073023681068958 -0.32978994369806403 0 0.25304954345961872 -0.3334372371444172 0 0.27073023681068958 -0.32978994369806403 0 0.25304954345961872 -0.3334372371444172 0 0.25604243601545917 -0.30950902631316018 0 0.25604243601545917 -0.30950902631316018 0 0.25142105880610982 -0.28159695161676102 0 0.27309197586821932 -0.29291032229901037 0 0.25142105880610982 -0.28159695161676102 0 0.27309197586821932 -0.29291032229901037 0 0.26845703429425299 -0.27473127336484421 0 0.28123445599872249 -0.31454931711021272 0 0.25604243601545917 -0.30950902631316018 0 0.27309197586821932 -0.29291032229901037 0 0.30013620387024459 -0.31965333461457701 0 0.28123445599872249 -0.31454931711021272 0 0.29328697568938961 -0.29903844151086101 0 0.28123445599872249 -0.31454931711021272 0 0.27309197586821932 -0.29291032229901037 0 0.29328697568938961 -0.29903844151086101 0 0.29328697568938961 -0.29903844151086101 0 0.30574556293327831 -0.28566907640554151 0 0.28704366306346918 -0.27596331382295819 0 0.27309197586821932 -0.29291032229901037 0 0.29328697568938961 -0.29903844151086101 0 0.28704366306346918 -0.27596331382295819 0 0.29328697568938961 -0.29903844151086101 0 0.30574556293327831 -0.28566907640554151 0 0.31246999240240347 -0.3054852848128663 0 0.30013620387024459 -0.31965333461457701 0 0.29328697568938961 -0.29903844151086101 0 0.31246999240240347 -0.3054852848128663 0 0.30574556293327831 -0.28566907640554151 0 0.30250877060147469 -0.26103797640199738 0 0.28704366306346918 -0.27596331382295819 0 0.32061074080666302 -0.27415730691802831 0 0.30574556293327831 -0.28566907640554151 0 0.30250877060147469 -0.26103797640199738 0 0.28704366306346918 -0.27596331382295819 0 0.28812153370605242 -0.25917892883271493 0 0.27382308897938978 -0.25757477385260902 0 0.30250877060147469 -0.26103797640199738 0 0.28704366306346918 -0.27596331382295819 0 0.28812153370605242 -0.25917892883271493 0 0.28800960804428533 -0.24563086090229341 0 0.30250877060147469 -0.26103797640199738 0 0.28812153370605242 -0.25917892883271493 0 0.28800960804428533 -0.24563086090229341 0 0.28812153370605242 -0.25917892883271493 0 0.27382308897938978 -0.25757477385260902 0 0.28704366306346918 -0.27596331382295819 0 0.27382308897938978 -0.25757477385260902 0 0.26845703429425299 -0.27473127336484421 0 0.27309197586821932 -0.29291032229901037 0 0.28704366306346918 -0.27596331382295819 0 0.26845703429425299 -0.27473127336484421 0 0.25142105880610982 -0.28159695161676102 0 0.26845703429425299 -0.27473127336484421 0 0.25387513984481591 -0.25857931195517603 0 0.26544806631453821 -0.24230099698390439 0 0.27382308897938978 -0.25757477385260902 0 0.25387513984481591 -0.25857931195517603 0 0.27382308897938978 -0.25757477385260902 0 0.26845703429425299 -0.27473127336484421 0 0.25387513984481591 -0.25857931195517603 0 0.25387513984481591 -0.25857931195517603 0 0.2381591848617218 -0.25228348889829172 0 0.23873226730163991 -0.26860446186978332 0 0.25142105880610982 -0.28159695161676102 0 0.25387513984481591 -0.25857931195517603 0 0.23873226730163991 -0.26860446186978332 0 0.25142105880610982 -0.28159695161676102 0 0.23873226730163991 -0.26860446186978332 0 0.22412956231077791 -0.28731699206628869 0 0.23873226730163991 -0.26860446186978332 0 0.2233418158032322 -0.25896370347926301 0 0.22412956231077791 -0.28731699206628869 0 0.2381591848617218 -0.25228348889829172 0 0.23873226730163991 -0.26860446186978332 0 0.2233418158032322 -0.25896370347926301 0 0.2233418158032322 -0.25896370347926301 0 0.19459367959613491 -0.25885292547783839 0 0.20158087660853621 -0.23686807110207961 0 0.2233418158032322 -0.25896370347926301 0 0.20344477217297871 -0.27911430100353601 0 0.22412956231077791 -0.28731699206628869 0 0.2233418158032322 -0.25896370347926301 0 0.20344477217297871 -0.27911430100353601 0 0.19459367959613491 -0.25885292547783839 0 0.20344477217297871 -0.27911430100353601 0 0.19459367959613491 -0.25885292547783839 0 0.1811198294326693 -0.28106660537624389 0 0.20023531895538321 -0.29824155692729049 0 0.1965359804607269 -0.3204120422498456 0 0.1854651188505301 -0.30598336983253499 0 0.20023531895538321 -0.29824155692729049 0 0.1811198294326693 -0.28106660537624389 0 0.1854651188505301 -0.30598336983253499 0 0.20344477217297871 -0.27911430100353601 0 0.20023531895538321 -0.29824155692729049 0 0.1811198294326693 -0.28106660537624389 0 0.20344477217297871 -0.27911430100353601 0 0.20023531895538321 -0.29824155692729049 0 0.22412956231077791 -0.28731699206628869 0 0.20023531895538321 -0.29824155692729049 0 0.22412956231077791 -0.28731699206628869 0 0.21365296452524871 -0.3158280739368538 0 0.20023531895538321 -0.29824155692729049 0 0.21365296452524871 -0.3158280739368538 0 0.1965359804607269 -0.3204120422498456 0 0.231951166257719 -0.30967859425293848 0 0.22412956231077791 -0.28731699206628869 0 0.21365296452524871 -0.3158280739368538 0 0.231951166257719 -0.30967859425293848 0 0.22412956231077791 -0.28731699206628869 0 0.24121182925292789 -0.29702776505135509 0 0.25604243601545917 -0.30950902631316018 0 0.25142105880610982 -0.28159695161676102 0 0.24121182925292789 -0.29702776505135509 0 0.25142105880610982 -0.28159695161676102 0 0.22412956231077791 -0.28731699206628869 0 0.24121182925292789 -0.29702776505135509 0 0.25604243601545917 -0.30950902631316018 0 0.231951166257719 -0.30967859425293848 0 0.24121182925292789 -0.29702776505135509 0 0.25604243601545917 -0.30950902631316018 0 0.231951166257719 -0.30967859425293848 0 0.23478824591458539 -0.32848396711554873 0 0.25304954345961872 -0.3334372371444172 0 0.25604243601545917 -0.30950902631316018 0 0.23478824591458539 -0.32848396711554873 0 0.25304954345961872 -0.3334372371444172 0 0.23478824591458539 -0.32848396711554873 0 0.23644703553802521 -0.35085830281332209 0 0.23478824591458539 -0.32848396711554873 0 0.23644703553802521 -0.35085830281332209 0 0.2120039702444769 -0.33688947321857171 0 0.23478824591458539 -0.32848396711554873 0 0.21365296452524871 -0.3158280739368538 0 0.2120039702444769 -0.33688947321857171 0 0.231951166257719 -0.30967859425293848 0 0.23478824591458539 -0.32848396711554873 0 0.21365296452524871 -0.3158280739368538 0 0.25663270738433253 -0.36618650610587289 0 0.23644703553802521 -0.35085830281332209 0 0.23049994312467739 -0.37710225761216198 0 0.23644703553802521 -0.35085830281332209 0 0.20651526928267699 -0.36298906135089348 0 0.23049994312467739 -0.37710225761216198 0 0.20651526928267699 -0.36298906135089348 0 0.23049994312467739 -0.37710225761216198 0 0.2111465515132244 -0.38255540515608932 0 0.20651526928267699 -0.36298906135089348 0 0.23049994312467739 -0.37710225761216198 0 0.20651526928267699 -0.36298906135089348 0 0.2111465515132244 -0.38255540515608932 0 0.19806078140151451 -0.3760014579418629 0 0.23644703553802521 -0.35085830281332209 0 0.20651526928267699 -0.36298906135089348 0 0.2120039702444769 -0.33688947321857171 0 0.20651526928267699 -0.36298906135089348 0 0.18875255879886549 -0.34383104841711659 0 0.19096566961471581 -0.36337447620272267 0 0.20651526928267699 -0.36298906135089348 0 0.18875255879886549 -0.34383104841711659 0 0.2120039702444769 -0.33688947321857171 0 0.19096566961471581 -0.36337447620272267 0 0.1852514002565008 -0.37285597493380102 0 0.19806078140151451 -0.3760014579418629 0 0.20651526928267699 -0.36298906135089348 0 0.19096566961471581 -0.36337447620272267 0 0.19806078140151451 -0.3760014579418629 0 0.21365296452524871 -0.3158280739368538 0 0.2120039702444769 -0.33688947321857171 0 0.1965359804607269 -0.3204120422498456 0 0.18875255879886549 -0.34383104841711659 0 0.1965359804607269 -0.3204120422498456 0 0.1791059513898568 -0.32169873116670628 0 0.18875255879886549 -0.34383104841711659 0 0.2120039702444769 -0.33688947321857171 0 0.1965359804607269 -0.3204120422498456 0 0.1965359804607269 -0.3204120422498456 0 0.1791059513898568 -0.32169873116670628 0 0.1854651188505301 -0.30598336983253499 0 0.1791059513898568 -0.32169873116670628 0 0.16851231809304459 -0.30586446174427101 0 0.18875255879886549 -0.34383104841711659 0 0.17431878633764911 -0.33595157773276529 0 0.16776948169062669 -0.34696331747242909 0 0.18875255879886549 -0.34383104841711659 0 0.1791059513898568 -0.32169873116670628 0 0.17431878633764911 -0.33595157773276529 0 0.17431878633764911 -0.33595157773276529 0 0.16164715347124739 -0.33131321387480928 0 0.16776948169062669 -0.34696331747242909 0 0.16164715347124739 -0.33131321387480928 0 0.16776948169062669 -0.34696331747242909 0 0.15212090064456951 -0.33802417008821961 0 0.1791059513898568 -0.32169873116670628 0 0.17431878633764911 -0.33595157773276529 0 0.16164715347124739 -0.33131321387480928 0 0.1791059513898568 -0.32169873116670628 0 0.1583171571383459 -0.3169906515528777 0 0.16851231809304459 -0.30586446174427101 0 0.1791059513898568 -0.32169873116670628 0 0.16164715347124739 -0.33131321387480928 0 0.1583171571383459 -0.3169906515528777 0 0.16164715347124739 -0.33131321387480928 0 0.1583171571383459 -0.3169906515528777 0 0.14958720239180129 -0.32575294072168781 0 0.1852514002565008 -0.37285597493380102 0 0.1762483383340209 -0.3611948383699396 0 0.16810710747809679 -0.37518962057274069 0 0.19096566961471581 -0.36337447620272267 0 0.1852514002565008 -0.37285597493380102 0 0.1762483383340209 -0.3611948383699396 0 0.18875255879886549 -0.34383104841711659 0 0.1762483383340209 -0.3611948383699396 0 0.16776948169062669 -0.34696331747242909 0 0.18875255879886549 -0.34383104841711659 0 0.19096566961471581 -0.36337447620272267 0 0.1762483383340209 -0.3611948383699396 0 0.16776948169062669 -0.34696331747242909 0 0.15224547587634041 -0.34779266691812372 0 0.15212090064456951 -0.33802417008821961 0 0.16776948169062669 -0.34696331747242909 0 0.1600068722952708 -0.35346693781913241 0 0.15224547587634041 -0.34779266691812372 0 0.1600068722952708 -0.35346693781913241 0 0.1664062591498876 -0.35777334963723451 0 0.15995745798807859 -0.36131319790006622 0 0.1600068722952708 -0.35346693781913241 0 0.15995745798807859 -0.36131319790006622 0 0.15218866903691239 -0.35479466580804681 0 0.16776948169062669 -0.34696331747242909 0 0.1600068722952708 -0.35346693781913241 0 0.1664062591498876 -0.35777334963723451 0 0.1762483383340209 -0.3611948383699396 0 0.16776948169062669 -0.34696331747242909 0 0.1664062591498876 -0.35777334963723451 0 0.14720666464189319 -0.36788381176971929 0 0.16810710747809679 -0.37518962057274069 0 0.1558903846113012 -0.37659031989176989 0 0.15995745798807859 -0.36131319790006622 0 0.14396170495504959 -0.36094591622089461 0 0.16810710747809679 -0.37518962057274069 0 0.1762483383340209 -0.3611948383699396 0 0.1664062591498876 -0.35777334963723451 0 0.16804914544144081 -0.36592845662460499 0 0.1664062591498876 -0.35777334963723451 0 0.16804914544144081 -0.36592845662460499 0 0.15995745798807859 -0.36131319790006622 0 0.1762483383340209 -0.3611948383699396 0 0.16804914544144081 -0.36592845662460499 0 0.16810710747809679 -0.37518962057274069 0 0.16804914544144081 -0.36592845662460499 0 0.15995745798807859 -0.36131319790006622 0 0.16810710747809679 -0.37518962057274069 0 0.14720666464189319 -0.36788381176971929 0 0.14396170495504959 -0.36094591622089461 0 0.16810710747809679 -0.37518962057274069 0 0.14396170495504959 -0.36094591622089461 0 0.16810710747809679 -0.37518962057274069 0 0.14720666464189319 -0.36788381176971929 0 0.1383556443351521 -0.36721752491009019 0 0.14366952177242839 -0.37795442680103092 0 0.14720666464189319 -0.36788381176971929 0 0.14366952177242839 -0.37795442680103092 0 0.14720666464189319 -0.36788381176971929 0 0.1558903846113012 -0.37659031989176989 0 0.14366952177242839 -0.37795442680103092 0 0.14720666464189319 -0.36788381176971929 0 0.14396170495504959 -0.36094591622089461 0 0.1383556443351521 -0.36721752491009019 0 0.15995745798807859 -0.36131319790006622 0 0.14396170495504959 -0.36094591622089461 0 0.15218866903691239 -0.35479466580804681 0 0.14396170495504959 -0.36094591622089461 0 0.14511448593074089 -0.35145663781997261 0 0.13577103312078059 -0.34795921469763608 0 0.14396170495504959 -0.36094591622089461 0 0.15218866903691239 -0.35479466580804681 0 0.14511448593074089 -0.35145663781997261 0 0.1600068722952708 -0.35346693781913241 0 0.15218866903691239 -0.35479466580804681 0 0.15224547587634041 -0.34779266691812372 0 0.15218866903691239 -0.35479466580804681 0 0.15224547587634041 -0.34779266691812372 0 0.14511448593074089 -0.35145663781997261 0 0.15224547587634041 -0.34779266691812372 0 0.14511448593074089 -0.35145663781997261 0 0.14297575409526231 -0.34268956348742918 0 0.14511448593074089 -0.35145663781997261 0 0.13577103312078059 -0.34795921469763608 0 0.14297575409526231 -0.34268956348742918 0 0.13577103312078059 -0.34795921469763608 0 0.1309625065958904 -0.33698580710867321 0 0.11981630243200241 -0.34670221186904848 0 0.14396170495504959 -0.36094591622089461 0 0.11981630243200241 -0.34670221186904848 0 0.14396170495504959 -0.36094591622089461 0 0.12975083983729241 -0.3605742752065062 0 0.11981630243200241 -0.34670221186904848 0 0.14396170495504959 -0.36094591622089461 0 0.13577103312078059 -0.34795921469763608 0 0.11981630243200241 -0.34670221186904848 0 0.12614331543758381 -0.36930267957049101 0 0.1383556443351521 -0.36721752491009019 0 0.14366952177242839 -0.37795442680103092 0 0.12614331543758381 -0.36930267957049101 0 0.14366952177242839 -0.37795442680103092 0 0.14396170495504959 -0.36094591622089461 0 0.12975083983729241 -0.3605742752065062 0 0.1383556443351521 -0.36721752491009019 0 0.12975083983729241 -0.3605742752065062 0 0.12614331543758381 -0.36930267957049101 0 0.1383556443351521 -0.36721752491009019 0 0.12975083983729241 -0.3605742752065062 0 0.12614331543758381 -0.36930267957049101 0 0.12047723202667419 -0.35870304346200699 0 0.14958720239180129 -0.32575294072168781 0 0.14164012240325199 -0.3339188842919501 0 0.1354655515675805 -0.32397466055269353 0 0.14429022968378211 -0.31449150580462659 0 0.14958720239180129 -0.32575294072168781 0 0.1354655515675805 -0.32397466055269353 0 0.1583171571383459 -0.3169906515528777 0 0.14429022968378211 -0.31449150580462659 0 0.14958720239180129 -0.32575294072168781 0 0.16164715347124739 -0.33131321387480928 0 0.14958720239180129 -0.32575294072168781 0 0.15212090064456951 -0.33802417008821961 0 0.15224547587634041 -0.34779266691812372 0 0.15212090064456951 -0.33802417008821961 0 0.14297575409526231 -0.34268956348742918 0 0.15212090064456951 -0.33802417008821961 0 0.14297575409526231 -0.34268956348742918 0 0.14164012240325199 -0.3339188842919501 0 0.14958720239180129 -0.32575294072168781 0 0.15212090064456951 -0.33802417008821961 0 0.14164012240325199 -0.3339188842919501 0 0.14164012240325199 -0.3339188842919501 0 0.1309625065958904 -0.33698580710867321 0 0.1354655515675805 -0.32397466055269353 0 0.14297575409526231 -0.34268956348742918 0 0.14164012240325199 -0.3339188842919501 0 0.1309625065958904 -0.33698580710867321 0 0.13577103312078059 -0.34795921469763608 0 0.14297575409526231 -0.34268956348742918 0 0.1309625065958904 -0.33698580710867321 0 0.1309625065958904 -0.33698580710867321 0 0.1267773170918127 -0.32793770643083259 0 0.1354655515675805 -0.32397466055269353 0 0.1309625065958904 -0.33698580710867321 0 0.1267773170918127 -0.32793770643083259 0 0.1173208469396987 -0.33351083295656841 0 0.1267773170918127 -0.32793770643083259 0 0.1354655515675805 -0.32397466055269353 0 0.12336036326408149 -0.31727952510539542 0 0.14429022968378211 -0.31449150580462659 0 0.1354655515675805 -0.32397466055269353 0 0.13290894441916951 -0.311593184541749 0 0.1354655515675805 -0.32397466055269353 0 0.13290894441916951 -0.311593184541749 0 0.12336036326408149 -0.31727952510539542 0 0.14429022968378211 -0.31449150580462659 0 0.13290894441916951 -0.311593184541749 0 0.14365928219234919 -0.29553920478802909 0 0.12939987958846499 -0.30104821725422282 0 0.13290894441916951 -0.311593184541749 0 0.12336036326408149 -0.31727952510539542 0 0.12939987958846499 -0.30104821725422282 0 0.13290894441916951 -0.311593184541749 0 0.14365928219234919 -0.29553920478802909 0 0.12939987958846499 -0.30104821725422282 0 0.12336036326408149 -0.31727952510539542 0 0.12939987958846499 -0.30104821725422282 0 0.14365928219234919 -0.29553920478802909 0 0.14429022968378211 -0.31449150580462659 0 0.15453953438075099 -0.3045832032423279 0 0.14365928219234919 -0.29553920478802909 0 0.1583171571383459 -0.3169906515528777 0 0.14429022968378211 -0.31449150580462659 0 0.15453953438075099 -0.3045832032423279 0 0.14365928219234919 -0.29553920478802909 0 0.13581334660580921 -0.28381191024539792 0 0.15791868479623319 -0.29003019232183508 0 0.14365928219234919 -0.29553920478802909 0 0.15791868479623319 -0.29003019232183508 0 0.15453953438075099 -0.3045832032423279 0 0.14365928219234919 -0.29553920478802909 0 0.15791868479623319 -0.29003019232183508 0 0.12939987958846499 -0.30104821725422282 0 0.14365928219234919 -0.29553920478802909 0 0.13581334660580921 -0.28381191024539792 0 0.12939987958846499 -0.30104821725422282 0 0.13581334660580921 -0.28381191024539792 0 0.12939987958846499 -0.30104821725422282 0 0.13581334660580921 -0.28381191024539792 0 0.11975871269048451 -0.2924514282965619 0 0.13581334660580921 -0.28381191024539792 0 0.1226880249071774 -0.2797686671778018 0 0.11975871269048451 -0.2924514282965619 0 0.13581334660580921 -0.28381191024539792 0 0.1422268136231539 -0.26657560323657331 0 0.13581334660580921 -0.28381191024539792 0 0.1288563768323259 -0.2695457617500755 0 0.1226880249071774 -0.2797686671778018 0 0.13581334660580921 -0.28381191024539792 0 0.1288563768323259 -0.2695457617500755 0 0.1422268136231539 -0.26657560323657331 0 0.1350240927259482 -0.25580971960953952 0 0.1245898803102246 -0.25859373775762762 0 0.1224052182762337 -0.24746994087236879 0 0.1288563768323259 -0.2695457617500755 0 0.1350240927259482 -0.25580971960953952 0 0.1245898803102246 -0.25859373775762762 0 0.1288563768323259 -0.2695457617500755 0 0.1350240927259482 -0.25580971960953952 0 0.1422268136231539 -0.26657560323657331 0 0.1350240927259482 -0.25580971960953952 0 0.1422268136231539 -0.26657560323657331 0 0.1422268136231539 -0.26657560323657331 0 0.16166505075279861 -0.26987223092144852 0 0.15702538271053201 -0.25825383259864948 0 0.1350240927259482 -0.25580971960953952 0 0.1422268136231539 -0.26657560323657331 0 0.15141799172426251 -0.24187414814293301 0 0.1422268136231539 -0.26657560323657331 0 0.15141799172426251 -0.24187414814293301 0 0.1422268136231539 -0.26657560323657331 0 0.15702538271053201 -0.25825383259864948 0 0.15141799172426251 -0.24187414814293301 0 0.1422268136231539 -0.26657560323657331 0 0.15791868479623319 -0.29003019232183508 0 0.13581334660580921 -0.28381191024539792 0 0.1422268136231539 -0.26657560323657331 0 0.15791868479623319 -0.29003019232183508 0 0.1422268136231539 -0.26657560323657331 0 0.16166505075279861 -0.26987223092144852 0 0.15791868479623319 -0.29003019232183508 0 0.16166505075279861 -0.26987223092144852 0 0.1811198294326693 -0.28106660537624389 0 0.15791868479623319 -0.29003019232183508 0 0.16166505075279861 -0.26987223092144852 0 0.17279167474191279 -0.2546933480936433 0 0.1811198294326693 -0.28106660537624389 0 0.16166505075279861 -0.26987223092144852 0 0.15702538271053201 -0.25825383259864948 0 0.17279167474191279 -0.2546933480936433 0 0.15702538271053201 -0.25825383259864948 0 0.17279167474191279 -0.2546933480936433 0 0.15141799172426251 -0.24187414814293301 0 0.19459367959613491 -0.25885292547783839 0 0.17279167474191279 -0.2546933480936433 0 0.18657401407441901 -0.24009283179335739 0 0.19459367959613491 -0.25885292547783839 0 0.17279167474191279 -0.2546933480936433 0 0.1811198294326693 -0.28106660537624389 0 0.1791059513898568 -0.32169873116670628 0 0.1854651188505301 -0.30598336983253499 0 0.16851231809304459 -0.30586446174427101 0 0.1811198294326693 -0.28106660537624389 0 0.1854651188505301 -0.30598336983253499 0 0.16851231809304459 -0.30586446174427101 0 0.16851231809304459 -0.30586446174427101 0 0.15791868479623319 -0.29003019232183508 0 0.15453953438075099 -0.3045832032423279 0 0.16851231809304459 -0.30586446174427101 0 0.15791868479623319 -0.29003019232183508 0 0.1583171571383459 -0.3169906515528777 0 0.15453953438075099 -0.3045832032423279 0 0.16851231809304459 -0.30586446174427101 0 0.1811198294326693 -0.28106660537624389 0 0.15791868479623319 -0.29003019232183508 0 0.1811198294326693 -0.28106660537624389 0 0.16851231809304459 -0.30586446174427101 0 0.15791868479623319 -0.29003019232183508 0 0.1993535918400258 -0.47603901201108589 0 0.20802296196619699 -0.5 0 0.18254382607731279 -0.5 0 0.1993535918400258 -0.47603901201108589 0 0.2208593987769609 -0.48593220700290629 0 0.2207698985854967 -0.46860787130408388 0 0.1993535918400258 -0.47603901201108589 0 0.20802296196619699 -0.5 0 0.2208593987769609 -0.48593220700290629 0 0.23350209785508111 -0.5 0 0.2208593987769609 -0.48593220700290629 0 0.23987556616473091 -0.48430393565204211 0 0.20802296196619699 -0.5 0 0.23350209785508111 -0.5 0 0.2208593987769609 -0.48593220700290629 0 0.25898123374396531 -0.50000000000000011 0 0.23350209785508111 -0.5 0 0.23987556616473091 -0.48430393565204211 0 0.25898123374396531 -0.50000000000000011 0 0.23987556616473091 -0.48430393565204211 0 0.25399581965349771 -0.47063745275044289 0 0.23987556616473091 -0.48430393565204211 0 0.23789604644733189 -0.46813090280002823 0 0.2208593987769609 -0.48593220700290629 0 0.23987556616473091 -0.48430393565204211 0 0.2207698985854967 -0.46860787130408388 0 0.23987556616473091 -0.48430393565204211 0 0.2207698985854967 -0.46860787130408388 0 0.23789604644733189 -0.46813090280002823 0 0.23987556616473091 -0.48430393565204211 0 0.2207698985854967 -0.46860787130408388 0 0.2207698985854967 -0.46860787130408388 0 0.23343738239858761 -0.45689192126086148 0 0.23789604644733189 -0.46813090280002823 0 0.2207698985854967 -0.46860787130408388 0 0.23343738239858761 -0.45689192126086148 0 0.21653282761863279 -0.44957093355937672 0 0.25399581965349771 -0.47063745275044289 0 0.23789604644733189 -0.46813090280002823 0 0.24469860926869169 -0.45332513942878072 0 0.23343738239858761 -0.45689192126086148 0 0.23789604644733189 -0.46813090280002823 0 0.24469860926869169 -0.45332513942878072 0 0.25139634359863838 -0.44380600272787141 0 0.23986127207454269 -0.4468435809992406 0 0.2396765858071829 -0.43453367853258362 0 0.25139634359863838 -0.44380600272787141 0 0.2396765858071829 -0.43453367853258362 0 0.25139634359863838 -0.44380600272787141 0 0.24469860926869169 -0.45332513942878072 0 0.23986127207454269 -0.4468435809992406 0 0.25139634359863838 -0.44380600272787141 0 0.24469860926869169 -0.45332513942878072 0 0.23343738239858761 -0.45689192126086148 0 0.24469860926869169 -0.45332513942878072 0 0.23986127207454269 -0.4468435809992406 0 0.23986127207454269 -0.4468435809992406 0 0.22934230733465771 -0.44508939606877401 0 0.2396765858071829 -0.43453367853258362 0 0.23343738239858761 -0.45689192126086148 0 0.22934230733465771 -0.44508939606877401 0 0.21653282761863279 -0.44957093355937672 0 0.22934230733465771 -0.44508939606877401 0 0.2168218056715083 -0.43500775671291209 0 0.2396765858071829 -0.43453367853258362 0 0.23343738239858761 -0.45689192126086148 0 0.23986127207454269 -0.4468435809992406 0 0.22934230733465771 -0.44508939606877401 0 0.22934230733465771 -0.44508939606877401 0 0.21653282761863279 -0.44957093355937672 0 0.2168218056715083 -0.43500775671291209 0 0.21653282761863279 -0.44957093355937672 0 0.19716134071528441 -0.43891684905350281 0 0.2168218056715083 -0.43500775671291209 0 0.21653282761863279 -0.44957093355937672 0 0.20166423100626241 -0.45291180695612571 0 0.19716134071528441 -0.43891684905350281 0 0.2207698985854967 -0.46860787130408388 0 0.21653282761863279 -0.44957093355937672 0 0.20166423100626241 -0.45291180695612571 0 0.2207698985854967 -0.46860787130408388 0 0.20166423100626241 -0.45291180695612571 0 0.1993535918400258 -0.47603901201108589 0 0.2207698985854967 -0.46860787130408388 0 0.20166423100626241 -0.45291180695612571 0 0.1993535918400258 -0.47603901201108589 0 0.20166423100626241 -0.45291180695612571 0 0.1842960730136266 -0.45457679555835417 0 0.20166423100626241 -0.45291180695612571 0 0.18255856342702809 -0.43721574260816748 0 0.1842960730136266 -0.45457679555835417 0 0.20166423100626241 -0.45291180695612571 0 0.19716134071528441 -0.43891684905350281 0 0.18255856342702809 -0.43721574260816748 0 0.20166423100626241 -0.45291180695612571 0 0.18255856342702809 -0.43721574260816748 0 0.197102207191061 -0.42421544194754551 0 0.18027755151942709 -0.4228675601038781 0 0.19716134071528441 -0.43891684905350281 0 0.197102207191061 -0.42421544194754551 0 0.18255856342702809 -0.43721574260816748 0 0.197102207191061 -0.42421544194754551 0 0.189637915287097 -0.41170783905252578 0 0.18027755151942709 -0.4228675601038781 0 0.189637915287097 -0.41170783905252578 0 0.20244833522176961 -0.41262080014042729 0 0.19701181365455539 -0.40310774061296217 0 0.197102207191061 -0.42421544194754551 0 0.189637915287097 -0.41170783905252578 0 0.20244833522176961 -0.41262080014042729 0 0.21209182745194319 -0.42039594981267031 0 0.22739953253300729 -0.41958645595211069 0 0.21639791252419149 -0.40367702927643301 0 0.197102207191061 -0.42421544194754551 0 0.20244833522176961 -0.41262080014042729 0 0.21209182745194319 -0.42039594981267031 0 0.20244833522176961 -0.41262080014042729 0 0.21639791252419149 -0.40367702927643301 0 0.19701181365455539 -0.40310774061296217 0 0.20244833522176961 -0.41262080014042729 0 0.21209182745194319 -0.42039594981267031 0 0.21639791252419149 -0.40367702927643301 0 0.197102207191061 -0.42421544194754551 0 0.21209182745194319 -0.42039594981267031 0 0.2168218056715083 -0.43500775671291209 0 0.19716134071528441 -0.43891684905350281 0 0.197102207191061 -0.42421544194754551 0 0.2168218056715083 -0.43500775671291209 0 0.2168218056715083 -0.43500775671291209 0 0.2396765858071829 -0.43453367853258362 0 0.22739953253300729 -0.41958645595211069 0 0.21209182745194319 -0.42039594981267031 0 0.2168218056715083 -0.43500775671291209 0 0.22739953253300729 -0.41958645595211069 0 0.25073675000485562 -0.42557707815232632 0 0.25139634359863838 -0.44380600272787141 0 0.2396765858071829 -0.43453367853258362 0 0.25073675000485562 -0.42557707815232632 0 0.2396765858071829 -0.43453367853258362 0 0.24496802185639921 -0.41243428252497238 0 0.2396765858071829 -0.43453367853258362 0 0.24496802185639921 -0.41243428252497238 0 0.22739953253300729 -0.41958645595211069 0 0.24496802185639921 -0.41243428252497238 0 0.22739953253300729 -0.41958645595211069 0 0.23391962099917321 -0.39645356134938781 0 0.22739953253300729 -0.41958645595211069 0 0.23391962099917321 -0.39645356134938781 0 0.21639791252419149 -0.40367702927643301 0 0.23391962099917321 -0.39645356134938781 0 0.2111465515132244 -0.38255540515608932 0 0.21639791252419149 -0.40367702927643301 0 0.25448461696667801 -0.39121545387343037 0 0.24496802185639921 -0.41243428252497238 0 0.23391962099917321 -0.39645356134938781 0 0.25448461696667801 -0.39121545387343037 0 0.23049994312467739 -0.37710225761216198 0 0.25448461696667801 -0.39121545387343037 0 0.25663270738433253 -0.36618650610587289 0 0.23049994312467739 -0.37710225761216198 0 0.25448461696667801 -0.39121545387343037 0 0.23391962099917321 -0.39645356134938781 0 0.23049994312467739 -0.37710225761216198 0 0.23391962099917321 -0.39645356134938781 0 0.23049994312467739 -0.37710225761216198 0 0.2111465515132244 -0.38255540515608932 0 0.2111465515132244 -0.38255540515608932 0 0.21639791252419149 -0.40367702927643301 0 0.19225251000114421 -0.38943332492458688 0 0.21639791252419149 -0.40367702927643301 0 0.19225251000114421 -0.38943332492458688 0 0.21639791252419149 -0.40367702927643301 0 0.19701181365455539 -0.40310774061296217 0 0.19225251000114421 -0.38943332492458688 0 0.189637915287097 -0.41170783905252578 0 0.19701181365455539 -0.40310774061296217 0 0.1844636582129017 -0.39809230206211499 0 0.19701181365455539 -0.40310774061296217 0 0.19225251000114421 -0.38943332492458688 0 0.1844636582129017 -0.39809230206211499 0 0.2111465515132244 -0.38255540515608932 0 0.19225251000114421 -0.38943332492458688 0 0.19806078140151451 -0.3760014579418629 0 0.1852514002565008 -0.37285597493380102 0 0.19225251000114421 -0.38943332492458688 0 0.19806078140151451 -0.3760014579418629 0 0.19225251000114421 -0.38943332492458688 0 0.16810710747809679 -0.37518962057274069 0 0.1717097371881354 -0.38251801957658549 0 0.19225251000114421 -0.38943332492458688 0 0.16810710747809679 -0.37518962057274069 0 0.1852514002565008 -0.37285597493380102 0 0.19225251000114421 -0.38943332492458688 0 0.16810710747809679 -0.37518962057274069 0 0.19225251000114421 -0.38943332492458688 0 0.1671660434221145 -0.38649593907522589 0 0.1717097371881354 -0.38251801957658549 0 0.1844636582129017 -0.39809230206211499 0 0.16809547659356039 -0.40491953610612602 0 0.1652915464883338 -0.38862805969570902 0 0.19225251000114421 -0.38943332492458688 0 0.1844636582129017 -0.39809230206211499 0 0.1671660434221145 -0.38649593907522589 0 0.1844636582129017 -0.39809230206211499 0 0.16809547659356039 -0.40491953610612602 0 0.17718549949215601 -0.41182138311697081 0 0.1844636582129017 -0.39809230206211499 0 0.1652915464883338 -0.38862805969570902 0 0.1844636582129017 -0.39809230206211499 0 0.1652915464883338 -0.38862805969570902 0 0.1671660434221145 -0.38649593907522589 0 0.16809547659356039 -0.40491953610612602 0 0.1652915464883338 -0.38862805969570902 0 0.14773025664839051 -0.40860290602128418 0 0.1652915464883338 -0.38862805969570902 0 0.14773025664839051 -0.40860290602128418 0 0.1652915464883338 -0.38862805969570902 0 0.1671660434221145 -0.38649593907522589 0 0.1652915464883338 -0.38862805969570902 0 0.1671660434221145 -0.38649593907522589 0 0.1649307776168841 -0.38155870309255979 0 0.1671660434221145 -0.38649593907522589 0 0.1717097371881354 -0.38251801957658549 0 0.1649307776168841 -0.38155870309255979 0 0.16810710747809679 -0.37518962057274069 0 0.1717097371881354 -0.38251801957658549 0 0.1649307776168841 -0.38155870309255979 0 0.1652915464883338 -0.38862805969570902 0 0.1649307776168841 -0.38155870309255979 0 0.1558903846113012 -0.37659031989176989 0 0.16810710747809679 -0.37518962057274069 0 0.1649307776168841 -0.38155870309255979 0 0.1558903846113012 -0.37659031989176989 0 0.1652915464883338 -0.38862805969570902 0 0.14366952177242839 -0.37795442680103092 0 0.1652915464883338 -0.38862805969570902 0 0.14366952177242839 -0.37795442680103092 0 0.13876759589852761 -0.39191072153091883 0 0.1652915464883338 -0.38862805969570902 0 0.1558903846113012 -0.37659031989176989 0 0.14366952177242839 -0.37795442680103092 0 0.14366952177242839 -0.37795442680103092 0 0.13876759589852761 -0.39191072153091883 0 0.13876759589852761 -0.39191072153091883 0 0.1157209211003153 -0.38035524822790018 0 0.13876759589852761 -0.39191072153091883 0 0.12127911239061651 -0.39357318682290388 0 0.1157209211003153 -0.38035524822790018 0 0.12614331543758381 -0.36930267957049101 0 0.13876759589852761 -0.39191072153091883 0 0.1157209211003153 -0.38035524822790018 0 0.12614331543758381 -0.36930267957049101 0 0.14366952177242839 -0.37795442680103092 0 0.13876759589852761 -0.39191072153091883 0 0.13359024924424409 -0.39698632862739652 0 0.13876759589852761 -0.39191072153091883 0 0.12127911239061651 -0.39357318682290388 0 0.12828327019429181 -0.39904323640082773 0 0.125130390185476 -0.40623122613194529 0 0.13622469376696739 -0.39915062938152263 0 0.12828327019429181 -0.39904323640082773 0 0.13359024924424409 -0.39698632862739652 0 0.13622469376696739 -0.39915062938152263 0 0.12828327019429181 -0.39904323640082773 0 0.13359024924424409 -0.39698632862739652 0 0.12127911239061651 -0.39357318682290388 0 0.13359024924424409 -0.39698632862739652 0 0.13876759589852761 -0.39191072153091883 0 0.13622469376696739 -0.39915062938152263 0 0.14005567541338429 -0.39585742441227911 0 0.13622469376696739 -0.39915062938152263 0 0.1452755072711554 -0.39986231523270888 0 0.13359024924424409 -0.39698632862739652 0 0.13622469376696739 -0.39915062938152263 0 0.13876759589852761 -0.39191072153091883 0 0.13622469376696739 -0.39915062938152263 0 0.13876759589852761 -0.39191072153091883 0 0.14005567541338429 -0.39585742441227911 0 0.13622469376696739 -0.39915062938152263 0 0.1652915464883338 -0.38862805969570902 0 0.13876759589852761 -0.39191072153091883 0 0.1452755072711554 -0.39986231523270888 0 0.13622469376696739 -0.39915062938152263 0 0.1452755072711554 -0.39986231523270888 0 0.14773025664839051 -0.40860290602128418 0 0.1652915464883338 -0.38862805969570902 0 0.1452755072711554 -0.39986231523270888 0 0.14773025664839051 -0.40860290602128418 0 0.13622469376696739 -0.39915062938152263 0 0.14773025664839051 -0.40860290602128418 0 0.13876759589852761 -0.39191072153091883 0 0.14005567541338429 -0.39585742441227911 0 0.1452755072711554 -0.39986231523270888 0 0.14773025664839051 -0.40860290602128418 0 0.1381559639964508 -0.41949305282380378 0 0.16345289584779329 -0.42151967826020997 0 0.14773025664839051 -0.40860290602128418 0 0.16345289584779329 -0.42151967826020997 0 0.1381559639964508 -0.41949305282380378 0 0.16345289584779329 -0.42151967826020997 0 0.13622469376696739 -0.39915062938152263 0 0.14773025664839051 -0.40860290602128418 0 0.1381559639964508 -0.41949305282380378 0 0.14773025664839051 -0.40860290602128418 0 0.1381559639964508 -0.41949305282380378 0 0.13622469376696739 -0.39915062938152263 0 0.12932814441001131 -0.41878582540875581 0 0.125130390185476 -0.40623122613194529 0 0.13622469376696739 -0.39915062938152263 0 0.12932814441001131 -0.41878582540875581 0 0.13622469376696739 -0.39915062938152263 0 0.1381559639964508 -0.41949305282380378 0 0.12932814441001131 -0.41878582540875581 0 0.1381559639964508 -0.41949305282380378 0 0.12932814441001131 -0.41878582540875581 0 0.1381559639964508 -0.41949305282380378 0 0.12932814441001131 -0.41878582540875581 0 0.1230413639816082 -0.43668494563581539 0 0.1381559639964508 -0.41949305282380378 0 0.1230413639816082 -0.43668494563581539 0 0.12932814441001131 -0.41878582540875581 0 0.1230413639816082 -0.43668494563581539 0 0.1381559639964508 -0.41949305282380378 0 0.13634285797017059 -0.44042417739694473 0 0.1230413639816082 -0.43668494563581539 0 0.1381559639964508 -0.41949305282380378 0 0.1518952424046642 -0.43821800885427598 0 0.13634285797017059 -0.44042417739694473 0 0.1381559639964508 -0.41949305282380378 0 0.16345289584779329 -0.42151967826020997 0 0.1518952424046642 -0.43821800885427598 0 0.16345289584779329 -0.42151967826020997 0 0.18255856342702809 -0.43721574260816748 0 0.16652045943869209 -0.44870657160822658 0 0.16345289584779329 -0.42151967826020997 0 0.18027755151942709 -0.4228675601038781 0 0.16345289584779329 -0.42151967826020997 0 0.16652045943869209 -0.44870657160822658 0 0.1518952424046642 -0.43821800885427598 0 0.16809547659356039 -0.40491953610612602 0 0.16345289584779329 -0.42151967826020997 0 0.17718549949215601 -0.41182138311697081 0 0.16809547659356039 -0.40491953610612602 0 0.14773025664839051 -0.40860290602128418 0 0.16345289584779329 -0.42151967826020997 0 0.16345289584779329 -0.42151967826020997 0 0.17718549949215601 -0.41182138311697081 0 0.18027755151942709 -0.4228675601038781 0 0.189637915287097 -0.41170783905252578 0 0.1844636582129017 -0.39809230206211499 0 0.17718549949215601 -0.41182138311697081 0 0.189637915287097 -0.41170783905252578 0 0.17718549949215601 -0.41182138311697081 0 0.18027755151942709 -0.4228675601038781 0 0.16345289584779329 -0.42151967826020997 0 0.18027755151942709 -0.4228675601038781 0 0.18255856342702809 -0.43721574260816748 0 0.197102207191061 -0.42421544194754551 0 0.18027755151942709 -0.4228675601038781 0 0.18255856342702809 -0.43721574260816748 0 0.16345289584779329 -0.42151967826020997 0 0.18255856342702809 -0.43721574260816748 0 0.18255856342702809 -0.43721574260816748 0 0.1842960730136266 -0.45457679555835417 0 0.16652045943869209 -0.44870657160822658 0 0.1993535918400258 -0.47603901201108589 0 0.1842960730136266 -0.45457679555835417 0 0.1759323147176883 -0.46988929523247203 0 0.1842960730136266 -0.45457679555835417 0 0.16652045943869209 -0.44870657160822658 0 0.1759323147176883 -0.46988929523247203 0 0.15932441283243781 -0.46505700916566772 0 0.16652045943869209 -0.44870657160822658 0 0.1759323147176883 -0.46988929523247203 0 0.15932441283243781 -0.46505700916566772 0 0.16652045943869209 -0.44870657160822658 0 0.1464993878414852 -0.45294431597798779 0 0.16652045943869209 -0.44870657160822658 0 0.1518952424046642 -0.43821800885427598 0 0.1464993878414852 -0.45294431597798779 0 0.1518952424046642 -0.43821800885427598 0 0.1464993878414852 -0.45294431597798779 0 0.13634285797017059 -0.44042417739694473 0 0.1464993878414852 -0.45294431597798779 0 0.13634285797017059 -0.44042417739694473 0 0.13209743741069291 -0.45050741027659069 0 0.13209743741069291 -0.45050741027659069 0 0.12685342076346301 -0.44527305946200202 0 0.123664187920988 -0.45090286319719031 0 0.13634285797017059 -0.44042417739694473 0 0.13209743741069291 -0.45050741027659069 0 0.12685342076346301 -0.44527305946200202 0 0.13634285797017059 -0.44042417739694473 0 0.12685342076346301 -0.44527305946200202 0 0.1230413639816082 -0.43668494563581539 0 0.13360544280398701 -0.46056352827853358 0 0.14511138645283531 -0.47055035873052492 0 0.1206835888036206 -0.4701030942545964 0 0.13360544280398701 -0.46056352827853358 0 0.1206835888036206 -0.4701030942545964 0 0.1236354135113011 -0.45871246215296851 0 0.13209743741069291 -0.45050741027659069 0 0.1236354135113011 -0.45871246215296851 0 0.123664187920988 -0.45090286319719031 0 0.13209743741069291 -0.45050741027659069 0 0.13360544280398701 -0.46056352827853358 0 0.1236354135113011 -0.45871246215296851 0 0.1464993878414852 -0.45294431597798779 0 0.13209743741069291 -0.45050741027659069 0 0.13360544280398701 -0.46056352827853358 0 0.1464993878414852 -0.45294431597798779 0 0.13360544280398701 -0.46056352827853358 0 0.14511138645283531 -0.47055035873052492 0 0.15932441283243781 -0.46505700916566772 0 0.1464993878414852 -0.45294431597798779 0 0.14511138645283531 -0.47055035873052492 0 0.15932441283243781 -0.46505700916566772 0 0.14511138645283531 -0.47055035873052492 0 0.1611404708329908 -0.48197957110671352 0 0.14511138645283531 -0.47055035873052492 0 0.1461571722899937 -0.4857732969254101 0 0.1611404708329908 -0.48197957110671352 0 0.14511138645283531 -0.47055035873052492 0 0.13118168738333719 -0.48284646124279768 0 0.1461571722899937 -0.4857732969254101 0 0.14511138645283531 -0.47055035873052492 0 0.13118168738333719 -0.48284646124279768 0 0.1206835888036206 -0.4701030942545964 0 0.14511138645283531 -0.47055035873052492 0 0.1206835888036206 -0.4701030942545964 0 0.13118168738333719 -0.48284646124279768 0 0.1206835888036206 -0.4701030942545964 0 0.13118168738333719 -0.48284646124279768 0 0.1315855542995443 -0.5 0 0.1461571722899937 -0.4857732969254101 0 0.13118168738333719 -0.48284646124279768 0 0.1315855542995443 -0.5 0 0.1185024717111845 -0.48922088942300068 0 0.1315855542995443 -0.5 0 0.1461571722899937 -0.4857732969254101 0 0.15706469018842861 -0.5 0 0.1461571722899937 -0.4857732969254101 0 0.15706469018842861 -0.5 0 0.1611404708329908 -0.48197957110671352 0 0.15706469018842861 -0.5 0 0.1611404708329908 -0.48197957110671352 0 0.18254382607731279 -0.5 0 0.15932441283243781 -0.46505700916566772 0 0.1611404708329908 -0.48197957110671352 0 0.1759323147176883 -0.46988929523247203 0 0.1993535918400258 -0.47603901201108589 0 0.1759323147176883 -0.46988929523247203 0 0.18254382607731279 -0.5 0 0.1611404708329908 -0.48197957110671352 0 0.1759323147176883 -0.46988929523247203 0 0.18254382607731279 -0.5 0 0.072533775166486208 -0.49017953088159139 0 0.082156475379599803 -0.5 0 0.058206532348539702 -0.50000000000000244 0 0.072533775166486208 -0.49017953088159139 0 0.070087242354017323 -0.48068336972469961 0 0.083451806201539427 -0.48481694324661789 0 0.072533775166486208 -0.49017953088159139 0 0.062133969487522228 -0.49015579688471711 0 0.058206532348539702 -0.50000000000000244 0 0.070087242354017323 -0.48068336972469961 0 0.056778664148039712 -0.48440908744205741 0 0.062133969487522228 -0.49015579688471711 0 0.072533775166486208 -0.49017953088159139 0 0.070087242354017323 -0.48068336972469961 0 0.062133969487522228 -0.49015579688471711 0 0.083953380486034443 -0.46943057691963952 0 0.057511247689566232 -0.46894643066800112 0 0.070087242354017323 -0.48068336972469961 0 0.083953380486034443 -0.46943057691963952 0 0.057511247689566232 -0.46894643066800112 0 0.070087242354017323 -0.48068336972469961 0 0.083953380486034443 -0.46943057691963952 0 0.083451806201539427 -0.48481694324661789 0 0.083953380486034443 -0.46943057691963952 0 0.083451806201539427 -0.48481694324661789 0 0.096374296908082024 -0.479364074146233 0 0.083451806201539427 -0.48481694324661789 0 0.095605666915016776 -0.48924410780754379 0 0.096374296908082024 -0.479364074146233 0 0.083451806201539427 -0.48481694324661789 0 0.082156475379599803 -0.5 0 0.095605666915016776 -0.48924410780754379 0 0.072533775166486208 -0.49017953088159139 0 0.083451806201539427 -0.48481694324661789 0 0.082156475379599803 -0.5 0 0.082156475379599803 -0.5 0 0.095605666915016776 -0.48924410780754379 0 0.10610641841066 -0.50000000000000133 0 0.095605666915016776 -0.48924410780754379 0 0.1082509658465818 -0.48495736158563962 0 0.096374296908082024 -0.479364074146233 0 0.095605666915016776 -0.48924410780754379 0 0.1082509658465818 -0.48495736158563962 0 0.10610641841066 -0.50000000000000133 0 0.1082509658465818 -0.48495736158563962 0 0.10610641841066 -0.50000000000000133 0 0.1315855542995443 -0.5 0 0.10610641841066 -0.50000000000000133 0 0.1185024717111845 -0.48922088942300068 0 0.1082509658465818 -0.48495736158563962 0 0.1185024717111845 -0.48922088942300068 0 0.1178028454054454 -0.47940850593546241 0 0.1082509658465818 -0.48495736158563962 0 0.10610641841066 -0.50000000000000133 0 0.1185024717111845 -0.48922088942300068 0 0.13118168738333719 -0.48284646124279768 0 0.1185024717111845 -0.48922088942300068 0 0.1178028454054454 -0.47940850593546241 0 0.13118168738333719 -0.48284646124279768 0 0.1206835888036206 -0.4701030942545964 0 0.1178028454054454 -0.47940850593546241 0 0.1082509658465818 -0.48495736158563962 0 0.1178028454054454 -0.47940850593546241 0 0.1103955132825028 -0.46991472317127791 0 0.1206835888036206 -0.4701030942545964 0 0.1103955132825028 -0.46991472317127791 0 0.1206835888036206 -0.4701030942545964 0 0.1178028454054454 -0.47940850593546241 0 0.1103955132825028 -0.46991472317127791 0 0.083953380486034443 -0.46943057691963952 0 0.1103955132825028 -0.46991472317127791 0 0.096374296908082024 -0.479364074146233 0 0.083953380486034443 -0.46943057691963952 0 0.1103955132825028 -0.46991472317127791 0 0.1082509658465818 -0.48495736158563962 0 0.1103955132825028 -0.46991472317127791 0 0.096374296908082024 -0.479364074146233 0 0.1082509658465818 -0.48495736158563962 0 0.1103955132825028 -0.46991472317127791 0 0.083953380486034443 -0.46943057691963952 0 0.1103955132825028 -0.46991472317127791 0 0.1000248217872392 -0.46286479332746672 0 0.1000248217872392 -0.46286479332746672 0 0.1076115864021023 -0.45423533281110651 0 0.096470986310285778 -0.45144027092791811 0 0.1000248217872392 -0.46286479332746672 0 0.096470986310285778 -0.45144027092791811 0 0.087036814067601054 -0.45433420343180131 0 0.1000248217872392 -0.46286479332746672 0 0.1076115864021023 -0.45423533281110651 0 0.1118903719916552 -0.45942923860437368 0 0.1000248217872392 -0.46286479332746672 0 0.1076115864021023 -0.45423533281110651 0 0.1103955132825028 -0.46991472317127791 0 0.1000248217872392 -0.46286479332746672 0 0.1118903719916552 -0.45942923860437368 0 0.1206835888036206 -0.4701030942545964 0 0.1118903719916552 -0.45942923860437368 0 0.1206835888036206 -0.4701030942545964 0 0.1103955132825028 -0.46991472317127791 0 0.1118903719916552 -0.45942923860437368 0 0.1103955132825028 -0.46991472317127791 0 0.1118903719916552 -0.45942923860437368 0 0.1118903719916552 -0.45942923860437368 0 0.1180743835098429 -0.45366890095397389 0 0.1136022782695799 -0.44742130317391171 0 0.1076115864021023 -0.45423533281110651 0 0.1118903719916552 -0.45942923860437368 0 0.1136022782695799 -0.44742130317391171 0 0.1118903719916552 -0.45942923860437368 0 0.1136022782695799 -0.44742130317391171 0 0.1076115864021023 -0.45423533281110651 0 0.1118903719916552 -0.45942923860437368 0 0.1118903719916552 -0.45942923860437368 0 0.1180743835098429 -0.45366890095397389 0 0.1236354135113011 -0.45871246215296851 0 0.1180743835098429 -0.45366890095397389 0 0.1236354135113011 -0.45871246215296851 0 0.123664187920988 -0.45090286319719031 0 0.1206835888036206 -0.4701030942545964 0 0.1118903719916552 -0.45942923860437368 0 0.1236354135113011 -0.45871246215296851 0 0.1136022782695799 -0.44742130317391171 0 0.1230413639816082 -0.43668494563581539 0 0.11912125653385421 -0.4478459008034682 0 0.1230413639816082 -0.43668494563581539 0 0.12685342076346301 -0.44527305946200202 0 0.11912125653385421 -0.4478459008034682 0 0.1230413639816082 -0.43668494563581539 0 0.11912125653385421 -0.4478459008034682 0 0.1136022782695799 -0.44742130317391171 0 0.1230413639816082 -0.43668494563581539 0 0.12685342076346301 -0.44527305946200202 0 0.123664187920988 -0.45090286319719031 0 0.11912125653385421 -0.4478459008034682 0 0.1180743835098429 -0.45366890095397389 0 0.123664187920988 -0.45090286319719031 0 0.11912125653385421 -0.4478459008034682 0 0.1180743835098429 -0.45366890095397389 0 0.11912125653385421 -0.4478459008034682 0 0.1136022782695799 -0.44742130317391171 0 0.1076115864021023 -0.45423533281110651 0 0.1136022782695799 -0.44742130317391171 0 0.1076115864021023 -0.45423533281110651 0 0.096470986310285778 -0.45144027092791811 0 0.091210722984200313 -0.43432675414129829 0 0.1076115864021023 -0.45423533281110651 0 0.091210722984200313 -0.43432675414129829 0 0.1076115864021023 -0.45423533281110651 0 0.091210722984200313 -0.43432675414129829 0 0.1053107531192774 -0.43399756375962723 0 0.1076115864021023 -0.45423533281110651 0 0.1136022782695799 -0.44742130317391171 0 0.1053107531192774 -0.43399756375962723 0 0.096470986310285778 -0.45144027092791811 0 0.087036814067601054 -0.45433420343180131 0 0.091210722984200313 -0.43432675414129829 0 0.087036814067601054 -0.45433420343180131 0 0.07502122646380685 -0.44658390852658458 0 0.091210722984200313 -0.43432675414129829 0 0.07502122646380685 -0.44658390852658458 0 0.068768022043018379 -0.43702468635584302 0 0.091210722984200313 -0.43432675414129829 0 0.083953380486034443 -0.46943057691963952 0 0.1000248217872392 -0.46286479332746672 0 0.087036814067601054 -0.45433420343180131 0 0.083953380486034443 -0.46943057691963952 0 0.087036814067601054 -0.45433420343180131 0 0.074136419714120466 -0.45947481661499689 0 0.087036814067601054 -0.45433420343180131 0 0.074136419714120466 -0.45947481661499689 0 0.07502122646380685 -0.44658390852658458 0 0.083953380486034443 -0.46943057691963952 0 0.074136419714120466 -0.45947481661499689 0 0.057511247689566232 -0.46894643066800112 0 0.074136419714120466 -0.45947481661499689 0 0.06479534053000284 -0.45974793432000688 0 0.057511247689566232 -0.46894643066800112 0 0.074136419714120466 -0.45947481661499689 0 0.06479534053000284 -0.45974793432000688 0 0.067330913755229718 -0.45225480803382279 0 0.06479534053000284 -0.45974793432000688 0 0.067330913755229718 -0.45225480803382279 0 0.060202780961094937 -0.45831568196320682 0 0.067330913755229718 -0.45225480803382279 0 0.060497294088998732 -0.45272763285661771 0 0.060202780961094937 -0.45831568196320682 0 0.067330913755229718 -0.45225480803382279 0 0.07502122646380685 -0.44658390852658458 0 0.060176437074896713 -0.44322433466295719 0 0.067330913755229718 -0.45225480803382279 0 0.060176437074896713 -0.44322433466295719 0 0.060497294088998732 -0.45272763285661771 0 0.07502122646380685 -0.44658390852658458 0 0.068768022043018379 -0.43702468635584302 0 0.060176437074896713 -0.44322433466295719 0 0.074136419714120466 -0.45947481661499689 0 0.067330913755229718 -0.45225480803382279 0 0.07502122646380685 -0.44658390852658458 0 0.068768022043018379 -0.43702468635584302 0 0.070174666125718821 -0.42652362337055549 0 0.051713494190332131 -0.4291024268734997 0 0.068768022043018379 -0.43702468635584302 0 0.070174666125718821 -0.42652362337055549 0 0.091210722984200313 -0.43432675414129829 0 0.074809859566298292 -0.41441817547149012 0 0.064757211187772626 -0.40221552881903788 0 0.05571302704587433 -0.40482467093747337 0 0.070174666125718821 -0.42652362337055549 0 0.074809859566298292 -0.41441817547149012 0 0.061721507222729177 -0.42062246471686909 0 0.074809859566298292 -0.41441817547149012 0 0.064757211187772626 -0.40221552881903788 0 0.074809859566298292 -0.41441817547149012 0 0.079110447144144058 -0.40278909948349201 0 0.064757211187772626 -0.40221552881903788 0 0.074809859566298292 -0.41441817547149012 0 0.096313012502267883 -0.41614086804777012 0 0.079110447144144058 -0.40278909948349201 0 0.074809859566298292 -0.41441817547149012 0 0.091210722984200313 -0.43432675414129829 0 0.096313012502267883 -0.41614086804777012 0 0.074809859566298292 -0.41441817547149012 0 0.096313012502267883 -0.41614086804777012 0 0.074809859566298292 -0.41441817547149012 0 0.091210722984200313 -0.43432675414129829 0 0.070174666125718821 -0.42652362337055549 0 0.074809859566298292 -0.41441817547149012 0 0.091210722984200313 -0.43432675414129829 0 0.1053107531192774 -0.43399756375962723 0 0.1178161654382375 -0.41786356062405022 0 0.096313012502267883 -0.41614086804777012 0 0.091210722984200313 -0.43432675414129829 0 0.1053107531192774 -0.43399756375962723 0 0.096313012502267883 -0.41614086804777012 0 0.1136022782695799 -0.44742130317391171 0 0.1230413639816082 -0.43668494563581539 0 0.1178161654382375 -0.41786356062405022 0 0.12932814441001131 -0.41878582540875581 0 0.1230413639816082 -0.43668494563581539 0 0.1178161654382375 -0.41786356062405022 0 0.1136022782695799 -0.44742130317391171 0 0.1053107531192774 -0.43399756375962723 0 0.1178161654382375 -0.41786356062405022 0 0.1136022782695799 -0.44742130317391171 0 0.1178161654382375 -0.41786356062405022 0 0.12932814441001131 -0.41878582540875581 0 0.1178161654382375 -0.41786356062405022 0 0.125130390185476 -0.40623122613194529 0 0.12932814441001131 -0.41878582540875581 0 0.1178161654382375 -0.41786356062405022 0 0.1178161654382375 -0.41786356062405022 0 0.096313012502267883 -0.41614086804777012 0 0.1178161654382375 -0.41786356062405022 0 0.096313012502267883 -0.41614086804777012 0 0.1061174895388878 -0.40245443748958981 0 0.096313012502267883 -0.41614086804777012 0 0.1061174895388878 -0.40245443748958981 0 0.088736874075010158 -0.39223928156537502 0 0.1061174895388878 -0.40245443748958981 0 0.1031104004961783 -0.38874724555508572 0 0.088736874075010158 -0.39223928156537502 0 0.1178161654382375 -0.41786356062405022 0 0.12127911239061651 -0.39357318682290388 0 0.1061174895388878 -0.40245443748958981 0 0.12127911239061651 -0.39357318682290388 0 0.1031104004961783 -0.38874724555508572 0 0.125130390185476 -0.40623122613194529 0 0.1178161654382375 -0.41786356062405022 0 0.12127911239061651 -0.39357318682290388 0 0.1178161654382375 -0.41786356062405022 0 0.1061174895388878 -0.40245443748958981 0 0.12127911239061651 -0.39357318682290388 0 0.12828327019429181 -0.39904323640082773 0 0.125130390185476 -0.40623122613194529 0 0.12127911239061651 -0.39357318682290388 0 0.12127911239061651 -0.39357318682290388 0 0.1157209211003153 -0.38035524822790018 0 0.1031104004961783 -0.38874724555508572 0 0.1031104004961783 -0.38874724555508572 0 0.088736874075010158 -0.39223928156537502 0 0.09267424630210333 -0.36879977492488081 0 0.1157209211003153 -0.38035524822790018 0 0.1031104004961783 -0.38874724555508572 0 0.09267424630210333 -0.36879977492488081 0 0.088736874075010158 -0.39223928156537502 0 0.076828007485388899 -0.37616871870402557 0 0.09267424630210333 -0.36879977492488081 0 0.088736874075010158 -0.39223928156537502 0 0.076828007485388899 -0.37616871870402557 0 0.070935278389371609 -0.38893164351378651 0 0.096313012502267883 -0.41614086804777012 0 0.088736874075010158 -0.39223928156537502 0 0.079110447144144058 -0.40278909948349201 0 0.088736874075010158 -0.39223928156537502 0 0.079110447144144058 -0.40278909948349201 0 0.070935278389371609 -0.38893164351378651 0 0.079110447144144058 -0.40278909948349201 0 0.064757211187772626 -0.40221552881903788 0 0.070935278389371609 -0.38893164351378651 0 0.064757211187772626 -0.40221552881903788 0 0.070935278389371609 -0.38893164351378651 0 0.054704562809245169 -0.39001288216658719 0 0.070935278389371609 -0.38893164351378651 0 0.054704562809245169 -0.39001288216658719 0 0.06216606715656784 -0.37362859189422409 0 0.076828007485388899 -0.37616871870402557 0 0.070935278389371609 -0.38893164351378651 0 0.06216606715656784 -0.37362859189422409 0 0.0473116695134186 -0.38103884256713028 0 0.054704562809245169 -0.39001288216658719 0 0.06216606715656784 -0.37362859189422409 0 0.0473116695134186 -0.38103884256713028 0 0.048749839260993452 -0.39674223785953061 0 0.054704562809245169 -0.39001288216658719 0 0.06216606715656784 -0.37362859189422409 0 0.0473116695134186 -0.38103884256713028 0 0.054704562809245169 -0.39001288216658719 0 0.048749839260993452 -0.39674223785953061 0 0.0473116695134186 -0.38103884256713028 0 0.054704562809245169 -0.39001288216658719 0 0.048749839260993452 -0.39674223785953061 0 0.050188009008567243 -0.41244563315193089 0 0.05571302704587433 -0.40482467093747337 0 0.048749839260993452 -0.39674223785953061 0 0.050188009008567243 -0.41244563315193089 0 0.064757211187772626 -0.40221552881903788 0 0.054704562809245169 -0.39001288216658719 0 0.051873004897280438 -0.39623053809668868 0 0.064757211187772626 -0.40221552881903788 0 0.054704562809245169 -0.39001288216658719 0 0.064757211187772626 -0.40221552881903788 0 0.05571302704587433 -0.40482467093747337 0 0.051873004897280438 -0.39623053809668868 0 0.05571302704587433 -0.40482467093747337 0 0.051873004897280438 -0.39623053809668868 0 0.048749839260993452 -0.39674223785953061 0 0.054704562809245169 -0.39001288216658719 0 0.051873004897280438 -0.39623053809668868 0 0.054704562809245169 -0.39001288216658719 0 0.051873004897280438 -0.39623053809668868 0 0.048749839260993452 -0.39674223785953061 0 0.048749839260993452 -0.39674223785953061 0 0.041155325268192322 -0.40385196962213282 0 0.050188009008567243 -0.41244563315193089 0 0.0473116695134186 -0.38103884256713028 0 0.048749839260993452 -0.39674223785953061 0 0.037278870043799407 -0.39551952057401968 0 0.048749839260993452 -0.39674223785953061 0 0.041155325268192322 -0.40385196962213282 0 0.037278870043799407 -0.39551952057401968 0 0.041155325268192322 -0.40385196962213282 0 0.037278870043799407 -0.39551952057401968 0 0.028404582759408679 -0.41070048690305011 0 0.037278870043799407 -0.39551952057401968 0 0.03589401572514532 -0.37980061049829872 0 0.022787841576168099 -0.37509621500615842 0 0.0473116695134186 -0.38103884256713028 0 0.037278870043799407 -0.39551952057401968 0 0.03589401572514532 -0.37980061049829872 0 0.0473116695134186 -0.38103884256713028 0 0.03589401572514532 -0.37980061049829872 0 0.036197681767195559 -0.36754786384588622 0 0.022787841576168099 -0.37509621500615842 0 0.0074722142940108396 -0.37805269558291138 0 0.020835441276539361 -0.3978999313015697 0 0.037278870043799407 -0.39551952057401968 0 0.022787841576168099 -0.37509621500615842 0 0.037278870043799407 -0.39551952057401968 0 0.022787841576168099 -0.37509621500615842 0 0.020835441276539361 -0.3978999313015697 0 0.0074722142940108396 -0.37805269558291138 0 0.0079172350038417393 -0.39449841479751269 0 0.020835441276539361 -0.3978999313015697 0 0.0074722142940108396 -0.37805269558291138 0 0.020835441276539361 -0.3978999313015697 0 -0.003259872065433636 -0.39308569165140339 0 0.0074722142940108396 -0.37805269558291138 0 0.0079172350038417393 -0.39449841479751269 0 -0.003259872065433636 -0.39308569165140339 0 0.0079172350038417393 -0.39449841479751269 0 0.0066211565102503971 -0.40895534065416661 0 0.0079172350038417393 -0.39449841479751269 0 0.020835441276539361 -0.3978999313015697 0 0.0066211565102503971 -0.40895534065416661 0 0.037278870043799407 -0.39551952057401968 0 0.020835441276539361 -0.3978999313015697 0 0.028404582759408679 -0.41070048690305011 0 0.020835441276539361 -0.3978999313015697 0 0.028404582759408679 -0.41070048690305011 0 0.0066211565102503971 -0.40895534065416661 0 0.028404582759408679 -0.41070048690305011 0 0.013342025263345551 -0.41606880419866099 0 0.0066211565102503971 -0.40895534065416661 0 0.028404582759408679 -0.41070048690305011 0 0.0066211565102503971 -0.40895534065416661 0 0.028404582759408679 -0.41070048690305011 0 0.021938360862234659 -0.41690999447748772 0 0.031258308282738442 -0.42165993288725467 0 0.028404582759408679 -0.41070048690305011 0 0.021938360862234659 -0.41690999447748772 0 0.013342025263345551 -0.41606880419866099 0 0.021938360862234659 -0.41690999447748772 0 0.013342025263345551 -0.41606880419866099 0 0.01259307316826018 -0.42432886300992578 0 -0.002285203373328108 -0.42102840908881828 0 0.013342025263345551 -0.41606880419866099 0 0.01259307316826018 -0.42432886300992578 0 -0.002285203373328108 -0.42102840908881828 0 0.013342025263345551 -0.41606880419866099 0 0.0066211565102503971 -0.40895534065416661 0 -0.0090122328767619497 -0.43758507999149487 0 0.010591862992251601 -0.43484662377235328 0 -0.002285203373328108 -0.42102840908881828 0 0.010591862992251601 -0.43484662377235328 0 -0.002285203373328108 -0.42102840908881828 0 0.01259307316826018 -0.42432886300992578 0 0.010591862992251601 -0.43484662377235328 0 0.01259307316826018 -0.42432886300992578 0 0.010591862992251601 -0.43484662377235328 0 0.01965924190184597 -0.43358002008238028 0 0.010591862992251601 -0.43484662377235328 0 0.01965924190184597 -0.43358002008238028 0 0.01965924190184597 -0.43358002008238028 0 0.035686368046089129 -0.43134122347794068 0 0.02868383050804706 -0.43969836447532312 0 0.021938360862234659 -0.41690999447748772 0 0.01965924190184597 -0.43358002008238028 0 0.021938360862234659 -0.41690999447748772 0 0.01965924190184597 -0.43358002008238028 0 0.031258308282738442 -0.42165993288725467 0 0.01965924190184597 -0.43358002008238028 0 0.035686368046089129 -0.43134122347794068 0 0.031258308282738442 -0.42165993288725467 0 0.010591862992251601 -0.43484662377235328 0 0.01965924190184597 -0.43358002008238028 0 0.0183481340880161 -0.44316977875985059 0 0.021938360862234659 -0.41690999447748772 0 0.01259307316826018 -0.42432886300992578 0 0.01965924190184597 -0.43358002008238028 0 0.01965924190184597 -0.43358002008238028 0 0.035686368046089129 -0.43134122347794068 0 0.035686368046089129 -0.43134122347794068 0 0.051713494190332131 -0.4291024268734997 0 0.042081116812643787 -0.44391003137194829 0 0.035686368046089129 -0.43134122347794068 0 0.051713494190332131 -0.4291024268734997 0 0.035686368046089129 -0.43134122347794068 0 0.040572882977219359 -0.42116921805001228 0 0.051713494190332131 -0.4291024268734997 0 0.035686368046089129 -0.43134122347794068 0 0.031258308282738442 -0.42165993288725467 0 0.040572882977219359 -0.42116921805001228 0 0.028404582759408679 -0.41070048690305011 0 0.050188009008567243 -0.41244563315193089 0 0.041155325268192322 -0.40385196962213282 0 0.028404582759408679 -0.41070048690305011 0 0.050188009008567243 -0.41244563315193089 0 0.028404582759408679 -0.41070048690305011 0 0.031258308282738442 -0.42165993288725467 0 0.040572882977219359 -0.42116921805001228 0 0.028404582759408679 -0.41070048690305011 0 0.040572882977219359 -0.42116921805001228 0 0.050188009008567243 -0.41244563315193089 0 0.050188009008567243 -0.41244563315193089 0 0.051713494190332131 -0.4291024268734997 0 0.074809859566298292 -0.41441817547149012 0 0.05571302704587433 -0.40482467093747337 0 0.050188009008567243 -0.41244563315193089 0 0.074809859566298292 -0.41441817547149012 0 0.050188009008567243 -0.41244563315193089 0 0.050188009008567243 -0.41244563315193089 0 0.061721507222729177 -0.42062246471686909 0 0.051713494190332131 -0.4291024268734997 0 0.040572882977219359 -0.42116921805001228 0 0.050188009008567243 -0.41244563315193089 0 0.051713494190332131 -0.4291024268734997 0 0.074809859566298292 -0.41441817547149012 0 0.050188009008567243 -0.41244563315193089 0 0.061721507222729177 -0.42062246471686909 0 0.070174666125718821 -0.42652362337055549 0 0.051713494190332131 -0.4291024268734997 0 0.070174666125718821 -0.42652362337055549 0 0.061721507222729177 -0.42062246471686909 0 0.051713494190332131 -0.4291024268734997 0 0.068768022043018379 -0.43702468635584302 0 0.051713494190332131 -0.4291024268734997 0 0.060176437074896713 -0.44322433466295719 0 0.051713494190332131 -0.4291024268734997 0 0.054279044564771173 -0.45711570676648428 0 0.051713494190332131 -0.4291024268734997 0 0.054279044564771173 -0.45711570676648428 0 0.042081116812643787 -0.44391003137194829 0 0.051713494190332131 -0.4291024268734997 0 0.060176437074896713 -0.44322433466295719 0 0.054279044564771173 -0.45711570676648428 0 0.060176437074896713 -0.44322433466295719 0 0.060497294088998732 -0.45272763285661771 0 0.054279044564771173 -0.45711570676648428 0 0.060202780961094937 -0.45831568196320682 0 0.054279044564771173 -0.45711570676648428 0 0.060497294088998732 -0.45272763285661771 0 0.060202780961094937 -0.45831568196320682 0 0.054279044564771173 -0.45711570676648428 0 0.060202780961094937 -0.45831568196320682 0 0.054279044564771173 -0.45711570676648428 0 0.057511247689566232 -0.46894643066800112 0 0.06479534053000284 -0.45974793432000688 0 0.060202780961094937 -0.45831568196320682 0 0.057511247689566232 -0.46894643066800112 0 0.054279044564771173 -0.45711570676648428 0 0.026007241833358171 -0.45138866900276731 0 0.04139295299070004 -0.46789887822241127 0 0.026007241833358171 -0.45138866900276731 0 0.027484216239126641 -0.4652059863147926 0 0.04139295299070004 -0.46789887822241127 0 0.026007241833358171 -0.45138866900276731 0 0.054279044564771173 -0.45711570676648428 0 0.04139295299070004 -0.46789887822241127 0 0.026007241833358171 -0.45138866900276731 0 0.054279044564771173 -0.45711570676648428 0 0.042081116812643787 -0.44391003137194829 0 0.026007241833358171 -0.45138866900276731 0 0.042081116812643787 -0.44391003137194829 0 0.02868383050804706 -0.43969836447532312 0 0.026007241833358171 -0.45138866900276731 0 0.035686368046089129 -0.43134122347794068 0 0.042081116812643787 -0.44391003137194829 0 0.02868383050804706 -0.43969836447532312 0 0.02868383050804706 -0.43969836447532312 0 0.026007241833358171 -0.45138866900276731 0 0.0183481340880161 -0.44316977875985059 0 0.026007241833358171 -0.45138866900276731 0 0.01746113838765409 -0.44965747917977911 0 0.026007241833358171 -0.45138866900276731 0 0.0183481340880161 -0.44316977875985059 0 0.026007241833358171 -0.45138866900276731 0 0.01746113838765409 -0.44965747917977911 0 0.0183481340880161 -0.44316977875985059 0 0.01746113838765409 -0.44965747917977911 0 0.0183481340880161 -0.44316977875985059 0 0.01965924190184597 -0.43358002008238028 0 0.0183481340880161 -0.44316977875985059 0 0.01965924190184597 -0.43358002008238028 0 0.02868383050804706 -0.43969836447532312 0 0.0183481340880161 -0.44316977875985059 0 -0.005577595179060809 -0.44499050769520798 0 0.010591862992251601 -0.43484662377235328 0 0.01746113838765409 -0.44965747917977911 0 -0.005577595179060809 -0.44499050769520798 0 0.01746113838765409 -0.44965747917977911 0 0.0028291302825320728 -0.45876387370612298 0 -0.005577595179060809 -0.44499050769520798 0 0.01746113838765409 -0.44965747917977911 0 0.010591862992251601 -0.43484662377235328 0 0.01746113838765409 -0.44965747917977911 0 0.0183481340880161 -0.44316977875985059 0 0.010591862992251601 -0.43484662377235328 0 0.0183481340880161 -0.44316977875985059 0 0.01746113838765409 -0.44965747917977911 0 0.0028291302825320728 -0.45876387370612298 0 0.01401973414405658 -0.47482873958988919 0 -0.0035289706845435449 -0.47124467642878848 0 0.0028291302825320728 -0.45876387370612298 0 0.01401973414405658 -0.47482873958988919 0 0.01746113838765409 -0.44965747917977911 0 0.01401973414405658 -0.47482873958988919 0 0.01746113838765409 -0.44965747917977911 0 0.027484216239126641 -0.4652059863147926 0 0.01401973414405658 -0.47482873958988919 0 0.026007241833358171 -0.45138866900276731 0 0.01746113838765409 -0.44965747917977911 0 0.027484216239126641 -0.4652059863147926 0 0.027484216239126641 -0.4652059863147926 0 0.01401973414405658 -0.47482873958988919 0 0.038540013839862712 -0.4822561655791176 0 -0.0035289706845435449 -0.47124467642878848 0 0.01401973414405658 -0.47482873958988919 0 0.001175748076098193 -0.48555418352193808 0 0.01401973414405658 -0.47482873958988919 0 0.001175748076098193 -0.48555418352193808 0 0.01057832990045816 -0.4999999999999995 0 0.01401973414405658 -0.47482873958988919 0 0.01057832990045816 -0.4999999999999995 0 -0.0021207346619387391 -0.49999999999999961 0 0.001175748076098193 -0.48555418352193808 0 0.01057832990045816 -0.4999999999999995 0 0.01401973414405658 -0.47482873958988919 0 0.034392431124498968 -0.5 0 0.038540013839862712 -0.4822561655791176 0 0.01401973414405658 -0.47482873958988919 0 0.01057832990045816 -0.4999999999999995 0 0.034392431124498968 -0.5 0 0.034392431124498968 -0.5 0 0.038540013839862712 -0.4822561655791176 0 0.058206532348539702 -0.50000000000000244 0 0.04139295299070004 -0.46789887822241127 0 0.027484216239126641 -0.4652059863147926 0 0.038540013839862712 -0.4822561655791176 0 0.04139295299070004 -0.46789887822241127 0 0.038540013839862712 -0.4822561655791176 0 0.056778664148039712 -0.48440908744205741 0 0.054279044564771173 -0.45711570676648428 0 0.057511247689566232 -0.46894643066800112 0 0.056778664148039712 -0.48440908744205741 0 0.054279044564771173 -0.45711570676648428 0 0.04139295299070004 -0.46789887822241127 0 0.056778664148039712 -0.48440908744205741 0 0.054279044564771173 -0.45711570676648428 0 0.056778664148039712 -0.48440908744205741 0 0.04139295299070004 -0.46789887822241127 0 0.056778664148039712 -0.48440908744205741 0 0.070087242354017323 -0.48068336972469961 0 0.057511247689566232 -0.46894643066800112 0 0.056778664148039712 -0.48440908744205741 0 0.038540013839862712 -0.4822561655791176 0 0.056778664148039712 -0.48440908744205741 0 0.058206532348539702 -0.50000000000000244 0 0.056778664148039712 -0.48440908744205741 0 0.062133969487522228 -0.49015579688471711 0 0.058206532348539702 -0.50000000000000244 0 0.056778664148039712 -0.48440908744205741 0 0.062133969487522228 -0.49015579688471711 0 0.056778664148039712 -0.48440908744205741 0 0.058206532348539702 -0.50000000000000244 0 0.092846321440614971 -0.29273393359868799 0 0.092357168972804007 -0.27027890884325251 0 0.091505452835862477 -0.2825207245446178 0 0.092846321440614971 -0.29273393359868799 0 0.092357168972804007 -0.27027890884325251 0 0.082758343948641788 -0.2892011837020142 0 0.084070733579261703 -0.29826775051847992 0 0.075656461515145601 -0.30231499996449279 0 0.082758343948641788 -0.2892011837020142 0 0.07081601980559836 -0.2855683457230479 0 0.08083520083936728 -0.27530034832676431 0 0.082758343948641788 -0.2892011837020142 0 0.091505452835862477 -0.2825207245446178 0 0.08083520083936728 -0.27530034832676431 0 0.082758343948641788 -0.2892011837020142 0 0.091505452835862477 -0.2825207245446178 0 0.092846321440614971 -0.29273393359868799 0 0.082758343948641788 -0.2892011837020142 0 0.092846321440614971 -0.29273393359868799 0 0.084070733579261703 -0.29826775051847992 0 0.092846321440614971 -0.29273393359868799 0 0.092880280234862361 -0.31515728855883612 0 0.084772751429226245 -0.30726977368883629 0 0.077121225098625235 -0.31168057684658401 0 0.092880280234862361 -0.31515728855883612 0 0.092846321440614971 -0.29273393359868799 0 0.084772751429226245 -0.30726977368883629 0 0.092880280234862361 -0.31515728855883612 0 0.092846321440614971 -0.29273393359868799 0 0.084772751429226245 -0.30726977368883629 0 0.084070733579261703 -0.29826775051847992 0 0.084772751429226245 -0.30726977368883629 0 0.075656461515145601 -0.30231499996449279 0 0.077121225098625235 -0.31168057684658401 0 0.084772751429226245 -0.30726977368883629 0 0.084070733579261703 -0.29826775051847992 0 0.075656461515145601 -0.30231499996449279 0 0.075656461515145601 -0.30231499996449279 0 0.077121225098625235 -0.31168057684658401 0 0.060978257271283053 -0.31017325429112808 0 0.075656461515145601 -0.30231499996449279 0 0.065402478343309367 -0.29757510710614199 0 0.060978257271283053 -0.31017325429112808 0 0.082758343948641788 -0.2892011837020142 0 0.075656461515145601 -0.30231499996449279 0 0.07081601980559836 -0.2855683457230479 0 0.065402478343309367 -0.29757510710614199 0 0.07081601980559836 -0.2855683457230479 0 0.05415917478121049 -0.29224382844589908 0 0.075656461515145601 -0.30231499996449279 0 0.065402478343309367 -0.29757510710614199 0 0.07081601980559836 -0.2855683457230479 0 0.07081601980559836 -0.2855683457230479 0 0.071738500833000721 -0.26617685341580882 0 0.08083520083936728 -0.27530034832676431 0 0.07081601980559836 -0.2855683457230479 0 0.071738500833000721 -0.26617685341580882 0 0.060676267733221642 -0.27623882641986541 0 0.071738500833000721 -0.26617685341580882 0 0.057992510048195958 -0.25746532976577868 0 0.060676267733221642 -0.27623882641986541 0 0.071738500833000721 -0.26617685341580882 0 0.077223338902591948 -0.2527121843264914 0 0.057992510048195958 -0.25746532976577868 0 0.077223338902591948 -0.2527121843264914 0 0.057992510048195958 -0.25746532976577868 0 0.067566341853016507 -0.2408697871219001 0 0.071738500833000721 -0.26617685341580882 0 0.077223338902591948 -0.2527121843264914 0 0.082976154604450569 -0.26588757067149749 0 0.093578279611430365 -0.25272774274380522 0 0.092357168972804007 -0.27027890884325251 0 0.077223338902591948 -0.2527121843264914 0 0.093578279611430365 -0.25272774274380522 0 0.082976154604450569 -0.26588757067149749 0 0.093578279611430365 -0.25272774274380522 0 0.082976154604450569 -0.26588757067149749 0 0.092357168972804007 -0.27027890884325251 0 0.091505452835862477 -0.2825207245446178 0 0.08083520083936728 -0.27530034832676431 0 0.082976154604450569 -0.26588757067149749 0 0.091505452835862477 -0.2825207245446178 0 0.082976154604450569 -0.26588757067149749 0 0.092357168972804007 -0.27027890884325251 0 0.071738500833000721 -0.26617685341580882 0 0.08083520083936728 -0.27530034832676431 0 0.082976154604450569 -0.26588757067149749 0 0.091505452835862477 -0.2825207245446178 0 0.092357168972804007 -0.27027890884325251 0 0.092357168972804007 -0.27027890884325251 0 0.10609972953607261 -0.27026493425997822 0 0.10199045983390261 -0.28161929198119873 0 0.092357168972804007 -0.27027890884325251 0 0.10609972953607261 -0.27026493425997822 0 0.1026211418963886 -0.25966686954472118 0 0.10609972953607261 -0.27026493425997822 0 0.1127247407701476 -0.28161560459483292 0 0.10199045983390261 -0.28161929198119873 0 0.093578279611430365 -0.25272774274380522 0 0.092357168972804007 -0.27027890884325251 0 0.1026211418963886 -0.25966686954472118 0 0.093578279611430365 -0.25272774274380522 0 0.1026211418963886 -0.25966686954472118 0 0.1069214286544353 -0.24535777194678091 0 0.10609972953607261 -0.27026493425997822 0 0.1026211418963886 -0.25966686954472118 0 0.11369390903363651 -0.25967332013450212 0 0.1026211418963886 -0.25966686954472118 0 0.11369390903363651 -0.25967332013450212 0 0.1069214286544353 -0.24535777194678091 0 0.11369390903363651 -0.25967332013450212 0 0.1224052182762337 -0.24746994087236879 0 0.1069214286544353 -0.24535777194678091 0 0.11369390903363651 -0.25967332013450212 0 0.1245898803102246 -0.25859373775762762 0 0.1175882542522228 -0.27034127858094709 0 0.11369390903363651 -0.25967332013450212 0 0.1245898803102246 -0.25859373775762762 0 0.1224052182762337 -0.24746994087236879 0 0.10609972953607261 -0.27026493425997822 0 0.1175882542522228 -0.27034127858094709 0 0.1127247407701476 -0.28161560459483292 0 0.10609972953607261 -0.27026493425997822 0 0.11369390903363651 -0.25967332013450212 0 0.1175882542522228 -0.27034127858094709 0 0.1288563768323259 -0.2695457617500755 0 0.1175882542522228 -0.27034127858094709 0 0.1226880249071774 -0.2797686671778018 0 0.1288563768323259 -0.2695457617500755 0 0.1245898803102246 -0.25859373775762762 0 0.1175882542522228 -0.27034127858094709 0 0.1175882542522228 -0.27034127858094709 0 0.1226880249071774 -0.2797686671778018 0 0.1127247407701476 -0.28161560459483292 0 0.1226880249071774 -0.2797686671778018 0 0.11975871269048451 -0.2924514282965619 0 0.1127247407701476 -0.28161560459483292 0 0.11975871269048451 -0.2924514282965619 0 0.1127247407701476 -0.28161560459483292 0 0.10581307131072221 -0.29339205484975511 0 0.1127247407701476 -0.28161560459483292 0 0.10199045983390261 -0.28161929198119873 0 0.10581307131072221 -0.29339205484975511 0 0.092846321440614971 -0.29273393359868799 0 0.092357168972804007 -0.27027890884325251 0 0.10199045983390261 -0.28161929198119873 0 0.092846321440614971 -0.29273393359868799 0 0.10581307131072221 -0.29339205484975511 0 0.1006699382244659 -0.30234650747845238 0 0.092846321440614971 -0.29273393359868799 0 0.10199045983390261 -0.28161929198119873 0 0.10581307131072221 -0.29339205484975511 0 0.092846321440614971 -0.29273393359868799 0 0.1006699382244659 -0.30234650747845238 0 0.092880280234862361 -0.31515728855883612 0 0.1006699382244659 -0.30234650747845238 0 0.11114007991166421 -0.30810275290653072 0 0.092880280234862361 -0.31515728855883612 0 0.11114007991166421 -0.30810275290653072 0 0.092880280234862361 -0.31515728855883612 0 0.10581307131072221 -0.29339205484975511 0 0.1006699382244659 -0.30234650747845238 0 0.11114007991166421 -0.30810275290653072 0 0.12939987958846499 -0.30104821725422282 0 0.11114007991166421 -0.30810275290653072 0 0.12939987958846499 -0.30104821725422282 0 0.11114007991166421 -0.30810275290653072 0 0.12336036326408149 -0.31727952510539542 0 0.12939987958846499 -0.30104821725422282 0 0.11975871269048451 -0.2924514282965619 0 0.11114007991166421 -0.30810275290653072 0 0.11975871269048451 -0.2924514282965619 0 0.10581307131072221 -0.29339205484975511 0 0.11114007991166421 -0.30810275290653072 0 0.12336036326408149 -0.31727952510539542 0 0.1173208469396987 -0.33351083295656841 0 0.106328987150591 -0.32325921308637762 0 0.12336036326408149 -0.31727952510539542 0 0.1173208469396987 -0.33351083295656841 0 0.11114007991166421 -0.30810275290653072 0 0.12336036326408149 -0.31727952510539542 0 0.106328987150591 -0.32325921308637762 0 0.1267773170918127 -0.32793770643083259 0 0.12336036326408149 -0.31727952510539542 0 0.1173208469396987 -0.33351083295656841 0 0.1309625065958904 -0.33698580710867321 0 0.1173208469396987 -0.33351083295656841 0 0.11981630243200241 -0.34670221186904848 0 0.1173208469396987 -0.33351083295656841 0 0.1053968912477358 -0.33857568961036649 0 0.11981630243200241 -0.34670221186904848 0 0.1173208469396987 -0.33351083295656841 0 0.1053968912477358 -0.33857568961036649 0 0.106328987150591 -0.32325921308637762 0 0.1053968912477358 -0.33857568961036649 0 0.092927996728337861 -0.34666499943050549 0 0.092904138481599716 -0.33091114399467081 0 0.1053968912477358 -0.33857568961036649 0 0.106328987150591 -0.32325921308637762 0 0.092904138481599716 -0.33091114399467081 0 0.106328987150591 -0.32325921308637762 0 0.092880280234862361 -0.31515728855883612 0 0.092904138481599716 -0.33091114399467081 0 0.11114007991166421 -0.30810275290653072 0 0.106328987150591 -0.32325921308637762 0 0.092880280234862361 -0.31515728855883612 0 0.12614331543758381 -0.36930267957049101 0 0.12047723202667419 -0.35870304346200699 0 0.1086171091027391 -0.36065093233995121 0 0.12614331543758381 -0.36930267957049101 0 0.1086171091027391 -0.36065093233995121 0 0.12614331543758381 -0.36930267957049101 0 0.1157209211003153 -0.38035524822790018 0 0.1086171091027391 -0.36065093233995121 0 0.12047723202667419 -0.35870304346200699 0 0.11981630243200241 -0.34670221186904848 0 0.1087441069245756 -0.3492827144326211 0 0.12047723202667419 -0.35870304346200699 0 0.1087441069245756 -0.3492827144326211 0 0.1086171091027391 -0.36065093233995121 0 0.12975083983729241 -0.3605742752065062 0 0.12047723202667419 -0.35870304346200699 0 0.11981630243200241 -0.34670221186904848 0 0.1053968912477358 -0.33857568961036649 0 0.11981630243200241 -0.34670221186904848 0 0.1087441069245756 -0.3492827144326211 0 0.1053968912477358 -0.33857568961036649 0 0.1087441069245756 -0.3492827144326211 0 0.092927996728337861 -0.34666499943050549 0 0.1087441069245756 -0.3492827144326211 0 0.1086171091027391 -0.36065093233995121 0 0.092927996728337861 -0.34666499943050549 0 0.1086171091027391 -0.36065093233995121 0 0.09267424630210333 -0.36879977492488081 0 0.092927996728337861 -0.34666499943050549 0 0.1157209211003153 -0.38035524822790018 0 0.09267424630210333 -0.36879977492488081 0 0.1157209211003153 -0.38035524822790018 0 0.1086171091027391 -0.36065093233995121 0 0.09267424630210333 -0.36879977492488081 0 0.076828007485388899 -0.37616871870402557 0 0.09267424630210333 -0.36879977492488081 0 0.069627571503891539 -0.35724430162186138 0 0.09267424630210333 -0.36879977492488081 0 0.069627571503891539 -0.35724430162186138 0 0.09267424630210333 -0.36879977492488081 0 0.083123490392890007 -0.35329616463277508 0 0.069627571503891539 -0.35724430162186138 0 0.09267424630210333 -0.36879977492488081 0 0.092927996728337861 -0.34666499943050549 0 0.083123490392890007 -0.35329616463277508 0 0.092927996728337861 -0.34666499943050549 0 0.083123490392890007 -0.35329616463277508 0 0.077264147037227324 -0.3404755825538528 0 0.083123490392890007 -0.35329616463277508 0 0.069627571503891539 -0.35724430162186138 0 0.077264147037227324 -0.3404755825538528 0 0.069627571503891539 -0.35724430162186138 0 0.077264147037227324 -0.3404755825538528 0 0.069627571503891539 -0.35724430162186138 0 0.062525460494438287 -0.3441407301706077 0 0.077264147037227324 -0.3404755825538528 0 0.069627571503891539 -0.35724430162186138 0 0.06216606715656784 -0.37362859189422409 0 0.076828007485388899 -0.37616871870402557 0 0.069627571503891539 -0.35724430162186138 0 0.06216606715656784 -0.37362859189422409 0 0.077121225098625235 -0.31168057684658401 0 0.092880280234862361 -0.31515728855883612 0 0.071318375042608934 -0.32348756772962678 0 0.092880280234862361 -0.31515728855883612 0 0.084900722570563109 -0.3237068634858441 0 0.092904138481599716 -0.33091114399467081 0 0.092880280234862361 -0.31515728855883612 0 0.071318375042608934 -0.32348756772962678 0 0.092880280234862361 -0.31515728855883612 0 0.084900722570563109 -0.3237068634858441 0 0.071318375042608934 -0.32348756772962678 0 0.092880280234862361 -0.31515728855883612 0 0.092904138481599716 -0.33091114399467081 0 0.084900722570563109 -0.3237068634858441 0 0.092904138481599716 -0.33091114399467081 0 0.077264147037227324 -0.3404755825538528 0 0.092927996728337861 -0.34666499943050549 0 0.092904138481599716 -0.33091114399467081 0 0.077264147037227324 -0.3404755825538528 0 0.092927996728337861 -0.34666499943050549 0 0.092904138481599716 -0.33091114399467081 0 0.084900722570563109 -0.3237068634858441 0 0.077264147037227324 -0.3404755825538528 0 0.062525460494438287 -0.3441407301706077 0 0.077264147037227324 -0.3404755825538528 0 0.059256573233775783 -0.33447154496799392 0 0.077264147037227324 -0.3404755825538528 0 0.071318375042608934 -0.32348756772962678 0 0.059256573233775783 -0.33447154496799392 0 0.084900722570563109 -0.3237068634858441 0 0.077264147037227324 -0.3404755825538528 0 0.071318375042608934 -0.32348756772962678 0 0.077121225098625235 -0.31168057684658401 0 0.071318375042608934 -0.32348756772962678 0 0.060978257271283053 -0.31017325429112808 0 0.071318375042608934 -0.32348756772962678 0 0.055128513871181437 -0.32280213198322483 0 0.060978257271283053 -0.31017325429112808 0 0.071318375042608934 -0.32348756772962678 0 0.055128513871181437 -0.32280213198322483 0 0.059256573233775783 -0.33447154496799392 0 0.055128513871181437 -0.32280213198322483 0 0.043265156175825062 -0.31540398167146177 0 0.060978257271283053 -0.31017325429112808 0 0.055128513871181437 -0.32280213198322483 0 0.042622199075013717 -0.32983445022713309 0 0.043265156175825062 -0.31540398167146177 0 0.059256573233775783 -0.33447154496799392 0 0.042622199075013717 -0.32983445022713309 0 0.043953550202859487 -0.34437149153872088 0 0.062525460494438287 -0.3441407301706077 0 0.059256573233775783 -0.33447154496799392 0 0.043953550202859487 -0.34437149153872088 0 0.055128513871181437 -0.32280213198322483 0 0.059256573233775783 -0.33447154496799392 0 0.042622199075013717 -0.32983445022713309 0 0.042622199075013717 -0.32983445022713309 0 0.032371137570447531 -0.33856413489702819 0 0.043953550202859487 -0.34437149153872088 0 0.042622199075013717 -0.32983445022713309 0 0.043953550202859487 -0.34437149153872088 0 0.032371137570447531 -0.33856413489702819 0 0.043953550202859487 -0.34437149153872088 0 0.043265156175825062 -0.31540398167146177 0 0.026161553421197279 -0.32171523698361743 0 0.02966069833158707 -0.30678539725278592 0 0.042622199075013717 -0.32983445022713309 0 0.032371137570447531 -0.33856413489702819 0 0.043265156175825062 -0.31540398167146177 0 0.032371137570447531 -0.33856413489702819 0 0.043265156175825062 -0.31540398167146177 0 0.026161553421197279 -0.32171523698361743 0 0.032371137570447531 -0.33856413489702819 0 0.043265156175825062 -0.31540398167146177 0 0.0473116695134186 -0.38103884256713028 0 0.06216606715656784 -0.37362859189422409 0 0.045632609858139897 -0.3627051670529256 0 0.069627571503891539 -0.35724430162186138 0 0.06216606715656784 -0.37362859189422409 0 0.045632609858139897 -0.3627051670529256 0 0.069627571503891539 -0.35724430162186138 0 0.043953550202859487 -0.34437149153872088 0 0.045632609858139897 -0.3627051670529256 0 0.069627571503891539 -0.35724430162186138 0 0.062525460494438287 -0.3441407301706077 0 0.043953550202859487 -0.34437149153872088 0 0.069627571503891539 -0.35724430162186138 0 0.043953550202859487 -0.34437149153872088 0 0.032371137570447531 -0.33856413489702819 0 0.043953550202859487 -0.34437149153872088 0 0.036548924337243251 -0.35421754008756701 0 0.043953550202859487 -0.34437149153872088 0 0.045632609858139897 -0.3627051670529256 0 0.032371137570447531 -0.33856413489702819 0 0.036548924337243251 -0.35421754008756701 0 0.0250836940209733 -0.35405688512464129 0 0.043953550202859487 -0.34437149153872088 0 0.036548924337243251 -0.35421754008756701 0 0.045632609858139897 -0.3627051670529256 0 0.036548924337243251 -0.35421754008756701 0 0.036197681767195559 -0.36754786384588622 0 0.0250836940209733 -0.35405688512464129 0 0.0473116695134186 -0.38103884256713028 0 0.045632609858139897 -0.3627051670529256 0 0.036197681767195559 -0.36754786384588622 0 0.0473116695134186 -0.38103884256713028 0 0.045632609858139897 -0.3627051670529256 0 0.036548924337243251 -0.35421754008756701 0 0.045632609858139897 -0.3627051670529256 0 0.036197681767195559 -0.36754786384588622 0 0.03589401572514532 -0.37980061049829872 0 0.022787841576168099 -0.37509621500615842 0 0.036197681767195559 -0.36754786384588622 0 0.0473116695134186 -0.38103884256713028 0 0.036197681767195559 -0.36754786384588622 0 0.022787841576168099 -0.37509621500615842 0 0.021242148652574872 -0.36222382356837668 0 0.0082968131085368151 -0.35467290943829721 0 0.022787841576168099 -0.37509621500615842 0 0.036197681767195559 -0.36754786384588622 0 0.021242148652574872 -0.36222382356837668 0 0.036197681767195559 -0.36754786384588622 0 0.0250836940209733 -0.35405688512464129 0 0.036197681767195559 -0.36754786384588622 0 0.021242148652574872 -0.36222382356837668 0 0.0250836940209733 -0.35405688512464129 0 0.021242148652574872 -0.36222382356837668 0 0.0250836940209733 -0.35405688512464129 0 0.021242148652574872 -0.36222382356837668 0 0.0250836940209733 -0.35405688512464129 0 0.01688344929065827 -0.35140168020259982 0 0.032371137570447531 -0.33856413489702819 0 0.0250836940209733 -0.35405688512464129 0 0.024411485243943931 -0.34352959648175868 0 0.032371137570447531 -0.33856413489702819 0 0.0250836940209733 -0.35405688512464129 0 0.0250836940209733 -0.35405688512464129 0 0.01688344929065827 -0.35140168020259982 0 0.024411485243943931 -0.34352959648175868 0 0.01688344929065827 -0.35140168020259982 0 0.024411485243943931 -0.34352959648175868 0 0.01441460389107831 -0.34320618505482953 0 -0.0061942153590944342 -0.3342496038704359 0 0.0082968131085368151 -0.35467290943829721 0 0.0082968131085368151 -0.35467290943829721 0 0.0075969955087246722 -0.33864679812252979 0 0.0027171044227525189 -0.33950663027710132 0 0.0082968131085368151 -0.35467290943829721 0 0.01441460389107831 -0.34320618505482953 0 0.0075969955087246722 -0.33864679812252979 0 0.01688344929065827 -0.35140168020259982 0 0.0082968131085368151 -0.35467290943829721 0 0.01441460389107831 -0.34320618505482953 0 0.021242148652574872 -0.36222382356837668 0 0.01688344929065827 -0.35140168020259982 0 0.0082968131085368151 -0.35467290943829721 0 0.022787841576168099 -0.37509621500615842 0 0.0074722142940108396 -0.37805269558291138 0 0.0082968131085368151 -0.35467290943829721 0 0.022787841576168099 -0.37509621500615842 0 0.0082968131085368151 -0.35467290943829721 0 -0.005891012688517723 -0.35820545986425312 0 0.0074722142940108396 -0.37805269558291138 0 0.0082968131085368151 -0.35467290943829721 0 -0.005891012688517723 -0.35820545986425312 0 0.0074722142940108396 -0.37805269558291138 0 0.01651888345525436 -0.31691865541228847 0 0.026161553421197279 -0.32171523698361743 0 0.015075042499540611 -0.32989196997135911 0 0.01651888345525436 -0.31691865541228847 0 0.026161553421197279 -0.32171523698361743 0 0.02966069833158707 -0.30678539725278592 0 0.032371137570447531 -0.33856413489702819 0 0.026161553421197279 -0.32171523698361743 0 0.015075042499540611 -0.32989196997135911 0 0.032371137570447531 -0.33856413489702819 0 0.015075042499540611 -0.32989196997135911 0 0.032371137570447531 -0.33856413489702819 0 0.024411485243943931 -0.34352959648175868 0 0.015075042499540611 -0.32989196997135911 0 0.024411485243943931 -0.34352959648175868 0 0.015075042499540611 -0.32989196997135911 0 0.01441460389107831 -0.34320618505482953 0 -0.0061942153590944342 -0.3342496038704359 0 0.0082968131085368151 -0.35467290943829721 0 0.0027171044227525189 -0.33950663027710132 0 0.015075042499540611 -0.32989196997135911 0 0.0075969955087246722 -0.33864679812252979 0 0.001168824432842991 -0.33045720967714221 0 0.015075042499540611 -0.32989196997135911 0 0.01441460389107831 -0.34320618505482953 0 0.0075969955087246722 -0.33864679812252979 0 0.0075969955087246722 -0.33864679812252979 0 0.0027171044227525189 -0.33950663027710132 0 0.001168824432842991 -0.33045720967714221 0 -0.0022210525713660619 -0.32121980504568931 0 0.01651888345525436 -0.31691865541228847 0 0.015075042499540611 -0.32989196997135911 0 -0.0022210525713660619 -0.32121980504568931 0 0.015075042499540611 -0.32989196997135911 0 -0.0022210525713660619 -0.32121980504568931 0 -0.0052544135516779328 -0.31969889488692221 0 0.0139181755953133 -0.30498086780799027 0 -0.0022210525713660619 -0.32121980504568931 0 0.01651888345525436 -0.31691865541228847 0 0.0139181755953133 -0.30498086780799027 0 -0.0022210525713660619 -0.32121980504568931 0 0.0139181755953133 -0.30498086780799027 0 -0.0022210525713660619 -0.32121980504568931 0 0.015075042499540611 -0.32989196997135911 0 0.001168824432842991 -0.33045720967714221 0 -0.0036000506603035519 -0.29408482094543792 0 -0.0052544135516779328 -0.31969889488692221 0 0.0139181755953133 -0.30498086780799027 0 -0.0036000506603035519 -0.29408482094543792 0 0.015290363523017681 -0.28832677687415331 0 0.01160607113429483 -0.27983882489219408 0 -0.0036000506603035519 -0.29408482094543792 0 0.0139181755953133 -0.30498086780799027 0 0.015290363523017681 -0.28832677687415331 0 -0.0036000506603035519 -0.29408482094543792 0 0.01160607113429483 -0.27983882489219408 0 0.0068445872669037136 -0.27132600848816218 0 0.0139181755953133 -0.30498086780799027 0 0.03005740376199471 -0.28874193057029351 0 0.0139181755953133 -0.30498086780799027 0 0.015290363523017681 -0.28832677687415331 0 0.03005740376199471 -0.28874193057029351 0 0.015290363523017681 -0.28832677687415331 0 0.03005740376199471 -0.28874193057029351 0 0.024284008101106189 -0.27504217203493259 0 0.01651888345525436 -0.31691865541228847 0 0.0139181755953133 -0.30498086780799027 0 0.02966069833158707 -0.30678539725278592 0 0.0139181755953133 -0.30498086780799027 0 0.03005740376199471 -0.28874193057029351 0 0.02966069833158707 -0.30678539725278592 0 0.043265156175825062 -0.31540398167146177 0 0.02966069833158707 -0.30678539725278592 0 0.05415917478121049 -0.29224382844589908 0 0.03005740376199471 -0.28874193057029351 0 0.05415917478121049 -0.29224382844589908 0 0.046196631928676138 -0.27250299333259659 0 0.03005740376199471 -0.28874193057029351 0 0.02966069833158707 -0.30678539725278592 0 0.05415917478121049 -0.29224382844589908 0 0.07081601980559836 -0.2855683457230479 0 0.05415917478121049 -0.29224382844589908 0 0.060676267733221642 -0.27623882641986541 0 0.043265156175825062 -0.31540398167146177 0 0.05415917478121049 -0.29224382844589908 0 0.043265156175825062 -0.31540398167146177 0 0.05415917478121049 -0.29224382844589908 0 0.060978257271283053 -0.31017325429112808 0 0.065402478343309367 -0.29757510710614199 0 0.05415917478121049 -0.29224382844589908 0 0.060978257271283053 -0.31017325429112808 0 0.057992510048195958 -0.25746532976577868 0 0.046196631928676138 -0.27250299333259659 0 0.0429607568692294 -0.25641018460610449 0 0.057992510048195958 -0.25746532976577868 0 0.0429607568692294 -0.25641018460610449 0 0.049725976381606807 -0.24578893790694459 0 0.057992510048195958 -0.25746532976577868 0 0.060676267733221642 -0.27623882641986541 0 0.046196631928676138 -0.27250299333259659 0 0.05415917478121049 -0.29224382844589908 0 0.060676267733221642 -0.27623882641986541 0 0.046196631928676138 -0.27250299333259659 0 0.03005740376199471 -0.28874193057029351 0 0.046196631928676138 -0.27250299333259659 0 0.024284008101106189 -0.27504217203493259 0 0.03005740376199471 -0.28874193057029351 0 0.046196631928676138 -0.27250299333259659 0 0.046196631928676138 -0.27250299333259659 0 0.032665146478496103 -0.26269680356640868 0 0.024284008101106189 -0.27504217203493259 0 0.046196631928676138 -0.27250299333259659 0 0.032665146478496103 -0.26269680356640868 0 0.0429607568692294 -0.25641018460610449 0 0.032665146478496103 -0.26269680356640868 0 0.0429607568692294 -0.25641018460610449 0 0.031783808530893499 -0.25372773659761783 0 0.0429607568692294 -0.25641018460610449 0 0.031783808530893499 -0.25372773659761783 0 0.037117111341344863 -0.24741624819472799 0 0.032665146478496103 -0.26269680356640868 0 0.031783808530893499 -0.25372773659761783 0 0.020781790506379839 -0.25552367306019957 0 0.031783808530893499 -0.25372773659761783 0 0.020781790506379839 -0.25552367306019957 0 0.024598975454080289 -0.24689816072733231 0 0.032665146478496103 -0.26269680356640868 0 0.021165133039852041 -0.26499337542207341 0 0.020781790506379839 -0.25552367306019957 0 0.021165133039852041 -0.26499337542207341 0 0.020781790506379839 -0.25552367306019957 0 0.012883272672527989 -0.26128988233054118 0 0.021165133039852041 -0.26499337542207341 0 0.015211447440750101 -0.27041434611828508 0 0.012883272672527989 -0.26128988233054118 0 0.020781790506379839 -0.25552367306019957 0 0.01162436083497506 -0.2518744513653472 0 0.01577573045445094 -0.2429652994235818 0 0.032665146478496103 -0.26269680356640868 0 0.021165133039852041 -0.26499337542207341 0 0.024284008101106189 -0.27504217203493259 0 0.021165133039852041 -0.26499337542207341 0 0.024284008101106189 -0.27504217203493259 0 0.015211447440750101 -0.27041434611828508 0 0.024284008101106189 -0.27504217203493259 0 0.01160607113429483 -0.27983882489219408 0 0.015211447440750101 -0.27041434611828508 0 0.015290363523017681 -0.28832677687415331 0 0.024284008101106189 -0.27504217203493259 0 0.01160607113429483 -0.27983882489219408 0 -0.0036000506603035519 -0.29408482094543792 0 -0.001945687768929825 -0.26847074700395329 0 0.0068445872669037136 -0.27132600848816218 0 0.01160607113429483 -0.27983882489219408 0 0.015211447440750101 -0.27041434611828508 0 0.0068445872669037136 -0.27132600848816218 0 0.015211447440750101 -0.27041434611828508 0 0.0068445872669037136 -0.27132600848816218 0 0.007057689407819547 -0.26555049077263188 0 0.015211447440750101 -0.27041434611828508 0 0.012883272672527989 -0.26128988233054118 0 0.007057689407819547 -0.26555049077263188 0 -0.001945687768929825 -0.26847074700395329 0 0.00192333823438529 -0.2632535055597901 0 0.007057689407819547 -0.26555049077263188 0 -0.001945687768929825 -0.26847074700395329 0 0.0068445872669037136 -0.27132600848816218 0 0.007057689407819547 -0.26555049077263188 0 -0.001945687768929825 -0.26847074700395329 0 0.0068445872669037136 -0.27132600848816218 0 0.00192333823438529 -0.2632535055597901 0 0.0071165205243126544 -0.25687589348258122 0 0.00207560332451072 -0.24231303762551121 0 -0.0013499795393466961 -0.2592475501348519 0 0.00192333823438529 -0.2632535055597901 0 0.00207560332451072 -0.24231303762551121 0 0.00192333823438529 -0.2632535055597901 0 0.00207560332451072 -0.24231303762551121 0 0.01162436083497506 -0.2518744513653472 0 0.012883272672527989 -0.26128988233054118 0 0.0071165205243126544 -0.25687589348258122 0 0.020781790506379839 -0.25552367306019957 0 0.01162436083497506 -0.2518744513653472 0 0.012883272672527989 -0.26128988233054118 0 0.012883272672527989 -0.26128988233054118 0 0.007057689407819547 -0.26555049077263188 0 0.0071165205243126544 -0.25687589348258122 0 0.00192333823438529 -0.2632535055597901 0 0.007057689407819547 -0.26555049077263188 0 0.0071165205243126544 -0.25687589348258122 0 0.01162436083497506 -0.2518744513653472 0 0.0071165205243126544 -0.25687589348258122 0 0.00207560332451072 -0.24231303762551121 0 0.01162436083497506 -0.2518744513653472 0 0.00207560332451072 -0.24231303762551121 0 0.01577573045445094 -0.2429652994235818 0 0.00207560332451072 -0.24231303762551121 0 0.0092965904572848059 -0.23484827834910429 0 0.01577573045445094 -0.2429652994235818 0 0.0092965904572848059 -0.23484827834910429 0 0.01577573045445094 -0.2429652994235818 0 0.019672489877989481 -0.23439440894298069 0 0.0022278684146351522 -0.22137256969123209 0 0.022981693636105329 -0.22062122688343061 0 0.019672489877989481 -0.23439440894298069 0 0.0092965904572848059 -0.23484827834910429 0 0.0022278684146351522 -0.22137256969123209 0 0.019672489877989481 -0.23439440894298069 0 0.00207560332451072 -0.24231303762551121 0 0.0092965904572848059 -0.23484827834910429 0 0.0022278684146351522 -0.22137256969123209 0 0.00207560332451072 -0.24231303762551121 0 0.0022278684146351522 -0.22137256969123209 0 0.0022278684146351522 -0.22137256969123209 0 0.019672489877989481 -0.23439440894298069 0 0.022981693636105329 -0.22062122688343061 0 0.019672489877989481 -0.23439440894298069 0 0.032942904111859059 -0.23696012836389649 0 0.022981693636105329 -0.22062122688343061 0 0.032942904111859059 -0.23696012836389649 0 0.037059527420981557 -0.21905088632048511 0 0.019672489877989481 -0.23439440894298069 0 0.037117111341344863 -0.24741624819472799 0 0.019672489877989481 -0.23439440894298069 0 0.037117111341344863 -0.24741624819472799 0 0.032942904111859059 -0.23696012836389649 0 0.024598975454080289 -0.24689816072733231 0 0.019672489877989481 -0.23439440894298069 0 0.037117111341344863 -0.24741624819472799 0 0.031783808530893499 -0.25372773659761783 0 0.024598975454080289 -0.24689816072733231 0 0.037117111341344863 -0.24741624819472799 0 0.020781790506379839 -0.25552367306019957 0 0.024598975454080289 -0.24689816072733231 0 0.01577573045445094 -0.2429652994235818 0 0.024598975454080289 -0.24689816072733231 0 0.01577573045445094 -0.2429652994235818 0 0.019672489877989481 -0.23439440894298069 0 0.011739434620925131 -0.18936526409111551 0 0.0024102953517908042 -0.19628405186558409 0 0.012939438483818179 -0.1983989224454771 0 0.0024102953517908042 -0.19628405186558409 0 0.012939438483818179 -0.1983989224454771 0 0.01499768524840181 -0.2089205011100729 0 0.0022278684146351522 -0.22137256969123209 0 0.022981693636105329 -0.22062122688343061 0 0.01499768524840181 -0.2089205011100729 0 0.0022278684146351522 -0.22137256969123209 0 0.0024102953517908042 -0.19628405186558409 0 0.0022278684146351522 -0.22137256969123209 0 0.0024102953517908042 -0.19628405186558409 0 0.01499768524840181 -0.2089205011100729 0 0.022981693636105329 -0.22062122688343061 0 0.01499768524840181 -0.2089205011100729 0 0.029904073938466669 -0.20797838670647889 0 0.022981693636105329 -0.22062122688343061 0 0.029904073938466669 -0.20797838670647889 0 0.037059527420981557 -0.21905088632048511 0 0.01499768524840181 -0.2089205011100729 0 0.029904073938466669 -0.20797838670647889 0 0.026457792675514499 -0.1952534541840947 0 0.012939438483818179 -0.1983989224454771 0 0.01499768524840181 -0.2089205011100729 0 0.026457792675514499 -0.1952534541840947 0 0.026457792675514499 -0.1952534541840947 0 0.032073054836970018 -0.1877919054722966 0 0.02260414066723293 -0.18725508933248769 0 0.011739434620925131 -0.18936526409111551 0 0.026457792675514499 -0.1952534541840947 0 0.02260414066723293 -0.18725508933248769 0 0.011739434620925131 -0.18936526409111551 0 0.026457792675514499 -0.1952534541840947 0 0.011739434620925131 -0.18936526409111551 0 0.012939438483818179 -0.1983989224454771 0 0.026457792675514499 -0.1952534541840947 0 0.041176150730104027 -0.20114164427707371 0 0.03780555687963387 -0.1854897053058765 0 0.044992967693991068 -0.18453670044114151 0 0.032073054836970018 -0.1877919054722966 0 0.041176150730104027 -0.20114164427707371 0 0.03780555687963387 -0.1854897053058765 0 0.041176150730104027 -0.20114164427707371 0 0.053645755123758167 -0.2061302035159342 0 0.044992967693991068 -0.18453670044114151 0 0.041176150730104027 -0.20114164427707371 0 0.044992967693991068 -0.18453670044114151 0 0.026457792675514499 -0.1952534541840947 0 0.032073054836970018 -0.1877919054722966 0 0.041176150730104027 -0.20114164427707371 0 0.029904073938466669 -0.20797838670647889 0 0.026457792675514499 -0.1952534541840947 0 0.041176150730104027 -0.20114164427707371 0 0.026457792675514499 -0.1952534541840947 0 0.041176150730104027 -0.20114164427707371 0 0.041176150730104027 -0.20114164427707371 0 0.049474116446135287 -0.21788126575220049 0 0.037059527420981557 -0.21905088632048511 0 0.041176150730104027 -0.20114164427707371 0 0.037059527420981557 -0.21905088632048511 0 0.029904073938466669 -0.20797838670647889 0 0.041176150730104027 -0.20114164427707371 0 0.037059527420981557 -0.21905088632048511 0 0.053645755123758167 -0.2061302035159342 0 0.060606048488387868 -0.2234999953189169 0 0.041176150730104027 -0.20114164427707371 0 0.049474116446135287 -0.21788126575220049 0 0.053645755123758167 -0.2061302035159342 0 0.049474116446135287 -0.21788126575220049 0 0.053645755123758167 -0.2061302035159342 0 0.060606048488387868 -0.2234999953189169 0 0.041176150730104027 -0.20114164427707371 0 0.053645755123758167 -0.2061302035159342 0 0.053645755123758167 -0.2061302035159342 0 0.05799625265385254 -0.19185651286245611 0 0.044992967693991068 -0.18453670044114151 0 0.053645755123758167 -0.2061302035159342 0 0.044992967693991068 -0.18453670044114151 0 0.042342594013298117 -0.23880770881336441 0 0.032942904111859059 -0.23696012836389649 0 0.042439137231366011 -0.2292928716379477 0 0.0429607568692294 -0.25641018460610449 0 0.037117111341344863 -0.24741624819472799 0 0.049725976381606807 -0.24578893790694459 0 0.042342594013298117 -0.23880770881336441 0 0.037117111341344863 -0.24741624819472799 0 0.049725976381606807 -0.24578893790694459 0 0.042342594013298117 -0.23880770881336441 0 0.037117111341344863 -0.24741624819472799 0 0.032942904111859059 -0.23696012836389649 0 0.032942904111859059 -0.23696012836389649 0 0.037059527420981557 -0.21905088632048511 0 0.032942904111859059 -0.23696012836389649 0 0.037059527420981557 -0.21905088632048511 0 0.042439137231366011 -0.2292928716379477 0 0.049474116446135287 -0.21788126575220049 0 0.037059527420981557 -0.21905088632048511 0 0.042439137231366011 -0.2292928716379477 0 0.042342594013298117 -0.23880770881336441 0 0.042439137231366011 -0.2292928716379477 0 0.051265247328798183 -0.2329483799162789 0 0.051265247328798183 -0.2329483799162789 0 0.060606048488387868 -0.2234999953189169 0 0.067566341853016507 -0.2408697871219001 0 0.049474116446135287 -0.21788126575220049 0 0.042439137231366011 -0.2292928716379477 0 0.051265247328798183 -0.2329483799162789 0 0.049474116446135287 -0.21788126575220049 0 0.051265247328798183 -0.2329483799162789 0 0.060606048488387868 -0.2234999953189169 0 0.051265247328798183 -0.2329483799162789 0 0.049725976381606807 -0.24578893790694459 0 0.067566341853016507 -0.2408697871219001 0 0.057992510048195958 -0.25746532976577868 0 0.049725976381606807 -0.24578893790694459 0 0.067566341853016507 -0.2408697871219001 0 0.042342594013298117 -0.23880770881336441 0 0.051265247328798183 -0.2329483799162789 0 0.049725976381606807 -0.24578893790694459 0 0.067566341853016507 -0.2408697871219001 0 0.081708517562946947 -0.23940547519345609 0 0.073601781645054196 -0.22837187641002901 0 0.077223338902591948 -0.2527121843264914 0 0.067566341853016507 -0.2408697871219001 0 0.081708517562946947 -0.23940547519345609 0 0.093578279611430365 -0.25272774274380522 0 0.081708517562946947 -0.23940547519345609 0 0.095651106386999973 -0.22293476094299261 0 0.077223338902591948 -0.2527121843264914 0 0.093578279611430365 -0.25272774274380522 0 0.081708517562946947 -0.23940547519345609 0 0.073601781645054196 -0.22837187641002901 0 0.074648430755379025 -0.2145324822294635 0 0.095651106386999973 -0.22293476094299261 0 0.081708517562946947 -0.23940547519345609 0 0.073601781645054196 -0.22837187641002901 0 0.095651106386999973 -0.22293476094299261 0 0.060606048488387868 -0.2234999953189169 0 0.067566341853016507 -0.2408697871219001 0 0.073601781645054196 -0.22837187641002901 0 0.060606048488387868 -0.2234999953189169 0 0.067566341853016507 -0.2408697871219001 0 0.060606048488387868 -0.2234999953189169 0 0.073601781645054196 -0.22837187641002901 0 0.074648430755379025 -0.2145324822294635 0 0.053645755123758167 -0.2061302035159342 0 0.060606048488387868 -0.2234999953189169 0 0.074648430755379025 -0.2145324822294635 0 0.053645755123758167 -0.2061302035159342 0 0.074648430755379025 -0.2145324822294635 0 0.079282126348336715 -0.19974959575262941 0 0.053645755123758167 -0.2061302035159342 0 0.074648430755379025 -0.2145324822294635 0 0.05799625265385254 -0.19185651286245611 0 0.079282126348336715 -0.19974959575262941 0 0.071798386893944979 -0.18618499066387231 0 0.053645755123758167 -0.2061302035159342 0 0.05799625265385254 -0.19185651286245611 0 0.079282126348336715 -0.19974959575262941 0 0.079282126348336715 -0.19974959575262941 0 0.097871662420328645 -0.19101844923354561 0 0.071798386893944979 -0.18618499066387231 0 0.079282126348336715 -0.19974959575262941 0 0.097871662420328645 -0.19101844923354561 0 0.094768961292634915 -0.20015309400940809 0 0.087031069455204529 -0.18772288166490869 0 0.097871662420328645 -0.19101844923354561 0 0.071798386893944979 -0.18618499066387231 0 0.097871662420328645 -0.19101844923354561 0 0.071798386893944979 -0.18618499066387231 0 0.088320890094516102 -0.20745372436028309 0 0.097253825689229079 -0.19989868886692219 0 0.094768961292634915 -0.20015309400940809 0 0.079282126348336715 -0.19974959575262941 0 0.088320890094516102 -0.20745372436028309 0 0.094768961292634915 -0.20015309400940809 0 0.074648430755379025 -0.2145324822294635 0 0.088320890094516102 -0.20745372436028309 0 0.095651106386999973 -0.22293476094299261 0 0.088320890094516102 -0.20745372436028309 0 0.097253825689229079 -0.19989868886692219 0 0.095651106386999973 -0.22293476094299261 0 0.074648430755379025 -0.2145324822294635 0 0.095651106386999973 -0.22293476094299261 0 0.074648430755379025 -0.2145324822294635 0 0.079282126348336715 -0.19974959575262941 0 0.088320890094516102 -0.20745372436028309 0 0.097253825689229079 -0.19989868886692219 0 0.11023467005157279 -0.21237561252810269 0 0.095651106386999973 -0.22293476094299261 0 0.097253825689229079 -0.19989868886692219 0 0.095651106386999973 -0.22293476094299261 0 0.097253825689229079 -0.19989868886692219 0 0.12143599976831219 -0.19742287189649671 0 0.097253825689229079 -0.19989868886692219 0 0.1032241908002547 -0.19201069986739261 0 0.12143599976831219 -0.19742287189649671 0 0.087031069455204529 -0.18772288166490869 0 0.097871662420328645 -0.19101844923354561 0 0.098193808692145862 -0.18638820317210611 0 0.097871662420328645 -0.19101844923354561 0 0.097253825689229079 -0.19989868886692219 0 0.1032241908002547 -0.19201069986739261 0 0.097871662420328645 -0.19101844923354561 0 0.098193808692145862 -0.18638820317210611 0 0.097871662420328645 -0.19101844923354561 0 0.1032241908002547 -0.19201069986739261 0 0.098193808692145862 -0.18638820317210611 0 0.097871662420328645 -0.19101844923354561 0 0.1032241908002547 -0.19201069986739261 0 0.097871662420328645 -0.19101844923354561 0 0.097253825689229079 -0.19989868886692219 0 0.094768961292634915 -0.20015309400940809 0 0.097871662420328645 -0.19101844923354561 0 0.097253825689229079 -0.19989868886692219 0 0.097253825689229079 -0.19989868886692219 0 0.094768961292634915 -0.20015309400940809 0 0.1032241908002547 -0.19201069986739261 0 0.12143599976831219 -0.19742287189649671 0 0.1239636128173006 -0.18330702366951579 0 0.12143599976831219 -0.19742287189649671 0 0.11023467005157279 -0.21237561252810269 0 0.1353895578685973 -0.21437637252844141 0 0.097253825689229079 -0.19989868886692219 0 0.12143599976831219 -0.19742287189649671 0 0.11023467005157279 -0.21237561252810269 0 0.11023467005157279 -0.21237561252810269 0 0.1135112540669537 -0.23007984765974429 0 0.1353895578685973 -0.21437637252844141 0 0.1135112540669537 -0.23007984765974429 0 0.1224052182762337 -0.24746994087236879 0 0.1069214286544353 -0.24535777194678091 0 0.1135112540669537 -0.23007984765974429 0 0.1224052182762337 -0.24746994087236879 0 0.13295340379124021 -0.23611156067439579 0 0.093578279611430365 -0.25272774274380522 0 0.095651106386999973 -0.22293476094299261 0 0.093578279611430365 -0.25272774274380522 0 0.1069214286544353 -0.24535777194678091 0 0.095651106386999973 -0.22293476094299261 0 0.1135112540669537 -0.23007984765974429 0 0.1069214286544353 -0.24535777194678091 0 0.095651106386999973 -0.22293476094299261 0 0.11023467005157279 -0.21237561252810269 0 0.1135112540669537 -0.23007984765974429 0 0.095651106386999973 -0.22293476094299261 0 0.1135112540669537 -0.23007984765974429 0 0.095651106386999973 -0.22293476094299261 0 0.1055063076622703 -0.14869257150210741 0 0.099923802565797637 -0.16152279878783549 0 0.093568820428786142 -0.1442900094456703 0 0.1055063076622703 -0.14869257150210741 0 0.1199774048008859 -0.1518246264036438 0 0.099923802565797637 -0.16152279878783549 0 0.1055063076622703 -0.14869257150210741 0 0.1085552028536118 -0.1371328513712799 0 0.093568820428786142 -0.1442900094456703 0 0.096740449229263753 -0.1261362836634943 0 0.1085552028536118 -0.1371328513712799 0 0.093568820428786142 -0.1442900094456703 0 0.1085552028536118 -0.1371328513712799 0 0.1248974087783342 -0.1344038613932082 0 0.1228594994384777 -0.11216250567778779 0 0.096740449229263753 -0.1261362836634943 0 0.1085552028536118 -0.1371328513712799 0 0.1228594994384777 -0.11216250567778779 0 0.1085552028536118 -0.1371328513712799 0 0.1248974087783342 -0.1344038613932082 0 0.1199774048008859 -0.1518246264036438 0 0.1055063076622703 -0.14869257150210741 0 0.1085552028536118 -0.1371328513712799 0 0.1199774048008859 -0.1518246264036438 0 0.1199774048008859 -0.1518246264036438 0 0.1172074244291887 -0.17071274400242811 0 0.13238546620762839 -0.16326162299819899 0 0.1199774048008859 -0.1518246264036438 0 0.1172074244291887 -0.17071274400242811 0 0.099923802565797637 -0.16152279878783549 0 0.1239636128173006 -0.18330702366951579 0 0.1063113649069863 -0.17343369056823421 0 0.098511950942567372 -0.18181550737890109 0 0.1239636128173006 -0.18330702366951579 0 0.098193808692145862 -0.18638820317210611 0 0.1172074244291887 -0.17071274400242811 0 0.1239636128173006 -0.18330702366951579 0 0.1063113649069863 -0.17343369056823421 0 0.1239636128173006 -0.18330702366951579 0 0.098511950942567372 -0.18181550737890109 0 0.098193808692145862 -0.18638820317210611 0 0.1063113649069863 -0.17343369056823421 0 0.098511950942567372 -0.18181550737890109 0 0.099923802565797637 -0.16152279878783549 0 0.1032241908002547 -0.19201069986739261 0 0.1239636128173006 -0.18330702366951579 0 0.098193808692145862 -0.18638820317210611 0 0.087031069455204529 -0.18772288166490869 0 0.098511950942567372 -0.18181550737890109 0 0.098193808692145862 -0.18638820317210611 0 0.098511950942567372 -0.18181550737890109 0 0.098193808692145862 -0.18638820317210611 0 0.1172074244291887 -0.17071274400242811 0 0.1063113649069863 -0.17343369056823421 0 0.099923802565797637 -0.16152279878783549 0 0.098511950942567372 -0.18181550737890109 0 0.099923802565797637 -0.16152279878783549 0 0.099923802565797637 -0.16152279878783549 0 0.078384197856020285 -0.1631807308553653 0 0.081865152220920251 -0.17436884619300921 0 0.099923802565797637 -0.16152279878783549 0 0.078384197856020285 -0.1631807308553653 0 0.084073603286821341 -0.15363732119047019 0 0.087031069455204529 -0.18772288166490869 0 0.098511950942567372 -0.18181550737890109 0 0.081865152220920251 -0.17436884619300921 0 0.098511950942567372 -0.18181550737890109 0 0.081865152220920251 -0.17436884619300921 0 0.098511950942567372 -0.18181550737890109 0 0.099923802565797637 -0.16152279878783549 0 0.081865152220920251 -0.17436884619300921 0 0.087031069455204529 -0.18772288166490869 0 0.098193808692145862 -0.18638820317210611 0 0.087031069455204529 -0.18772288166490869 0 0.071798386893944979 -0.18618499066387231 0 0.077191847619985432 -0.1802808173139524 0 0.087031069455204529 -0.18772288166490869 0 0.081865152220920251 -0.17436884619300921 0 0.077191847619985432 -0.1802808173139524 0 0.071798386893944979 -0.18618499066387231 0 0.077191847619985432 -0.1802808173139524 0 0.068072781909871996 -0.17284655073401931 0 0.081865152220920251 -0.17436884619300921 0 0.077191847619985432 -0.1802808173139524 0 0.068072781909871996 -0.17284655073401931 0 0.071798386893944979 -0.18618499066387231 0 0.068072781909871996 -0.17284655073401931 0 0.058223637493484283 -0.17423725314262689 0 0.078384197856020285 -0.1631807308553653 0 0.081865152220920251 -0.17436884619300921 0 0.065218353499272838 -0.16692218500711781 0 0.081865152220920251 -0.17436884619300921 0 0.068072781909871996 -0.17284655073401931 0 0.065218353499272838 -0.16692218500711781 0 0.081865152220920251 -0.17436884619300921 0 0.065218353499272838 -0.16692218500711781 0 0.078384197856020285 -0.1631807308553653 0 0.069191464132019501 -0.15559793815106029 0 0.084073603286821341 -0.15363732119047019 0 0.078384197856020285 -0.1631807308553653 0 0.065218353499272838 -0.16692218500711781 0 0.069191464132019501 -0.15559793815106029 0 0.068072781909871996 -0.17284655073401931 0 0.065218353499272838 -0.16692218500711781 0 0.058223637493484283 -0.17423725314262689 0 0.068072781909871996 -0.17284655073401931 0 0.065218353499272838 -0.16692218500711781 0 0.065218353499272838 -0.16692218500711781 0 0.069191464132019501 -0.15559793815106029 0 0.054222626666072929 -0.14438335530926111 0 0.064847957682670238 -0.14165543439466011 0 0.069166297267655025 -0.14425682718776581 0 0.069115882663692313 -0.13611025225835419 0 0.069191464132019501 -0.15559793815106029 0 0.062694022643797837 -0.1451949441078085 0 0.069166297267655025 -0.14425682718776581 0 0.064847957682670238 -0.14165543439466011 0 0.062694022643797837 -0.1451949441078085 0 0.069166297267655025 -0.14425682718776581 0 0.064847957682670238 -0.14165543439466011 0 0.062694022643797837 -0.1451949441078085 0 0.061077669960163228 -0.14157955987473689 0 0.069191464132019501 -0.15559793815106029 0 0.069166297267655025 -0.14425682718776581 0 0.07815669276156563 -0.14477255745401821 0 0.069166297267655025 -0.14425682718776581 0 0.07815669276156563 -0.14477255745401821 0 0.069115882663692313 -0.13611025225835419 0 0.069191464132019501 -0.15559793815106029 0 0.084073603286821341 -0.15363732119047019 0 0.07815669276156563 -0.14477255745401821 0 0.099923802565797637 -0.16152279878783549 0 0.084073603286821341 -0.15363732119047019 0 0.093568820428786142 -0.1442900094456703 0 0.084073603286821341 -0.15363732119047019 0 0.07815669276156563 -0.14477255745401821 0 0.093568820428786142 -0.1442900094456703 0 0.07815669276156563 -0.14477255745401821 0 0.093568820428786142 -0.1442900094456703 0 0.081483727782377585 -0.13370628609407781 0 0.096740449229263753 -0.1261362836634943 0 0.081483727782377585 -0.13370628609407781 0 0.078468035540153733 -0.119691177032344 0 0.096740449229263753 -0.1261362836634943 0 0.093568820428786142 -0.1442900094456703 0 0.081483727782377585 -0.13370628609407781 0 0.081483727782377585 -0.13370628609407781 0 0.071462430678860128 -0.12708967450895889 0 0.069115882663692313 -0.13611025225835419 0 0.081483727782377585 -0.13370628609407781 0 0.071462430678860128 -0.12708967450895889 0 0.078468035540153733 -0.119691177032344 0 0.07815669276156563 -0.14477255745401821 0 0.081483727782377585 -0.13370628609407781 0 0.069115882663692313 -0.13611025225835419 0 0.069115882663692313 -0.13611025225835419 0 0.063705212013215259 -0.13389534239860101 0 0.061562634390581267 -0.13820686510034319 0 0.069115882663692313 -0.13611025225835419 0 0.063705212013215259 -0.13389534239860101 0 0.065024284650824979 -0.12926501689672121 0 0.064847957682670238 -0.14165543439466011 0 0.069115882663692313 -0.13611025225835419 0 0.061562634390581267 -0.13820686510034319 0 0.071462430678860128 -0.12708967450895889 0 0.069115882663692313 -0.13611025225835419 0 0.065024284650824979 -0.12926501689672121 0 0.071462430678860128 -0.12708967450895889 0 0.065024284650824979 -0.12926501689672121 0 0.064670263353776528 -0.12479716283724571 0 0.063705212013215259 -0.13389534239860101 0 0.065024284650824979 -0.12926501689672121 0 0.059671118047453828 -0.1316942367510372 0 0.065024284650824979 -0.12926501689672121 0 0.060374050000443519 -0.1275532196661501 0 0.064670263353776528 -0.12479716283724571 0 0.053163921896686978 -0.12981450152049229 0 0.054222626666072929 -0.14438335530926111 0 0.043813798389492113 -0.12249703417094381 0 0.054222626666072929 -0.14438335530926111 0 0.043813798389492113 -0.12249703417094381 0 0.054222626666072929 -0.14438335530926111 0 0.044888353631975332 -0.14051841097890039 0 0.043813798389492113 -0.12249703417094381 0 0.065024284650824979 -0.12926501689672121 0 0.060374050000443519 -0.1275532196661501 0 0.059671118047453828 -0.1316942367510372 0 0.059671118047453828 -0.1316942367510372 0 0.053163921896686978 -0.12981450152049229 0 0.058899041228120147 -0.13541025385304101 0 0.060374050000443519 -0.1275532196661501 0 0.059671118047453828 -0.1316942367510372 0 0.053163921896686978 -0.12981450152049229 0 0.060374050000443519 -0.1275532196661501 0 0.053163921896686978 -0.12981450152049229 0 0.059340662053475331 -0.1221951803252543 0 0.053163921896686978 -0.12981450152049229 0 0.056442263765250057 -0.13867551253172061 0 0.054222626666072929 -0.14438335530926111 0 0.056442263765250057 -0.13867551253172061 0 0.058899041228120147 -0.13541025385304101 0 0.059147082290038067 -0.13949432489331839 0 0.053163921896686978 -0.12981450152049229 0 0.056442263765250057 -0.13867551253172061 0 0.058899041228120147 -0.13541025385304101 0 0.056442263765250057 -0.13867551253172061 0 0.059147082290038067 -0.13949432489331839 0 0.058349772175084719 -0.14223795326128441 0 0.063705212013215259 -0.13389534239860101 0 0.059671118047453828 -0.1316942367510372 0 0.058899041228120147 -0.13541025385304101 0 0.063705212013215259 -0.13389534239860101 0 0.058899041228120147 -0.13541025385304101 0 0.061562634390581267 -0.13820686510034319 0 0.058899041228120147 -0.13541025385304101 0 0.059147082290038067 -0.13949432489331839 0 0.061562634390581267 -0.13820686510034319 0 0.059147082290038067 -0.13949432489331839 0 0.061562634390581267 -0.13820686510034319 0 0.061077669960163228 -0.14157955987473689 0 0.064847957682670238 -0.14165543439466011 0 0.061562634390581267 -0.13820686510034319 0 0.061077669960163228 -0.14157955987473689 0 0.062694022643797837 -0.1451949441078085 0 0.058349772175084719 -0.14223795326128441 0 0.054222626666072929 -0.14438335530926111 0 0.054222626666072929 -0.14438335530926111 0 0.050550095088130853 -0.16036059004815059 0 0.062694022643797837 -0.1451949441078085 0 0.061077669960163228 -0.14157955987473689 0 0.058349772175084719 -0.14223795326128441 0 0.069191464132019501 -0.15559793815106029 0 0.062694022643797837 -0.1451949441078085 0 0.054222626666072929 -0.14438335530926111 0 0.065218353499272838 -0.16692218500711781 0 0.054222626666072929 -0.14438335530926111 0 0.054222626666072929 -0.14438335530926111 0 0.048139432676035217 -0.14822660340045091 0 0.050550095088130853 -0.16036059004815059 0 0.059147082290038067 -0.13949432489331839 0 0.061077669960163228 -0.14157955987473689 0 0.058349772175084719 -0.14223795326128441 0 0.056442263765250057 -0.13867551253172061 0 0.058349772175084719 -0.14223795326128441 0 0.054222626666072929 -0.14438335530926111 0 0.054222626666072929 -0.14438335530926111 0 0.048139432676035217 -0.14822660340045091 0 0.044888353631975332 -0.14051841097890039 0 0.041528495042556672 -0.14798224734717799 0 0.050550095088130853 -0.16036059004815059 0 0.02616273382991904 -0.1494513203714718 0 0.050550095088130853 -0.16036059004815059 0 0.02616273382991904 -0.1494513203714718 0 0.041528495042556672 -0.14798224734717799 0 0.035882315213591608 -0.13971418346772199 0 0.044888353631975332 -0.14051841097890039 0 0.048139432676035217 -0.14822660340045091 0 0.041528495042556672 -0.14798224734717799 0 0.044888353631975332 -0.14051841097890039 0 0.048139432676035217 -0.14822660340045091 0 0.041528495042556672 -0.14798224734717799 0 0.050550095088130853 -0.16036059004815059 0 0.041528495042556672 -0.14798224734717799 0 0.035882315213591608 -0.13971418346772199 0 0.02616273382991904 -0.1494513203714718 0 0.035882315213591608 -0.13971418346772199 0 0.044888353631975332 -0.14051841097890039 0 0.043813798389492113 -0.12249703417094381 0 0.02035966690808487 -0.13403304341706221 0 0.043813798389492113 -0.12249703417094381 0 0.035882315213591608 -0.13971418346772199 0 0.02035966690808487 -0.13403304341706221 0 0.043813798389492113 -0.12249703417094381 0 0.071798386893944979 -0.18618499066387231 0 0.045725111367562452 -0.1813515320941938 0 0.05799625265385254 -0.19185651286245611 0 0.071798386893944979 -0.18618499066387231 0 0.045725111367562452 -0.1813515320941938 0 0.071798386893944979 -0.18618499066387231 0 0.058223637493484283 -0.17423725314262689 0 0.045725111367562452 -0.1813515320941938 0 0.058223637493484283 -0.17423725314262689 0 0.050550095088130853 -0.16036059004815059 0 0.045725111367562452 -0.1813515320941938 0 0.05799625265385254 -0.19185651286245611 0 0.045725111367562452 -0.1813515320941938 0 0.044992967693991068 -0.18453670044114151 0 0.050550095088130853 -0.16036059004815059 0 0.045725111367562452 -0.1813515320941938 0 0.065218353499272838 -0.16692218500711781 0 0.054222626666072929 -0.14438335530926111 0 0.050550095088130853 -0.16036059004815059 0 0.065218353499272838 -0.16692218500711781 0 0.058223637493484283 -0.17423725314262689 0 0.050550095088130853 -0.16036059004815059 0 0.065218353499272838 -0.16692218500711781 0 0.050550095088130853 -0.16036059004815059 0 0.050550095088130853 -0.16036059004815059 0 0.037038529733306971 -0.16468596656418241 0 0.04355546042909092 -0.1809493226398757 0 0.050550095088130853 -0.16036059004815059 0 0.037038529733306971 -0.16468596656418241 0 0.02616273382991904 -0.1494513203714718 0 0.031566678318141458 -0.1717350613739351 0 0.037038529733306971 -0.16468596656418241 0 0.025526442574645879 -0.16469522270923859 0 0.031566678318141458 -0.1717350613739351 0 0.037038529733306971 -0.16468596656418241 0 0.04355546042909092 -0.1809493226398757 0 0.04355546042909092 -0.1809493226398757 0 0.020146280535522081 -0.17660973358244381 0 0.050550095088130853 -0.16036059004815059 0 0.04355546042909092 -0.1809493226398757 0 0.045725111367562452 -0.1813515320941938 0 0.037038529733306971 -0.16468596656418241 0 0.04355546042909092 -0.1809493226398757 0 0.03780555687963387 -0.1854897053058765 0 0.04355546042909092 -0.1809493226398757 0 0.020146280535522081 -0.17660973358244381 0 0.031566678318141458 -0.1717350613739351 0 0.04355546042909092 -0.1809493226398757 0 0.020146280535522081 -0.17660973358244381 0 0.03780555687963387 -0.1854897053058765 0 0.04355546042909092 -0.1809493226398757 0 0.044992967693991068 -0.18453670044114151 0 0.04355546042909092 -0.1809493226398757 0 0.045725111367562452 -0.1813515320941938 0 0.044992967693991068 -0.18453670044114151 0 0.04355546042909092 -0.1809493226398757 0 0.044992967693991068 -0.18453670044114151 0 0.04355546042909092 -0.1809493226398757 0 0.045725111367562452 -0.1813515320941938 0 0.045725111367562452 -0.1813515320941938 0 0.044992967693991068 -0.18453670044114151 0 0.032073054836970018 -0.1877919054722966 0 0.03780555687963387 -0.1854897053058765 0 0.020146280535522081 -0.17660973358244381 0 0.011739434620925131 -0.18936526409111551 0 0.02260414066723293 -0.18725508933248769 0 0.020146280535522081 -0.17660973358244381 0 0.032073054836970018 -0.1877919054722966 0 0.02260414066723293 -0.18725508933248769 0 0.020146280535522081 -0.17660973358244381 0 0.020146280535522081 -0.17660973358244381 0 0.025526442574645879 -0.16469522270923859 0 0.016241919636490541 -0.15964169927861541 0 0.031566678318141458 -0.1717350613739351 0 0.020146280535522081 -0.17660973358244381 0 0.025526442574645879 -0.16469522270923859 0 0.037038529733306971 -0.16468596656418241 0 0.025526442574645879 -0.16469522270923859 0 0.02616273382991904 -0.1494513203714718 0 0.025526442574645879 -0.16469522270923859 0 0.016241919636490541 -0.15964169927861541 0 0.02616273382991904 -0.1494513203714718 0 0.002592722288945457 -0.17119553403993629 0 0.002775149226100111 -0.1461070162142882 0 0.002592722288945457 -0.17119553403993629 0 0.0091416165132007926 -0.15602867972450149 0 0.002775149226100111 -0.1461070162142882 0 0.020146280535522081 -0.17660973358244381 0 0.016241919636490541 -0.15964169927861541 0 0.002592722288945457 -0.17119553403993629 0 0.016241919636490541 -0.15964169927861541 0 0.002592722288945457 -0.17119553403993629 0 0.0091416165132007926 -0.15602867972450149 0 0.011739434620925131 -0.18936526409111551 0 0.0024102953517908042 -0.19628405186558409 0 0.002592722288945457 -0.17119553403993629 0 0.011739434620925131 -0.18936526409111551 0 0.020146280535522081 -0.17660973358244381 0 0.002592722288945457 -0.17119553403993629 0 0.0024102953517908042 -0.19628405186558409 0 0.002592722288945457 -0.17119553403993629 0 0.035882315213591608 -0.13971418346772199 0 0.02035966690808487 -0.13403304341706221 0 0.02616273382991904 -0.1494513203714718 0 0.016241919636490541 -0.15964169927861541 0 0.02616273382991904 -0.1494513203714718 0 0.014956674901267069 -0.14717046936516609 0 0.02035966690808487 -0.13403304341706221 0 0.02616273382991904 -0.1494513203714718 0 0.014956674901267069 -0.14717046936516609 0 -0.003094464573322353 -0.14556905266318071 0 0.02035966690808487 -0.13403304341706221 0 0.002775149226100111 -0.1461070162142882 0 0.02035966690808487 -0.13403304341706221 0 0.014956674901267069 -0.14717046936516609 0 0.002775149226100111 -0.1461070162142882 0 0.014956674901267069 -0.14717046936516609 0 0.0091416165132007926 -0.15602867972450149 0 0.002775149226100111 -0.1461070162142882 0 0.016241919636490541 -0.15964169927861541 0 0.014956674901267069 -0.14717046936516609 0 0.0091416165132007926 -0.15602867972450149 0 -0.0028890046353027888 -0.13536793891998999 0 -0.003094464573322353 -0.14556905266318071 0 0.02035966690808487 -0.13403304341706221 0 -0.0028890046353027888 -0.13536793891998999 0 0.02035966690808487 -0.13403304341706221 0 0.002064890662622494 -0.12644808147915401 0 0.02035966690808487 -0.13403304341706221 0 0.002064890662622494 -0.12644808147915401 0 0.01347467362235181 -0.1247837114235946 0 -0.003094464573322353 -0.14556905266318071 0 0.02035966690808487 -0.13403304341706221 0 0.0061193529768620884 -0.117556587176987 0 0.01955176281987716 -0.1149846164778717 0 0.003459360455224499 -0.1064706842325762 0 -0.0079539226757655221 -0.1150958422717388 0 0.002064890662622494 -0.12644808147915401 0 0.0061193529768620884 -0.117556587176987 0 0.002064890662622494 -0.12644808147915401 0 0.0061193529768620884 -0.117556587176987 0 0.01347467362235181 -0.1247837114235946 0 -0.0079539226757655221 -0.1150958422717388 0 0.0061193529768620884 -0.117556587176987 0 0.003459360455224499 -0.1064706842325762 0 0.0061193529768620884 -0.117556587176987 0 0.01347467362235181 -0.1247837114235946 0 0.01955176281987716 -0.1149846164778717 0 0.02035966690808487 -0.13403304341706221 0 0.01347467362235181 -0.1247837114235946 0 0.01955176281987716 -0.1149846164778717 0 0.02035966690808487 -0.13403304341706221 0 0.01955176281987716 -0.1149846164778717 0 0.030708700954436261 -0.11632157342948719 0 0.01955176281987716 -0.1149846164778717 0 0.030708700954436261 -0.11632157342948719 0 0.026325399063835419 -0.10759258755569739 0 0.02619357721188656 -0.098302951944368083 0 0.025147618997233782 -0.083755381715051799 0 0.034480708693362568 -0.103126207942998 0 0.01955176281987716 -0.1149846164778717 0 0.026325399063835419 -0.10759258755569739 0 0.01882058209311448 -0.098737630563725184 0 0.02619357721188656 -0.098302951944368083 0 0.026325399063835419 -0.10759258755569739 0 0.01882058209311448 -0.098737630563725184 0 0.030708700954436261 -0.11632157342948719 0 0.026325399063835419 -0.10759258755569739 0 0.034480708693362568 -0.103126207942998 0 0.02619357721188656 -0.098302951944368083 0 0.026325399063835419 -0.10759258755569739 0 0.034480708693362568 -0.103126207942998 0 0.01882058209311448 -0.098737630563725184 0 0.003459360455224499 -0.1064706842325762 0 0.0069325651104038752 -0.095052248547683071 0 0.01955176281987716 -0.1149846164778717 0 0.01882058209311448 -0.098737630563725184 0 0.003459360455224499 -0.1064706842325762 0 -0.008003249791205572 -0.09561207256085448 0 0.003459360455224499 -0.1064706842325762 0 0.0069325651104038752 -0.095052248547683071 0 0.0020876159228450362 -0.083587805440608301 0 0.0043923339882334317 -0.072413952491771169 0 0.025147618997233782 -0.083755381715051799 0 -0.008003249791205572 -0.09561207256085448 0 0.0069325651104038752 -0.095052248547683071 0 0.0020876159228450362 -0.083587805440608301 0 0.0069325651104038752 -0.095052248547683071 0 0.0020876159228450362 -0.083587805440608301 0 0.025147618997233782 -0.083755381715051799 0 0.0043923339882334317 -0.072413952491771169 0 0.01581452930110442 -0.064384555487105921 0 0.025147618997233782 -0.083755381715051799 0 -0.012154785791383569 -0.056904002061058452 0 0.0043923339882334317 -0.072413952491771169 0 0.01581452930110442 -0.064384555487105921 0 0.01581452930110442 -0.064384555487105921 0 0.025147618997233782 -0.083755381715051799 0 0.036970317162578897 -0.070042792052594158 0 0.01581452930110442 -0.064384555487105921 0 0.036970317162578897 -0.070042792052594158 0 0.01581452930110442 -0.064384555487105921 0 0.025147618997233782 -0.083755381715051799 0 0.025147618997233782 -0.083755381715051799 0 0.034480708693362568 -0.103126207942998 0 0.01882058209311448 -0.098737630563725184 0 0.0069325651104038752 -0.095052248547683071 0 0.025147618997233782 -0.083755381715051799 0 0.02619357721188656 -0.098302951944368083 0 0.01882058209311448 -0.098737630563725184 0 0.025147618997233782 -0.083755381715051799 0 0.025147618997233782 -0.083755381715051799 0 0.042327808316206833 -0.088987494069532297 0 0.037891163343026273 -0.095770313516484823 0 0.025147618997233782 -0.083755381715051799 0 0.042327808316206833 -0.088987494069532297 0 0.036970317162578897 -0.070042792052594158 0 0.042327808316206833 -0.088987494069532297 0 0.036970317162578897 -0.070042792052594158 0 0.050428965608168161 -0.083944772772369003 0 0.036970317162578897 -0.070042792052594158 0 0.058126105024053583 -0.075701028618081451 0 0.050428965608168161 -0.083944772772369003 0 0.036970317162578897 -0.070042792052594158 0 0.058126105024053583 -0.075701028618081451 0 0.050673552749537262 -0.061186455987787429 0 0.036970317162578897 -0.070042792052594158 0 0.058126105024053583 -0.075701028618081451 0 0.058126105024053583 -0.075701028618081451 0 0.050673552749537262 -0.061186455987787429 0 0.069259223211010551 -0.058739629833054793 0 0.058126105024053583 -0.075701028618081451 0 0.050428965608168161 -0.083944772772369003 0 0.055529330906203392 -0.094004173683731734 0 0.058126105024053583 -0.075701028618081451 0 0.055529330906203392 -0.094004173683731734 0 0.068750242844015319 -0.091083318529088825 0 0.042327808316206833 -0.088987494069532297 0 0.055529330906203392 -0.094004173683731734 0 0.046696451588756432 -0.097802878130999304 0 0.042327808316206833 -0.088987494069532297 0 0.050428965608168161 -0.083944772772369003 0 0.055529330906203392 -0.094004173683731734 0 0.040803229119571779 -0.1051796057238427 0 0.068155319225873756 -0.1075072390418244 0 0.054972624502914187 -0.10073053024195019 0 0.055529330906203392 -0.094004173683731734 0 0.063678791674165652 -0.099158754629352849 0 0.054972624502914187 -0.10073053024195019 0 0.040803229119571779 -0.1051796057238427 0 0.068155319225873756 -0.1075072390418244 0 0.055106787242653887 -0.1114886547817843 0 0.040803229119571779 -0.1051796057238427 0 0.068155319225873756 -0.1075072390418244 0 0.054972624502914187 -0.10073053024195019 0 0.055529330906203392 -0.094004173683731734 0 0.046696451588756432 -0.097802878130999304 0 0.054972624502914187 -0.10073053024195019 0 0.046696451588756432 -0.097802878130999304 0 0.040803229119571779 -0.1051796057238427 0 0.054972624502914187 -0.10073053024195019 0 0.068155319225873756 -0.1075072390418244 0 0.063678791674165652 -0.099158754629352849 0 0.043813798389492113 -0.12249703417094381 0 0.067654802235677935 -0.1107707401905263 0 0.055106787242653887 -0.1114886547817843 0 0.043813798389492113 -0.12249703417094381 0 0.067654802235677935 -0.1107707401905263 0 0.059340662053475331 -0.1221951803252543 0 0.043813798389492113 -0.12249703417094381 0 0.067654802235677935 -0.1107707401905263 0 0.060374050000443519 -0.1275532196661501 0 0.059340662053475331 -0.1221951803252543 0 0.064670263353776528 -0.12479716283724571 0 0.053163921896686978 -0.12981450152049229 0 0.059340662053475331 -0.1221951803252543 0 0.043813798389492113 -0.12249703417094381 0 0.043813798389492113 -0.12249703417094381 0 0.034480708693362568 -0.103126207942998 0 0.043813798389492113 -0.12249703417094381 0 0.034480708693362568 -0.103126207942998 0 0.040803229119571779 -0.1051796057238427 0 0.055106787242653887 -0.1114886547817843 0 0.043813798389492113 -0.12249703417094381 0 0.040803229119571779 -0.1051796057238427 0 0.030708700954436261 -0.11632157342948719 0 0.043813798389492113 -0.12249703417094381 0 0.034480708693362568 -0.103126207942998 0 0.02035966690808487 -0.13403304341706221 0 0.030708700954436261 -0.11632157342948719 0 0.043813798389492113 -0.12249703417094381 0 0.025147618997233782 -0.083755381715051799 0 0.034480708693362568 -0.103126207942998 0 0.037891163343026273 -0.095770313516484823 0 0.034480708693362568 -0.103126207942998 0 0.037891163343026273 -0.095770313516484823 0 0.040803229119571779 -0.1051796057238427 0 0.042327808316206833 -0.088987494069532297 0 0.037891163343026273 -0.095770313516484823 0 0.046696451588756432 -0.097802878130999304 0 0.037891163343026273 -0.095770313516484823 0 0.046696451588756432 -0.097802878130999304 0 0.040803229119571779 -0.1051796057238427 0 0.029461474512617769 0.0091796361634523208 0 0.022339275083212859 -0.0015369494510790759 0 0.037895535239882719 -0.0087994323662799953 0 0.01935389797815475 -0.01358635523373667 0 0.022339275083212859 -0.0015369494510790759 0 0.037895535239882719 -0.0087994323662799953 0 0.010796000673796239 0.001043184006459454 0 0.01935389797815475 -0.01358635523373667 0 0.022339275083212859 -0.0015369494510790759 0 0.01935389797815475 -0.01358635523373667 0 0.0032282499690442449 -0.0088745875952064811 0 0.0089932597543199086 -0.019803541159899019 0 0.010796000673796239 0.001043184006459454 0 0.01935389797815475 -0.01358635523373667 0 0.0032282499690442449 -0.0088745875952064811 0 0.010796000673796239 0.001043184006459454 0 0.0032282499690442449 -0.0088745875952064811 0 -0.002425590017454001 -0.02652719064859925 0 0.0089932597543199086 -0.019803541159899019 0 0.015816481087536961 -0.03022603116205299 0 -0.002425590017454001 -0.02652719064859925 0 0.0032282499690442449 -0.0088745875952064811 0 0.0089932597543199086 -0.019803541159899019 0 -0.002425590017454001 -0.02652719064859925 0 0.0032282499690442449 -0.0088745875952064811 0 0.01935389797815475 -0.01358635523373667 0 0.0089932597543199086 -0.019803541159899019 0 0.015816481087536961 -0.03022603116205299 0 0.01935389797815475 -0.01358635523373667 0 0.03495982146815637 -0.027837101938657551 0 0.037895535239882719 -0.0087994323662799953 0 0.01935389797815475 -0.01358635523373667 0 0.015816481087536961 -0.03022603116205299 0 0.03495982146815637 -0.027837101938657551 0 0.015816481087536961 -0.03022603116205299 0 0.03027881400104852 -0.049119336344089458 0 0.03495982146815637 -0.027837101938657551 0 0.015816481087536961 -0.03022603116205299 0 0.006694469641824588 -0.045455873067852828 0 0.03027881400104852 -0.049119336344089458 0 -0.002425590017454001 -0.02652719064859925 0 0.006694469641824588 -0.045455873067852828 0 -0.002425590017454001 -0.02652719064859925 0 0.015816481087536961 -0.03022603116205299 0 0.006694469641824588 -0.045455873067852828 0 -0.0072901879044174342 -0.041715596354829257 0 0.006694469641824588 -0.045455873067852828 0 0.00076600631178217024 -0.05211500674271155 0 0.01581452930110442 -0.064384555487105921 0 0.006694469641824588 -0.045455873067852828 0 -0.012154785791383569 -0.056904002061058452 0 0.01581452930110442 -0.064384555487105921 0 0.01581452930110442 -0.064384555487105921 0 0.006694469641824588 -0.045455873067852828 0 0.00076600631178217024 -0.05211500674271155 0 -0.012154785791383569 -0.056904002061058452 0 0.01581452930110442 -0.064384555487105921 0 0.00076600631178217024 -0.05211500674271155 0 0.01581452930110442 -0.064384555487105921 0 0.036970317162578897 -0.070042792052594158 0 0.03027881400104852 -0.049119336344089458 0 0.01581452930110442 -0.064384555487105921 0 0.006694469641824588 -0.045455873067852828 0 0.03027881400104852 -0.049119336344089458 0 0.03027881400104852 -0.049119336344089458 0 0.050673552749537262 -0.061186455987787429 0 0.052234532451936558 -0.044945252325091223 0 0.036970317162578897 -0.070042792052594158 0 0.03027881400104852 -0.049119336344089458 0 0.050673552749537262 -0.061186455987787429 0 0.050673552749537262 -0.061186455987787429 0 0.052234532451936558 -0.044945252325091223 0 0.069259223211010551 -0.058739629833054793 0 0.052234532451936558 -0.044945252325091223 0 0.051495269860870982 -0.025705288154583349 0 0.079028650314971513 -0.03290540113351749 0 0.052234532451936558 -0.044945252325091223 0 0.03495982146815637 -0.027837101938657551 0 0.051495269860870982 -0.025705288154583349 0 0.03027881400104852 -0.049119336344089458 0 0.052234532451936558 -0.044945252325091223 0 0.03495982146815637 -0.027837101938657551 0 0.03495982146815637 -0.027837101938657551 0 0.051495269860870982 -0.025705288154583349 0 0.037895535239882719 -0.0087994323662799953 0 0.047704183673405648 0.010706721758899061 0 0.061846694789907057 -0.0094704265167526863 0 0.037895535239882719 -0.0087994323662799953 0 0.051495269860870982 -0.025705288154583349 0 0.061846694789907057 -0.0094704265167526863 0 0.037895535239882719 -0.0087994323662799953 0 0.074325727717583515 0.01378843070404526 0 0.061846694789907057 -0.0094704265167526863 0 0.083345215077867602 -0.0079048656384585556 0 0.061846694789907057 -0.0094704265167526863 0 0.083345215077867602 -0.0079048656384585556 0 0.079028650314971513 -0.03290540113351749 0 0.061846694789907057 -0.0094704265167526863 0 0.079028650314971513 -0.03290540113351749 0 0.051495269860870982 -0.025705288154583349 0 0.061846694789907057 -0.0094704265167526863 0 0.079028650314971513 -0.03290540113351749 0 0.083345215077867602 -0.0079048656384585556 0 0.079028650314971513 -0.03290540113351749 0 0.101048807594178 -0.017757655260091289 0 0.079028650314971513 -0.03290540113351749 0 0.096210605840036129 -0.056340375750282487 0 0.079028650314971513 -0.03290540113351749 0 0.096210605840036129 -0.056340375750282487 0 0.10449238007363421 -0.037784183895521677 0 0.052234532451936558 -0.044945252325091223 0 0.079028650314971513 -0.03290540113351749 0 0.069259223211010551 -0.058739629833054793 0 0.079028650314971513 -0.03290540113351749 0 0.069259223211010551 -0.058739629833054793 0 0.096210605840036129 -0.056340375750282487 0 0.096210605840036129 -0.056340375750282487 0 0.1236041787132157 -0.055477178961408607 0 0.10449238007363421 -0.037784183895521677 0 0.1236041787132157 -0.055477178961408607 0 0.12387061976482459 -0.031668313795711119 0 0.10449238007363421 -0.037784183895521677 0 0.079028650314971513 -0.03290540113351749 0 0.10449238007363421 -0.037784183895521677 0 0.101048807594178 -0.017757655260091289 0 0.12387061976482459 -0.031668313795711119 0 0.101048807594178 -0.017757655260091289 0 0.122836876780338 -0.0080023686202002862 0 0.12387061976482459 -0.031668313795711119 0 0.10449238007363421 -0.037784183895521677 0 0.101048807594178 -0.017757655260091289 0 0.1021263642761613 0.0080934557538357536 0 0.083345215077867602 -0.0079048656384585556 0 0.101048807594178 -0.017757655260091289 0 0.1021263642761613 0.0080934557538357536 0 0.101048807594178 -0.017757655260091289 0 0.122836876780338 -0.0080023686202002862 0 0.068155319225873756 -0.1075072390418244 0 0.095507409332175719 -0.1098348723598061 0 0.084516030009852916 -0.095251654868035301 0 0.068155319225873756 -0.1075072390418244 0 0.095507409332175719 -0.1098348723598061 0 0.096740449229263753 -0.1261362836634943 0 0.078468035540153733 -0.119691177032344 0 0.095507409332175719 -0.1098348723598061 0 0.078468035540153733 -0.119691177032344 0 0.068155319225873756 -0.1075072390418244 0 0.095507409332175719 -0.1098348723598061 0 0.078468035540153733 -0.119691177032344 0 0.068485934911068552 -0.120323168693099 0 0.067654802235677935 -0.1107707401905263 0 0.078468035540153733 -0.119691177032344 0 0.067654802235677935 -0.1107707401905263 0 0.068155319225873756 -0.1075072390418244 0 0.071462430678860128 -0.12708967450895889 0 0.078468035540153733 -0.119691177032344 0 0.068485934911068552 -0.120323168693099 0 0.059340662053475331 -0.1221951803252543 0 0.068485934911068552 -0.120323168693099 0 0.064670263353776528 -0.12479716283724571 0 0.059340662053475331 -0.1221951803252543 0 0.068485934911068552 -0.120323168693099 0 0.067654802235677935 -0.1107707401905263 0 0.071462430678860128 -0.12708967450895889 0 0.068485934911068552 -0.120323168693099 0 0.064670263353776528 -0.12479716283724571 0 0.055106787242653887 -0.1114886547817843 0 0.067654802235677935 -0.1107707401905263 0 0.068155319225873756 -0.1075072390418244 0 0.068155319225873756 -0.1075072390418244 0 0.071525554648294604 -0.098336569048198194 0 0.063678791674165652 -0.099158754629352849 0 0.084516030009852916 -0.095251654868035301 0 0.071525554648294604 -0.098336569048198194 0 0.068750242844015319 -0.091083318529088825 0 0.084516030009852916 -0.095251654868035301 0 0.068155319225873756 -0.1075072390418244 0 0.071525554648294604 -0.098336569048198194 0 0.071525554648294604 -0.098336569048198194 0 0.063678791674165652 -0.099158754629352849 0 0.068750242844015319 -0.091083318529088825 0 0.055529330906203392 -0.094004173683731734 0 0.063678791674165652 -0.099158754629352849 0 0.068750242844015319 -0.091083318529088825 0 0.058126105024053583 -0.075701028618081451 0 0.079281892885528268 -0.081359265183568744 0 0.084516030009852916 -0.095251654868035301 0 0.068750242844015319 -0.091083318529088825 0 0.079281892885528268 -0.081359265183568744 0 0.084516030009852916 -0.095251654868035301 0 0.079281892885528268 -0.081359265183568744 0 0.1133925613651007 -0.079775350367047512 0 0.058126105024053583 -0.075701028618081451 0 0.068750242844015319 -0.091083318529088825 0 0.079281892885528268 -0.081359265183568744 0 0.058126105024053583 -0.075701028618081451 0 0.069259223211010551 -0.058739629833054793 0 0.079281892885528268 -0.081359265183568744 0 0.069259223211010551 -0.058739629833054793 0 0.096210605840036129 -0.056340375750282487 0 0.079281892885528268 -0.081359265183568744 0 0.1133925613651007 -0.079775350367047512 0 0.1228594994384777 -0.11216250567778779 0 0.13637913026657961 -0.080283144323831865 0 0.096210605840036129 -0.056340375750282487 0 0.079281892885528268 -0.081359265183568744 0 0.1133925613651007 -0.079775350367047512 0 0.096210605840036129 -0.056340375750282487 0 0.1133925613651007 -0.079775350367047512 0 0.1236041787132157 -0.055477178961408607 0 0.1133925613651007 -0.079775350367047512 0 0.13637913026657961 -0.080283144323831865 0 0.096210605840036129 -0.056340375750282487 0 0.1236041787132157 -0.055477178961408607 0 0.1133925613651007 -0.079775350367047512 0 0.1133925613651007 -0.079775350367047512 0 0.095507409332175719 -0.1098348723598061 0 0.1228594994384777 -0.11216250567778779 0 0.084516030009852916 -0.095251654868035301 0 0.1133925613651007 -0.079775350367047512 0 0.095507409332175719 -0.1098348723598061 0 0.095507409332175719 -0.1098348723598061 0 0.1228594994384777 -0.11216250567778779 0 0.096740449229263753 -0.1261362836634943 0 0.095507409332175719 -0.1098348723598061 0 0.1228594994384777 -0.11216250567778779 0 0.1248974087783342 -0.1344038613932082 0 0.1228594994384777 -0.11216250567778779 0 0.13673274764512369 -0.12740791794242909 0 0.1228594994384777 -0.11216250567778779 0 0.15021158954477959 -0.1144901389957695 0 0.1228594994384777 -0.11216250567778779 0 0.14986891880036129 -0.095886396326945678 0 0.13637913026657961 -0.080283144323831865 0 0.1228594994384777 -0.11216250567778779 0 0.15021158954477959 -0.1144901389957695 0 0.13673274764512369 -0.12740791794242909 0 0.1228594994384777 -0.11216250567778779 0 0.15021158954477959 -0.1144901389957695 0 0.14986891880036129 -0.095886396326945678 0 0.1236041787132157 -0.055477178961408607 0 0.13637913026657961 -0.080283144323831865 0 0.1515742735527093 -0.059978761524416391 0 0.13637913026657961 -0.080283144323831865 0 0.15515729746160481 -0.078416631187229108 0 0.1515742735527093 -0.059978761524416391 0 0.14986891880036129 -0.095886396326945678 0 0.13637913026657961 -0.080283144323831865 0 0.15515729746160481 -0.078416631187229108 0 0.14986891880036129 -0.095886396326945678 0 0.15515729746160481 -0.078416631187229108 0 0.16562527180170389 -0.088165903943006829 0 0.15515729746160481 -0.078416631187229108 0 0.16562527180170389 -0.088165903943006829 0 0.17119087145799419 -0.071224656734943978 0 0.15515729746160481 -0.078416631187229108 0 0.17119087145799419 -0.071224656734943978 0 0.1515742735527093 -0.059978761524416391 0 0.17119087145799419 -0.071224656734943978 0 0.18421010288651099 -0.08872037598693612 0 0.1898750056928479 -0.071071789284550241 0 0.17119087145799419 -0.071224656734943978 0 0.17729561744431019 -0.052637434955394309 0 0.1898750056928479 -0.071071789284550241 0 0.16562527180170389 -0.088165903943006829 0 0.17119087145799419 -0.071224656734943978 0 0.18421010288651099 -0.08872037598693612 0 0.16562527180170389 -0.088165903943006829 0 0.18421010288651099 -0.08872037598693612 0 0.16898072428902219 -0.1018000538340491 0 0.18550682122928369 -0.106261721703763 0 0.17756367965108169 -0.11681777231375121 0 0.16898072428902219 -0.1018000538340491 0 0.18421010288651099 -0.08872037598693612 0 0.18550682122928369 -0.106261721703763 0 0.16898072428902219 -0.1018000538340491 0 0.17756367965108169 -0.11681777231375121 0 0.19591758866586109 -0.1222806876043501 0 0.1838500666790534 -0.13221698249948119 0 0.18550682122928369 -0.106261721703763 0 0.17756367965108169 -0.11681777231375121 0 0.19591758866586109 -0.1222806876043501 0 0.15021158954477959 -0.1144901389957695 0 0.17756367965108169 -0.11681777231375121 0 0.16898072428902219 -0.1018000538340491 0 0.15021158954477959 -0.1144901389957695 0 0.17756367965108169 -0.11681777231375121 0 0.1692833858395808 -0.1328212922047777 0 0.15021158954477959 -0.1144901389957695 0 0.17756367965108169 -0.11681777231375121 0 0.14986891880036129 -0.095886396326945678 0 0.16562527180170389 -0.088165903943006829 0 0.16898072428902219 -0.1018000538340491 0 0.15021158954477959 -0.1144901389957695 0 0.14986891880036129 -0.095886396326945678 0 0.16898072428902219 -0.1018000538340491 0 0.1419725902365104 0.00067524315852505318 0 0.1411544689898705 -0.02078314649373747 0 0.16102176066391491 -0.014168695802312401 0 0.16271339257430739 0.0049797236585138599 0 0.1419725902365104 0.00067524315852505318 0 0.16102176066391491 -0.014168695802312401 0 0.1419725902365104 0.00067524315852505318 0 0.16102176066391491 -0.014168695802312401 0 0.1419725902365104 0.00067524315852505318 0 0.122836876780338 -0.0080023686202002862 0 0.1411544689898705 -0.02078314649373747 0 0.12387061976482459 -0.031668313795711119 0 0.122836876780338 -0.0080023686202002862 0 0.1411544689898705 -0.02078314649373747 0 0.1411544689898705 -0.02078314649373747 0 0.15839678616377151 -0.036397697174499387 0 0.16102176066391491 -0.014168695802312401 0 0.1411544689898705 -0.02078314649373747 0 0.139602812491949 -0.041332192013695937 0 0.15839678616377151 -0.036397697174499387 0 0.139602812491949 -0.041332192013695937 0 0.1515742735527093 -0.059978761524416391 0 0.15839678616377151 -0.036397697174499387 0 0.12387061976482459 -0.031668313795711119 0 0.1411544689898705 -0.02078314649373747 0 0.139602812491949 -0.041332192013695937 0 0.1236041787132157 -0.055477178961408607 0 0.12387061976482459 -0.031668313795711119 0 0.139602812491949 -0.041332192013695937 0 0.1236041787132157 -0.055477178961408607 0 0.139602812491949 -0.041332192013695937 0 0.1515742735527093 -0.059978761524416391 0 0.17119087145799419 -0.071224656734943978 0 0.1515742735527093 -0.059978761524416391 0 0.17729561744431019 -0.052637434955394309 0 0.1515742735527093 -0.059978761524416391 0 0.17729561744431019 -0.052637434955394309 0 0.15839678616377151 -0.036397697174499387 0 0.17729561744431019 -0.052637434955394309 0 0.19219591329176269 -0.05715636337558036 0 0.1898750056928479 -0.071071789284550241 0 0.17729561744431019 -0.052637434955394309 0 0.15839678616377151 -0.036397697174499387 0 0.18007093109131939 -0.029012634763149851 0 0.17729561744431019 -0.052637434955394309 0 0.18007093109131939 -0.029012634763149851 0 0.19912010151872381 -0.043856573723987269 0 0.15839678616377151 -0.036397697174499387 0 0.18007093109131939 -0.029012634763149851 0 0.16102176066391491 -0.014168695802312401 0 0.18007093109131939 -0.029012634763149851 0 0.16102176066391491 -0.014168695802312401 0 0.18007093109131939 -0.029012634763149851 0 0.17739857159394909 -0.0043179500811540133 0 0.16102176066391491 -0.014168695802312401 0 0.18007093109131939 -0.029012634763149851 0 0.17739857159394909 -0.0043179500811540133 0 0.19331264946341581 -0.0135190697661496 0 0.16271339257430739 0.0049797236585138599 0 0.17739857159394909 -0.0043179500811540133 0 0.16102176066391491 -0.014168695802312401 0 0.20840023066242969 -0.00016392964902278939 0 0.19331264946341581 -0.0135190697661496 0 0.21098379844744669 -0.017945294351456049 0 0.20840023066242969 -0.00016392964902278939 0 0.21098379844744669 -0.017945294351456049 0 0.22810163109014539 -0.005375944402069642 0 0.19209443694944831 0.0053480433798115757 0 0.17739857159394909 -0.0043179500811540133 0 0.19331264946341581 -0.0135190697661496 0 0.19209443694944831 0.0053480433798115757 0 0.20840023066242969 -0.00016392964902278939 0 0.19331264946341581 -0.0135190697661496 0 0.18007093109131939 -0.029012634763149851 0 0.19331264946341581 -0.0135190697661496 0 0.19913956253097939 -0.028193897775694109 0 0.19331264946341581 -0.0135190697661496 0 0.19913956253097939 -0.028193897775694109 0 0.21098379844744669 -0.017945294351456049 0 0.19913956253097939 -0.028193897775694109 0 0.21098379844744669 -0.017945294351456049 0 0.2198743004634571 -0.037152030952944927 0 0.19912010151872381 -0.043856573723987269 0 0.21816927194612909 -0.058700512684823583 0 0.2198743004634571 -0.037152030952944927 0 0.19913956253097939 -0.028193897775694109 0 0.19912010151872381 -0.043856573723987269 0 0.2198743004634571 -0.037152030952944927 0 0.18007093109131939 -0.029012634763149851 0 0.19912010151872381 -0.043856573723987269 0 0.18007093109131939 -0.029012634763149851 0 0.19913956253097939 -0.028193897775694109 0 0.19912010151872381 -0.043856573723987269 0 0.19912010151872381 -0.043856573723987269 0 0.19219591329176269 -0.05715636337558036 0 0.20402213881948841 -0.064886150984686614 0 0.17729561744431019 -0.052637434955394309 0 0.19912010151872381 -0.043856573723987269 0 0.19219591329176269 -0.05715636337558036 0 0.19912010151872381 -0.043856573723987269 0 0.21816927194612909 -0.058700512684823583 0 0.19912010151872381 -0.043856573723987269 0 0.21816927194612909 -0.058700512684823583 0 0.20402213881948841 -0.064886150984686614 0 0.21816927194612909 -0.058700512684823583 0 0.20402213881948841 -0.064886150984686614 0 0.21816927194612909 -0.058700512684823583 0 0.2369775767644795 -0.050476841528380959 0 0.21816927194612909 -0.058700512684823583 0 0.2369775767644795 -0.050476841528380959 0 0.2198743004634571 -0.037152030952944927 0 0.21816927194612909 -0.058700512684823583 0 0.2369775767644795 -0.050476841528380959 0 0.23410453905136769 -0.071117963257607678 0 0.2484029069974942 -0.061374248800601452 0 0.2369775767644795 -0.050476841528380959 0 0.23410453905136769 -0.071117963257607678 0 0.25578588158283011 -0.042253170371938917 0 0.2484029069974942 -0.061374248800601452 0 0.2369775767644795 -0.050476841528380959 0 0.25578588158283011 -0.042253170371938917 0 0.2369775767644795 -0.050476841528380959 0 0.23964314873187881 -0.036371367284043297 0 0.25578588158283011 -0.042253170371938917 0 0.25339072374993599 -0.028668097594149119 0 0.23964314873187881 -0.036371367284043297 0 0.25578588158283011 -0.042253170371938917 0 0.2369775767644795 -0.050476841528380959 0 0.2369775767644795 -0.050476841528380959 0 0.23964314873187881 -0.036371367284043297 0 0.2198743004634571 -0.037152030952944927 0 0.23964314873187881 -0.036371367284043297 0 0.2198743004634571 -0.037152030952944927 0 0.23218726109869139 -0.02330669597280258 0 0.21098379844744669 -0.017945294351456049 0 0.2198743004634571 -0.037152030952944927 0 0.23218726109869139 -0.02330669597280258 0 0.21098379844744669 -0.017945294351456049 0 0.23218726109869139 -0.02330669597280258 0 0.25339072374993599 -0.028668097594149119 0 0.23964314873187881 -0.036371367284043297 0 0.23218726109869139 -0.02330669597280258 0 0.25339072374993599 -0.028668097594149119 0 0.23218726109869139 -0.02330669597280258 0 0.25339072374993599 -0.028668097594149119 0 0.23218726109869139 -0.02330669597280258 0 0.24449674383892731 -0.011473417160980499 0 0.2442639786172042 0.0070688571158914679 0 0.25328617053865732 -0.0061358056175155294 0 0.24449674383892731 -0.011473417160980499 0 0.23218726109869139 -0.02330669597280258 0 0.24449674383892731 -0.011473417160980499 0 0.22810163109014539 -0.005375944402069642 0 0.2442639786172042 0.0070688571158914679 0 0.24449674383892731 -0.011473417160980499 0 0.22810163109014539 -0.005375944402069642 0 0.21098379844744669 -0.017945294351456049 0 0.23218726109869139 -0.02330669597280258 0 0.22810163109014539 -0.005375944402069642 0 0.20513104026540971 -0.097519372086350073 0 0.2206240300367546 -0.09084258223858041 0 0.22294162904213249 -0.1058485262910976 0 0.20513104026540971 -0.097519372086350073 0 0.21279403669795949 -0.1192661086458517 0 0.22294162904213249 -0.1058485262910976 0 0.20513104026540971 -0.097519372086350073 0 0.21279403669795949 -0.1192661086458517 0 0.19591758866586109 -0.1222806876043501 0 0.20513104026540971 -0.097519372086350073 0 0.19591758866586109 -0.1222806876043501 0 0.18421010288651099 -0.08872037598693612 0 0.18550682122928369 -0.106261721703763 0 0.20513104026540971 -0.097519372086350073 0 0.18550682122928369 -0.106261721703763 0 0.20513104026540971 -0.097519372086350073 0 0.19591758866586109 -0.1222806876043501 0 0.18421010288651099 -0.08872037598693612 0 0.20513104026540971 -0.097519372086350073 0 0.2023731868003861 -0.080385570779123103 0 0.18421010288651099 -0.08872037598693612 0 0.2023731868003861 -0.080385570779123103 0 0.1898750056928479 -0.071071789284550241 0 0.2023731868003861 -0.080385570779123103 0 0.1898750056928479 -0.071071789284550241 0 0.20402213881948841 -0.064886150984686614 0 0.1898750056928479 -0.071071789284550241 0 0.20402213881948841 -0.064886150984686614 0 0.19219591329176269 -0.05715636337558036 0 0.1898750056928479 -0.071071789284550241 0 0.20402213881948841 -0.064886150984686614 0 0.2023731868003861 -0.080385570779123103 0 0.20402213881948841 -0.064886150984686614 0 0.21906491578381709 -0.07551638757015891 0 0.21816927194612909 -0.058700512684823583 0 0.20402213881948841 -0.064886150984686614 0 0.21906491578381709 -0.07551638757015891 0 0.2023731868003861 -0.080385570779123103 0 0.2206240300367546 -0.09084258223858041 0 0.21906491578381709 -0.07551638757015891 0 0.20513104026540971 -0.097519372086350073 0 0.2023731868003861 -0.080385570779123103 0 0.2206240300367546 -0.09084258223858041 0 0.2206240300367546 -0.09084258223858041 0 0.23464530119511451 -0.085568793692146317 0 0.2395881071336681 -0.1002168430126066 0 0.2206240300367546 -0.09084258223858041 0 0.21906491578381709 -0.07551638757015891 0 0.23464530119511451 -0.085568793692146317 0 0.21816927194612909 -0.058700512684823583 0 0.23410453905136769 -0.071117963257607678 0 0.21816927194612909 -0.058700512684823583 0 0.21906491578381709 -0.07551638757015891 0 0.23410453905136769 -0.071117963257607678 0 0.21906491578381709 -0.07551638757015891 0 0.23410453905136769 -0.071117963257607678 0 0.23464530119511451 -0.085568793692146317 0 0.25003980615660742 -0.083535413830390357 0 0.2484029069974942 -0.061374248800601452 0 0.23410453905136769 -0.071117963257607678 0 0.25003980615660742 -0.083535413830390357 0 0.23410453905136769 -0.071117963257607678 0 0.25003980615660742 -0.083535413830390357 0 0.2395881071336681 -0.1002168430126066 0 0.25003980615660742 -0.083535413830390357 0 0.23464530119511451 -0.085568793692146317 0 0.2395881071336681 -0.1002168430126066 0 0.25003980615660742 -0.083535413830390357 0 0.23410453905136769 -0.071117963257607678 0 0.23464530119511451 -0.085568793692146317 0 0.26094565753913429 -0.1037101887603526 0 0.2395881071336681 -0.1002168430126066 0 0.23839366808956949 -0.1193040881922396 0 0.2395881071336681 -0.1002168430126066 0 0.22294162904213249 -0.1058485262910976 0 0.23839366808956949 -0.1193040881922396 0 0.2206240300367546 -0.09084258223858041 0 0.2395881071336681 -0.1002168430126066 0 0.22294162904213249 -0.1058485262910976 0 0.21279403669795949 -0.1192661086458517 0 0.23839366808956949 -0.1193040881922396 0 0.21584167864000459 -0.13489798762412661 0 0.21279403669795949 -0.1192661086458517 0 0.22294162904213249 -0.1058485262910976 0 0.23839366808956949 -0.1193040881922396 0 0.25411809373254007 -0.1218374527257427 0 0.23839366808956949 -0.1193040881922396 0 0.24525710042236801 -0.13208633388166979 0 0.26094565753913429 -0.1037101887603526 0 0.23839366808956949 -0.1193040881922396 0 0.23839366808956949 -0.1193040881922396 0 0.24525710042236801 -0.13208633388166979 0 0.23124951676752059 -0.14017239399735329 0 0.25170293511638508 -0.14198310364294889 0 0.24525710042236801 -0.13208633388166979 0 0.24187987050451751 -0.1468481791685522 0 0.24525710042236801 -0.13208633388166979 0 0.24187987050451751 -0.1468481791685522 0 0.23124951676752059 -0.14017239399735329 0 0.25144013321275083 -0.15159102871840449 0 0.24187987050451751 -0.1468481791685522 0 0.24258011115663619 -0.15871761198029519 0 0.25170293511638508 -0.14198310364294889 0 0.25144013321275083 -0.15159102871840449 0 0.24187987050451751 -0.1468481791685522 0 0.24187987050451751 -0.1468481791685522 0 0.2290494263514441 -0.15653860279064141 0 0.24258011115663619 -0.15871761198029519 0 0.21980327806420949 -0.14844630365017589 0 0.23124951676752059 -0.14017239399735329 0 0.2290494263514441 -0.15653860279064141 0 0.24187987050451751 -0.1468481791685522 0 0.23124951676752059 -0.14017239399735329 0 0.2290494263514441 -0.15653860279064141 0 0.21980327806420949 -0.14844630365017589 0 0.23124951676752059 -0.14017239399735329 0 0.21584167864000459 -0.13489798762412661 0 0.21980327806420949 -0.14844630365017589 0 0.2166417662613 -0.15855234905211921 0 0.2290494263514441 -0.15653860279064141 0 0.23839366808956949 -0.1193040881922396 0 0.23124951676752059 -0.14017239399735329 0 0.21584167864000459 -0.13489798762412661 0 0.23839366808956949 -0.1193040881922396 0 0.21584167864000459 -0.13489798762412661 0 0.21279403669795949 -0.1192661086458517 0 0.21584167864000459 -0.13489798762412661 0 0.19853861548477991 -0.13574599007694599 0 0.21584167864000459 -0.13489798762412661 0 0.2062340023007784 -0.1520701847866392 0 0.1932896891904396 -0.1504918870560138 0 0.21584167864000459 -0.13489798762412661 0 0.1932896891904396 -0.1504918870560138 0 0.21980327806420949 -0.14844630365017589 0 0.21584167864000459 -0.13489798762412661 0 0.2062340023007784 -0.1520701847866392 0 0.21980327806420949 -0.14844630365017589 0 0.2062340023007784 -0.1520701847866392 0 0.2166417662613 -0.15855234905211921 0 0.2062340023007784 -0.1520701847866392 0 0.19628617356048669 -0.15603927628709641 0 0.1932896891904396 -0.1504918870560138 0 0.2062340023007784 -0.1520701847866392 0 0.19628617356048669 -0.15603927628709641 0 0.20159818279963729 -0.1582418217796705 0 0.1932896891904396 -0.1504918870560138 0 0.18783960563216809 -0.15618922641657851 0 0.18670413706631259 -0.14704200312235 0 0.19628617356048669 -0.15603927628709641 0 0.1932896891904396 -0.1504918870560138 0 0.18783960563216809 -0.15618922641657851 0 0.1932896891904396 -0.1504918870560138 0 0.19853861548477991 -0.13574599007694599 0 0.18670413706631259 -0.14704200312235 0 0.21279403669795949 -0.1192661086458517 0 0.19591758866586109 -0.1222806876043501 0 0.19853861548477991 -0.13574599007694599 0 0.19591758866586109 -0.1222806876043501 0 0.18670413706631259 -0.14704200312235 0 0.19591758866586109 -0.1222806876043501 0 0.1838500666790534 -0.13221698249948119 0 0.18670413706631259 -0.14704200312235 0 0.19591758866586109 -0.1222806876043501 0 0.19853861548477991 -0.13574599007694599 0 0.18670413706631259 -0.14704200312235 0 0.21584167864000459 -0.13489798762412661 0 0.1932896891904396 -0.1504918870560138 0 0.19853861548477991 -0.13574599007694599 0 0.1965250741672345 -0.17463117629778149 0 0.1941861010806572 -0.18997457817236699 0 0.1755032210676101 -0.1771446646643344 0 0.1965250741672345 -0.17463117629778149 0 0.19392452753968681 -0.17210062059548489 0 0.1755032210676101 -0.1771446646643344 0 0.1965250741672345 -0.17463117629778149 0 0.20670748918739651 -0.18105034019761479 0 0.1941861010806572 -0.18997457817236699 0 0.1903808709954031 -0.16842344646574081 0 0.188223468008381 -0.16693637581548049 0 0.184912896847575 -0.16929531972285419 0 0.19392452753968681 -0.17210062059548489 0 0.1903808709954031 -0.16842344646574081 0 0.184912896847575 -0.16929531972285419 0 0.188223468008381 -0.16693637581548049 0 0.1918386465633603 -0.16507741028613421 0 0.18646087667375311 -0.16351881724751849 0 0.1903808709954031 -0.16842344646574081 0 0.188223468008381 -0.16693637581548049 0 0.1918386465633603 -0.16507741028613421 0 0.1903808709954031 -0.16842344646574081 0 0.1918386465633603 -0.16507741028613421 0 0.193294716972611 -0.16835021135533759 0 0.1918386465633603 -0.16507741028613421 0 0.193294716972611 -0.16835021135533759 0 0.1974986643193517 -0.16722769678853081 0 0.19392452753968681 -0.17210062059548489 0 0.193294716972611 -0.16835021135533759 0 0.1974986643193517 -0.16722769678853081 0 0.19392452753968681 -0.17210062059548489 0 0.1903808709954031 -0.16842344646574081 0 0.193294716972611 -0.16835021135533759 0 0.19628617356048669 -0.15603927628709641 0 0.18783960563216809 -0.15618922641657851 0 0.19186997678880369 -0.16031838560897729 0 0.18783960563216809 -0.15618922641657851 0 0.19186997678880369 -0.16031838560897729 0 0.18646087667375311 -0.16351881724751849 0 0.1918386465633603 -0.16507741028613421 0 0.19186997678880369 -0.16031838560897729 0 0.18646087667375311 -0.16351881724751849 0 0.1918386465633603 -0.16507741028613421 0 0.19186997678880369 -0.16031838560897729 0 0.19732120004741571 -0.1611871383226002 0 0.19628617356048669 -0.15603927628709641 0 0.19186997678880369 -0.16031838560897729 0 0.19732120004741571 -0.1611871383226002 0 0.19732120004741571 -0.1611871383226002 0 0.20159818279963729 -0.1582418217796705 0 0.20655135528986829 -0.16367068772234619 0 0.19732120004741571 -0.1611871383226002 0 0.1974986643193517 -0.16722769678853081 0 0.20655135528986829 -0.16367068772234619 0 0.19628617356048669 -0.15603927628709641 0 0.19732120004741571 -0.1611871383226002 0 0.20159818279963729 -0.1582418217796705 0 0.1965250741672345 -0.17463117629778149 0 0.1974986643193517 -0.16722769678853081 0 0.20655135528986829 -0.16367068772234619 0 0.1965250741672345 -0.17463117629778149 0 0.19392452753968681 -0.17210062059548489 0 0.1974986643193517 -0.16722769678853081 0 0.1918386465633603 -0.16507741028613421 0 0.19732120004741571 -0.1611871383226002 0 0.1974986643193517 -0.16722769678853081 0 0.1965250741672345 -0.17463117629778149 0 0.20655135528986829 -0.16367068772234619 0 0.21754692726685851 -0.17211768793122581 0 0.2062340023007784 -0.1520701847866392 0 0.20159818279963729 -0.1582418217796705 0 0.20655135528986829 -0.16367068772234619 0 0.2062340023007784 -0.1520701847866392 0 0.20655135528986829 -0.16367068772234619 0 0.2166417662613 -0.15855234905211921 0 0.20655135528986829 -0.16367068772234619 0 0.2166417662613 -0.15855234905211921 0 0.21754692726685851 -0.17211768793122581 0 0.2166417662613 -0.15855234905211921 0 0.21754692726685851 -0.17211768793122581 0 0.1965250741672345 -0.17463117629778149 0 0.21754692726685851 -0.17211768793122581 0 0.20670748918739651 -0.18105034019761479 0 0.20670748918739651 -0.18105034019761479 0 0.21857185423483561 -0.18747791838908501 0 0.1941861010806572 -0.18997457817236699 0 0.1965250741672345 -0.17463117629778149 0 0.21754692726685851 -0.17211768793122581 0 0.21754692726685851 -0.17211768793122581 0 0.21857185423483561 -0.18747791838908501 0 0.21754692726685851 -0.17211768793122581 0 0.20670748918739651 -0.18105034019761479 0 0.21857185423483561 -0.18747791838908501 0 0.22816669959096239 -0.1861916549419301 0 0.2367550277378207 -0.16982106180370901 0 0.21754692726685851 -0.17211768793122581 0 0.21857185423483561 -0.18747791838908501 0 0.22816669959096239 -0.1861916549419301 0 0.21754692726685851 -0.17211768793122581 0 0.22816669959096239 -0.1861916549419301 0 0.2367550277378207 -0.16982106180370901 0 0.21754692726685851 -0.17211768793122581 0 0.2367550277378207 -0.16982106180370901 0 0.21754692726685851 -0.17211768793122581 0 0.2290494263514441 -0.15653860279064141 0 0.2367550277378207 -0.16982106180370901 0 0.2166417662613 -0.15855234905211921 0 0.21754692726685851 -0.17211768793122581 0 0.2290494263514441 -0.15653860279064141 0 0.26115779961563201 -0.1669033321946192 0 0.2367550277378207 -0.16982106180370901 0 0.25312937396458451 -0.16432342264118821 0 0.2367550277378207 -0.16982106180370901 0 0.2461464393348303 -0.16309120823700429 0 0.2367550277378207 -0.16982106180370901 0 0.24258011115663619 -0.15871761198029519 0 0.2461464393348303 -0.16309120823700429 0 0.2290494263514441 -0.15653860279064141 0 0.2367550277378207 -0.16982106180370901 0 0.24258011115663619 -0.15871761198029519 0 0.2367550277378207 -0.16982106180370901 0 0.24258011115663619 -0.15871761198029519 0 0.25212124448027978 -0.15950273652282421 0 0.24258011115663619 -0.15871761198029519 0 0.2461464393348303 -0.16309120823700429 0 0.25212124448027978 -0.15950273652282421 0 0.25144013321275083 -0.15159102871840449 0 0.24258011115663619 -0.15871761198029519 0 0.22816669959096239 -0.1861916549419301 0 0.2367550277378207 -0.16982106180370901 0 0.240606971442966 -0.18253824768359339 0 0.25310032305402841 -0.17233484377170791 0 0.2367550277378207 -0.16982106180370901 0 0.2490821810095811 -0.177020029302313 0 0.2367550277378207 -0.16982106180370901 0 0.240606971442966 -0.18253824768359339 0 0.2490821810095811 -0.177020029302313 0 0.25452631915530111 -0.1872025564447036 0 0.240606971442966 -0.18253824768359339 0 0.2490821810095811 -0.177020029302313 0 0.22816669959096239 -0.1861916549419301 0 0.240606971442966 -0.18253824768359339 0 0.23942357238690809 -0.198782107605848 0 0.25551259201776633 -0.2018500530230013 0 0.25452631915530111 -0.1872025564447036 0 0.23942357238690809 -0.198782107605848 0 0.25452631915530111 -0.1872025564447036 0 0.240606971442966 -0.18253824768359339 0 0.23942357238690809 -0.198782107605848 0 0.23942357238690809 -0.198782107605848 0 0.24511752324188171 -0.21502126601511071 0 0.23132238316470499 -0.21555241897756761 0 0.25551259201776633 -0.2018500530230013 0 0.23942357238690809 -0.198782107605848 0 0.24511752324188171 -0.21502126601511071 0 0.24511752324188171 -0.21502126601511071 0 0.23132238316470499 -0.21555241897756761 0 0.2392739712435725 -0.22539868632884061 0 0.23132238316470499 -0.21555241897756761 0 0.21957837144410511 -0.20256224808015169 0 0.2214600936236687 -0.2307629757797072 0 0.21957837144410511 -0.20256224808015169 0 0.2214600936236687 -0.2307629757797072 0 0.23942357238690809 -0.198782107605848 0 0.23132238316470499 -0.21555241897756761 0 0.21957837144410511 -0.20256224808015169 0 0.22816669959096239 -0.1861916549419301 0 0.23942357238690809 -0.198782107605848 0 0.21957837144410511 -0.20256224808015169 0 0.22816669959096239 -0.1861916549419301 0 0.21957837144410511 -0.20256224808015169 0 0.21857185423483561 -0.18747791838908501 0 0.22816669959096239 -0.1861916549419301 0 0.21957837144410511 -0.20256224808015169 0 0.21857185423483561 -0.18747791838908501 0 0.21957837144410511 -0.20256224808015169 0 0.25387513984481591 -0.25857931195517603 0 0.2381591848617218 -0.25228348889829172 0 0.24332510085663281 -0.23797516366695659 0 0.25514475533097453 -0.2276816072048613 0 0.24332510085663281 -0.23797516366695659 0 0.2392739712435725 -0.22539868632884061 0 0.25514475533097453 -0.2276816072048613 0 0.24511752324188171 -0.21502126601511071 0 0.2392739712435725 -0.22539868632884061 0 0.24332510085663281 -0.23797516366695659 0 0.2392739712435725 -0.22539868632884061 0 0.2214600936236687 -0.2307629757797072 0 0.23132238316470499 -0.21555241897756761 0 0.2392739712435725 -0.22539868632884061 0 0.2214600936236687 -0.2307629757797072 0 0.2381591848617218 -0.25228348889829172 0 0.2233418158032322 -0.25896370347926301 0 0.2214600936236687 -0.2307629757797072 0 0.2233418158032322 -0.25896370347926301 0 0.2214600936236687 -0.2307629757797072 0 0.2381591848617218 -0.25228348889829172 0 0.24332510085663281 -0.23797516366695659 0 0.2214600936236687 -0.2307629757797072 0 0.2233418158032322 -0.25896370347926301 0 0.2214600936236687 -0.2307629757797072 0 0.20158087660853621 -0.23686807110207961 0 0.2214600936236687 -0.2307629757797072 0 0.21057962402632061 -0.21971515959111559 0 0.20158087660853621 -0.23686807110207961 0 0.21057962402632061 -0.21971515959111559 0 0.19765880684838061 -0.22387356406575989 0 0.20158087660853621 -0.23686807110207961 0 0.21057962402632061 -0.21971515959111559 0 0.20158087660853621 -0.23686807110207961 0 0.19765880684838061 -0.22387356406575989 0 0.1841036841889383 -0.2153674336905981 0 0.18657401407441901 -0.24009283179335739 0 0.19765880684838061 -0.22387356406575989 0 0.20158087660853621 -0.23686807110207961 0 0.18657401407441901 -0.24009283179335739 0 0.19459367959613491 -0.25885292547783839 0 0.20158087660853621 -0.23686807110207961 0 0.18657401407441901 -0.24009283179335739 0 0.21857185423483561 -0.18747791838908501 0 0.20308544543628271 -0.20513543657944561 0 0.1941861010806572 -0.18997457817236699 0 0.21857185423483561 -0.18747791838908501 0 0.21957837144410511 -0.20256224808015169 0 0.20308544543628271 -0.20513543657944561 0 0.21857185423483561 -0.18747791838908501 0 0.1941861010806572 -0.18997457817236699 0 0.21057962402632061 -0.21971515959111559 0 0.19765880684838061 -0.22387356406575989 0 0.20308544543628271 -0.20513543657944561 0 0.21957837144410511 -0.20256224808015169 0 0.21057962402632061 -0.21971515959111559 0 0.21957837144410511 -0.20256224808015169 0 0.21057962402632061 -0.21971515959111559 0 0.20308544543628271 -0.20513543657944561 0 0.21957837144410511 -0.20256224808015169 0 0.2214600936236687 -0.2307629757797072 0 0.21057962402632061 -0.21971515959111559 0 0.20308544543628271 -0.20513543657944561 0 0.1941861010806572 -0.18997457817236699 0 0.1841036841889383 -0.2153674336905981 0 0.19765880684838061 -0.22387356406575989 0 0.20308544543628271 -0.20513543657944561 0 0.1841036841889383 -0.2153674336905981 0 0.1941861010806572 -0.18997457817236699 0 0.1841036841889383 -0.2153674336905981 0 0.16980034792647919 -0.1924712379556523 0 0.1941861010806572 -0.18997457817236699 0 0.16980034792647919 -0.1924712379556523 0 0.16060916982537091 -0.21717269304929279 0 0.16980034792647919 -0.1924712379556523 0 0.1841036841889383 -0.2153674336905981 0 0.16060916982537091 -0.21717269304929279 0 0.16980034792647919 -0.1924712379556523 0 0.16980034792647919 -0.1924712379556523 0 0.14561817384739559 -0.19494705492607431 0 0.16060916982537091 -0.21717269304929279 0 0.16980034792647919 -0.1924712379556523 0 0.14561817384739559 -0.19494705492607431 0 0.17279167474191279 -0.2546933480936433 0 0.18657401407441901 -0.24009283179335739 0 0.17109930691098069 -0.23384009095396491 0 0.1841036841889383 -0.2153674336905981 0 0.18657401407441901 -0.24009283179335739 0 0.17109930691098069 -0.23384009095396491 0 0.1841036841889383 -0.2153674336905981 0 0.16060916982537091 -0.21717269304929279 0 0.17109930691098069 -0.23384009095396491 0 0.16060916982537091 -0.21717269304929279 0 0.17109930691098069 -0.23384009095396491 0 0.15141799172426251 -0.24187414814293301 0 0.17279167474191279 -0.2546933480936433 0 0.17109930691098069 -0.23384009095396491 0 0.15141799172426251 -0.24187414814293301 0 0.15141799172426251 -0.24187414814293301 0 0.14558983587969801 -0.22685100688446841 0 0.13295340379124021 -0.23611156067439579 0 0.16060916982537091 -0.21717269304929279 0 0.15141799172426251 -0.24187414814293301 0 0.16060916982537091 -0.21717269304929279 0 0.15141799172426251 -0.24187414814293301 0 0.14558983587969801 -0.22685100688446841 0 0.16060916982537091 -0.21717269304929279 0 0.14558983587969801 -0.22685100688446841 0 0.1353895578685973 -0.21437637252844141 0 0.1135112540669537 -0.23007984765974429 0 0.13295340379124021 -0.23611156067439579 0 0.1353895578685973 -0.21437637252844141 0 0.14558983587969801 -0.22685100688446841 0 0.13295340379124021 -0.23611156067439579 0 0.1353895578685973 -0.21437637252844141 0 0.1350240927259482 -0.25580971960953952 0 0.15141799172426251 -0.24187414814293301 0 0.13295340379124021 -0.23611156067439579 0 0.1350240927259482 -0.25580971960953952 0 0.1224052182762337 -0.24746994087236879 0 0.13295340379124021 -0.23611156067439579 0 0.16980034792647919 -0.1924712379556523 0 0.14561817384739559 -0.19494705492607431 0 0.14973341694245559 -0.18022584416692661 0 0.16060916982537091 -0.21717269304929279 0 0.14561817384739559 -0.19494705492607431 0 0.1353895578685973 -0.21437637252844141 0 0.12143599976831219 -0.19742287189649671 0 0.1239636128173006 -0.18330702366951579 0 0.14561817384739559 -0.19494705492607431 0 0.12143599976831219 -0.19742287189649671 0 0.14561817384739559 -0.19494705492607431 0 0.12143599976831219 -0.19742287189649671 0 0.14561817384739559 -0.19494705492607431 0 0.1353895578685973 -0.21437637252844141 0 0.1172074244291887 -0.17071274400242811 0 0.1239636128173006 -0.18330702366951579 0 0.14734905494797679 -0.17125803132138931 0 0.1239636128173006 -0.18330702366951579 0 0.14973341694245559 -0.18022584416692661 0 0.14734905494797679 -0.17125803132138931 0 0.1239636128173006 -0.18330702366951579 0 0.14561817384739559 -0.19494705492607431 0 0.14973341694245559 -0.18022584416692661 0 0.1239636128173006 -0.18330702366951579 0 0.14973341694245559 -0.18022584416692661 0 0.15036021513511341 -0.1625038974801461 0 0.15835911523973389 -0.16445046575460739 0 0.1564778344051258 -0.1568707500538746 0 0.15036021513511341 -0.1625038974801461 0 0.14619396387243039 -0.1548148167256988 0 0.1564778344051258 -0.1568707500538746 0 0.15036021513511341 -0.1625038974801461 0 0.14734905494797679 -0.17125803132138931 0 0.15835911523973389 -0.16445046575460739 0 0.14734905494797679 -0.17125803132138931 0 0.142607209134584 -0.16151995524343801 0 0.13238546620762839 -0.16326162299819899 0 0.15036021513511341 -0.1625038974801461 0 0.14734905494797679 -0.17125803132138931 0 0.142607209134584 -0.16151995524343801 0 0.142607209134584 -0.16151995524343801 0 0.13550524663382019 -0.15498248538837611 0 0.14619396387243039 -0.1548148167256988 0 0.15036021513511341 -0.1625038974801461 0 0.142607209134584 -0.16151995524343801 0 0.14619396387243039 -0.1548148167256988 0 0.1172074244291887 -0.17071274400242811 0 0.14734905494797679 -0.17125803132138931 0 0.13238546620762839 -0.16326162299819899 0 0.142607209134584 -0.16151995524343801 0 0.13238546620762839 -0.16326162299819899 0 0.13550524663382019 -0.15498248538837611 0 0.1172074244291887 -0.17071274400242811 0 0.14734905494797679 -0.17125803132138931 0 0.1199774048008859 -0.1518246264036438 0 0.13238546620762839 -0.16326162299819899 0 0.13550524663382019 -0.15498248538837611 0 0.1248974087783342 -0.1344038613932082 0 0.1199774048008859 -0.1518246264036438 0 0.13636218915357209 -0.14349140557090059 0 0.1199774048008859 -0.1518246264036438 0 0.13636218915357209 -0.14349140557090059 0 0.13550524663382019 -0.15498248538837611 0 0.13636218915357209 -0.14349140557090059 0 0.13550524663382019 -0.15498248538837611 0 0.14619396387243039 -0.1548148167256988 0 0.1248974087783342 -0.1344038613932082 0 0.13636218915357209 -0.14349140557090059 0 0.13673274764512369 -0.12740791794242909 0 0.13636218915357209 -0.14349140557090059 0 0.13673274764512369 -0.12740791794242909 0 0.15179981894433481 -0.13428439542417911 0 0.15021158954477959 -0.1144901389957695 0 0.13673274764512369 -0.12740791794242909 0 0.15179981894433481 -0.13428439542417911 0 0.13636218915357209 -0.14349140557090059 0 0.14619396387243039 -0.1548148167256988 0 0.1534737310622267 -0.146309080591004 0 0.13636218915357209 -0.14349140557090059 0 0.15179981894433481 -0.13428439542417911 0 0.1534737310622267 -0.146309080591004 0 0.15179981894433481 -0.13428439542417911 0 0.1534737310622267 -0.146309080591004 0 0.1629157816416516 -0.14256669824426621 0 0.14619396387243039 -0.1548148167256988 0 0.1534737310622267 -0.146309080591004 0 0.1564778344051258 -0.1568707500538746 0 0.1534737310622267 -0.146309080591004 0 0.1663472006871273 -0.15291700755643739 0 0.1564778344051258 -0.1568707500538746 0 0.1534737310622267 -0.146309080591004 0 0.1629157816416516 -0.14256669824426621 0 0.1663472006871273 -0.15291700755643739 0 0.1629157816416516 -0.14256669824426621 0 0.1692833858395808 -0.1328212922047777 0 0.17367477167498829 -0.14650171544493301 0 0.1629157816416516 -0.14256669824426621 0 0.1663472006871273 -0.15291700755643739 0 0.17367477167498829 -0.14650171544493301 0 0.1663472006871273 -0.15291700755643739 0 0.1735950126508996 -0.15314424458671999 0 0.17367477167498829 -0.14650171544493301 0 0.1663472006871273 -0.15291700755643739 0 0.1735950126508996 -0.15314424458671999 0 0.17189888750643589 -0.15951079490884421 0 0.15021158954477959 -0.1144901389957695 0 0.15179981894433481 -0.13428439542417911 0 0.1692833858395808 -0.1328212922047777 0 0.15179981894433481 -0.13428439542417911 0 0.1629157816416516 -0.14256669824426621 0 0.1692833858395808 -0.1328212922047777 0 0.17756367965108169 -0.11681777231375121 0 0.1692833858395808 -0.1328212922047777 0 0.1838500666790534 -0.13221698249948119 0 0.1692833858395808 -0.1328212922047777 0 0.17976483490536099 -0.140609749609448 0 0.1838500666790534 -0.13221698249948119 0 0.1692833858395808 -0.1328212922047777 0 0.17976483490536099 -0.140609749609448 0 0.17367477167498829 -0.14650171544493301 0 0.17976483490536099 -0.140609749609448 0 0.1838500666790534 -0.13221698249948119 0 0.18670413706631259 -0.14704200312235 0 0.17840993830560359 -0.14910898424536351 0 0.1735950126508996 -0.15314424458671999 0 0.17764426508034281 -0.15768272077802201 0 0.17840993830560359 -0.14910898424536351 0 0.1735950126508996 -0.15314424458671999 0 0.17367477167498829 -0.14650171544493301 0 0.17976483490536099 -0.140609749609448 0 0.17840993830560359 -0.14910898424536351 0 0.17367477167498829 -0.14650171544493301 0 0.17976483490536099 -0.140609749609448 0 0.17840993830560359 -0.14910898424536351 0 0.18670413706631259 -0.14704200312235 0 0.17840993830560359 -0.14910898424536351 0 0.18670413706631259 -0.14704200312235 0 0.17764426508034281 -0.15768272077802201 0 0.18783960563216809 -0.15618922641657851 0 0.18646087667375311 -0.16351881724751849 0 0.17749068546676491 -0.1718033186403502 0 0.18670413706631259 -0.14704200312235 0 0.17749068546676491 -0.1718033186403502 0 0.18783960563216809 -0.15618922641657851 0 0.18670413706631259 -0.14704200312235 0 0.17749068546676491 -0.1718033186403502 0 0.18670413706631259 -0.14704200312235 0 0.17764426508034281 -0.15768272077802201 0 0.17749068546676491 -0.1718033186403502 0 0.19392452753968681 -0.17210062059548489 0 0.17749068546676491 -0.1718033186403502 0 0.184912896847575 -0.16929531972285419 0 0.17764426508034281 -0.15768272077802201 0 0.17326524905431351 -0.16369993339582151 0 0.17189888750643589 -0.15951079490884421 0 0.1735950126508996 -0.15314424458671999 0 0.17764426508034281 -0.15768272077802201 0 0.17189888750643589 -0.15951079490884421 0 0.17326524905431351 -0.16369993339582151 0 0.17749068546676491 -0.1718033186403502 0 0.16602715816371039 -0.16580289925606961 0 0.17764426508034281 -0.15768272077802201 0 0.17326524905431351 -0.16369993339582151 0 0.17749068546676491 -0.1718033186403502 0 0.18646087667375311 -0.16351881724751849 0 0.17749068546676491 -0.1718033186403502 0 0.184912896847575 -0.16929531972285419 0 0.188223468008381 -0.16693637581548049 0 0.18646087667375311 -0.16351881724751849 0 0.184912896847575 -0.16929531972285419 0 0.1965250741672345 -0.17463117629778149 0 0.1755032210676101 -0.1771446646643344 0 0.1941861010806572 -0.18997457817236699 0 0.16980034792647919 -0.1924712379556523 0 0.1755032210676101 -0.1771446646643344 0 0.19392452753968681 -0.17210062059548489 0 0.17749068546676491 -0.1718033186403502 0 0.1755032210676101 -0.1771446646643344 0 0.19392452753968681 -0.17210062059548489 0 0.17749068546676491 -0.1718033186403502 0 0.16980034792647919 -0.1924712379556523 0 0.1755032210676101 -0.1771446646643344 0 0.17749068546676491 -0.1718033186403502 0 0.1755032210676101 -0.1771446646643344 0 0.14734905494797679 -0.17125803132138931 0 0.17749068546676491 -0.1718033186403502 0 0.1755032210676101 -0.1771446646643344 0 0.14973341694245559 -0.18022584416692661 0 0.14734905494797679 -0.17125803132138931 0 0.1755032210676101 -0.1771446646643344 0 0.14973341694245559 -0.18022584416692661 0 0.1755032210676101 -0.1771446646643344 0 0.16980034792647919 -0.1924712379556523 0 0.14973341694245559 -0.18022584416692661 0 0.1755032210676101 -0.1771446646643344 0 0.14734905494797679 -0.17125803132138931 0 0.17749068546676491 -0.1718033186403502 0 0.14734905494797679 -0.17125803132138931 0 0.17749068546676491 -0.1718033186403502 0 0.16602715816371039 -0.16580289925606961 0 0.14734905494797679 -0.17125803132138931 0 0.15835911523973389 -0.16445046575460739 0 0.16602715816371039 -0.16580289925606961 0 0.15835911523973389 -0.16445046575460739 0 0.1564778344051258 -0.1568707500538746 0 0.16413278043412291 -0.16022923221535371 0 0.1663472006871273 -0.15291700755643739 0 0.1564778344051258 -0.1568707500538746 0 0.16413278043412291 -0.16022923221535371 0 0.15835911523973389 -0.16445046575460739 0 0.16413278043412291 -0.16022923221535371 0 0.16602715816371039 -0.16580289925606961 0 0.17189888750643589 -0.15951079490884421 0 0.16413278043412291 -0.16022923221535371 0 0.16602715816371039 -0.16580289925606961 0 0.1663472006871273 -0.15291700755643739 0 0.17189888750643589 -0.15951079490884421 0 0.16413278043412291 -0.16022923221535371 0 0.17326524905431351 -0.16369993339582151 0 0.17189888750643589 -0.15951079490884421 0 0.16602715816371039 -0.16580289925606961 0 
</DataArray>
</Points>
<Cells>
<DataArray type="UInt32" Name="connectivity" format="ascii">
0 1 2 3 4 5 6 7 8 9 10 11 12 13 14 15 16 17 18 19 20 21 22 23 24 25 26 27 28 29 30 31 32 33 34 35 36 37 38 39 40 41 42 43 44 45 46 47 48 49 50 51 52 53 54 55 56 57 58 59 60 61 62 63 64 65 66 67 68 69 70 71 72 73 74 75 76 77 78 79 80 81 82 83 84 85 86 87 88 89 90 91 92 93 94 95 96 97 98 99 100 101 102 103 104 105 106 107 108 109 110 111 112 113 114 115 116 117 118 119 120 121 122 123 124 125 126 127 128 129 130 131 132 133 134 135 136 137 138 139 140 141 142 143 144 145 146 147 148 149 150 151 152 153 154 155 156 157 158 159 160 161 162 163 164 165 166 167 168 169 170 171 172 173 174 175 176 177 178 179 180 181 182 183 184 185 186 187 188 189 190 191 192 193 194 195 196 197 198 199 200 201 202 203 204 205 206 207 208 209 210 211 212 213 214 215 216 217 218 219 220 221 222 223 224 225 226 227 228 229 230 231 232 233 234 235 236 237 238 239 240 241 242 243 244 245 246 247 248 249 250 251 252 253 254 255 256 257 258 259 260 261 262 263 264 265 266 267 268 269 270 271 272 273 274 275 276 277 278 279 280 281 282 283 284 285 286 287 288 289 290 291 292 293 294 295 296 297 298 299 300 301 302 303 304 305 306 307 308 309 310 311 312 313 314 315 316 317 318 319 320 321 322 323 324 325 326 327 328 329 330 331 332 333 334 335 336 337 338 339 340 341 342 343 344 345 346 347 348 349 350 351 352 353 354 355 356 357 358 359 360 361 362 363 364 365 366 367 368 369 370 371 372 373 374 375 376 377 378 379 380 381 382 383 384 385 386 387 388 389 390 391 392 393 394 395 396 397 398 399 400 401 402 403 404 405 406 407 408 409 410 411 412 413 414 415 416 417 418 419 420 421 422 423 424 425 426 427 428 429 430 431 432 433 434 435 436 437 438 439 440 441 442 443 444 445 446 447 448 449 450 451 452 453 454 455 456 457 458 459 460 461 462 463 464 465 466 467 468 469 470 471 472 473 474 475 476 477 478 479 480 481 482 483 484 485 486 487 488 489 490 491 492 493 494 495 496 497 498 499 500 501 502 503 504 505 506 507 508 509 510 511 512 513 514 515 516 517 518 519 520 521 522 523 524 525 526 527 528 529 530 531 532 533 534 535 536 537 538 539 540 541 542 543 544 545 546 547 548 549 550 551 552 553 554 555 556 557 558 559 560 561 562 563 564 565 566 567 568 569 570 571 572 573 574 575 576 577 578 579 580 581 582 583 584 585 586 587 588 589 590 591 592 593 594 595 596 597 598 599 600 601 602 603 604 605 606 607 608 609 610 611 612 613 614 615 616 617 618 619 620 621 622 623 624 625 626 627 628 629 630 631 632 633 634 635 636 637 638 639 640 641 642 643 644 645 646 647 648 649 650 651 652 653 654 655 656 657 658 659 660 661 662 663 664 665 666 667 668 669 670 671 672 673 674 675 676 677 678 679 680 681 682 683 684 685 686 687 688 689 690 691 692 693 694 695 696 697 698 699 700 701 702 703 704 705 706 707 708 709 710 711 712 713 714 715 716 717 718 719 720 721 722 723 724 725 726 727 728 729 730 731 732 733 734 735 736 737 738 739 740 741 742 743 744 745 746 747 748 749 750 751 752 753 754 755 756 757 758 759 760 761 762 763 764 765 766 767 768 769 770 771 772 773 774 775 776 777 778 779 780 781 782 783 784 785 786 787 788 789 790 791 792 793 794 795 796 797 798 799 800 801 802 803 804 805 806 807 808 809 810 811 812 813 814 815 816 817 818 819 820 821 822 823 824 825 826 827 828 829 830 831 832 833 834 835 836 837 838 839 840 841 842 843 844 845 846 847 848 849 850 851 852 853 854 855 856 857 858 859 860 861 862 863 864 865 866 867 868 869 870 871 872 873 874 875 876 877 878 879 880 881 882 883 884 885 886 887 888 889 890 891 892 893 894 895 896 897 898 899 900 901 902 903 904 905 906 907 908 909 910 911 912 913 914 915 916 917 918 919 920 921 922 923 924 925 926 927 928 929 930 931 932 933 934 935 936 937 938 939 940 941 942 943 944 945 946 947 948 949 950 951 952 953 954 955 956 957 958 959 960 961 962 963 964 965 966 967 968 969 970 971 972 973 974 975 976 977 978 979 980 981 982 983 984 985 986 987 988 989 990 991 992 993 994 995 996 997 998 999 1000 1001 1002 1003 1004 1005 1006 1007 1008 1009 1010 1011 1012 1013 1014 1015 1016 1017 1018 1019 1020 1021 1022 1023 1024 1025 1026 1027 1028 1029 1030 1031 1032 1033 1034 1035 1036 1037 1038 1039 1040 1041 1042 1043 1044 1045 1046 1047 1048 1049 1050 1051 1052 1053 1054 1055 1056 1057 1058 1059 1060 1061 1062 1063 1064 1065 1066 1067 1068 1069 1070 1071 1072 1073 1074 1075 1076 1077 1078 1079 1080 1081 1082 1083 1084 1085 1086 1087 1088 1089 1090 1091 1092 1093 1094 1095 1096 1097 1098 1099 1100 1101 1102 1103 1104 1105 1106 1107 1108 1109 1110 1111 1112 1113 1114 1115 1116 1117 1118 1119 1120 1121 1122 1123 1124 1125 1126 1127 1128 1129 1130 1131 1132 1133 1134 1135 1136 1137 1138 1139 1140 1141 1142 1143 1144 1145 1146 1147 1148 1149 1150 1151 1152 1153 1154 1155 1156 1157 1158 1159 1160 1161 1162 1163 1164 1165 1166 1167 1168 1169 1170 1171 1172 1173 1174 1175 1176 1177 1178 1179 1180 1181 1182 1183 1184 1185 1186 1187 1188 1189 1190 1191 1192 1193 1194 1195 1196 1197 1198 1199 1200 1201 1202 1203 1204 1205 1206 1207 1208 1209 1210 1211 1212 1213 1214 1215 1216 1217 1218 1219 1220 1221 1222 1223 1224 1225 1226 1227 1228 1229 1230 1231 1232 1233 1234 1235 1236 1237 1238 1239 1240 1241 1242 1243 1244 1245 1246 1247 1248 1249 1250 1251 1252 1253 1254 1255 1256 1257 1258 1259 1260 1261 1262 1263 1264 1265 1266 1267 1268 1269 1270 1271 1272 1273 1274 1275 1276 1277 1278 1279 1280 1281 1282 1283 1284 1285 1286 1287 1288 1289 1290 1291 1292 1293 1294 1295 1296 1297 1298 1299 1300 1301 1302 1303 1304 1305 1306 1307 1308 1309 1310 1311 1312 1313 1314 1315 1316 1317 1318 1319 1320 1321 1322 1323 1324 1325 1326 1327 1328 1329 1330 1331 1332 1333 1334 1335 1336 1337 1338 1339 1340 1341 1342 1343 1344 1345 1346 1347 1348 1349 1350 1351 1352 1353 1354 1355 1356 1357 1358 1359 1360 1361 1362 1363 1364 1365 1366 1367 1368 1369 1370 1371 1372 1373 1374 1375 1376 1377 1378 1379 1380 1381 1382 1383 1384 1385 1386 1387 1388 1389 1390 1391 1392 1393 1394 1395 1396 1397 1398 1399 1400 1401 1402 1403 1404 1405 1406 1407 1408 1409 1410 1411 1412 1413 1414 1415 1416 1417 1418 1419 1420 1421 1422 1423 1424 1425 1426 1427 1428 1429 1430 1431 1432 1433 1434 1435 1436 1437 1438 1439 1440 1441 1442 1443 1444 1445 1446 1447 1448 1449 1450 1451 1452 1453 1454 1455 1456 1457 1458 1459 1460 1461 1462 1463 1464 1465 1466 1467 1468 1469 1470 1471 1472 1473 1474 1475 1476 1477 1478 1479 1480 1481 1482 1483 1484 1485 1486 1487 1488 1489 1490 1491 1492 1493 1494 1495 1496 1497 1498 1499 1500 1501 1502 1503 1504 1505 1506 1507 1508 1509 1510 1511 1512 1513 1514 1515 1516 1517 1518 1519 1520 1521 1522 1523 1524 1525 1526 1527 1528 1529 1530 1531 1532 1533 1534 1535 1536 1537 1538 1539 1540 1541 1542 1543 1544 1545 1546 1547 1548 1549 1550 1551 1552 1553 1554 1555 1556 1557 1558 1559 1560 1561 1562 1563 1564 1565 1566 1567 1568 1569 1570 1571 1572 1573 1574 1575 1576 1577 1578 1579 1580 1581 1582 1583 1584 1585 1586 1587 1588 1589 1590 1591 1592 1593 1594 1595 1596 1597 1598 1599 1600 1601 1602 1603 1604 1605 1606 1607 1608 1609 1610 1611 1612 1613 1614 1615 1616 1617 1618 1619 1620 1621 1622 1623 1624 1625 1626 1627 1628 1629 1630 1631 1632 1633 1634 1635 1636 1637 1638 1639 1640 1641 1642 1643 1644 1645 1646 1647 1648 1649 1650 1651 1652 1653 1654 1655 1656 1657 1658 1659 1660 1661 1662 1663 1664 1665 1666 1667 1668 1669 1670 1671 1672 1673 1674 1675 1676 1677 1678 1679 1680 1681 1682 1683 1684 1685 1686 1687 1688 1689 1690 1691 1692 1693 1694 1695 1696 1697 1698 1699 1700 1701 1702 1703 1704 1705 1706 1707 1708 1709 1710 1711 1712 1713 1714 1715 1716 1717 1718 1719 1720 1721 1722 1723 1724 1725 1726 1727 1728 1729 1730 1731 1732 1733 1734 1735 1736 1737 1738 1739 1740 1741 1742 1743 1744 1745 1746 1747 1748 1749 1750 1751 1752 1753 1754 1755 1756 1757 1758 1759 1760 1761 1762 1763 1764 1765 1766 1767 1768 1769 1770 1771 1772 1773 1774 1775 1776 1777 1778 1779 1780 1781 1782 1783 1784 1785 1786 1787 1788 1789 1790 1791 1792 1793 1794 1795 1796 1797 1798 1799 1800 1801 1802 1803 1804 1805 1806 1807 1808 1809 1810 1811 1812 1813 1814 1815 1816 1817 1818 1819 1820 1821 1822 1823 1824 1825 1826 1827 1828 1829 1830 1831 1832 1833 1834 1835 1836 1837 1838 1839 1840 1841 1842 1843 1844 1845 1846 1847 1848 1849 1850 1851 1852 1853 1854 1855 1856 1857 1858 1859 1860 1861 1862 1863 1864 1865 1866 1867 1868 1869 1870 1871 1872 1873 1874 1875 1876 1877 1878 1879 1880 1881 1882 1883 1884 1885 1886 1887 1888 1889 1890 1891 1892 1893 1894 1895 1896 1897 1898 1899 1900 1901 1902 1903 1904 1905 1906 1907 1908 1909 1910 1911 1912 1913 1914 1915 1916 1917 1918 1919 1920 1921 1922 1923 1924 1925 1926 1927 1928 1929 1930 1931 1932 1933 1934 1935 1936 1937 1938 1939 1940 1941 1942 1943 1944 1945 1946 1947 1948 1949 1950 1951 1952 1953 1954 1955 1956 1957 1958 1959 1960 1961 1962 1963 1964 1965 1966 1967 1968 1969 1970 1971 1972 1973 1974 1975 1976 1977 1978 1979 1980 1981 1982 1983 1984 1985 1986 1987 1988 1989 1990 1991 1992 1993 1994 1995 1996 1997 1998 1999 2000 2001 2002 2003 2004 2005 2006 2007 2008 2009 2010 2011 2012 2013 2014 2015 2016 2017 2018 2019 2020 2021 2022 2023 2024 2025 2026 2027 2028 2029 2030 2031 2032 2033 2034 2035 2036 2037 2038 2039 2040 2041 2042 2043 2044 2045 2046 2047 2048 2049 2050 2051 2052 2053 2054 2055 2056 2057 2058 2059 2060 2061 2062 2063 2064 2065 2066 2067 2068 2069 2070 2071 2072 2073 2074 2075 2076 2077 2078 2079 2080 2081 2082 2083 2084 2085 2086 2087 2088 2089 2090 2091 2092 2093 2094 2095 2096 2097 2098 2099 2100 2101 2102 2103 2104 2105 2106 2107 2108 2109 2110 2111 2112 2113 2114 2115 2116 2117 2118 2119 2120 2121 2122 2123 2124 2125 2126 2127 2128 2129 2130 2131 2132 2133 2134 2135 2136 2137 2138 2139 2140 2141 2142 2143 2144 2145 2146 2147 2148 2149 2150 2151 2152 2153 2154 2155 2156 2157 2158 2159 2160 2161 2162 2163 2164 2165 2166 2167 2168 2169 2170 2171 2172 2173 2174 2175 2176 2177 2178 2179 2180 2181 2182 2183 2184 2185 2186 2187 2188 2189 2190 2191 2192 2193 2194 2195 2196 2197 2198 2199 2200 2201 2202 2203 2204 2205 2206 2207 2208 2209 2210 2211 2212 2213 2214 2215 2216 2217 2218 2219 2220 2221 2222 2223 2224 2225 2226 2227 2228 2229 2230 2231 2232 2233 2234 2235 2236 2237 2238 2239 2240 2241 2242 2243 2244 2245 2246 2247 2248 2249 2250 2251 2252 2253 2254 2255 2256 2257 2258 2259 2260 2261 2262 2263 2264 2265 2266 2267 2268 2269 2270 2271 2272 2273 2274 2275 2276 2277 2278 2279 2280 2281 2282 2283 2284 2285 2286 2287 2288 2289 2290 2291 2292 2293 2294 2295 2296 2297 2298 2299 2300 2301 2302 2303 2304 2305 2306 2307 2308 2309 2310 2311 2312 2313 2314 2315 2316 2317 2318 2319 2320 2321 2322 2323 2324 2325 2326 2327 2328 2329 2330 2331 2332 2333 2334 2335 2336 2337 2338 2339 2340 2341 2342 2343 2344 2345 2346 2347 2348 2349 2350 2351 2352 2353 2354 2355 2356 2357 2358 2359 2360 2361 2362 2363 2364 2365 2366 2367 2368 2369 2370 2371 2372 2373 2374 2375 2376 2377 2378 2379 2380 2381 2382 2383 2384 2385 2386 2387 2388 2389 2390 2391 2392 2393 2394 2395 2396 2397 2398 2399 2400 2401 2402 2403 2404 2405 2406 2407 2408 2409 2410 2411 2412 2413 2414 2415 2416 2417 2418 2419 2420 2421 2422 2423 2424 2425 2426 2427 2428 2429 2430 2431 2432 2433 2434 2435 2436 2437 2438 2439 2440 2441 2442 2443 2444 2445 2446 2447 2448 2449 2450 2451 2452 2453 2454 2455 2456 2457 2458 2459 2460 2461 2462 2463 2464 2465 2466 2467 2468 2469 2470 2471 2472 2473 2474 2475 2476 2477 2478 2479 2480 2481 2482 2483 2484 2485 2486 2487 2488 2489 2490 2491 2492 2493 2494 2495 2496 2497 2498 2499 2500 2501 2502 2503 2504 2505 2506 2507 2508 2509 2510 2511 2512 2513 2514 2515 2516 2517 2518 2519 2520 2521 2522 2523 2524 2525 2526 2527 2528 2529 2530 2531 2532 2533 2534 2535 2536 2537 2538 2539 2540 2541 2542 2543 2544 2545 2546 2547 2548 2549 2550 2551 2552 2553 2554 2555 2556 2557 2558 2559 2560 2561 2562 2563 2564 2565 2566 2567 2568 2569 2570 2571 2572 2573 2574 2575 2576 2577 2578 2579 2580 2581 2582 2583 2584 2585 2586 2587 2588 2589 2590 2591 2592 2593 2594 2595 2596 2597 2598 2599 2600 2601 2602 2603 2604 2605 2606 2607 2608 2609 2610 2611 2612 2613 2614 2615 2616 2617 2618 2619 2620 2621 2622 2623 2624 2625 2626 2627 2628 2629 2630 2631 2632 2633 2634 2635 2636 2637 2638 2639 2640 2641 2642 2643 2644 2645 2646 2647 2648 2649 2650 2651 2652 2653 2654 2655 2656 2657 2658 2659 2660 2661 2662 2663 2664 2665 2666 2667 2668 2669 2670 2671 2672 2673 2674 2675 2676 2677 2678 2679 2680 2681 2682 2683 2684 2685 2686 2687 2688 2689 2690 2691 2692 2693 2694 2695 2696 2697 2698 2699 2700 2701 2702 2703 2704 2705 2706 2707 2708 2709 2710 2711 2712 2713 2714 2715 2716 2717 2718 2719 2720 2721 2722 2723 2724 2725 2726 2727 2728 2729 2730 2731 2732 2733 2734 2735 2736 2737 2738 2739 2740 2741 2742 2743 2744 2745 2746 2747 2748 2749 2750 2751 2752 2753 2754 2755 2756 2757 2758 2759 2760 2761 2762 2763 2764 2765 2766 2767 2768 2769 2770 2771 2772 2773 2774 2775 2776 2777 2778 2779 2780 2781 2782 2783 2784 2785 2786 2787 2788 2789 2790 2791 2792 2793 2794 2795 2796 2797 2798 2799 2800 2801 2802 2803 2804 2805 2806 2807 2808 2809 2810 2811 2812 2813 2814 2815 2816 2817 2818 2819 2820 2821 2822 2823 2824 2825 2826 2827 2828 2829 2830 2831 2832 2833 2834 2835 2836 2837 2838 2839 2840 2841 2842 2843 2844 2845 2846 2847 2848 2849 2850 2851 2852 2853 2854 2855 2856 2857 2858 2859 2860 2861 2862 2863 2864 2865 2866 2867 2868 2869 2870 2871 2872 2873 2874 2875 2876 2877 2878 2879 2880 2881 2882 2883 2884 2885 2886 2887 2888 2889 2890 2891 2892 2893 2894 2895 2896 2897 2898 2899 2900 2901 2902 2903 2904 2905 2906 2907 2908 2909 2910 2911 2912 2913 2914 2915 2916 2917 2918 2919 2920 2921 2922 2923 2924 2925 2926 2927 2928 2929 2930 2931 2932 2933 2934 2935 2936 2937 2938 2939 2940 2941 2942 2943 2944 2945 2946 2947 2948 2949 2950 2951 2952 2953 2954 2955 2956 2957 2958 2959 2960 2961 2962 2963 2964 2965 2966 2967 2968 2969 2970 2971 2972 2973 2974 2975 2976 2977 2978 2979 2980 2981 2982 2983 2984 2985 2986 2987 2988 2989 2990 2991 2992 2993 2994 2995 2996 2997 2998 2999 3000 3001 3002 3003 3004 3005 3006 3007 3008 3009 3010 3011 3012 3013 3014 3015 3016 3017 3018 3019 3020 3021 3022 3023 3024 3025 3026 3027 3028 3029 3030 3031 3032 3033 3034 3035 3036 3037 3038 3039 3040 3041 3042 3043 3044 3045 3046 3047 3048 3049 3050 3051 3052 3053 3054 3055 3056 3057 3058 3059 3060 3061 3062 3063 3064 3065 3066 3067 3068 3069 3070 3071 3072 3073 3074 3075 3076 3077 3078 3079 3080 3081 3082 3083 3084 3085 3086 3087 3088 3089 3090 3091 3092 3093 3094 3095 3096 3097 3098 3099 3100 3101 3102 3103 3104 3105 3106 3107 3108 3109 3110 3111 3112 3113 3114 3115 3116 3117 3118 3119 3120 3121 3122 3123 3124 3125 3126 3127 3128 3129 3130 3131 3132 3133 3134 3135 3136 3137 3138 3139 3140 3141 3142 3143 3144 3145 3146 3147 3148 3149 3150 3151 3152 3153 3154 3155 3156 3157 3158 3159 3160 3161 3162 3163 3164 3165 3166 3167 3168 3169 3170 3171 3172 3173 3174 3175 3176 3177 3178 3179 3180 3181 3182 3183 3184 3185 3186 3187 3188 3189 3190 3191 3192 3193 3194 3195 3196 3197 3198 3199 3200 3201 3202 3203 3204 3205 3206 3207 3208 3209 3210 3211 3212 3213 3214 3215 3216 3217 3218 3219 3220 3221 3222 3223 3224 3225 3226 3227 3228 3229 3230 3231 3232 3233 3234 3235 3236 3237 3238 3239 3240 3241 3242 3243 3244 3245 3246 3247 3248 3249 3250 3251 3252 3253 3254 3255 3256 3257 3258 3259 3260 3261 3262 3263 3264 3265 3266 3267 3268 3269 3270 3271 3272 3273 3274 3275 3276 3277 3278 3279 3280 3281 3282 3283 3284 3285 3286 3287 3288 3289 3290 3291 3292 3293 3294 3295 3296 3297 3298 3299 3300 3301 3302 3303 3304 3305 3306 3307 3308 3309 3310 3311 3312 3313 3314 3315 3316 3317 3318 3319 3320 3321 3322 3323 3324 3325 3326 3327 3328 3329 3330 3331 3332 3333 3334 3335 3336 3337 3338 3339 3340 3341 3342 3343 3344 3345 3346 3347 3348 3349 3350 3351 3352 3353 3354 3355 3356 3357 3358 3359 3360 3361 3362 3363 3364 3365 3366 3367 3368 3369 3370 3371 3372 3373 3374 3375 3376 3377 3378 3379 3380 3381 3382 3383 3384 3385 3386 3387 3388 3389 3390 3391 3392 3393 3394 3395 3396 3397 3398 3399 3400 3401 3402 3403 3404 3405 3406 3407 3408 3409 3410 3411 3412 3413 3414 3415 3416 3417 3418 3419 3420 3421 3422 3423 3424 3425 3426 3427 3428 3429 3430 3431 3432 3433 3434 3435 3436 3437 3438 3439 3440 3441 3442 3443 3444 3445 3446 3447 3448 3449 3450 3451 3452 3453 3454 3455 3456 3457 3458 3459 3460 3461 3462 3463 3464 3465 3466 3467 3468 3469 3470 3471 3472 3473 3474 3475 3476 3477 3478 3479 3480 3481 3482 3483 3484 3485 3486 3487 3488 3489 3490 3491 3492 3493 3494 3495 3496 3497 3498 3499 3500 3501 3502 3503 3504 3505 3506 3507 3508 3509 3510 3511 3512 3513 3514 3515 3516 3517 3518 3519 3520 3521 3522 3523 3524 3525 3526 3527 3528 3529 3530 3531 3532 3533 3534 3535 3536 3537 3538 3539 3540 3541 3542 3543 3544 3545 3546 3547 3548 3549 3550 3551 3552 3553 3554 3555 3556 3557 3558 3559 3560 3561 3562 3563 3564 3565 3566 3567 3568 3569 3570 3571 3572 3573 3574 3575 3576 3577 3578 3579 3580 3581 3582 3583 3584 3585 3586 3587 3588 3589 3590 3591 3592 3593 3594 3595 3596 3597 3598 3599 3600 3601 3602 3603 3604 3605 3606 3607 3608 3609 3610 3611 3612 3613 3614 3615 3616 3617 3618 3619 3620 3621 3622 3623 3624 3625 3626 3627 3628 3629 3630 3631 3632 3633 3634 3635 3636 3637 3638 3639 3640 3641 3642 3643 3644 3645 3646 3647 3648 3649 3650 3651 3652 3653 3654 3655 3656 3657 3658 3659 3660 3661 3662 3663 3664 3665 3666 3667 3668 3669 3670 3671 3672 3673 3674 3675 3676 3677 3678 3679 3680 3681 3682 3683 3684 3685 3686 3687 3688 3689 3690 3691 3692 3693 3694 3695 3696 3697 3698 3699 3700 3701 3702 3703 3704 3705 3706 3707 3708 3709 3710 3711 3712 3713 3714 3715 3716 3717 3718 3719 3720 3721 3722 3723 3724 3725 3726 3727 3728 3729 3730 3731 3732 3733 3734 3735 3736 3737 3738 3739 3740 3741 3742 3743 3744 3745 3746 3747 3748 3749 3750 3751 3752 3753 3754 3755 3756 3757 3758 3759 3760 3761 3762 3763 3764 3765 3766 3767 3768 3769 3770 3771 3772 3773 3774 3775 3776 3777 3778 3779 3780 3781 3782 3783 3784 3785 3786 3787 3788 3789 3790 3791 3792 3793 3794 3795 3796 3797 3798 3799 3800 3801 3802 3803 3804 3805 3806 3807 3808 3809 3810 3811 3812 3813 3814 3815 3816 3817 3818 3819 3820 3821 3822 3823 3824 3825 3826 3827 3828 3829 3830 3831 3832 3833 3834 3835 3836 3837 3838 3839 3840 3841 3842 3843 3844 3845 3846 3847 3848 3849 3850 3851 3852 3853 3854 3855 3856 3857 3858 3859 3860 3861 3862 3863 3864 3865 3866 3867 3868 3869 3870 3871 3872 3873 3874 3875 3876 3877 3878 3879 3880 3881 3882 3883 3884 3885 3886 3887 3888 3889 3890 3891 3892 3893 3894 3895 3896 3897 3898 3899 3900 3901 3902 3903 3904 3905 3906 3907 3908 3909 3910 3911 3912 3913 3914 3915 3916 3917 3918 3919 3920 3921 3922 3923 3924 3925 3926 3927 3928 3929 3930 3931 3932 3933 3934 3935 3936 3937 3938 3939 3940 3941 3942 3943 3944 3945 3946 3947 3948 3949 3950 3951 3952 3953 3954 3955 3956 3957 3958 3959 3960 3961 3962 3963 3964 3965 3966 3967 3968 3969 3970 3971 3972 3973 3974 3975 3976 3977 3978 3979 3980 3981 3982 3983 3984 3985 3986 3987 3988 3989 3990 3991 3992 3993 3994 3995 3996 3997 3998 3999 4000 4001 4002 4003 4004 4005 4006 4007 4008 4009 4010 4011 4012 4013 4014 4015 4016 4017 4018 4019 4020 4021 4022 4023 4024 4025 4026 4027 4028 4029 4030 4031 4032 4033 4034 4035 4036 4037 4038 4039 4040 4041 4042 4043 4044 4045 4046 4047 4048 4049 4050 4051 4052 4053 4054 4055 4056 4057 4058 4059 4060 4061 4062 4063 4064 4065 4066 4067 4068 4069 4070 4071 4072 4073 4074 4075 4076 4077 4078 4079 4080 4081 4082 4083 4084 4085 4086 4087 4088 4089 4090 4091 4092 4093 4094 4095 4096 4097 4098 4099 4100 4101 4102 4103 4104 4105 4106 4107 4108 4109 4110 4111 4112 4113 4114 4115 4116 4117 4118 4119 4120 4121 4122 4123 4124 4125 4126 4127 4128 4129 4130 4131 4132 4133 4134 4135 4136 4137 4138 4139 4140 4141 4142 4143 4144 4145 4146 4147 4148 4149 4150 4151 4152 4153 4154 4155 4156 4157 4158 4159 4160 4161 4162 4163 4164 4165 4166 4167 4168 4169 4170 4171 4172 4173 4174 4175 4176 4177 4178 4179 4180 4181 4182 4183 4184 4185 4186 4187 4188 4189 4190 4191 4192 4193 4194 4195 4196 4197 4198 4199 4200 4201 4202 4203 4204 4205 4206 4207 4208 4209 4210 4211 4212 4213 4214 4215 4216 4217 4218 4219 4220 4221 4222 4223 4224 4225 4226 4227 4228 4229 4230 4231 4232 4233 4234 4235 4236 4237 4238 4239 4240 4241 4242 4243 4244 4245 4246 4247 4248 4249 4250 4251 4252 4253 4254 4255 4256 4257 4258 4259 4260 4261 4262 4263 4264 4265 4266 4267 4268 4269 4270 4271 4272 4273 4274 4275 4276 4277 4278 4279 4280 4281 4282 4283 4284 4285 4286 4287 4288 4289 4290 4291 4292 4293 4294 4295 4296 4297 4298 4299 4300 4301 4302 4303 4304 4305 4306 4307 4308 4309 4310 4311 4312 4313 4314 4315 4316 4317 4318 4319 4320 4321 4322 4323 4324 4325 4326 4327 4328 4329 4330 4331 4332 4333 4334 4335 4336 4337 4338 4339 4340 4341 4342 4343 4344 4345 4346 4347 4348 4349 4350 4351 4352 4353 4354 4355 4356 4357 4358 4359 4360 4361 4362 4363 4364 4365 4366 4367 4368 4369 4370 4371 4372 4373 4374 4375 4376 4377 4378 4379 4380 4381 4382 4383 4384 4385 4386 4387 4388 4389 4390 4391 4392 4393 4394 4395 4396 4397 4398 4399 4400 4401 4402 4403 4404 4405 4406 4407 4408 4409 4410 4411 4412 4413 4414 4415 4416 4417 4418 4419 4420 4421 4422 4423 4424 4425 4426 4427 4428 4429 4430 4431 4432 4433 4434 4435 4436 4437 4438 4439 4440 4441 4442 4443 4444 4445 4446 4447 4448 4449 4450 4451 4452 4453 4454 4455 4456 4457 4458 4459 4460 4461 4462 4463 4464 4465 4466 4467 4468 4469 4470 4471 4472 4473 4474 4475 4476 4477 4478 4479 4480 4481 4482 4483 4484 4485 4486 4487 4488 4489 4490 4491 4492 4493 4494 4495 4496 4497 4498 4499 4500 4501 4502 4503 4504 4505 4506 4507 4508 4509 4510 4511 4512 4513 4514 4515 4516 4517 4518 4519 4520 4521 4522 4523 4524 4525 4526 4527 4528 4529 4530 4531 4532 4533 4534 4535 4536 4537 4538 4539 4540 4541 4542 4543 4544 4545 4546 4547 4548 4549 4550 4551 4552 4553 4554 4555 4556 4557 4558 4559 4560 4561 4562 4563 4564 4565 4566 4567 4568 4569 4570 4571 4572 4573 4574 4575 4576 4577 4578 4579 4580 4581 4582 4583 4584 4585 4586 4587 4588 4589 4590 4591 4592 4593 4594 4595 4596 4597 4598 4599 4600 4601 4602 4603 4604 4605 4606 4607 4608 4609 4610 4611 4612 4613 4614 4615 4616 4617 4618 4619 4620 4621 4622 4623 4624 4625 4626 4627 4628 4629 4630 4631 4632 4633 4634 4635 4636 4637 4638 4639 4640 4641 4642 4643 4644 4645 4646 4647 4648 4649 4650 4651 4652 4653 4654 4655 4656 4657 4658 4659 4660 4661 4662 4663 4664 4665 4666 4667 4668 4669 4670 4671 4672 4673 4674 4675 4676 4677 4678 4679 4680 4681 4682 4683 4684 4685 4686 4687 4688 4689 4690 4691 4692 4693 4694 4695 4696 4697 4698 4699 4700 4701 4702 4703 4704 4705 4706 4707 4708 4709 4710 4711 4712 4713 4714 4715 4716 4717 4718 4719 4720 4721 4722 4723 4724 4725 4726 4727 4728 4729 4730 4731 4732 4733 4734 4735 4736 4737 4738 4739 4740 4741 4742 4743 4744 4745 4746 4747 4748 4749 4750 4751 4752 4753 4754 4755 4756 4757 4758 4759 4760 4761 4762 4763 4764 4765 4766 4767 4768 4769 4770 4771 4772 4773 4774 4775 4776 4777 4778 4779 4780 4781 4782 4783 4784 4785 4786 4787 4788 4789 4790 4791 4792 4793 4794 4795 4796 4797 4798 4799 4800 4801 4802 4803 4804 4805 4806 4807 4808 4809 4810 4811 4812 4813 4814 4815 4816 4817 4818 4819 4820 4821 4822 4823 4824 4825 4826 4827 4828 4829 4830 4831 4832 4833 4834 4835 4836 4837 4838 4839 4840 4841 4842 4843 4844 4845 4846 4847 4848 4849 4850 4851 4852 4853 4854 4855 4856 4857 4858 4859 4860 4861 4862 4863 4864 4865 4866 4867 4868 4869 4870 4871 4872 4873 4874 4875 4876 4877 4878 4879 4880 4881 4882 4883 4884 4885 4886 4887 4888 4889 4890 4891 4892 4893 4894 4895 4896 4897 4898 4899 4900 4901 4902 4903 4904 4905 4906 4907 4908 4909 4910 4911 4912 4913 4914 4915 4916 4917 4918 4919 4920 4921 4922 4923 4924 4925 4926 4927 4928 4929 4930 4931 4932 4933 4934 4935 4936 4937 4938 4939 4940 4941 4942 4943 4944 4945 4946 4947 4948 4949 4950 4951 4952 4953 4954 4955 4956 4957 4958 4959 4960 4961 4962 4963 4964 4965 4966 4967 4968 4969 4970 4971 4972 4973 4974 4975 4976 4977 4978 4979 4980 4981 4982 4983 4984 4985 4986 4987 4988 4989 4990 4991 4992 4993 4994 4995 4996 4997 4998 4999 5000 5001 5002 5003 5004 5005 5006 5007 5008 5009 5010 5011 5012 5013 5014 5015 5016 5017 5018 5019 5020 5021 5022 5023 5024 5025 5026 5027 5028 5029 5030 5031 5032 5033 5034 5035 5036 5037 5038 5039 5040 5041 5042 5043 5044 5045 5046 5047 5048 5049 5050 5051 5052 5053 5054 5055 5056 5057 5058 5059 5060 5061 5062 5063 5064 5065 5066 5067 5068 5069 5070 5071 5072 5073 5074 5075 5076 5077 5078 5079 5080 5081 5082 5083 5084 5085 5086 5087 5088 5089 5090 5091 5092 5093 5094 5095 5096 5097 5098 5099 5100 5101 5102 5103 5104 5105 5106 5107 5108 5109 5110 5111 5112 5113 5114 5115 5116 5117 5118 5119 5120 5121 5122 5123 5124 5125 5126 5127 5128 5129 5130 5131 5132 5133 5134 5135 5136 5137 5138 5139 5140 5141 5142 5143 5144 5145 5146 5147 5148 5149 5150 5151 5152 5153 5154 5155 5156 5157 5158 5159 5160 5161 5162 5163 5164 5165 5166 5167 5168 5169 5170 5171 5172 5173 5174 5175 5176 5177 5178 5179 5180 5181 5182 5183 5184 5185 5186 5187 5188 5189 5190 5191 5192 5193 5194 5195 5196 5197 5198 5199 5200 5201 5202 5203 5204 5205 5206 5207 5208 5209 5210 5211 5212 5213 5214 5215 5216 5217 5218 5219 5220 5221 5222 5223 5224 5225 5226 5227 5228 5229 5230 5231 5232 5233 5234 5235 5236 5237 5238 5239 5240 5241 5242 5243 5244 5245 5246 5247 5248 5249 5250 5251 5252 5253 5254 5255 5256 5257 5258 5259 5260 5261 5262 5263 5264 5265 5266 5267 5268 5269 5270 5271 5272 5273 5274 5275 5276 5277 5278 5279 5280 5281 5282 5283 5284 5285 5286 5287 5288 5289 5290 5291 5292 5293 5294 5295 5296 5297 5298 5299 5300 5301 5302 5303 5304 5305 5306 5307 5308 5309 5310 5311 5312 5313 5314 5315 5316 5317 5318 5319 5320 5321 5322 5323 5324 5325 5326 5327 5328 5329 5330 5331 5332 5333 5334 5335 5336 5337 5338 5339 5340 5341 5342 5343 5344 5345 5346 5347 5348 5349 5350 5351 5352 5353 5354 5355 5356 5357 5358 5359 5360 5361 5362 5363 5364 5365 5366 5367 5368 5369 5370 5371 5372 5373 5374 5375 5376 5377 5378 5379 5380 5381 5382 5383 5384 5385 5386 5387 5388 5389 5390 5391 5392 5393 5394 5395 5396 5397 5398 5399 5400 5401 5402 5403 5404 5405 5406 5407 5408 5409 5410 5411 5412 5413 5414 5415 5416 5417 5418 5419 5420 5421 5422 5423 5424 5425 5426 5427 5428 5429 5430 5431 5432 5433 5434 5435 5436 5437 5438 5439 5440 5441 5442 5443 5444 5445 5446 5447 5448 5449 5450 5451 5452 5453 5454 5455 5456 5457 5458 5459 5460 5461 5462 5463 5464 5465 5466 5467 5468 5469 5470 5471 5472 5473 5474 5475 5476 5477 5478 5479 5480 5481 5482 5483 5484 5485 5486 5487 5488 5489 5490 5491 5492 5493 5494 5495 5496 5497 5498 5499 5500 5501 5502 5503 5504 5505 5506 5507 5508 5509 5510 5511 5512 5513 5514 5515 5516 5517 5518 5519 5520 5521 5522 5523 5524 5525 5526 5527 5528 5529 5530 5531 5532 5533 5534 5535 5536 5537 5538 5539 5540 5541 5542 5543 5544 5545 5546 5547 5548 5549 5550 5551 5552 5553 5554 5555 5556 5557 5558 5559 5560 5561 5562 5563 5564 5565 5566 5567 5568 5569 5570 5571 5572 5573 5574 5575 5576 5577 5578 5579 5580 5581 5582 5583 5584 5585 5586 5587 5588 5589 5590 5591 5592 5593 5594 5595 5596 5597 5598 5599 5600 5601 5602 5603 5604 5605 5606 5607 5608 5609 5610 5611 5612 5613 5614 5615 5616 5617 5618 5619 5620 5621 5622 5623 5624 5625 5626 5627 5628 5629 5630 5631 5632 5633 5634 5635 5636 5637 5638 5639 5640 5641 5642 5643 5644 5645 5646 5647 5648 5649 5650 5651 5652 5653 5654 5655 5656 5657 5658 5659 5660 5661 5662 5663 5664 5665 5666 5667 5668 5669 5670 5671 5672 5673 5674 5675 5676 5677 5678 5679 5680 5681 5682 5683 5684 5685 5686 5687 5688 5689 5690 5691 5692 5693 5694 5695 5696 5697 5698 5699 5700 5701 5702 5703 5704 5705 5706 5707 5708 5709 5710 5711 5712 5713 5714 5715 5716 5717 5718 5719 5720 5721 5722 5723 5724 5725 5726 5727 5728 5729 5730 5731 5732 5733 5734 5735 5736 5737 5738 5739 5740 5741 5742 5743 5744 5745 5746 5747 5748 5749 5750 5751 5752 5753 5754 5755 5756 5757 5758 5759 5760 5761 5762 5763 5764 5765 5766 5767 5768 5769 5770 5771 5772 5773 5774 5775 5776 5777 5778 5779 5780 5781 5782 5783 5784 5785 5786 5787 5788 5789 5790 5791 5792 5793 5794 5795 5796 5797 5798 5799 5800 5801 5802 5803 5804 5805 5806 5807 5808 5809 5810 5811 5812 5813 5814 5815 5816 5817 5818 5819 5820 5821 5822 5823 5824 5825 5826 5827 5828 5829 5830 5831 5832 5833 5834 5835 5836 5837 5838 5839 5840 5841 5842 5843 5844 5845 5846 5847 5848 5849 5850 5851 5852 5853 5854 5855 5856 5857 5858 5859 5860 5861 5862 5863 5864 5865 5866 5867 5868 5869 5870 5871 5872 5873 5874 5875 5876 5877 5878 5879 5880 5881 5882 5883 5884 5885 5886 5887 5888 5889 5890 5891 5892 5893 5894 5895 5896 5897 5898 5899 5900 5901 5902 5903 5904 5905 5906 5907 5908 5909 5910 5911 5912 5913 5914 5915 5916 5917 5918 5919 5920 5921 5922 5923 5924 5925 5926 5927 5928 5929 5930 5931 5932 5933 5934 5935 5936 5937 5938 5939 5940 5941 5942 5943 5944 5945 5946 5947 5948 5949 5950 5951 5952 5953 5954 5955 5956 5957 5958 5959 5960 5961 5962 5963 5964 5965 5966 5967 5968 5969 5970 5971 5972 5973 5974 5975 5976 5977 5978 5979 5980 5981 5982 5983 5984 5985 5986 5987 5988 5989 5990 5991 5992 5993 5994 5995 5996 5997 5998 5999 6000 6001 6002 6003 6004 6005 6006 6007 6008 6009 6010 6011 6012 6013 6014 6015 6016 6017 6018 6019 6020 6021 6022 6023 6024 6025 6026 6027 6028 6029 6030 6031 6032 6033 6034 6035 6036 6037 6038 6039 6040 6041 6042 6043 6044 6045 6046 6047 6048 6049 6050 6051 6052 6053 6054 6055 6056 6057 6058 6059 6060 6061 6062 6063 6064 6065 6066 6067 6068 6069 6070 6071 6072 6073 6074 6075 6076 6077 6078 6079 6080 6081 6082 6083 6084 6085 6086 6087 6088 6089 6090 6091 6092 6093 6094 6095 6096 6097 6098 6099 6100 6101 6102 6103 6104 6105 6106 6107 6108 6109 6110 6111 6112 6113 6114 6115 6116 6117 6118 6119 6120 6121 6122 6123 6124 6125 6126 6127 6128 6129 6130 6131 6132 6133 6134 6135 6136 6137 6138 6139 6140 6141 6142 6143 6144 6145 6146 6147 6148 6149 6150 6151 6152 6153 6154 6155 6156 6157 6158 6159 6160 6161 6162 6163 6164 6165 6166 6167 6168 6169 6170 6171 6172 6173 6174 6175 6176 6177 6178 6179 6180 6181 6182 6183 6184 6185 6186 6187 6188 6189 6190 6191 6192 6193 6194 6195 6196 6197 6198 6199 6200 6201 6202 6203 6204 6205 6206 6207 6208 6209 6210 6211 6212 6213 6214 6215 6216 6217 6218 6219 6220 6221 6222 6223 6224 6225 6226 6227 6228 6229 6230 6231 6232 6233 6234 6235 6236 6237 6238 6239 6240 6241 6242 6243 6244 6245 6246 6247 6248 6249 6250 6251 6252 6253 6254 6255 6256 6257 6258 6259 6260 6261 6262 6263 6264 6265 6266 6267 6268 6269 6270 6271 6272 6273 6274 6275 6276 6277 6278 6279 6280 6281 6282 6283 6284 6285 6286 6287 6288 6289 6290 6291 6292 6293 6294 6295 6296 6297 6298 6299 6300 6301 6302 6303 6304 6305 6306 6307 6308 6309 6310 6311 6312 6313 6314 6315 6316 6317 6318 6319 6320 6321 6322 6323 6324 6325 6326 6327 6328 6329 6330 6331 6332 6333 6334 6335 6336 6337 6338 6339 6340 6341 6342 6343 6344 6345 6346 6347 6348 6349 6350 6351 6352 6353 6354 6355 6356 6357 6358 6359 6360 6361 6362 6363 6364 6365 6366 6367 6368 6369 6370 6371 6372 6373 6374 6375 6376 6377 6378 6379 6380 6381 6382 6383 6384 6385 6386 6387 6388 6389 6390 6391 6392 6393 6394 6395 6396 6397 6398 6399 6400 6401 6402 6403 6404 6405 6406 6407 6408 6409 6410 6411 6412 6413 6414 6415 6416 6417 6418 6419 6420 6421 6422 6423 6424 6425 6426 6427 6428 6429 6430 6431 6432 6433 6434 6435 6436 6437 6438 6439 6440 6441 6442 6443 6444 6445 6446 6447 6448 6449 6450 6451 6452 6453 6454 6455 6456 6457 6458 6459 6460 6461 6462 6463 6464 6465 6466 6467 6468 6469 6470 6471 6472 6473 6474 6475 6476 6477 6478 6479 6480 6481 6482 6483 6484 6485 6486 6487 6488 6489 6490 6491 6492 6493 6494 6495 6496 6497 6498 6499 6500 6501 6502 6503 6504 6505 6506 6507 6508 6509 6510 6511 6512 6513 6514 6515 6516 6517 6518 6519 6520 6521 6522 6523 6524 6525 6526 6527 6528 6529 6530 6531 6532 6533 6534 6535 6536 6537 6538 6539 6540 6541 6542 6543 6544 6545 6546 6547 6548 6549 6550 6551 6552 6553 6554 6555 6556 6557 6558 6559 6560 6561 6562 6563 6564 6565 6566 6567 6568 6569 6570 6571 6572 6573 6574 6575 6576 6577 6578 6579 6580 6581 6582 6583 6584 6585 6586 6587 6588 6589 6590 6591 6592 6593 6594 6595 6596 6597 6598 6599 6600 6601 6602 6603 6604 6605 6606 6607 6608 6609 6610 6611 6612 6613 6614 6615 6616 6617 6618 6619 6620 6621 6622 6623 6624 6625 6626 6627 6628 6629 6630 6631 6632 6633 6634 6635 6636 6637 6638 6639 6640 6641 6642 6643 6644 6645 6646 6647 6648 6649 6650 6651 6652 6653 6654 6655 6656 6657 6658 6659 6660 6661 6662 6663 6664 6665 6666 6667 6668 6669 6670 6671 6672 6673 6674 6675 6676 6677 6678 6679 6680 6681 6682 6683 6684 6685 6686 6687 6688 6689 6690 6691 6692 6693 6694 6695 6696 6697 6698 6699 6700 6701 6702 6703 6704 6705 6706 6707 6708 6709 6710 6711 6712 6713 6714 6715 6716 6717 6718 6719 6720 6721 6722 6723 6724 6725 6726 6727 6728 6729 6730 6731 6732 6733 6734 6735 6736 6737 6738 6739 6740 6741 6742 6743 6744 6745 6746 6747 6748 6749 6750 6751 6752 6753 6754 6755 6756 6757 6758 6759 6760 6761 6762 6763 6764 6765 6766 6767 6768 6769 6770 6771 6772 6773 6774 6775 6776 6777 6778 6779 6780 6781 6782 6783 6784 6785 6786 6787 6788 6789 6790 6791 6792 6793 6794 6795 6796 6797 6798 6799 6800 6801 6802 6803 6804 6805 6806 6807 6808 6809 6810 6811 6812 6813 6814 6815 6816 6817 6818 6819 6820 6821 6822 6823 6824 6825 6826 6827 6828 6829 6830 6831 6832 6833 6834 6835 6836 6837 6838 6839 6840 6841 6842 6843 6844 6845 6846 6847 6848 6849 6850 6851 6852 6853 6854 6855 6856 6857 6858 6859 6860 6861 6862 6863 6864 6865 6866 6867 6868 6869 6870 6871 6872 6873 6874 6875 6876 6877 6878 6879 6880 6881 6882 6883 6884 6885 6886 6887 6888 6889 6890 6891 6892 6893 6894 6895 6896 6897 6898 6899 6900 6901 6902 6903 6904 6905 6906 6907 6908 6909 6910 6911 6912 6913 6914 6915 6916 6917 6918 6919 6920 6921 6922 6923 6924 6925 6926 6927 6928 6929 6930 6931 6932 6933 6934 6935 6936 6937 6938 6939 6940 6941 6942 6943 6944 6945 6946 6947 6948 6949 6950 6951 6952 6953 6954 6955 6956 6957 6958 6959 6960 6961 6962 6963 6964 6965 6966 6967 6968 6969 6970 6971 6972 6973 6974 6975 6976 6977 6978 6979 6980 6981 6982 6983 6984 6985 6986 6987 6988 6989 6990 6991 6992 6993 6994 6995 6996 6997 6998 6999 7000 7001 7002 7003 7004 7005 7006 7007 7008 7009 7010 7011 7012 7013 7014 7015 7016 7017 7018 7019 7020 7021 7022 7023 7024 7025 7026 7027 7028 7029 7030 7031 7032 7033 7034 7035 7036 7037 7038 7039 7040 7041 7042 7043 7044 7045 7046 7047 7048 7049 7050 7051 7052 7053 7054 7055 7056 7057 7058 7059 7060 7061 7062 7063 7064 7065 7066 7067 7068 7069 7070 7071 7072 7073 7074 7075 7076 7077 7078 7079 7080 7081 7082 7083 7084 7085 7086 7087 7088 7089 7090 7091 7092 7093 7094 7095 7096 7097 7098 7099 7100 7101 7102 7103 7104 7105 7106 7107 7108 7109 7110 7111 7112 7113 7114 7115 7116 7117 7118 7119 7120 7121 7122 7123 7124 7125 7126 7127 7128 7129 7130 7131 7132 7133 7134 7135 7136 7137 7138 7139 7140 7141 7142 7143 7144 7145 7146 7147 7148 7149 7150 7151 7152 7153 7154 7155 7156 7157 7158 7159 7160 7161 7162 7163 7164 7165 7166 7167 7168 7169 7170 7171 7172 7173 7174 7175 7176 7177 7178 7179 7180 7181 7182 7183 7184 7185 7186 7187 7188 7189 7190 7191 7192 7193 7194 7195 7196 7197 7198 7199 7200 7201 7202 7203 7204 7205 7206 7207 7208 7209 7210 7211 7212 7213 7214 7215 7216 7217 7218 7219 7220 7221 7222 7223 7224 7225 7226 7227 7228 7229 7230 7231 7232 7233 7234 7235 7236 7237 7238 7239 7240 7241 7242 7243 7244 7245 7246 7247 7248 7249 7250 7251 7252 7253 7254 7255 7256 7257 7258 7259 7260 7261 7262 7263 7264 7265 7266 7267 7268 7269 7270 7271 7272 7273 7274 7275 7276 7277 7278 7279 7280 7281 7282 7283 7284 7285 7286 7287 7288 7289 7290 7291 7292 7293 7294 7295 7296 7297 7298 7299 7300 7301 7302 7303 7304 7305 7306 7307 7308 7309 7310 7311 7312 7313 7314 7315 7316 7317 7318 7319 7320 7321 7322 7323 7324 7325 7326 7327 7328 7329 7330 7331 7332 7333 7334 7335 7336 7337 7338 7339 7340 7341 7342 7343 7344 7345 7346 7347 7348 7349 7350 7351 7352 7353 7354 7355 7356 7357 7358 7359 7360 7361 7362 7363 7364 7365 7366 7367 7368 7369 7370 7371 7372 7373 7374 7375 7376 7377 7378 7379 7380 7381 7382 7383 7384 7385 7386 7387 7388 7389 7390 7391 7392 7393 7394 7395 7396 7397 7398 7399 7400 7401 7402 7403 7404 7405 7406 7407 7408 7409 7410 7411 7412 7413 7414 7415 7416 7417 7418 7419 7420 7421 7422 7423 7424 7425 7426 7427 7428 7429 7430 7431 7432 7433 7434 7435 7436 7437 7438 7439 7440 7441 7442 7443 7444 7445 7446 7447 7448 7449 7450 7451 7452 7453 7454 7455 7456 7457 7458 7459 7460 7461 7462 7463 7464 7465 7466 7467 7468 7469 7470 7471 7472 7473 7474 7475 7476 7477 7478 7479 7480 7481 7482 7483 7484 7485 7486 7487 7488 7489 7490 7491 7492 7493 7494 7495 7496 7497 7498 7499 7500 7501 7502 7503 7504 7505 7506 7507 7508 7509 7510 7511 7512 7513 7514 7515 7516 7517 7518 7519 7520 7521 7522 7523 7524 7525 7526 7527 7528 7529 7530 7531 7532 7533 7534 7535 7536 7537 7538 7539 7540 7541 7542 7543 7544 7545 7546 7547 7548 7549 7550 7551 7552 7553 7554 7555 7556 7557 7558 7559 7560 7561 7562 7563 7564 7565 7566 7567 7568 7569 7570 7571 7572 7573 7574 7575 7576 7577 7578 7579 7580 7581 7582 7583 7584 7585 7586 7587 7588 7589 7590 7591 7592 7593 7594 7595 7596 7597 7598 7599 7600 7601 7602 7603 7604 7605 7606 7607 7608 7609 7610 7611 7612 7613 7614 7615 7616 7617 7618 7619 7620 7621 7622 7623 7624 7625 7626 7627 7628 7629 7630 7631 7632 7633 7634 7635 7636 7637 7638 7639 7640 7641 7642 7643 7644 7645 7646 7647 7648 7649 7650 7651 7652 7653 7654 7655 7656 7657 7658 7659 7660 7661 7662 7663 7664 7665 7666 7667 7668 7669 7670 7671 7672 7673 7674 7675 7676 7677 7678 7679 7680 7681 7682 7683 7684 7685 7686 7687 7688 7689 7690 7691 7692 7693 7694 7695 7696 7697 7698 7699 7700 7701 7702 7703 7704 7705 7706 7707 7708 7709 7710 7711 7712 7713 7714 7715 7716 7717 7718 7719 7720 7721 7722 7723 7724 7725 7726 7727 7728 7729 7730 7731 7732 7733 7734 7735 7736 7737 7738 7739 7740 7741 7742 7743 7744 7745 7746 7747 7748 7749 7750 7751 7752 7753 7754 7755 7756 7757 7758 7759 7760 7761 7762 7763 7764 7765 7766 7767 7768 7769 7770 7771 7772 7773 7774 7775 7776 7777 7778 7779 7780 7781 7782 7783 7784 7785 7786 7787 7788 7789 7790 7791 7792 7793 7794 7795 7796 7797 7798 7799 7800 7801 7802 7803 7804 7805 7806 7807 7808 7809 7810 7811 7812 7813 7814 7815 7816 7817 7818 7819 7820 7821 7822 7823 7824 7825 7826 7827 7828 7829 7830 7831 7832 7833 7834 7835 7836 7837 7838 7839 7840 7841 7842 7843 7844 7845 7846 7847 7848 7849 7850 7851 7852 7853 7854 7855 7856 7857 7858 7859 7860 7861 7862 7863 7864 7865 7866 7867 7868 7869 7870 7871 7872 7873 7874 7875 7876 7877 7878 7879 7880 7881 7882 7883 7884 7885 7886 7887 7888 7889 7890 7891 7892 7893 7894 7895 7896 7897 7898 7899 7900 7901 7902 7903 7904 7905 7906 7907 7908 7909 7910 7911 7912 7913 7914 7915 7916 7917 7918 7919 7920 7921 7922 7923 7924 7925 7926 7927 7928 7929 7930 7931 7932 7933 7934 7935 7936 7937 7938 7939 7940 7941 7942 7943 7944 7945 7946 7947 7948 7949 7950 7951 7952 7953 7954 7955 7956 7957 7958 7959 7960 7961 7962 7963 7964 7965 7966 7967 7968 7969 7970 7971 7972 7973 7974 7975 7976 7977 7978 7979 7980 7981 7982 7983 7984 7985 7986 7987 7988 7989 7990 7991 7992 7993 7994 7995 7996 7997 7998 7999 8000 8001 8002 8003 8004 8005 8006 8007 8008 8009 8010 8011 8012 8013 8014 8015 8016 8017 8018 8019 8020 8021 8022 8023 8024 8025 8026 8027 8028 8029 8030 8031 8032 8033 8034 8035 8036 8037 8038 8039 8040 8041 8042 8043 8044 8045 8046 8047 8048 8049 8050 8051 8052 8053 8054 8055 8056 8057 8058 8059 8060 8061 8062 8063 8064 8065 8066 8067 8068 8069 8070 8071 8072 8073 8074 8075 8076 8077 8078 8079 8080 8081 8082 8083 8084 8085 8086 8087 8088 8089 8090 8091 8092 8093 8094 8095 8096 8097 8098 8099 8100 8101 8102 8103 8104 8105 8106 8107 8108 8109 8110 8111 8112 8113 8114 8115 8116 8117 8118 8119 8120 8121 8122 8123 8124 8125 8126 8127 8128 8129 8130 8131 8132 8133 8134 8135 8136 8137 8138 8139 8140 8141 8142 8143 8144 8145 8146 8147 8148 8149 8150 8151 8152 8153 8154 8155 8156 8157 8158 8159 8160 8161 8162 8163 8164 8165 8166 8167 8168 8169 8170 8171 8172 8173 8174 8175 8176 8177 8178 8179 8180 8181 8182 8183 8184 8185 8186 8187 8188 8189 8190 8191 8192 8193 8194 8195 8196 8197 8198 8199 8200 8201 8202 8203 8204 8205 8206 8207 8208 8209 8210 8211 8212 8213 8214 8215 8216 8217 8218 8219 8220 8221 8222 8223 8224 8225 8226 8227 8228 8229 8230 8231 8232 8233 8234 8235 8236 8237 8238 8239 8240 8241 8242 8243 8244 8245 8246 8247 8248 8249 8250 8251 8252 8253 8254 8255 8256 8257 8258 8259 8260 8261 8262 8263 8264 8265 8266 8267 8268 8269 8270 8271 8272 8273 8274 8275 8276 8277 8278 8279 8280 8281 8282 8283 8284 8285 8286 8287 8288 8289 8290 8291 8292 8293 8294 8295 8296 8297 8298 8299 8300 8301 8302 8303 8304 8305 8306 8307 8308 8309 8310 8311 8312 8313 8314 8315 8316 8317 8318 8319 8320 8321 8322 8323 8324 8325 8326 8327 8328 8329 8330 8331 8332 8333 8334 8335 8336 8337 8338 8339 8340 8341 8342 8343 8344 8345 8346 8347 8348 8349 8350 8351 8352 8353 8354 8355 8356 8357 8358 8359 8360 8361 8362 8363 8364 8365 8366 8367 8368 8369 8370 8371 8372 8373 8374 8375 8376 8377 8378 8379 8380 8381 8382 8383 8384 8385 8386 8387 8388 8389 8390 8391 8392 8393 8394 8395 8396 8397 8398 8399 8400 8401 8402 8403 8404 8405 8406 8407 8408 8409 8410 8411 8412 8413 8414 8415 8416 8417 8418 8419 8420 8421 8422 8423 8424 8425 8426 8427 8428 8429 8430 8431 8432 8433 8434 8435 8436 8437 8438 8439 8440 8441 8442 8443 8444 8445 8446 8447 8448 8449 8450 8451 8452 8453 8454 8455 8456 8457 8458 8459 8460 8461 8462 8463 8464 8465 8466 8467 8468 8469 8470 8471 8472 8473 8474 8475 8476 8477 8478 8479 8480 8481 8482 8483 8484 8485 8486 8487 8488 8489 8490 8491 8492 8493 8494 8495 8496 8497 8498 8499 8500 8501 8502 8503 8504 8505 8506 8507 8508 8509 8510 8511 8512 8513 8514 8515 8516 8517 8518 8519 8520 8521 8522 8523 8524 8525 8526 8527 8528 8529 8530 8531 8532 8533 8534 8535 8536 8537 8538 8539 8540 8541 8542 8543 8544 8545 8546 8547 8548 8549 8550 8551 8552 8553 8554 8555 8556 8557 8558 8559 8560 8561 8562 8563 8564 8565 8566 8567 8568 8569 8570 8571 8572 8573 8574 8575 8576 8577 8578 8579 8580 8581 8582 8583 8584 8585 8586 8587 8588 8589 8590 8591 8592 8593 8594 8595 8596 8597 8598 8599 8600 8601 8602 8603 8604 8605 8606 8607 8608 8609 8610 8611 8612 8613 8614 8615 8616 8617 8618 8619 8620 8621 8622 8623 8624 8625 8626 8627 8628 8629 8630 8631 8632 8633 8634 8635 8636 8637 8638 8639 8640 8641 8642 8643 8644 8645 8646 8647 8648 8649 8650 8651 8652 8653 8654 8655 8656 8657 8658 8659 8660 8661 8662 8663 8664 8665 8666 8667 8668 8669 8670 8671 8672 8673 8674 8675 8676 8677 8678 8679 8680 8681 8682 8683 8684 8685 8686 8687 8688 8689 8690 8691 8692 8693 8694 8695 8696 8697 8698 8699 8700 8701 8702 8703 8704 8705 8706 8707 8708 8709 8710 8711 8712 8713 8714 8715 8716 8717 8718 8719 8720 8721 8722 8723 8724 8725 8726 8727 8728 8729 8730 8731 8732 8733 8734 8735 8736 8737 8738 8739 8740 8741 8742 8743 8744 8745 8746 8747 8748 8749 8750 8751 8752 8753 8754 8755 8756 8757 8758 8759 8760 8761 8762 8763 8764 8765 8766 8767 8768 8769 8770 8771 8772 8773 8774 8775 8776 8777 8778 8779 8780 8781 8782 8783 8784 8785 8786 8787 8788 8789 8790 8791 8792 8793 8794 8795 8796 8797 8798 8799 8800 8801 8802 8803 8804 8805 8806 8807 8808 8809 8810 8811 8812 8813 8814 8815 8816 8817 8818 8819 8820 8821 8822 8823 8824 8825 8826 8827 8828 8829 8830 8831 8832 8833 8834 8835 8836 8837 8838 8839 8840 8841 8842 8843 8844 8845 8846 8847 8848 8849 8850 8851 8852 8853 8854 8855 8856 8857 8858 8859 8860 8861 8862 8863 8864 8865 8866 8867 8868 8869 8870 8871 8872 8873 8874 8875 8876 8877 8878 8879 8880 8881 8882 8883 8884 8885 8886 8887 8888 8889 8890 8891 8892 8893 8894 8895 8896 8897 8898 8899 8900 8901 8902 8903 8904 8905 8906 8907 8908 8909 8910 8911 8912 8913 8914 8915 8916 8917 8918 8919 8920 8921 8922 8923 8924 8925 8926 8927 8928 8929 8930 8931 8932 8933 8934 8935 8936 8937 8938 8939 8940 8941 8942 8943 8944 8945 8946 8947 8948 8949 8950 8951 8952 8953 8954 8955 8956 8957 8958 8959 8960 8961 8962 8963 8964 8965 8966 8967 8968 8969 8970 8971 8972 8973 8974 8975 8976 8977 8978 8979 8980 8981 8982 8983 8984 8985 8986 8987 8988 8989 8990 8991 8992 8993 8994 8995 8996 8997 8998 8999 9000 9001 9002 9003 9004 9005 9006 9007 9008 9009 9010 9011 9012 9013 9014 9015 9016 9017 9018 9019 9020 9021 9022 9023 9024 9025 9026 9027 9028 9029 9030 9031 9032 9033 9034 9035 9036 9037 9038 9039 9040 9041 9042 9043 9044 9045 9046 9047 9048 9049 9050 9051 9052 9053 9054 9055 9056 9057 9058 9059 9060 9061 9062 9063 9064 9065 9066 9067 9068 9069 9070 9071 9072 9073 9074 9075 9076 9077 9078 9079 9080 9081 9082 9083 9084 9085 9086 9087 9088 9089 9090 9091 9092 9093 9094 9095 9096 9097 9098 9099 9100 9101 9102 9103 9104 9105 9106 9107 9108 9109 9110 9111 9112 9113 9114 9115 9116 9117 9118 9119 9120 9121 9122 9123 9124 9125 9126 9127 9128 9129 9130 9131 9132 9133 9134 9135 9136 9137 9138 9139 9140 9141 9142 9143 9144 9145 9146 9147 9148 9149 9150 9151 9152 9153 9154 9155 9156 9157 9158 9159 9160 9161 9162 9163 9164 9165 9166 9167 9168 9169 9170 9171 9172 9173 9174 9175 9176 9177 9178 9179 9180 9181 9182 9183 9184 9185 9186 9187 9188 9189 9190 9191 9192 9193 9194 9195 9196 9197 9198 9199 9200 9201 9202 9203 9204 9205 9206 9207 9208 9209 9210 9211 9212 9213 9214 9215 9216 9217 9218 9219 9220 9221 9222 9223 9224 9225 9226 9227 9228 9229 9230 9231 9232 9233 9234 9235 9236 9237 9238 9239 9240 9241 9242 9243 9244 9245 9246 9247 9248 9249 9250 9251 9252 9253 9254 9255 9256 9257 9258 9259 9260 9261 9262 9263 9264 9265 9266 9267 9268 9269 9270 9271 9272 9273 9274 9275 9276 9277 9278 9279 9280 9281 9282 9283 9284 9285 9286 9287 9288 9289 9290 9291 9292 9293 9294 9295 9296 9297 9298 9299 9300 9301 9302 9303 9304 9305 9306 9307 9308 9309 9310 9311 9312 9313 9314 9315 9316 9317 9318 9319 9320 9321 9322 9323 9324 9325 9326 9327 9328 9329 9330 9331 9332 9333 9334 9335 9336 9337 9338 9339 9340 9341 9342 9343 9344 9345 9346 9347 9348 9349 9350 9351 9352 9353 9354 9355 9356 9357 9358 9359 9360 9361 9362 9363 9364 9365 9366 9367 9368 9369 9370 9371 9372 9373 9374 9375 9376 9377 9378 9379 9380 9381 9382 9383 9384 9385 9386 9387 9388 9389 9390 9391 9392 9393 9394 9395 9396 9397 9398 9399 9400 9401 9402 9403 9404 9405 9406 9407 9408 9409 9410 9411 9412 9413 9414 9415 9416 9417 9418 9419 9420 9421 9422 9423 9424 9425 9426 9427 9428 9429 9430 9431 9432 9433 9434 9435 9436 9437 9438 9439 9440 9441 9442 9443 9444 9445 9446 9447 9448 9449 9450 9451 9452 9453 9454 9455 9456 9457 9458 9459 9460 9461 9462 9463 9464 9465 9466 9467 9468 9469 9470 9471 9472 9473 9474 9475 9476 9477 9478 9479 9480 9481 9482 9483 9484 9485 9486 9487 9488 9489 9490 9491 9492 9493 9494 9495 9496 9497 9498 9499 9500 9501 9502 9503 9504 9505 9506 9507 9508 9509 9510 9511 9512 9513 9514 9515 9516 9517 9518 9519 9520 9521 9522 9523 9524 9525 9526 9527 9528 9529 9530 9531 9532 9533 9534 9535 9536 9537 9538 9539 9540 9541 9542 9543 9544 9545 9546 9547 9548 9549 9550 9551 9552 9553 9554 9555 9556 9557 9558 9559 9560 9561 9562 9563 9564 9565 9566 9567 9568 9569 9570 9571 9572 9573 9574 9575 9576 9577 9578 9579 9580 9581 9582 9583 9584 9585 9586 9587 9588 9589 9590 9591 9592 9593 9594 9595 9596 9597 9598 9599 9600 9601 9602 9603 9604 9605 9606 9607 9608 9609 9610 9611 9612 9613 9614 9615 9616 9617 9618 9619 9620 9621 9622 9623 9624 9625 9626 9627 9628 9629 9630 9631 9632 9633 9634 9635 9636 9637 9638 9639 9640 9641 9642 9643 9644 9645 9646 9647 9648 9649 9650 9651 9652 9653 9654 9655 9656 9657 9658 9659 9660 9661 9662 9663 9664 9665 9666 9667 9668 9669 9670 9671 9672 9673 9674 9675 9676 9677 9678 9679 9680 9681 9682 9683 9684 9685 9686 9687 9688 9689 9690 9691 9692 9693 9694 9695 9696 9697 9698 9699 9700 9701 9702 9703 9704 9705 9706 9707 9708 9709 9710 9711 9712 9713 9714 9715 9716 9717 9718 9719 9720 9721 9722 9723 9724 9725 9726 9727 9728 9729 9730 9731 9732 9733 9734 9735 9736 9737 9738 9739 9740 9741 9742 9743 9744 9745 9746 9747 9748 9749 9750 9751 9752 9753 9754 9755 9756 9757 9758 9759 9760 9761 9762 9763 9764 9765 9766 9767 9768 9769 9770 9771 9772 9773 9774 9775 9776 9777 9778 9779 9780 9781 9782 9783 9784 9785 9786 9787 9788 9789 9790 9791 9792 9793 9794 9795 9796 9797 9798 9799 9800 9801 9802 9803 9804 9805 9806 9807 9808 9809 9810 9811 9812 9813 9814 9815 9816 9817 9818 9819 9820 9821 9822 9823 9824 9825 9826 9827 9828 9829 9830 9831 9832 9833 9834 9835 9836 9837 9838 9839 9840 9841 9842 9843 9844 9845 9846 9847 9848 9849 9850 9851 9852 9853 9854 9855 9856 9857 9858 9859 9860 9861 9862 9863 9864 9865 9866 9867 9868 9869 9870 9871 9872 9873 9874 9875 9876 9877 9878 9879 9880 9881 9882 9883 9884 9885 9886 9887 9888 9889 9890 9891 9892 9893 9894 9895 9896 9897 9898 9899 9900 9901 9902 9903 9904 9905 9906 9907 9908 9909 9910 9911 9912 9913 9914 9915 9916 9917 9918 9919 9920 9921 9922 9923 9924 9925 9926 9927 9928 9929 9930 9931 9932 9933 9934 9935 9936 9937 9938 9939 9940 9941 9942 9943 9944 9945 9946 9947 9948 9949 9950 9951 9952 9953 9954 9955 9956 9957 9958 9959 9960 9961 9962 9963 9964 9965 9966 9967 9968 9969 9970 9971 9972 9973 9974 9975 9976 9977 9978 9979 9980 9981 9982 9983 9984 9985 9986 9987 9988 9989 9990 9991 9992 9993 9994 9995 9996 9997 9998 9999 10000 10001 10002 10003 10004 10005 10006 10007 10008 10009 10010 10011 10012 10013 10014 10015 10016 10017 10018 10019 10020 10021 10022 10023 10024 10025 10026 10027 10028 10029 10030 10031 10032 10033 10034 10035 10036 10037 10038 10039 10040 10041 10042 10043 10044 10045 10046 10047 10048 10049 10050 10051 10052 10053 10054 10055 10056 10057 10058 10059 10060 10061 10062 10063 10064 10065 10066 10067 10068 10069 10070 10071 10072 10073 10074 10075 10076 10077 10078 10079 10080 10081 10082 10083 10084 10085 10086 10087 10088 10089 10090 10091 10092 10093 10094 10095 10096 10097 10098 10099 10100 10101 10102 10103 10104 10105 10106 10107 10108 10109 10110 10111 10112 10113 10114 10115 10116 10117 10118 10119 10120 10121 10122 10123 10124 10125 10126 10127 10128 10129 10130 10131 10132 10133 10134 10135 10136 10137 10138 10139 10140 10141 10142 10143 10144 10145 10146 10147 10148 10149 10150 10151 10152 10153 10154 10155 10156 10157 10158 10159 10160 10161 10162 10163 10164 10165 10166 10167 10168 10169 10170 10171 10172 10173 10174 10175 10176 10177 10178 10179 10180 10181 10182 10183 10184 10185 10186 10187 10188 10189 10190 10191 10192 10193 10194 10195 10196 10197 10198 10199 10200 10201 10202 10203 10204 10205 10206 10207 10208 10209 10210 10211 10212 10213 10214 10215 10216 10217 10218 10219 10220 10221 10222 10223 10224 10225 10226 10227 10228 10229 10230 10231 10232 10233 10234 10235 10236 10237 10238 10239 10240 10241 10242 10243 10244 10245 10246 10247 10248 10249 10250 10251 10252 10253 10254 10255 10256 10257 10258 10259 10260 10261 10262 10263 10264 10265 10266 10267 10268 10269 10270 10271 10272 10273 10274 10275 10276 10277 10278 10279 10280 10281 10282 10283 10284 10285 10286 10287 10288 10289 10290 10291 10292 10293 10294 10295 10296 10297 10298 10299 10300 10301 10302 10303 10304 10305 10306 10307 10308 10309 10310 10311 10312 10313 10314 10315 10316 10317 10318 10319 10320 10321 10322 10323 10324 10325 10326 10327 10328 10329 10330 10331 10332 10333 10334 10335 10336 10337 10338 10339 10340 10341 10342 10343 10344 10345 10346 10347 10348 10349 10350 10351 10352 10353 10354 10355 10356 10357 10358 10359 10360 10361 10362 10363 10364 10365 10366 10367 10368 10369 10370 10371 10372 10373 10374 10375 10376 10377 10378 10379 10380 10381 10382 10383 10384 10385 10386 10387 10388 10389 10390 10391 10392 10393 10394 10395 10396 10397 10398 10399 10400 10401 10402 10403 10404 10405 10406 10407 10408 10409 10410 10411 10412 10413 10414 10415 10416 10417 10418 10419 10420 10421 10422 10423 10424 10425 10426 10427 10428 10429 10430 10431 10432 10433 10434 10435 10436 10437 10438 10439 10440 10441 10442 10443 10444 10445 10446 10447 10448 10449 10450 10451 10452 10453 10454 10455 10456 10457 10458 10459 10460 10461 10462 10463 10464 10465 10466 10467 10468 10469 10470 10471 10472 10473 10474 10475 10476 10477 10478 10479 10480 10481 10482 10483 10484 10485 10486 10487 10488 10489 10490 10491 10492 10493 10494 10495 10496 10497 10498 10499 10500 10501 10502 10503 10504 10505 10506 10507 10508 10509 10510 10511 10512 10513 10514 10515 10516 10517 10518 10519 10520 10521 10522 10523 10524 10525 10526 10527 10528 10529 10530 10531 10532 10533 10534 10535 10536 10537 10538 10539 10540 10541 10542 10543 10544 10545 10546 10547 10548 10549 10550 10551 10552 10553 10554 10555 10556 10557 10558 10559 10560 10561 10562 10563 10564 10565 10566 10567 10568 10569 10570 10571 10572 10573 10574 10575 10576 10577 10578 10579 10580 10581 10582 10583 10584 10585 10586 10587 10588 10589 10590 10591 10592 10593 10594 10595 10596 10597 10598 10599 10600 10601 10602 10603 10604 10605 10606 10607 10608 10609 10610 10611 10612 10613 10614 10615 10616 10617 10618 10619 10620 10621 10622 10623 10624 10625 10626 10627 10628 10629 10630 10631 10632 10633 10634 10635 10636 10637 10638 10639 10640 10641 10642 10643 10644 10645 10646 10647 10648 10649 10650 10651 10652 10653 10654 10655 10656 10657 10658 10659 10660 10661 10662 10663 10664 10665 10666 10667 10668 10669 10670 10671 10672 10673 10674 10675 10676 10677 10678 10679 10680 10681 10682 10683 10684 10685 10686 10687 10688 10689 10690 10691 10692 10693 10694 10695 10696 10697 10698 10699 10700 10701 10702 10703 10704 10705 10706 10707 10708 10709 10710 10711 10712 10713 10714 10715 10716 10717 10718 10719 10720 10721 10722 10723 10724 10725 10726 10727 10728 10729 10730 10731 10732 10733 10734 10735 10736 10737 10738 10739 10740 10741 10742 10743 10744 10745 10746 10747 10748 10749 10750 10751 10752 10753 10754 10755 10756 10757 10758 10759 10760 10761 10762 10763 10764 10765 10766 10767 10768 10769 10770 10771 10772 10773 10774 10775 10776 10777 10778 10779 10780 10781 10782 10783 10784 10785 10786 10787 10788 10789 10790 10791 10792 10793 10794 10795 10796 10797 10798 10799 10800 10801 10802 10803 10804 10805 10806 10807 10808 10809 10810 10811 10812 10813 10814 10815 10816 10817 10818 10819 10820 10821 10822 10823 10824 10825 10826 10827 10828 10829 10830 10831 10832 10833 10834 10835 10836 10837 10838 10839 10840 10841 10842 10843 10844 10845 10846 10847 10848 10849 10850 10851 10852 10853 10854 10855 10856 10857 10858 10859 10860 10861 10862 10863 10864 10865 10866 10867 10868 10869 10870 10871 10872 10873 10874 10875 10876 10877 10878 10879 10880 10881 10882 10883 10884 10885 10886 10887 10888 10889 10890 10891 10892 10893 10894 10895 10896 10897 10898 10899 10900 10901 10902 10903 10904 10905 10906 10907 10908 10909 10910 10911 10912 10913 10914 10915 10916 10917 10918 10919 10920 10921 10922 10923 10924 10925 10926 10927 10928 10929 10930 10931 10932 10933 10934 10935 10936 10937 10938 10939 10940 10941 10942 10943 10944 10945 10946 10947 10948 10949 10950 10951 10952 10953 10954 10955 10956 10957 10958 10959 10960 10961 10962 10963 10964 10965 10966 10967 10968 10969 10970 10971 10972 10973 10974 10975 10976 10977 10978 10979 10980 10981 10982 10983 10984 10985 10986 10987 10988 10989 10990 10991 10992 10993 10994 10995 10996 10997 10998 10999 11000 11001 11002 11003 11004 11005 11006 11007 11008 11009 11010 11011 11012 11013 11014 11015 11016 11017 11018 11019 11020 11021 11022 11023 11024 11025 11026 11027 11028 11029 11030 11031 11032 11033 11034 11035 11036 11037 11038 11039 11040 11041 11042 11043 11044 11045 11046 11047 11048 11049 11050 11051 11052 11053 11054 11055 11056 11057 11058 11059 11060 11061 11062 11063 11064 11065 11066 11067 11068 11069 11070 11071 11072 11073 11074 11075 11076 11077 11078 11079 11080 11081 11082 11083 11084 11085 11086 11087 11088 11089 11090 11091 11092 11093 11094 11095 11096 11097 11098 11099 11100 11101 11102 11103 11104 11105 11106 11107 11108 11109 11110 11111 11112 11113 11114 11115 11116 11117 11118 11119 11120 11121 11122 11123 11124 11125 11126 11127 11128 11129 11130 11131 11132 11133 11134 11135 11136 11137 11138 11139 11140 11141 11142 11143 11144 11145 11146 11147 11148 11149 11150 11151 11152 11153 11154 11155 11156 11157 11158 11159 11160 11161 11162 11163 11164 11165 11166 11167 11168 11169 11170 11171 11172 11173 11174 11175 11176 11177 11178 11179 11180 11181 11182 11183 11184 11185 11186 11187 11188 11189 11190 11191 11192 11193 11194 11195 11196 11197 11198 11199 11200 11201 11202 11203 11204 11205 11206 11207 11208 11209 11210 11211 11212 11213 11214 11215 11216 11217 11218 11219 11220 11221 11222 11223 11224 11225 11226 11227 11228 11229 11230 11231 11232 11233 11234 11235 11236 11237 11238 11239 11240 11241 11242 11243 11244 11245 11246 11247 11248 11249 11250 11251 11252 11253 11254 11255 11256 11257 11258 11259 11260 11261 11262 11263 11264 11265 11266 11267 11268 11269 11270 11271 11272 11273 11274 11275 11276 11277 11278 11279 11280 11281 11282 11283 11284 11285 11286 11287 11288 11289 11290 11291 11292 11293 11294 11295 11296 11297 11298 11299 11300 11301 11302 11303 11304 11305 11306 11307 11308 11309 11310 11311 11312 11313 11314 11315 11316 11317 11318 11319 11320 11321 11322 11323 11324 11325 11326 11327 11328 11329 11330 11331 11332 11333 11334 11335 11336 11337 11338 11339 11340 11341 11342 11343 11344 11345 11346 11347 11348 11349 11350 11351 11352 11353 11354 11355 11356 11357 11358 11359 11360 11361 11362 11363 11364 11365 11366 11367 11368 11369 11370 11371 11372 11373 11374 11375 11376 11377 11378 11379 11380 11381 11382 11383 11384 11385 11386 11387 11388 11389 11390 11391 11392 11393 11394 11395 11396 11397 11398 11399 11400 11401 11402 11403 11404 11405 11406 11407 11408 11409 11410 11411 11412 11413 11414 11415 11416 11417 11418 11419 11420 11421 11422 11423 11424 11425 11426 11427 11428 11429 11430 11431 11432 11433 11434 11435 11436 11437 11438 11439 11440 11441 11442 11443 11444 11445 11446 11447 11448 11449 11450 11451 11452 11453 11454 11455 11456 11457 11458 11459 11460 11461 11462 11463 11464 11465 11466 11467 11468 11469 11470 11471 11472 11473 11474 11475 11476 11477 11478 11479 11480 11481 11482 11483 11484 11485 11486 11487 11488 11489 11490 11491 11492 11493 11494 11495 11496 11497 11498 11499 11500 11501 11502 11503 11504 11505 11506 11507 11508 11509 11510 11511 11512 11513 11514 11515 11516 11517 11518 11519 11520 11521 11522 11523 11524 11525 11526 11527 11528 11529 11530 11531 11532 11533 11534 11535 11536 11537 11538 11539 11540 11541 11542 11543 11544 11545 11546 11547 11548 11549 11550 11551 11552 11553 11554 11555 11556 11557 11558 11559 11560 11561 11562 11563 11564 11565 11566 11567 11568 11569 11570 11571 11572 11573 11574 11575 11576 11577 11578 11579 11580 11581 11582 11583 11584 11585 11586 11587 11588 11589 11590 11591 11592 11593 11594 11595 11596 11597 11598 11599 11600 11601 11602 11603 11604 11605 11606 11607 11608 11609 11610 11611 11612 11613 11614 11615 11616 11617 11618 11619 11620 11621 11622 11623 11624 11625 11626 11627 11628 11629 11630 11631 11632 11633 11634 11635 11636 11637 11638 11639 11640 11641 11642 11643 11644 11645 11646 11647 11648 11649 11650 11651 11652 11653 11654 11655 11656 11657 11658 11659 11660 11661 11662 11663 11664 11665 11666 11667 11668 11669 11670 11671 11672 11673 11674 11675 11676 11677 11678 11679 11680 11681 11682 11683 11684 11685 11686 11687 11688 11689 11690 11691 11692 11693 11694 11695 11696 11697 11698 11699 11700 11701 11702 11703 11704 11705 11706 11707 11708 11709 11710 11711 11712 11713 11714 11715 11716 11717 11718 11719 11720 11721 11722 11723 11724 11725 11726 11727 11728 11729 11730 11731 11732 11733 11734 11735 11736 11737 11738 11739 11740 11741 11742 11743 11744 11745 11746 11747 11748 11749 11750 11751 11752 11753 11754 11755 11756 11757 11758 11759 11760 11761 11762 11763 11764 11765 11766 11767 11768 11769 11770 11771 11772 11773 11774 11775 11776 11777 11778 11779 11780 11781 11782 11783 11784 11785 11786 11787 11788 11789 11790 11791 11792 11793 11794 11795 11796 11797 11798 11799 11800 11801 11802 11803 11804 11805 11806 11807 11808 11809 11810 11811 11812 11813 11814 11815 11816 11817 11818 11819 11820 11821 11822 11823 11824 11825 11826 11827 11828 11829 11830 11831 11832 11833 11834 11835 11836 11837 11838 11839 11840 11841 11842 11843 11844 11845 11846 11847 11848 11849 11850 11851 11852 11853 11854 11855 11856 11857 11858 11859 11860 11861 11862 11863 11864 11865 11866 11867 11868 11869 11870 11871 11872 11873 11874 11875 11876 11877 11878 11879 11880 11881 11882 11883 11884 11885 11886 11887 11888 11889 11890 11891 11892 11893 11894 11895 11896 11897 11898 11899 11900 11901 11902 11903 11904 11905 11906 11907 11908 11909 11910 11911 11912 11913 11914 11915 11916 11917 11918 11919 11920 11921 11922 11923 11924 11925 11926 11927 11928 11929 11930 11931 11932 11933 11934 11935 11936 11937 11938 11939 11940 11941 11942 11943 11944 11945 11946 11947 11948 11949 11950 11951 11952 11953 11954 11955 11956 11957 11958 11959 11960 11961 11962 11963 11964 11965 11966 11967 11968 11969 11970 11971 11972 11973 11974 11975 11976 11977 11978 11979 11980 11981 11982 11983 11984 11985 11986 11987 11988 11989 11990 11991 11992 11993 11994 11995 11996 11997 11998 11999 12000 12001 12002 12003 12004 12005 12006 12007 12008 12009 12010 12011 12012 12013 12014 12015 12016 12017 12018 12019 12020 12021 12022 12023 12024 12025 12026 12027 12028 12029 12030 12031 12032 12033 12034 12035 12036 12037 12038 12039 12040 12041 12042 12043 12044 12045 12046 12047 12048 12049 12050 12051 12052 12053 12054 12055 12056 12057 12058 12059 12060 12061 12062 12063 12064 12065 12066 12067 12068 12069 12070 12071 12072 12073 12074 12075 12076 12077 12078 12079 12080 12081 12082 12083 12084 12085 12086 12087 12088 12089 12090 12091 12092 12093 12094 12095 12096 12097 12098 12099 12100 12101 12102 12103 12104 12105 12106 12107 12108 12109 12110 12111 12112 12113 12114 12115 12116 12117 12118 12119 12120 12121 12122 12123 12124 12125 12126 12127 12128 12129 12130 12131 12132 12133 12134 12135 12136 12137 12138 12139 12140 12141 12142 12143 12144 12145 12146 12147 12148 12149 12150 12151 12152 12153 12154 12155 12156 12157 12158 12159 12160 12161 12162 12163 12164 12165 12166 12167 12168 12169 12170 12171 12172 12173 12174 12175 12176 12177 12178 12179 12180 12181 12182 12183 12184 12185 12186 12187 12188 12189 12190 12191 12192 12193 12194 12195 12196 12197 12198 12199 12200 12201 12202 12203 12204 12205 12206 12207 12208 12209 12210 12211 12212 12213 12214 12215 12216 12217 12218 12219 12220 12221 12222 12223 12224 12225 12226 12227 12228 12229 12230 12231 12232 12233 12234 12235 12236 12237 12238 12239 12240 12241 12242 12243 12244 12245 12246 12247 12248 12249 12250 12251 12252 12253 12254 12255 12256 12257 12258 12259 12260 12261 12262 12263 12264 12265 12266 12267 12268 12269 12270 12271 12272 12273 12274 12275 12276 12277 12278 12279 12280 12281 12282 12283 12284 12285 12286 12287 12288 12289 12290 12291 12292 12293 12294 12295 12296 12297 12298 12299 12300 12301 12302 12303 12304 12305 12306 12307 12308 12309 12310 12311 12312 12313 12314 12315 12316 12317 12318 12319 12320 12321 12322 12323 12324 12325 12326 12327 12328 12329 12330 12331 12332 12333 12334 12335 12336 12337 12338 12339 12340 12341 12342 12343 12344 12345 12346 12347 12348 12349 12350 12351 12352 12353 12354 12355 12356 12357 12358 12359 12360 12361 12362 12363 12364 12365 12366 12367 12368 12369 12370 12371 12372 12373 12374 12375 12376 12377 12378 12379 12380 12381 12382 12383 12384 12385 12386 12387 12388 12389 12390 12391 12392 12393 12394 12395 12396 12397 12398 12399 12400 12401 12402 12403 12404 12405 12406 12407 12408 12409 12410 12411 12412 12413 12414 12415 12416 12417 12418 12419 12420 12421 12422 12423 12424 12425 12426 12427 12428 12429 12430 12431 12432 12433 12434 12435 12436 12437 12438 12439 12440 12441 12442 12443 12444 12445 12446 12447 12448 12449 12450 12451 12452 12453 12454 12455 12456 12457 12458 12459 12460 12461 12462 12463 12464 12465 12466 12467 12468 12469 12470 12471 12472 12473 12474 12475 12476 12477 12478 12479 12480 12481 12482 12483 12484 12485 12486 12487 12488 12489 12490 12491 12492 12493 12494 12495 12496 12497 12498 12499 12500 12501 12502 12503 12504 12505 12506 12507 12508 12509 12510 12511 12512 12513 12514 12515 12516 12517 12518 12519 12520 12521 12522 12523 12524 12525 12526 12527 12528 12529 12530 12531 12532 12533 12534 12535 12536 12537 12538 12539 12540 12541 12542 12543 12544 12545 12546 12547 12548 12549 12550 12551 12552 12553 12554 12555 12556 12557 12558 12559 12560 12561 12562 12563 12564 12565 12566 12567 12568 12569 12570 12571 12572 12573 12574 12575 12576 12577 12578 12579 12580 12581 12582 12583 12584 12585 12586 12587 12588 12589 12590 12591 12592 12593 12594 12595 12596 12597 12598 12599 12600 12601 12602 12603 12604 12605 12606 12607 12608 12609 12610 12611 12612 12613 12614 12615 12616 12617 12618 12619 12620 12621 12622 12623 12624 12625 12626 12627 12628 12629 12630 12631 12632 12633 12634 12635 12636 12637 12638 12639 12640 12641 12642 12643 12644 12645 12646 12647 12648 12649 12650 12651 12652 12653 12654 12655 12656 12657 12658 12659 12660 12661 12662 12663 12664 12665 12666 12667 12668 12669 12670 12671 12672 12673 12674 12675 12676 12677 12678 12679 12680 12681 12682 12683 12684 12685 12686 12687 12688 12689 12690 12691 12692 12693 12694 12695 12696 12697 12698 12699 12700 12701 12702 12703 12704 12705 12706 12707 12708 12709 12710 12711 12712 12713 12714 12715 12716 12717 12718 12719 12720 12721 12722 12723 12724 12725 12726 12727 12728 12729 12730 12731 12732 12733 12734 12735 12736 12737 12738 12739 12740 12741 12742 12743 12744 12745 12746 12747 12748 12749 12750 12751 12752 12753 12754 12755 12756 12757 12758 12759 12760 12761 12762 12763 12764 12765 12766 12767 12768 12769 12770 12771 12772 12773 12774 12775 12776 12777 12778 12779 12780 12781 12782 12783 12784 12785 12786 12787 12788 12789 12790 12791 12792 12793 12794 12795 12796 12797 12798 12799 12800 12801 12802 12803 12804 12805 12806 12807 12808 12809 12810 12811 12812 12813 12814 12815 12816 12817 12818 12819 12820 12821 12822 12823 12824 12825 12826 12827 12828 12829 12830 12831 12832 12833 12834 12835 12836 12837 12838 12839 12840 12841 12842 12843 12844 12845 12846 12847 12848 12849 12850 12851 12852 12853 12854 12855 12856 12857 12858 12859 12860 12861 12862 12863 12864 12865 12866 12867 12868 12869 12870 12871 12872 12873 12874 12875 12876 12877 12878 12879 12880 12881 12882 12883 12884 12885 12886 12887 12888 12889 12890 12891 12892 12893 12894 12895 12896 12897 12898 12899 12900 12901 12902 12903 12904 12905 12906 12907 12908 12909 12910 12911 12912 12913 12914 12915 12916 12917 12918 12919 12920 12921 12922 12923 12924 12925 12926 12927 12928 12929 12930 12931 12932 12933 12934 12935 12936 12937 12938 12939 12940 12941 12942 12943 12944 12945 12946 12947 12948 12949 12950 12951 12952 12953 12954 12955 12956 12957 12958 12959 12960 12961 12962 12963 12964 12965 12966 12967 12968 12969 12970 12971 12972 12973 12974 12975 12976 12977 12978 12979 12980 12981 12982 12983 12984 12985 12986 12987 12988 12989 12990 12991 12992 12993 12994 12995 12996 12997 12998 12999 13000 13001 13002 13003 13004 13005 13006 13007 13008 13009 13010 13011 13012 13013 13014 13015 13016 13017 13018 13019 13020 13021 13022 13023 13024 13025 13026 13027 13028 13029 13030 13031 13032 13033 13034 13035 13036 13037 13038 13039 13040 13041 13042 13043 13044 13045 13046 13047 13048 13049 13050 13051 13052 13053 13054 13055 13056 13057 13058 13059 13060 13061 13062 13063 13064 13065 13066 13067 13068 13069 13070 13071 13072 13073 13074 13075 13076 13077 13078 13079 13080 13081 13082 13083 13084 13085 13086 13087 13088 13089 13090 13091 13092 13093 13094 13095 13096 13097 13098 13099 13100 13101 13102 13103 13104 13105 13106 13107 13108 13109 13110 13111 13112 13113 13114 13115 13116 13117 13118 13119 13120 13121 13122 13123 13124 13125 13126 13127 13128 13129 13130 13131 13132 13133 13134 13135 13136 13137 13138 13139 13140 13141 13142 13143 13144 13145 13146 13147 13148 13149 13150 13151 13152 13153 13154 13155 13156 13157 13158 13159 13160 13161 13162 13163 13164 13165 13166 13167 13168 13169 13170 13171 13172 13173 13174 13175 13176 13177 13178 13179 13180 13181 13182 13183 13184 13185 13186 13187 13188 13189 13190 13191 13192 13193 13194 13195 13196 13197 13198 13199 13200 13201 13202 13203 13204 13205 13206 13207 13208 13209 13210 13211 13212 13213 13214 13215 13216 13217 13218 13219 13220 13221 13222 13223 13224 13225 13226 13227 13228 13229 13230 13231 13232 13233 13234 13235 13236 13237 13238 13239 13240 13241 13242 13243 13244 13245 13246 13247 13248 13249 13250 13251 13252 13253 13254 13255 13256 13257 13258 13259 13260 13261 13262 13263 13264 13265 13266 13267 13268 13269 13270 13271 13272 13273 13274 13275 13276 13277 13278 13279 13280 13281 13282 13283 13284 13285 13286 13287 13288 13289 13290 13291 13292 13293 13294 13295 13296 13297 13298 13299 13300 13301 13302 13303 13304 13305 13306 13307 13308 13309 13310 13311 13312 13313 13314 13315 13316 13317 13318 13319 13320 13321 13322 13323 13324 13325 13326 13327 13328 13329 13330 13331 13332 13333 13334 13335 13336 13337 13338 13339 13340 13341 13342 13343 13344 13345 13346 13347 13348 13349 13350 13351 13352 13353 13354 13355 13356 13357 13358 13359 13360 13361 13362 13363 13364 13365 13366 13367 13368 13369 13370 13371 13372 13373 13374 13375 13376 13377 13378 13379 13380 13381 13382 13383 13384 13385 13386 13387 13388 13389 13390 13391 13392 13393 13394 13395 13396 13397 13398 13399 13400 13401 13402 13403 13404 13405 13406 13407 13408 13409 13410 13411 13412 13413 13414 13415 13416 13417 13418 13419 13420 13421 13422 13423 13424 13425 13426 13427 13428 13429 13430 13431 13432 13433 13434 13435 13436 13437 13438 13439 13440 13441 13442 13443 13444 13445 13446 13447 13448 13449 13450 13451 13452 13453 13454 13455 13456 13457 13458 13459 13460 13461 13462 13463 13464 13465 13466 13467 13468 13469 13470 13471 13472 13473 13474 13475 13476 13477 13478 13479 13480 13481 13482 13483 13484 13485 13486 13487 13488 13489 13490 13491 13492 13493 13494 13495 13496 13497 13498 13499 13500 13501 13502 13503 13504 13505 13506 13507 13508 13509 13510 13511 13512 13513 13514 13515 13516 13517 13518 13519 13520 13521 13522 13523 13524 13525 13526 13527 13528 13529 13530 13531 13532 13533 13534 13535 13536 13537 13538 13539 13540 13541 13542 13543 13544 13545 13546 13547 13548 13549 13550 13551 13552 13553 13554 13555 13556 13557 13558 13559 13560 13561 13562 13563 13564 13565 13566 13567 13568 13569 13570 13571 13572 13573 13574 13575 13576 13577 13578 13579 13580 13581 13582 13583 13584 13585 13586 13587 13588 13589 13590 13591 13592 13593 13594 13595 13596 13597 13598 13599 13600 13601 13602 13603 13604 13605 13606 13607 13608 13609 13610 13611 13612 13613 13614 13615 13616 13617 13618 13619 13620 13621 13622 13623 13624 13625 13626 13627 13628 13629 13630 13631 13632 13633 13634 13635 13636 13637 13638 13639 13640 13641 13642 13643 13644 13645 13646 13647 13648 13649 13650 13651 13652 13653 13654 13655 13656 13657 13658 13659 13660 13661 13662 13663 13664 13665 13666 13667 13668 13669 13670 13671 13672 13673 13674 13675 13676 13677 13678 13679 13680 13681 13682 13683 13684 13685 13686 13687 13688 13689 13690 13691 13692 13693 13694 13695 13696 13697 13698 13699 13700 13701 13702 13703 13704 13705 13706 13707 13708 13709 13710 13711 13712 13713 13714 13715 13716 13717 13718 13719 13720 13721 13722 13723 13724 13725 13726 13727 13728 13729 13730 13731 13732 13733 13734 13735 13736 13737 13738 13739 13740 13741 13742 13743 13744 13745 13746 13747 13748 13749 13750 13751 13752 13753 13754 13755 13756 13757 13758 13759 13760 13761 13762 13763 13764 13765 13766 13767 13768 13769 13770 13771 13772 13773 13774 13775 13776 13777 13778 13779 13780 13781 13782 13783 13784 13785 13786 13787 13788 13789 13790 13791 13792 13793 13794 13795 13796 13797 13798 13799 13800 13801 13802 13803 13804 13805 13806 13807 13808 13809 13810 13811 13812 13813 13814 13815 13816 13817 13818 13819 13820 13821 13822 13823 13824 13825 13826 13827 13828 13829 13830 13831 13832 13833 13834 13835 13836 13837 13838 13839 13840 13841 13842 13843 13844 13845 13846 13847 13848 13849 13850 13851 13852 13853 13854 13855 13856 13857 13858 13859 13860 13861 13862 13863 13864 13865 13866 13867 13868 13869 13870 13871 13872 13873 13874 13875 13876 13877 13878 13879 13880 13881 13882 13883 13884 13885 13886 13887 13888 13889 13890 13891 13892 13893 13894 13895 13896 13897 13898 13899 13900 13901 13902 13903 13904 13905 13906 13907 13908 13909 13910 13911 13912 13913 13914 13915 13916 13917 13918 13919 13920 13921 13922 13923 13924 13925 13926 13927 13928 13929 13930 13931 13932 13933 13934 13935 13936 13937 13938 13939 13940 13941 13942 13943 13944 13945 13946 13947 13948 13949 13950 13951 13952 13953 13954 13955 13956 13957 13958 13959 13960 13961 13962 13963 13964 13965 13966 13967 13968 13969 13970 13971 13972 13973 13974 13975 13976 13977 13978 13979 13980 13981 13982 13983 13984 13985 13986 13987 13988 13989 13990 13991 13992 13993 13994 13995 13996 13997 13998 13999 14000 14001 14002 14003 14004 14005 14006 14007 14008 14009 14010 14011 14012 14013 14014 14015 14016 14017 14018 14019 14020 14021 14022 14023 14024 14025 14026 14027 14028 14029 14030 14031 14032 14033 14034 14035 14036 14037 14038 14039 14040 14041 14042 14043 14044 14045 14046 14047 14048 14049 14050 14051 14052 14053 14054 14055 14056 14057 14058 14059 14060 14061 14062 14063 14064 14065 14066 14067 14068 14069 14070 14071 14072 14073 14074 14075 14076 14077 14078 14079 14080 14081 14082 14083 14084 14085 14086 14087 14088 14089 14090 14091 14092 14093 14094 14095 14096 14097 14098 14099 14100 14101 14102 14103 14104 14105 14106 14107 14108 14109 14110 14111 14112 14113 14114 14115 14116 14117 14118 14119 14120 14121 14122 14123 14124 14125 14126 14127 14128 14129 14130 14131 14132 14133 14134 14135 14136 14137 14138 14139 14140 14141 14142 14143 14144 14145 14146 14147 14148 14149 14150 14151 14152 14153 14154 14155 14156 14157 14158 14159 14160 14161 14162 14163 14164 14165 14166 14167 14168 14169 14170 14171 14172 14173 14174 14175 14176 14177 14178 14179 14180 14181 14182 14183 14184 14185 14186 14187 14188 14189 14190 14191 14192 14193 14194 14195 14196 14197 14198 14199 14200 14201 14202 14203 14204 14205 14206 14207 14208 14209 14210 14211 14212 14213 14214 14215 14216 14217 14218 14219 14220 14221 14222 14223 14224 14225 14226 14227 14228 14229 14230 14231 14232 14233 14234 14235 14236 14237 14238 14239 14240 14241 14242 14243 14244 14245 14246 14247 14248 14249 14250 14251 14252 14253 14254 14255 14256 14257 14258 14259 14260 14261 14262 14263 14264 14265 14266 14267 14268 14269 14270 14271 14272 14273 14274 14275 14276 14277 14278 14279 14280 14281 14282 14283 14284 14285 14286 14287 14288 14289 14290 14291 14292 14293 14294 14295 14296 14297 14298 14299 14300 14301 14302 14303 14304 14305 14306 14307 14308 14309 14310 14311 14312 14313 14314 14315 14316 14317 14318 14319 14320 14321 14322 14323 14324 14325 14326 14327 14328 14329 14330 14331 14332 14333 14334 14335 14336 14337 14338 14339 14340 14341 14342 14343 14344 14345 14346 14347 14348 14349 14350 14351 14352 14353 14354 14355 14356 14357 14358 14359 14360 14361 14362 14363 14364 14365 14366 14367 14368 14369 14370 14371 14372 14373 14374 14375 14376 14377 14378 14379 14380 14381 14382 14383 14384 14385 14386 14387 14388 14389 14390 14391 14392 14393 14394 14395 14396 14397 14398 14399 14400 14401 14402 14403 14404 14405 14406 14407 14408 14409 14410 14411 14412 14413 14414 14415 14416 14417 14418 14419 14420 14421 14422 14423 14424 14425 14426 14427 14428 14429 14430 14431 14432 14433 14434 14435 14436 14437 14438 14439 14440 14441 14442 14443 14444 14445 14446 14447 14448 14449 14450 14451 14452 14453 14454 14455 14456 14457 14458 14459 14460 14461 14462 14463 14464 14465 14466 14467 14468 14469 14470 14471 14472 14473 14474 14475 14476 14477 14478 14479 14480 14481 14482 14483 14484 14485 14486 14487 14488 14489 14490 14491 14492 14493 14494 14495 14496 14497 14498 14499 14500 14501 14502 14503 14504 14505 14506 14507 14508 14509 14510 14511 14512 14513 14514 14515 14516 14517 14518 14519 14520 14521 14522 14523 14524 14525 14526 14527 14528 14529 14530 14531 14532 14533 14534 14535 14536 14537 14538 14539 14540 14541 14542 14543 14544 14545 14546 14547 14548 14549 14550 14551 14552 14553 14554 14555 14556 14557 14558 14559 14560 14561 14562 14563 14564 14565 14566 14567 14568 14569 14570 14571 14572 14573 14574 14575 14576 14577 14578 14579 14580 14581 14582 14583 14584 14585 14586 14587 14588 14589 14590 14591 14592 14593 14594 14595 14596 14597 14598 14599 14600 14601 14602 14603 14604 14605 14606 14607 14608 14609 14610 14611 14612 14613 14614 14615 14616 14617 14618 14619 14620 14621 14622 14623 14624 14625 14626 14627 14628 14629 14630 14631 14632 14633 14634 14635 14636 14637 14638 14639 14640 14641 14642 14643 14644 14645 14646 14647 14648 14649 14650 14651 14652 14653 14654 14655 14656 14657 14658 14659 14660 14661 14662 14663 14664 14665 14666 14667 14668 14669 14670 14671 14672 14673 14674 14675 14676 14677 14678 14679 14680 14681 14682 14683 14684 14685 14686 14687 14688 14689 14690 14691 14692 14693 14694 14695 14696 14697 14698 14699 14700 14701 14702 14703 14704 14705 14706 14707 14708 14709 14710 14711 14712 14713 14714 14715 14716 14717 14718 14719 14720 14721 14722 14723 14724 14725 14726 14727 14728 14729 14730 14731 14732 14733 14734 14735 14736 14737 14738 14739 14740 14741 14742 14743 14744 14745 14746 14747 14748 14749 14750 14751 14752 14753 14754 14755 14756 14757 14758 14759 14760 14761 14762 14763 14764 14765 14766 14767 14768 14769 14770 14771 14772 14773 14774 14775 14776 14777 14778 14779 14780 14781 14782 14783 14784 14785 14786 14787 14788 14789 14790 14791 14792 14793 14794 14795 14796 14797 14798 14799 14800 14801 14802 14803 14804 14805 14806 14807 14808 14809 14810 14811 14812 14813 14814 14815 14816 14817 14818 14819 14820 14821 14822 14823 14824 14825 14826 14827 14828 14829 14830 14831 14832 14833 14834 14835 14836 14837 14838 14839 14840 14841 14842 14843 14844 14845 14846 14847 14848 14849 14850 14851 14852 14853 14854 14855 14856 14857 14858 14859 14860 14861 14862 14863 14864 14865 14866 14867 14868 14869 14870 14871 14872 14873 14874 14875 14876 14877 14878 14879 14880 14881 14882 14883 14884 14885 14886 14887 14888 14889 14890 14891 14892 14893 14894 14895 14896 14897 14898 14899 14900 14901 14902 14903 14904 14905 14906 14907 14908 14909 14910 14911 14912 14913 14914 14915 14916 14917 14918 14919 14920 14921 14922 14923 14924 14925 14926 14927 14928 14929 14930 14931 14932 14933 14934 14935 14936 14937 14938 14939 14940 14941 14942 14943 14944 14945 14946 14947 14948 14949 14950 14951 14952 14953 14954 14955 14956 14957 14958 14959 14960 14961 14962 14963 14964 14965 14966 14967 14968 14969 14970 14971 14972 14973 14974 14975 14976 14977 14978 14979 14980 14981 14982 14983 14984 14985 14986 14987 14988 14989 14990 14991 14992 14993 14994 14995 14996 14997 14998 14999 15000 15001 15002 15003 15004 15005 15006 15007 15008 15009 15010 15011 15012 15013 15014 15015 15016 15017 15018 15019 15020 15021 15022 15023 15024 15025 15026 15027 15028 15029 15030 15031 15032 15033 15034 15035 15036 15037 15038 15039 15040 15041 15042 15043 15044 15045 15046 15047 15048 15049 15050 15051 15052 15053 15054 15055 15056 15057 15058 15059 15060 15061 15062 15063 15064 15065 15066 15067 15068 15069 15070 15071 15072 15073 15074 15075 15076 15077 15078 15079 15080 15081 15082 15083 15084 15085 15086 15087 15088 15089 15090 15091 15092 15093 15094 15095 15096 15097 15098 15099 15100 15101 15102 15103 15104 15105 15106 15107 15108 15109 15110 15111 15112 15113 15114 15115 15116 15117 15118 15119 15120 15121 15122 15123 15124 15125 15126 15127 15128 15129 15130 15131 15132 15133 15134 15135 15136 15137 15138 15139 15140 15141 15142 15143 15144 15145 15146 15147 15148 15149 15150 15151 15152 15153 15154 15155 15156 15157 15158 15159 15160 15161 15162 15163 15164 15165 15166 15167 15168 15169 15170 15171 15172 15173 15174 15175 15176 15177 15178 15179 15180 15181 15182 15183 15184 15185 15186 15187 15188 15189 15190 15191 15192 15193 15194 15195 15196 15197 15198 15199 15200 15201 15202 15203 15204 15205 15206 15207 15208 15209 15210 15211 15212 15213 15214 15215 15216 15217 15218 15219 15220 15221 15222 15223 15224 15225 15226 15227 15228 15229 15230 15231 15232 15233 15234 15235 15236 15237 15238 15239 15240 15241 15242 15243 15244 15245 15246 15247 15248 15249 15250 15251 15252 15253 15254 15255 15256 15257 15258 15259 15260 15261 15262 15263 15264 15265 15266 15267 15268 15269 15270 15271 15272 15273 15274 15275 15276 15277 15278 15279 15280 15281 15282 15283 15284 15285 15286 15287 15288 15289 15290 15291 15292 15293 15294 15295 15296 15297 15298 15299 15300 15301 15302 15303 15304 15305 15306 15307 15308 15309 15310 15311 15312 15313 15314 15315 15316 15317 15318 15319 15320 15321 15322 15323 15324 15325 15326 15327 15328 15329 15330 15331 15332 15333 15334 15335 15336 15337 15338 15339 15340 15341 15342 15343 15344 15345 15346 15347 15348 15349 15350 15351 15352 15353 15354 15355 15356 15357 15358 15359 15360 15361 15362 15363 15364 15365 15366 15367 15368 15369 15370 15371 15372 15373 15374 15375 15376 15377 15378 15379 15380 15381 15382 15383 15384 15385 15386 15387 15388 15389 15390 15391 15392 15393 15394 15395 15396 15397 15398 15399 15400 15401 15402 15403 15404 15405 15406 15407 15408 15409 15410 15411 15412 15413 15414 15415 15416 15417 15418 15419 15420 15421 15422 15423 15424 15425 15426 15427 15428 15429 15430 15431 15432 15433 15434 15435 15436 15437 15438 15439 15440 15441 15442 15443 15444 15445 15446 15447 15448 15449 15450 15451 15452 15453 15454 15455 15456 15457 15458 15459 15460 15461 15462 15463 15464 15465 15466 15467 15468 15469 15470 15471 15472 15473 15474 15475 15476 15477 15478 15479 15480 15481 15482 15483 15484 15485 15486 15487 15488 15489 15490 15491 15492 15493 15494 15495 15496 15497 15498 15499 15500 15501 15502 15503 15504 15505 15506 15507 15508 15509 15510 15511 15512 15513 15514 15515 15516 15517 15518 15519 15520 15521 15522 15523 15524 15525 15526 15527 15528 15529 15530 15531 15532 15533 15534 15535 15536 15537 15538 15539 15540 15541 15542 15543 15544 15545 15546 15547 15548 15549 15550 15551 15552 15553 15554 15555 15556 15557 15558 15559 15560 15561 15562 15563 15564 15565 15566 15567 15568 15569 15570 15571 15572 15573 15574 15575 15576 15577 15578 15579 15580 15581 15582 15583 15584 15585 15586 15587 15588 15589 15590 15591 15592 15593 15594 15595 15596 15597 15598 15599 15600 15601 15602 15603 15604 15605 15606 15607 15608 15609 15610 15611 15612 15613 15614 15615 15616 15617 15618 15619 15620 15621 15622 15623 15624 15625 15626 15627 15628 15629 15630 15631 15632 15633 15634 15635 15636 15637 15638 15639 15640 15641 15642 15643 15644 15645 15646 15647 15648 15649 15650 15651 15652 15653 15654 15655 15656 15657 15658 15659 15660 15661 15662 15663 15664 15665 15666 15667 15668 15669 15670 15671 15672 15673 15674 15675 15676 15677 15678 15679 15680 15681 15682 15683 15684 15685 15686 15687 15688 15689 15690 15691 15692 15693 15694 15695 15696 15697 15698 15699 15700 15701 15702 15703 15704 15705 15706 15707 15708 15709 15710 15711 15712 15713 15714 15715 15716 15717 15718 15719 15720 15721 15722 15723 15724 15725 15726 15727 15728 15729 15730 15731 15732 15733 15734 15735 15736 15737 15738 15739 15740 15741 15742 15743 15744 15745 15746 15747 15748 15749 15750 15751 15752 15753 15754 15755 15756 15757 15758 15759 15760 15761 15762 15763 15764 15765 15766 15767 15768 15769 15770 15771 15772 15773 15774 15775 15776 15777 15778 15779 15780 15781 15782 15783 15784 15785 15786 15787 15788 15789 15790 15791 15792 15793 15794 15795 15796 15797 15798 15799 15800 15801 15802 15803 15804 15805 15806 15807 15808 15809 15810 15811 15812 15813 15814 15815 15816 15817 15818 15819 15820 15821 15822 15823 15824 15825 15826 15827 15828 15829 15830 15831 15832 15833 15834 15835 15836 15837 15838 15839 15840 15841 15842 15843 15844 15845 15846 15847 15848 15849 15850 15851 15852 15853 15854 15855 15856 15857 15858 15859 15860 15861 15862 15863 15864 15865 15866 15867 15868 15869 15870 15871 15872 15873 15874 15875 15876 15877 15878 15879 15880 15881 15882 15883 15884 15885 15886 15887 15888 15889 15890 15891 15892 15893 15894 15895 15896 15897 15898 15899 15900 15901 15902 15903 15904 15905 15906 15907 15908 15909 15910 15911 15912 15913 15914 15915 15916 15917 15918 15919 15920 15921 15922 15923 15924 15925 15926 15927 15928 15929 15930 15931 15932 15933 15934 15935 15936 15937 15938 15939 15940 15941 15942 15943 15944 15945 15946 15947 15948 15949 15950 15951 15952 15953 15954 15955 15956 15957 15958 15959 15960 15961 15962 15963 15964 15965 15966 15967 15968 15969 15970 15971 15972 15973 15974 15975 15976 15977 15978 15979 15980 15981 15982 15983 15984 15985 15986 15987 15988 15989 15990 15991 15992 15993 15994 15995 15996 15997 15998 15999 16000 16001 16002 16003 16004 16005 16006 16007 16008 16009 16010 16011 16012 16013 16014 16015 16016 16017 16018 16019 16020 16021 16022 16023 16024 16025 16026 16027 16028 16029 16030 16031 16032 16033 16034 16035 16036 16037 16038 16039 16040 16041 16042 16043 16044 16045 16046 16047 16048 16049 16050 16051 16052 16053 16054 16055 16056 16057 16058 16059 16060 16061 16062 16063 16064 16065 16066 16067 16068 16069 16070 16071 16072 16073 16074 16075 16076 16077 16078 16079 16080 16081 16082 16083 16084 16085 16086 16087 16088 16089 16090 16091 16092 16093 16094 16095 16096 16097 16098 16099 16100 16101 16102 16103 16104 16105 16106 16107 16108 16109 16110 16111 16112 16113 16114 16115 16116 16117 16118 16119 16120 16121 16122 16123 16124 16125 16126 16127 16128 16129 16130 16131 16132 16133 16134 16135 16136 16137 16138 16139 16140 16141 16142 16143 16144 16145 16146 16147 16148 16149 16150 16151 16152 16153 16154 16155 16156 16157 16158 16159 16160 16161 16162 16163 16164 16165 16166 16167 16168 16169 16170 16171 16172 16173 16174 16175 16176 16177 16178 16179 16180 16181 16182 16183 16184 16185 16186 16187 16188 16189 16190 16191 16192 16193 16194 16195 16196 16197 16198 16199 16200 16201 16202 16203 16204 16205 16206 16207 16208 16209 16210 16211 16212 16213 16214 16215 16216 16217 16218 16219 16220 16221 16222 16223 16224 16225 16226 16227 16228 16229 16230 16231 16232 16233 16234 16235 16236 16237 16238 16239 16240 16241 16242 16243 16244 16245 16246 16247 16248 16249 16250 16251 16252 16253 16254 16255 16256 16257 16258 16259 16260 16261 16262 16263 16264 16265 16266 16267 16268 16269 16270 16271 16272 16273 16274 16275 16276 16277 16278 16279 16280 16281 16282 16283 16284 16285 16286 16287 16288 16289 16290 16291 16292 16293 16294 16295 16296 16297 16298 16299 16300 16301 16302 16303 16304 16305 16306 16307 16308 16309 16310 16311 16312 16313 16314 16315 16316 16317 16318 16319 16320 16321 16322 16323 16324 16325 16326 16327 16328 16329 16330 16331 16332 16333 16334 16335 16336 16337 16338 16339 16340 16341 16342 16343 16344 16345 16346 16347 16348 16349 16350 16351 16352 16353 16354 16355 16356 16357 16358 16359 16360 16361 16362 16363 16364 16365 16366 16367 16368 16369 16370 16371 16372 16373 16374 16375 16376 16377 16378 16379 16380 16381 16382 16383 16384 16385 16386 16387 16388 16389 16390 16391 16392 16393 16394 16395 16396 16397 16398 16399 16400 16401 16402 16403 16404 16405 16406 16407 16408 16409 16410 16411 16412 16413 16414 16415 16416 16417 16418 16419 16420 16421 16422 16423 16424 16425 16426 16427 16428 16429 16430 16431 16432 16433 16434 16435 16436 16437 16438 16439 16440 16441 16442 16443 16444 16445 16446 16447 16448 16449 16450 16451 16452 16453 16454 16455 16456 16457 16458 16459 16460 16461 16462 16463 16464 16465 16466 16467 16468 16469 16470 16471 16472 16473 16474 16475 16476 16477 16478 16479 16480 16481 16482 16483 16484 16485 16486 16487 16488 16489 16490 16491 16492 16493 16494 16495 16496 16497 16498 16499 16500 16501 16502 16503 16504 16505 16506 16507 16508 16509 16510 16511 16512 16513 16514 16515 16516 16517 16518 16519 16520 16521 16522 16523 16524 16525 16526 16527 16528 16529 16530 16531 16532 16533 16534 16535 16536 16537 16538 16539 16540 16541 16542 16543 16544 16545 16546 16547 16548 16549 16550 16551 16552 16553 16554 16555 16556 16557 16558 16559 16560 16561 16562 16563 16564 16565 16566 16567 16568 16569 16570 16571 16572 16573 16574 16575 16576 16577 16578 16579 16580 16581 16582 16583 16584 16585 16586 16587 16588 16589 16590 16591 16592 16593 16594 16595 16596 16597 16598 16599 16600 16601 16602 16603 16604 16605 16606 16607 16608 16609 16610 16611 16612 16613 16614 16615 16616 16617 16618 16619 16620 16621 16622 16623 16624 16625 16626 16627 16628 16629 16630 16631 16632 16633 16634 16635 16636 16637 16638 16639 16640 16641 16642 16643 16644 16645 16646 16647 16648 16649 16650 16651 16652 16653 16654 16655 16656 16657 16658 16659 16660 16661 16662 16663 16664 16665 16666 16667 16668 16669 16670 16671 16672 16673 16674 16675 16676 16677 16678 16679 16680 16681 16682 16683 16684 16685 16686 16687 16688 16689 16690 16691 16692 16693 16694 16695 16696 16697 16698 16699 16700 16701 16702 16703 16704 16705 16706 16707 16708 16709 16710 16711 16712 16713 16714 16715 16716 16717 16718 16719 16720 16721 16722 16723 16724 16725 16726 16727 16728 16729 16730 16731 16732 16733 16734 16735 16736 16737 16738 16739 16740 16741 16742 16743 16744 16745 16746 16747 16748 16749 16750 16751 16752 16753 16754 16755 16756 16757 16758 16759 16760 16761 16762 16763 16764 16765 16766 16767 16768 16769 16770 16771 16772 16773 16774 16775 16776 16777 16778 16779 16780 16781 16782 16783 16784 16785 16786 16787 16788 16789 16790 16791 16792 16793 16794 16795 16796 16797 16798 16799 16800 16801 16802 16803 16804 16805 16806 16807 16808 16809 16810 16811 16812 16813 16814 16815 16816 16817 16818 16819 16820 16821 16822 16823 16824 16825 16826 16827 16828 16829 16830 16831 16832 16833 16834 16835 16836 16837 16838 16839 16840 16841 16842 16843 16844 16845 16846 16847 16848 16849 16850 16851 16852 16853 16854 16855 16856 16857 16858 16859 16860 16861 16862 16863 16864 16865 16866 16867 16868 16869 16870 16871 16872 16873 16874 16875 16876 16877 16878 16879 16880 16881 16882 16883 16884 16885 16886 16887 16888 16889 16890 16891 16892 16893 16894 16895 16896 16897 16898 16899 16900 16901 16902 16903 16904 16905 16906 16907 16908 16909 16910 16911 16912 16913 16914 16915 16916 16917 16918 16919 16920 16921 16922 16923 16924 16925 16926 16927 16928 16929 16930 16931 16932 16933 16934 16935 16936 16937 16938 16939 16940 16941 16942 16943 16944 16945 16946 16947 16948 16949 16950 16951 16952 16953 16954 16955 16956 16957 16958 16959 16960 16961 16962 16963 16964 16965 16966 16967 16968 16969 16970 16971 16972 16973 16974 16975 16976 16977 16978 16979 16980 16981 16982 16983 16984 16985 16986 16987 16988 16989 16990 16991 16992 16993 16994 16995 16996 16997 16998 16999 17000 17001 17002 17003 17004 17005 17006 17007 17008 17009 17010 17011 17012 17013 17014 17015 17016 17017 17018 17019 17020 17021 17022 17023 17024 17025 17026 17027 17028 17029 17030 17031 17032 17033 17034 17035 17036 17037 17038 17039 17040 17041 17042 17043 17044 17045 17046 17047 17048 17049 17050 17051 17052 17053 17054 17055 17056 17057 17058 17059 17060 17061 17062 17063 17064 17065 17066 17067 17068 17069 17070 17071 17072 17073 17074 17075 17076 17077 17078 17079 17080 17081 17082 17083 17084 17085 17086 17087 17088 17089 17090 17091 17092 17093 17094 17095 17096 17097 17098 17099 17100 17101 17102 17103 17104 17105 17106 17107 17108 17109 17110 17111 17112 17113 17114 17115 17116 17117 17118 17119 17120 17121 17122 17123 17124 17125 17126 17127 17128 17129 17130 17131 17132 17133 17134 17135 17136 17137 17138 17139 17140 17141 17142 17143 17144 17145 17146 17147 17148 17149 17150 17151 17152 17153 17154 17155 17156 17157 17158 17159 17160 17161 17162 17163 17164 17165 17166 17167 17168 17169 17170 17171 17172 17173 17174 17175 17176 17177 17178 17179 17180 17181 17182 17183 17184 17185 17186 17187 17188 17189 17190 17191 17192 17193 17194 17195 17196 17197 17198 17199 17200 17201 17202 17203 17204 17205 17206 17207 17208 17209 17210 17211 17212 17213 17214 17215 17216 17217 17218 17219 17220 17221 17222 17223 17224 17225 17226 17227 17228 17229 17230 17231 17232 17233 17234 17235 17236 17237 17238 17239 17240 17241 17242 17243 17244 17245 17246 17247 17248 17249 17250 17251 17252 17253 17254 17255 17256 17257 17258 17259 17260 17261 17262 17263 17264 17265 17266 17267 17268 17269 17270 17271 17272 17273 17274 17275 17276 17277 17278 17279 17280 17281 17282 17283 17284 17285 17286 17287 17288 17289 17290 17291 17292 17293 17294 17295 17296 17297 17298 17299 17300 17301 17302 17303 17304 17305 17306 17307 17308 17309 17310 17311 17312 17313 17314 17315 17316 17317 17318 17319 17320 17321 17322 17323 17324 17325 17326 17327 17328 17329 17330 17331 17332 17333 17334 17335 17336 17337 17338 17339 17340 17341 17342 17343 17344 17345 17346 17347 17348 17349 17350 17351 17352 17353 17354 17355 17356 17357 17358 17359 17360 17361 17362 17363 17364 17365 17366 17367 17368 17369 17370 17371 17372 17373 17374 17375 17376 17377 17378 17379 17380 17381 17382 17383 17384 17385 17386 17387 17388 17389 17390 17391 17392 17393 17394 17395 17396 17397 17398 17399 17400 17401 17402 17403 17404 17405 17406 17407 17408 17409 17410 17411 17412 17413 17414 17415 17416 17417 17418 17419 17420 17421 17422 17423 17424 17425 17426 17427 17428 17429 17430 17431 17432 17433 17434 17435 17436 17437 17438 17439 17440 17441 17442 17443 17444 17445 17446 17447 17448 17449 17450 17451 17452 17453 17454 17455 17456 17457 17458 17459 17460 17461 17462 17463 17464 17465 17466 17467 17468 17469 17470 17471 17472 17473 17474 17475 17476 17477 17478 17479 17480 17481 17482 17483 17484 17485 17486 17487 17488 17489 17490 17491 17492 17493 17494 17495 17496 17497 17498 17499 17500 17501 17502 17503 17504 17505 17506 17507 17508 17509 17510 17511 17512 17513 17514 17515 17516 17517 17518 17519 17520 17521 17522 17523 17524 17525 17526 17527 17528 17529 17530 17531 17532 17533 17534 17535 17536 17537 17538 17539 17540 17541 17542 17543 17544 17545 17546 17547 17548 17549 17550 17551 17552 17553 17554 17555 17556 17557 17558 17559 17560 17561 17562 17563 17564 17565 17566 17567 17568 17569 17570 17571 17572 17573 17574 17575 17576 17577 17578 17579 17580 17581 17582 17583 17584 17585 17586 17587 17588 17589 17590 17591 17592 17593 17594 17595 17596 17597 17598 17599 17600 17601 17602 17603 17604 17605 17606 17607 17608 17609 17610 17611 17612 17613 17614 17615 17616 17617 17618 17619 17620 17621 17622 17623 17624 17625 17626 17627 17628 17629 17630 17631 17632 17633 17634 17635 17636 17637 17638 17639 17640 17641 17642 17643 17644 17645 17646 17647 17648 17649 17650 17651 17652 17653 17654 17655 17656 17657 17658 17659 17660 17661 17662 17663 17664 17665 17666 17667 17668 17669 17670 17671 17672 17673 17674 17675 17676 17677 17678 17679 17680 17681 17682 17683 17684 17685 17686 17687 17688 17689 17690 17691 17692 17693 17694 17695 17696 17697 17698 17699 17700 17701 17702 17703 17704 17705 17706 17707 17708 17709 17710 17711 17712 17713 17714 17715 17716 17717 17718 17719 17720 17721 17722 17723 17724 17725 17726 17727 17728 17729 17730 17731 17732 17733 17734 17735 17736 17737 17738 17739 17740 17741 17742 17743 17744 17745 17746 17747 17748 17749 17750 17751 17752 17753 17754 17755 17756 17757 17758 17759 17760 17761 17762 17763 17764 17765 17766 17767 17768 17769 17770 17771 17772 17773 17774 17775 17776 17777 17778 17779 17780 17781 17782 17783 17784 17785 17786 17787 17788 17789 17790 17791 17792 17793 17794 17795 17796 17797 17798 17799 17800 17801 17802 17803 17804 17805 17806 17807 17808 17809 17810 17811 17812 17813 17814 17815 17816 17817 17818 17819 17820 17821 17822 17823 17824 17825 17826 17827 17828 17829 17830 17831 17832 17833 17834 17835 17836 17837 17838 17839 17840 17841 17842 17843 17844 17845 17846 17847 17848 17849 17850 17851 17852 17853 17854 17855 17856 17857 17858 17859 17860 17861 17862 17863 17864 17865 17866 17867 17868 17869 17870 17871 17872 17873 17874 17875 17876 17877 17878 17879 17880 17881 17882 17883 17884 17885 17886 17887 17888 17889 17890 17891 17892 17893 17894 17895 17896 17897 17898 17899 17900 17901 17902 17903 17904 17905 17906 17907 17908 17909 17910 17911 17912 17913 17914 17915 17916 17917 17918 17919 17920 17921 17922 17923 17924 17925 17926 17927 17928 17929 17930 17931 17932 17933 17934 17935 17936 17937 17938 17939 17940 17941 17942 17943 17944 17945 17946 17947 17948 17949 17950 17951 17952 17953 17954 17955 17956 17957 17958 17959 17960 17961 17962 17963 17964 17965 17966 17967 17968 17969 17970 17971 17972 17973 17974 17975 17976 17977 17978 17979 17980 17981 17982 17983 17984 17985 17986 17987 17988 17989 17990 17991 17992 17993 17994 17995 17996 17997 17998 17999 18000 18001 18002 18003 18004 18005 18006 18007 18008 18009 18010 18011 18012 18013 18014 18015 18016 18017 18018 18019 18020 18021 18022 18023 18024 18025 18026 18027 18028 18029 18030 18031 18032 18033 18034 18035 18036 18037 18038 18039 18040 18041 18042 18043 18044 18045 18046 18047 18048 18049 18050 18051 18052 18053 18054 18055 18056 18057 18058 18059 18060 18061 18062 18063 18064 18065 18066 18067 18068 18069 18070 18071 18072 18073 18074 18075 18076 18077 18078 18079 18080 18081 18082 18083 18084 18085 18086 18087 18088 18089 18090 18091 18092 18093 18094 18095 18096 18097 18098 18099 18100 18101 18102 18103 18104 18105 18106 18107 18108 18109 18110 18111 18112 18113 18114 18115 18116 18117 18118 18119 18120 18121 18122 18123 18124 18125 18126 18127 18128 18129 18130 18131 18132 18133 18134 18135 18136 18137 18138 18139 18140 18141 18142 18143 18144 18145 18146 18147 18148 18149 18150 18151 18152 18153 18154 18155 18156 18157 18158 18159 18160 18161 18162 18163 18164 18165 18166 18167 18168 18169 18170 18171 18172 18173 18174 18175 18176 18177 18178 18179 18180 18181 18182 18183 18184 18185 18186 18187 18188 18189 18190 18191 18192 18193 18194 18195 18196 18197 18198 18199 18200 18201 18202 18203 18204 18205 18206 18207 18208 18209 18210 18211 18212 18213 18214 18215 18216 18217 18218 18219 18220 18221 18222 18223 18224 18225 18226 18227 18228 18229 18230 18231 18232 18233 18234 18235 18236 18237 18238 18239 18240 18241 18242 18243 18244 18245 18246 18247 18248 18249 18250 18251 18252 18253 18254 18255 18256 18257 18258 18259 18260 18261 18262 18263 18264 18265 18266 18267 18268 18269 18270 18271 18272 18273 18274 18275 18276 18277 18278 18279 18280 18281 18282 18283 18284 18285 18286 18287 18288 18289 18290 18291 18292 18293 18294 18295 18296 18297 18298 18299 18300 18301 18302 18303 18304 18305 18306 18307 18308 18309 18310 18311 18312 18313 18314 18315 18316 18317 18318 18319 18320 18321 18322 18323 18324 18325 18326 18327 18328 18329 18330 18331 18332 18333 18334 18335 18336 18337 18338 18339 18340 18341 18342 18343 18344 18345 18346 18347 18348 18349 18350 18351 18352 18353 18354 18355 18356 18357 18358 18359 18360 18361 18362 18363 18364 18365 18366 18367 18368 18369 18370 18371 18372 18373 18374 18375 18376 18377 18378 18379 18380 18381 18382 18383 18384 18385 18386 18387 18388 18389 18390 18391 18392 18393 18394 18395 18396 18397 18398 18399 18400 18401 18402 18403 18404 18405 18406 18407 18408 18409 18410 18411 18412 18413 18414 18415 18416 18417 18418 18419 18420 18421 18422 18423 18424 18425 18426 18427 18428 18429 18430 18431 18432 18433 18434 18435 18436 18437 18438 18439 18440 18441 18442 18443 18444 18445 18446 18447 18448 18449 18450 18451 18452 18453 18454 18455 18456 18457 18458 18459 18460 18461 18462 18463 18464 18465 18466 18467 18468 18469 18470 18471 18472 18473 18474 18475 18476 18477 18478 18479 18480 18481 18482 18483 18484 18485 18486 18487 18488 18489 18490 18491 18492 18493 18494 18495 18496 18497 18498 18499 18500 18501 18502 18503 18504 18505 18506 18507 18508 18509 18510 18511 18512 18513 18514 18515 18516 18517 18518 18519 18520 18521 18522 18523 18524 18525 18526 18527 18528 18529 18530 18531 18532 18533 18534 18535 18536 18537 18538 18539 18540 18541 18542 18543 18544 18545 18546 18547 18548 18549 18550 18551 18552 18553 18554 18555 18556 18557 18558 18559 18560 18561 18562 18563 18564 18565 18566 18567 18568 18569 18570 18571 18572 18573 18574 18575 18576 18577 18578 18579 18580 18581 18582 18583 18584 18585 18586 18587 18588 18589 18590 18591 18592 18593 18594 18595 18596 18597 18598 18599 18600 18601 18602 18603 18604 18605 18606 18607 18608 18609 18610 18611 18612 18613 18614 18615 18616 18617 18618 18619 18620 18621 18622 18623 18624 18625 18626 18627 18628 18629 18630 18631 18632 18633 18634 18635 18636 18637 18638 18639 18640 18641 18642 18643 18644 18645 18646 18647 18648 18649 18650 18651 18652 18653 18654 18655 18656 18657 18658 18659 18660 18661 18662 18663 18664 18665 18666 18667 18668 18669 18670 18671 18672 18673 18674 18675 18676 18677 18678 18679 18680 18681 18682 18683 18684 18685 18686 18687 18688 18689 18690 18691 18692 18693 18694 18695 18696 18697 18698 18699 18700 18701 18702 18703 18704 18705 18706 18707 18708 18709 18710 18711 18712 18713 18714 18715 18716 18717 18718 18719 18720 18721 18722 18723 18724 18725 18726 18727 18728 18729 18730 18731 18732 18733 18734 18735 18736 18737 18738 18739 18740 18741 18742 18743 18744 18745 18746 18747 18748 18749 18750 18751 18752 18753 18754 18755 18756 18757 18758 18759 18760 18761 18762 18763 18764 18765 18766 18767 18768 18769 18770 18771 18772 18773 18774 18775 18776 18777 18778 18779 18780 18781 18782 18783 18784 18785 18786 18787 18788 18789 18790 18791 18792 18793 18794 18795 18796 18797 18798 18799 18800 18801 18802 18803 18804 18805 18806 18807 18808 18809 18810 18811 18812 18813 18814 18815 18816 18817 18818 18819 18820 18821 18822 18823 18824 18825 18826 18827 18828 18829 18830 18831 18832 18833 18834 18835 18836 18837 18838 18839 18840 18841 18842 18843 18844 18845 18846 18847 18848 18849 18850 18851 18852 18853 18854 18855 18856 18857 18858 18859 18860 18861 18862 18863 18864 18865 18866 18867 18868 18869 18870 18871 18872 18873 18874 18875 18876 18877 18878 18879 18880 18881 18882 18883 18884 18885 18886 18887 18888 18889 18890 18891 18892 18893 18894 18895 18896 18897 18898 18899 18900 18901 18902 18903 18904 18905 18906 18907 18908 18909 18910 18911 18912 18913 18914 18915 18916 18917 18918 18919 18920 18921 18922 18923 18924 18925 18926 18927 18928 18929 18930 18931 18932 18933 18934 18935 18936 18937 18938 18939 18940 18941 18942 18943 18944 18945 18946 18947 18948 18949 18950 18951 18952 18953 18954 18955 18956 18957 18958 18959 18960 18961 18962 18963 18964 18965 18966 18967 18968 18969 18970 18971 18972 18973 18974 18975 18976 18977 18978 18979 18980 18981 18982 18983 18984 18985 18986 18987 18988 18989 18990 18991 18992 18993 18994 18995 18996 18997 18998 18999 19000 19001 19002 19003 19004 19005 19006 19007 19008 19009 19010 19011 19012 19013 19014 19015 19016 19017 19018 19019 19020 19021 19022 19023 19024 19025 19026 19027 19028 19029 19030 19031 19032 19033 19034 19035 19036 19037 19038 19039 19040 19041 19042 19043 19044 19045 19046 19047 19048 19049 19050 19051 19052 19053 19054 19055 19056 19057 19058 19059 19060 19061 19062 19063 19064 19065 19066 19067 19068 19069 19070 19071 19072 19073 19074 19075 19076 19077 19078 19079 19080 19081 19082 19083 19084 19085 19086 19087 19088 19089 19090 19091 19092 19093 19094 19095 19096 19097 19098 19099 19100 19101 19102 19103 19104 19105 19106 19107 19108 19109 19110 19111 19112 19113 19114 19115 19116 19117 19118 19119 19120 19121 19122 19123 19124 19125 19126 19127 19128 19129 19130 19131 19132 19133 19134 19135 19136 19137 19138 19139 19140 19141 19142 19143 19144 19145 19146 19147 19148 19149 19150 19151 19152 19153 19154 19155 19156 19157 19158 19159 19160 19161 19162 19163 19164 19165 19166 19167 19168 19169 19170 19171 19172 19173 19174 19175 19176 19177 19178 19179 19180 19181 19182 19183 19184 19185 19186 19187 19188 19189 19190 19191 19192 19193 19194 19195 19196 19197 19198 19199 19200 19201 19202 19203 19204 19205 19206 19207 19208 19209 19210 19211 19212 19213 19214 19215 19216 19217 19218 19219 19220 19221 19222 19223 19224 19225 19226 19227 19228 19229 19230 19231 19232 19233 19234 19235 19236 19237 19238 19239 19240 19241 19242 19243 19244 19245 19246 19247 19248 19249 19250 19251 19252 19253 19254 19255 19256 19257 19258 19259 19260 19261 19262 19263 19264 19265 19266 19267 19268 19269 19270 19271 19272 19273 19274 19275 19276 19277 19278 19279 19280 19281 19282 19283 19284 19285 19286 19287 19288 19289 19290 19291 19292 19293 19294 19295 19296 19297 19298 19299 19300 19301 19302 19303 19304 19305 19306 19307 19308 19309 19310 19311 19312 19313 19314 19315 19316 19317 19318 19319 19320 19321 19322 19323 19324 19325 19326 19327 19328 19329 19330 19331 19332 19333 19334 19335 19336 19337 19338 19339 19340 19341 19342 19343 19344 19345 19346 19347 19348 19349 19350 19351 19352 19353 19354 19355 19356 19357 19358 19359 19360 19361 19362 19363 19364 19365 19366 19367 19368 19369 19370 19371 19372 19373 19374 19375 19376 19377 19378 19379 19380 19381 19382 19383 19384 19385 19386 19387 19388 19389 19390 19391 19392 19393 19394 19395 19396 19397 19398 19399 19400 19401 19402 19403 19404 19405 19406 19407 19408 19409 19410 19411 19412 19413 19414 19415 19416 19417 19418 19419 19420 19421 19422 19423 19424 19425 19426 19427 19428 19429 19430 19431 19432 19433 19434 19435 19436 19437 19438 19439 19440 19441 19442 19443 19444 19445 19446 19447 19448 19449 19450 19451 19452 19453 19454 19455 19456 19457 19458 19459 19460 19461 19462 19463 19464 19465 19466 19467 19468 19469 19470 19471 19472 19473 19474 19475 19476 19477 19478 19479 19480 19481 19482 19483 19484 19485 19486 19487 19488 19489 19490 19491 19492 19493 19494 19495 19496 19497 19498 19499 19500 19501 19502 19503 19504 19505 19506 19507 19508 19509 19510 19511 19512 19513 19514 19515 19516 19517 19518 19519 19520 19521 19522 19523 19524 19525 19526 19527 19528 19529 19530 19531 19532 19533 19534 19535 19536 19537 19538 19539 19540 19541 19542 19543 19544 19545 19546 19547 19548 19549 19550 19551 19552 19553 19554 19555 19556 19557 19558 19559 19560 19561 19562 19563 19564 19565 19566 19567 19568 19569 19570 19571 19572 19573 19574 19575 19576 19577 19578 19579 19580 19581 19582 19583 19584 19585 19586 19587 19588 19589 19590 19591 19592 19593 19594 19595 19596 19597 19598 19599 19600 19601 19602 19603 19604 19605 19606 19607 19608 19609 19610 19611 19612 19613 19614 19615 19616 19617 19618 19619 19620 19621 19622 19623 19624 19625 19626 19627 19628 19629 19630 19631 19632 19633 19634 19635 19636 19637 19638 19639 19640 19641 19642 19643 19644 19645 19646 19647 19648 19649 19650 19651 19652 19653 19654 19655 19656 19657 19658 19659 19660 19661 19662 19663 19664 19665 19666 19667 19668 19669 19670 19671 19672 19673 19674 19675 19676 19677 19678 19679 19680 19681 19682 19683 19684 19685 19686 19687 19688 19689 19690 19691 19692 19693 19694 19695 19696 19697 19698 19699 19700 19701 19702 19703 19704 19705 19706 19707 19708 19709 19710 19711 19712 19713 19714 19715 19716 19717 19718 19719 19720 19721 19722 19723 19724 19725 19726 19727 19728 19729 19730 19731 19732 19733 19734 19735 19736 19737 19738 19739 19740 19741 19742 19743 19744 19745 19746 19747 19748 19749 19750 19751 19752 19753 19754 19755 19756 19757 19758 19759 19760 19761 19762 19763 19764 19765 19766 19767 19768 19769 19770 19771 19772 19773 19774 19775 19776 19777 19778 19779 19780 19781 19782 19783 19784 19785 19786 19787 19788 19789 19790 19791 19792 19793 19794 19795 19796 19797 19798 19799 19800 19801 19802 19803 19804 19805 19806 19807 19808 19809 19810 19811 19812 19813 19814 19815 19816 19817 19818 19819 19820 19821 19822 19823 19824 19825 19826 19827 19828 19829 19830 19831 19832 19833 19834 19835 19836 19837 19838 19839 19840 19841 19842 19843 19844 19845 19846 19847 19848 19849 19850 19851 19852 19853 19854 19855 19856 19857 19858 19859 19860 19861 19862 19863 19864 19865 19866 19867 19868 19869 19870 19871 19872 19873 19874 19875 19876 19877 19878 19879 19880 19881 19882 19883 19884 19885 19886 19887 19888 19889 19890 19891 19892 19893 19894 19895 19896 19897 19898 19899 19900 19901 19902 19903 19904 19905 19906 19907 19908 19909 19910 19911 19912 19913 19914 19915 19916 19917 19918 19919 19920 19921 19922 19923 19924 19925 19926 19927 19928 19929 19930 19931 19932 19933 19934 19935 19936 19937 19938 19939 19940 19941 19942 19943 19944 19945 19946 19947 19948 19949 19950 19951 19952 19953 19954 19955 19956 19957 19958 19959 19960 19961 19962 19963 19964 19965 19966 19967 19968 19969 19970 19971 19972 19973 19974 19975 19976 19977 19978 19979 19980 19981 19982 19983 19984 19985 19986 19987 19988 19989 19990 19991 19992 19993 19994 19995 19996 19997 19998 19999 20000 20001 20002 20003 20004 20005 20006 20007 20008 20009 20010 20011 20012 20013 20014 20015 20016 20017 20018 20019 20020 20021 20022 20023 20024 20025 20026 20027 20028 20029 20030 20031 20032 20033 20034 20035 20036 20037 20038 20039 20040 20041 20042 20043 20044 20045 20046 20047 20048 20049 20050 20051 20052 20053 20054 20055 20056 20057 20058 20059 20060 20061 20062 20063 20064 20065 20066 20067 20068 20069 20070 20071 20072 20073 20074 20075 20076 20077 20078 20079 20080 20081 20082 20083 20084 20085 20086 20087 20088 20089 20090 20091 20092 20093 20094 20095 20096 20097 20098 20099 20100 20101 20102 20103 20104 20105 20106 20107 20108 20109 20110 20111 20112 20113 20114 20115 20116 20117 20118 20119 20120 20121 20122 20123 20124 20125 20126 20127 20128 20129 20130 20131 20132 20133 20134 20135 20136 20137 20138 20139 20140 20141 20142 20143 20144 20145 20146 20147 20148 20149 20150 20151 20152 20153 20154 20155 20156 20157 20158 20159 20160 20161 20162 20163 20164 20165 20166 20167 20168 20169 20170 20171 20172 20173 20174 20175 20176 20177 20178 20179 20180 20181 20182 20183 20184 20185 20186 20187 20188 20189 20190 20191 20192 20193 20194 20195 20196 20197 20198 20199 20200 20201 20202 20203 20204 20205 20206 20207 20208 20209 20210 20211 20212 20213 20214 20215 20216 20217 20218 20219 20220 20221 20222 20223 20224 20225 20226 20227 20228 20229 20230 20231 20232 20233 20234 20235 20236 20237 20238 20239 20240 20241 20242 20243 20244 20245 20246 20247 20248 20249 20250 20251 20252 20253 20254 20255 20256 20257 20258 20259 20260 20261 20262 20263 20264 20265 20266 20267 20268 20269 20270 20271 20272 20273 20274 20275 20276 20277 20278 20279 20280 20281 20282 20283 20284 20285 20286 20287 20288 20289 20290 20291 20292 20293 20294 20295 20296 20297 20298 20299 20300 20301 20302 20303 20304 20305 20306 20307 20308 20309 20310 20311 20312 20313 20314 20315 20316 20317 20318 20319 20320 20321 20322 20323 20324 20325 20326 20327 20328 20329 20330 20331 20332 20333 20334 20335 20336 20337 20338 20339 20340 20341 20342 20343 20344 20345 20346 20347 20348 20349 20350 20351 20352 20353 20354 20355 20356 20357 20358 20359 20360 20361 20362 20363 20364 20365 20366 20367 20368 20369 20370 20371 20372 20373 20374 20375 20376 20377 20378 20379 20380 20381 20382 20383 20384 20385 20386 20387 20388 20389 20390 20391 20392 20393 20394 20395 20396 20397 20398 20399 20400 20401 20402 20403 20404 20405 20406 20407 20408 20409 20410 20411 20412 20413 20414 20415 20416 20417 20418 20419 20420 20421 20422 20423 20424 20425 20426 20427 20428 20429 20430 20431 20432 20433 20434 20435 20436 20437 20438 20439 20440 20441 20442 20443 20444 20445 20446 20447 20448 20449 20450 20451 20452 20453 20454 20455 20456 20457 20458 20459 20460 20461 20462 20463 20464 20465 20466 20467 20468 20469 20470 20471 20472 20473 20474 20475 20476 20477 20478 20479 20480 20481 20482 20483 20484 20485 20486 20487 20488 20489 20490 20491 20492 20493 20494 20495 20496 20497 20498 20499 20500 20501 20502 20503 20504 20505 20506 20507 20508 20509 20510 20511 20512 20513 20514 20515 20516 20517 20518 20519 20520 20521 20522 20523 20524 20525 20526 20527 20528 20529 20530 20531 20532 20533 20534 20535 20536 20537 20538 20539 20540 20541 20542 20543 20544 20545 20546 20547 20548 20549 20550 20551 20552 20553 20554 20555 20556 20557 20558 20559 20560 20561 20562 20563 20564 20565 20566 20567 20568 20569 20570 20571 20572 20573 20574 20575 20576 20577 20578 20579 20580 20581 20582 20583 20584 20585 20586 20587 20588 20589 20590 20591 20592 20593 20594 20595 20596 20597 20598 20599 20600 20601 20602 20603 20604 20605 20606 20607 20608 20609 20610 20611 20612 20613 20614 20615 20616 20617 20618 20619 20620 20621 20622 20623 20624 20625 20626 20627 20628 20629 20630 20631 20632 20633 20634 20635 20636 20637 20638 20639 20640 20641 20642 20643 20644 20645 20646 20647 20648 20649 20650 20651 20652 20653 20654 20655 20656 20657 20658 20659 20660 20661 20662 20663 20664 20665 20666 20667 20668 20669 20670 20671 20672 20673 20674 20675 20676 20677 20678 20679 20680 20681 20682 20683 20684 20685 20686 20687 20688 20689 20690 20691 20692 20693 20694 20695 20696 20697 20698 20699 20700 20701 20702 20703 20704 20705 20706 20707 20708 20709 20710 20711 20712 20713 20714 20715 20716 20717 20718 20719 20720 20721 20722 20723 20724 20725 20726 20727 20728 20729 20730 20731 20732 20733 20734 20735 20736 20737 20738 20739 20740 20741 20742 20743 20744 20745 20746 20747 20748 20749 20750 20751 20752 20753 20754 20755 20756 20757 20758 20759 20760 20761 20762 20763 20764 20765 20766 20767 20768 20769 20770 20771 20772 20773 20774 20775 20776 20777 20778 20779 20780 20781 20782 20783 20784 20785 20786 20787 20788 20789 20790 20791 20792 20793 20794 20795 20796 20797 20798 20799 20800 20801 20802 20803 20804 20805 20806 20807 20808 20809 20810 20811 20812 20813 20814 20815 20816 20817 20818 20819 20820 20821 20822 20823 20824 20825 20826 20827 20828 20829 20830 20831 20832 20833 20834 20835 20836 20837 20838 20839 20840 20841 20842 20843 20844 20845 20846 20847 20848 20849 20850 20851 20852 20853 20854 20855 20856 20857 20858 20859 20860 20861 20862 20863 20864 20865 20866 20867 20868 20869 20870 20871 20872 20873 20874 20875 20876 20877 20878 20879 20880 20881 20882 20883 20884 20885 20886 20887 20888 20889 20890 20891 20892 20893 20894 20895 20896 20897 20898 20899 20900 20901 20902 20903 20904 20905 20906 20907 20908 20909 20910 20911 20912 20913 20914 20915 20916 20917 20918 20919 20920 20921 20922 20923 20924 20925 20926 20927 20928 20929 20930 20931 20932 20933 20934 20935 20936 20937 20938 20939 20940 20941 20942 20943 20944 20945 20946 20947 20948 20949 20950 20951 20952 20953 20954 20955 20956 20957 20958 20959 20960 20961 20962 20963 20964 20965 20966 20967 20968 20969 20970 20971 20972 20973 20974 20975 20976 20977 20978 20979 20980 20981 20982 20983 20984 20985 20986 20987 20988 20989 20990 20991 20992 20993 20994 20995 20996 20997 20998 20999 21000 21001 21002 21003 21004 21005 21006 21007 21008 21009 21010 21011 21012 21013 21014 21015 21016 21017 21018 21019 21020 21021 21022 21023 21024 21025 21026 21027 21028 21029 21030 21031 21032 21033 21034 21035 21036 21037 21038 21039 21040 21041 21042 21043 21044 21045 21046 21047 21048 21049 21050 21051 21052 21053 21054 21055 21056 21057 21058 21059 21060 21061 21062 21063 21064 21065 21066 21067 21068 21069 21070 21071 21072 21073 21074 21075 21076 21077 21078 21079 21080 21081 21082 21083 21084 21085 21086 21087 21088 21089 21090 21091 21092 21093 21094 21095 21096 21097 21098 21099 21100 21101 21102 21103 21104 21105 21106 21107 21108 21109 21110 21111 21112 21113 21114 21115 21116 21117 21118 21119 21120 21121 21122 21123 21124 21125 21126 21127 21128 21129 21130 21131 21132 21133 21134 21135 21136 21137 21138 21139 21140 21141 21142 21143 21144 21145 21146 21147 21148 21149 21150 21151 21152 21153 21154 21155 21156 21157 21158 21159 21160 21161 21162 21163 21164 21165 21166 21167 21168 21169 21170 21171 21172 21173 21174 21175 21176 21177 21178 21179 21180 21181 21182 21183 21184 21185 21186 21187 21188 21189 21190 21191 21192 21193 21194 21195 21196 21197 21198 21199 21200 21201 21202 21203 21204 21205 21206 21207 21208 21209 21210 21211 21212 21213 21214 21215 21216 21217 21218 21219 21220 21221 21222 21223 21224 21225 21226 21227 21228 21229 21230 21231 21232 21233 21234 21235 21236 21237 21238 21239 21240 21241 21242 21243 21244 21245 21246 21247 21248 21249 21250 21251 21252 21253 21254 21255 21256 21257 21258 21259 21260 21261 21262 21263 21264 21265 21266 21267 21268 21269 21270 21271 21272 21273 21274 21275 21276 21277 21278 21279 21280 21281 21282 21283 21284 21285 21286 21287 21288 21289 21290 21291 21292 21293 21294 21295 21296 21297 21298 21299 21300 21301 21302 21303 21304 21305 21306 21307 21308 21309 21310 21311 21312 21313 21314 21315 21316 21317 21318 21319 21320 21321 21322 21323 21324 21325 21326 21327 21328 21329 21330 21331 21332 21333 21334 21335 21336 21337 21338 21339 21340 21341 21342 21343 21344 21345 21346 21347 21348 21349 21350 21351 21352 21353 21354 21355 21356 21357 21358 21359 21360 21361 21362 21363 21364 21365 21366 21367 21368 21369 21370 21371 21372 21373 21374 21375 21376 21377 21378 21379 21380 21381 21382 21383 21384 21385 21386 21387 21388 21389 21390 21391 21392 21393 21394 21395 21396 21397 21398 21399 21400 21401 21402 21403 21404 21405 21406 21407 21408 21409 21410 21411 21412 21413 21414 21415 21416 21417 21418 21419 21420 21421 21422 21423 21424 21425 21426 21427 21428 21429 21430 21431 21432 21433 21434 21435 21436 21437 21438 21439 21440 21441 21442 21443 21444 21445 21446 21447 21448 21449 21450 21451 21452 21453 21454 21455 21456 21457 21458 21459 21460 21461 21462 21463 21464 21465 21466 21467 21468 21469 21470 21471 21472 21473 21474 21475 21476 21477 21478 21479 21480 21481 21482 21483 21484 21485 21486 21487 21488 21489 21490 21491 21492 21493 21494 21495 21496 21497 21498 21499 21500 21501 21502 21503 21504 21505 21506 21507 21508 21509 21510 21511 21512 21513 21514 21515 21516 21517 21518 21519 21520 21521 21522 21523 21524 21525 21526 21527 21528 21529 21530 21531 21532 21533 21534 21535 21536 21537 21538 21539 21540 21541 21542 21543 21544 21545 21546 21547 21548 21549 21550 21551 21552 21553 21554 21555 21556 21557 21558 21559 21560 21561 21562 21563 21564 21565 21566 21567 21568 21569 21570 21571 21572 21573 21574 21575 21576 21577 21578 21579 21580 21581 21582 21583 21584 21585 21586 21587 21588 21589 21590 21591 21592 21593 21594 21595 21596 21597 21598 21599 21600 21601 21602 21603 21604 21605 21606 21607 21608 21609 21610 21611 21612 21613 21614 21615 21616 21617 21618 21619 21620 21621 21622 21623 21624 21625 21626 21627 21628 21629 21630 21631 21632 21633 21634 21635 21636 21637 21638 21639 21640 21641 21642 21643 21644 21645 21646 21647 21648 21649 21650 21651 21652 21653 21654 21655 21656 21657 21658 21659 21660 21661 21662 21663 21664 21665 21666 21667 21668 21669 21670 21671 21672 21673 21674 21675 21676 21677 21678 21679 21680 21681 21682 21683 21684 21685 21686 21687 21688 21689 21690 21691 21692 21693 21694 21695 21696 21697 21698 21699 21700 21701 21702 21703 21704 21705 21706 21707 21708 21709 21710 21711 21712 21713 21714 21715 21716 21717 21718 21719 21720 21721 21722 21723 21724 21725 21726 21727 21728 21729 21730 21731 21732 21733 21734 21735 21736 21737 21738 21739 21740 21741 21742 21743 21744 21745 21746 21747 21748 21749 21750 21751 21752 21753 21754 21755 21756 21757 21758 21759 21760 21761 21762 21763 21764 21765 21766 21767 21768 21769 21770 21771 21772 21773 21774 21775 21776 21777 21778 21779 21780 21781 21782 21783 21784 21785 21786 21787 21788 21789 21790 21791 21792 21793 21794 21795 21796 21797 21798 21799 21800 21801 21802 21803 21804 21805 21806 21807 21808 21809 21810 21811 21812 21813 21814 21815 21816 21817 21818 21819 21820 21821 21822 21823 21824 21825 21826 21827 21828 21829 21830 21831 21832 21833 21834 21835 21836 21837 21838 21839 21840 21841 21842 21843 21844 21845 21846 21847 21848 21849 21850 21851 21852 21853 21854 21855 21856 21857 21858 21859 21860 21861 21862 21863 21864 21865 21866 21867 21868 21869 21870 21871 21872 21873 21874 21875 21876 21877 21878 21879 21880 21881 21882 21883 21884 21885 21886 21887 21888 21889 21890 21891 21892 21893 21894 21895 21896 21897 21898 21899 21900 21901 21902 21903 21904 21905 21906 21907 21908 21909 21910 21911 21912 21913 21914 21915 21916 21917 21918 21919 21920 21921 21922 21923 21924 21925 21926 21927 21928 21929 21930 21931 21932 21933 21934 21935 21936 21937 21938 21939 21940 21941 21942 21943 21944 21945 21946 21947 21948 21949 21950 21951 21952 21953 21954 21955 21956 21957 21958 21959 21960 21961 21962 21963 21964 21965 21966 21967 21968 21969 21970 21971 21972 21973 21974 21975 21976 21977 21978 21979 21980 21981 21982 21983 21984 21985 21986 21987 21988 21989 21990 21991 21992 21993 21994 21995 21996 21997 21998 21999 22000 22001 22002 22003 22004 22005 22006 22007 22008 22009 22010 22011 22012 22013 22014 22015 22016 22017 22018 22019 22020 22021 22022 22023 22024 22025 22026 22027 22028 22029 22030 22031 22032 22033 22034 22035 22036 22037 22038 22039 22040 22041 22042 22043 22044 22045 22046 22047 22048 22049 22050 22051 22052 22053 22054 22055 22056 22057 22058 22059 22060 22061 22062 22063 22064 22065 22066 22067 22068 22069 22070 22071 22072 22073 22074 22075 22076 22077 22078 22079 22080 22081 22082 22083 22084 22085 22086 22087 22088 22089 22090 22091 22092 22093 22094 22095 22096 22097 22098 22099 22100 22101 22102 22103 22104 22105 22106 22107 22108 22109 22110 22111 22112 22113 22114 22115 22116 22117 22118 22119 22120 22121 22122 22123 22124 22125 22126 22127 22128 22129 22130 22131 22132 22133 22134 22135 22136 22137 22138 22139 22140 22141 22142 22143 22144 22145 22146 22147 22148 22149 22150 22151 22152 22153 22154 22155 22156 22157 22158 22159 22160 22161 22162 22163 22164 22165 22166 22167 22168 22169 22170 22171 22172 22173 22174 22175 22176 22177 22178 22179 22180 22181 22182 22183 22184 22185 22186 22187 22188 22189 22190 22191 22192 22193 22194 22195 22196 22197 22198 22199 22200 22201 22202 22203 22204 22205 22206 22207 22208 22209 22210 22211 22212 22213 22214 22215 22216 22217 22218 22219 22220 22221 22222 22223 22224 22225 22226 22227 22228 22229 22230 22231 22232 22233 22234 22235 22236 22237 22238 22239 22240 22241 22242 22243 22244 22245 22246 22247 22248 22249 22250 22251 22252 22253 22254 22255 22256 22257 22258 22259 22260 22261 22262 22263 22264 22265 22266 22267 22268 22269 22270 22271 22272 22273 22274 22275 22276 22277 22278 22279 22280 22281 22282 22283 22284 22285 22286 22287 22288 22289 22290 22291 22292 22293 22294 22295 22296 22297 22298 22299 22300 22301 22302 22303 22304 22305 22306 22307 22308 22309 22310 22311 22312 22313 22314 22315 22316 22317 22318 22319 22320 22321 22322 22323 22324 22325 22326 22327 22328 22329 22330 22331 22332 22333 22334 22335 22336 22337 22338 22339 22340 22341 22342 22343 22344 22345 22346 22347 22348 22349 22350 22351 22352 22353 22354 22355 22356 22357 22358 22359 22360 22361 22362 22363 22364 22365 22366 22367 22368 22369 22370 22371 22372 22373 22374 22375 22376 22377 22378 22379 22380 22381 22382 22383 22384 22385 22386 22387 22388 22389 22390 22391 22392 22393 22394 22395 22396 22397 22398 22399 22400 22401 22402 22403 22404 22405 22406 22407 22408 22409 22410 22411 22412 22413 22414 22415 22416 22417 22418 22419 22420 22421 22422 22423 22424 22425 22426 22427 22428 22429 22430 22431 22432 22433 22434 22435 22436 22437 22438 22439 22440 22441 22442 22443 22444 22445 22446 22447 22448 22449 22450 22451 22452 22453 22454 22455 22456 22457 22458 22459 22460 22461 22462 22463 22464 22465 22466 22467 22468 22469 22470 22471 22472 22473 22474 22475 22476 22477 22478 22479 22480 22481 22482 22483 22484 22485 22486 22487 22488 22489 22490 22491 22492 22493 22494 22495 22496 22497 22498 22499 22500 22501 22502 22503 22504 22505 22506 22507 22508 22509 22510 22511 22512 22513 22514 22515 22516 22517 22518 22519 22520 22521 22522 22523 22524 22525 22526 22527 22528 22529 22530 22531 22532 22533 22534 22535 22536 22537 22538 22539 22540 22541 22542 22543 22544 22545 22546 22547 22548 22549 22550 22551 22552 22553 22554 22555 22556 22557 22558 22559 22560 22561 22562 22563 22564 22565 22566 22567 22568 22569 22570 22571 22572 22573 22574 22575 22576 22577 22578 22579 22580 22581 22582 22583 22584 22585 22586 22587 22588 22589 22590 22591 22592 22593 22594 22595 22596 22597 22598 22599 22600 22601 22602 22603 22604 22605 22606 22607 22608 22609 22610 22611 22612 22613 22614 22615 22616 22617 22618 22619 22620 22621 22622 22623 22624 22625 22626 22627 22628 22629 22630 22631 22632 22633 22634 22635 22636 22637 22638 22639 22640 22641 22642 22643 22644 22645 22646 22647 22648 22649 22650 22651 22652 22653 22654 22655 22656 22657 22658 22659 22660 22661 22662 22663 22664 22665 22666 22667 22668 22669 22670 22671 22672 22673 22674 22675 22676 22677 22678 22679 22680 22681 22682 22683 22684 22685 22686 22687 22688 22689 22690 22691 22692 22693 22694 22695 22696 22697 22698 22699 22700 22701 22702 22703 22704 22705 22706 22707 22708 22709 22710 22711 22712 22713 22714 22715 22716 22717 22718 22719 22720 22721 22722 22723 22724 22725 22726 22727 22728 22729 22730 22731 22732 22733 22734 22735 22736 22737 22738 22739 22740 22741 22742 22743 22744 22745 22746 22747 22748 22749 22750 22751 22752 22753 22754 22755 22756 22757 22758 22759 22760 22761 22762 22763 22764 22765 22766 22767 22768 22769 22770 22771 22772 22773 22774 22775 22776 22777 22778 22779 22780 22781 22782 22783 22784 22785 22786 22787 22788 22789 22790 22791 22792 22793 22794 22795 22796 22797 22798 22799 22800 22801 22802 22803 22804 22805 22806 22807 22808 22809 22810 22811 22812 22813 22814 22815 22816 22817 22818 22819 22820 22821 22822 22823 22824 22825 22826 22827 22828 22829 22830 22831 22832 22833 22834 22835 22836 22837 22838 22839 22840 22841 22842 22843 22844 22845 22846 22847 22848 22849 22850 22851 22852 22853 22854 22855 22856 22857 22858 22859 22860 22861 22862 22863 22864 22865 22866 22867 22868 22869 22870 22871 22872 22873 22874 22875 22876 22877 22878 22879 22880 22881 22882 22883 22884 22885 22886 22887 22888 22889 22890 22891 22892 22893 22894 22895 22896 22897 22898 22899 22900 22901 22902 22903 22904 22905 22906 22907 22908 22909 22910 22911 22912 22913 22914 22915 22916 22917 22918 22919 22920 22921 22922 22923 22924 22925 22926 22927 22928 22929 22930 22931 22932 22933 22934 22935 22936 22937 22938 22939 22940 22941 22942 22943 22944 22945 22946 22947 22948 22949 22950 22951 22952 22953 22954 22955 22956 22957 22958 22959 22960 22961 22962 22963 22964 22965 22966 22967 22968 22969 22970 22971 22972 22973 22974 22975 22976 22977 22978 22979 22980 22981 22982 22983 22984 22985 22986 22987 22988 22989 22990 22991 22992 22993 22994 22995 22996 22997 22998 22999 23000 23001 23002 23003 23004 23005 23006 23007 23008 23009 23010 23011 23012 23013 23014 23015 23016 23017 23018 23019 23020 23021 23022 23023 23024 23025 23026 23027 23028 23029 23030 23031 23032 23033 23034 23035 23036 23037 23038 23039 23040 23041 23042 23043 23044 23045 23046 23047 23048 23049 23050 23051 23052 23053 23054 23055 23056 23057 23058 23059 23060 23061 23062 23063 23064 23065 23066 23067 23068 23069 23070 23071 23072 23073 23074 23075 23076 23077 23078 23079 23080 23081 23082 23083 23084 23085 23086 23087 23088 23089 23090 23091 23092 23093 23094 23095 23096 23097 23098 23099 23100 23101 23102 23103 23104 23105 23106 23107 23108 23109 23110 23111 23112 23113 23114 23115 23116 23117 23118 23119 23120 23121 23122 23123 23124 23125 23126 23127 23128 23129 23130 23131 23132 23133 23134 23135 23136 23137 23138 23139 23140 23141 23142 23143 23144 23145 23146 23147 23148 23149 23150 23151 23152 23153 23154 23155 23156 23157 23158 23159 23160 23161 23162 23163 23164 23165 23166 23167 23168 23169 23170 23171 23172 23173 23174 23175 23176 23177 23178 23179 23180 23181 23182 23183 23184 23185 23186 23187 23188 23189 23190 23191 23192 23193 23194 23195 23196 23197 23198 23199 23200 23201 23202 23203 23204 23205 23206 23207 23208 23209 23210 23211 23212 23213 23214 23215 23216 23217 23218 23219 23220 23221 23222 23223 23224 23225 23226 23227 23228 23229 23230 23231 23232 23233 23234 23235 23236 23237 23238 23239 23240 23241 23242 23243 23244 23245 23246 23247 23248 23249 23250 23251 23252 23253 23254 23255 23256 23257 23258 23259 23260 23261 23262 23263 23264 23265 23266 23267 23268 23269 23270 23271 23272 23273 23274 23275 23276 23277 23278 23279 23280 23281 23282 23283 23284 23285 23286 23287 23288 23289 23290 23291 23292 23293 23294 23295 23296 23297 23298 23299 23300 23301 23302 23303 23304 23305 23306 23307 23308 23309 23310 23311 23312 23313 23314 23315 23316 23317 23318 23319 23320 23321 23322 23323 23324 23325 23326 23327 23328 23329 23330 23331 23332 23333 23334 23335 23336 23337 23338 23339 23340 23341 23342 23343 23344 23345 23346 23347 23348 23349 23350 23351 23352 23353 23354 23355 23356 23357 23358 23359 23360 23361 23362 23363 23364 23365 23366 23367 23368 23369 23370 23371 23372 23373 23374 23375 23376 23377 23378 23379 23380 23381 23382 23383 23384 23385 23386 23387 23388 23389 23390 23391 23392 23393 23394 23395 23396 23397 23398 23399 23400 23401 23402 23403 23404 23405 23406 23407 23408 23409 23410 23411 23412 23413 23414 23415 23416 23417 23418 23419 23420 23421 23422 23423 23424 23425 23426 23427 23428 23429 23430 23431 23432 23433 23434 23435 23436 23437 23438 23439 23440 23441 23442 23443 23444 23445 23446 23447 23448 23449 23450 23451 23452 23453 23454 23455 23456 23457 23458 23459 23460 23461 23462 23463 23464 23465 23466 23467 23468 23469 23470 23471 23472 23473 23474 23475 23476 23477 23478 23479 23480 23481 23482 23483 23484 23485 23486 23487 23488 23489 23490 23491 23492 23493 23494 23495 23496 23497 23498 23499 23500 23501 23502 23503 23504 23505 23506 23507 23508 23509 23510 23511 23512 23513 23514 23515 23516 23517 23518 23519 23520 23521 23522 23523 23524 23525 23526 23527 23528 23529 23530 23531 23532 23533 23534 23535 23536 23537 23538 23539 23540 23541 23542 23543 23544 23545 23546 23547 23548 23549 23550 23551 23552 23553 23554 23555 23556 23557 23558 23559 23560 23561 23562 23563 23564 23565 23566 23567 23568 23569 23570 23571 23572 23573 23574 23575 23576 23577 23578 23579 23580 23581 23582 23583 23584 23585 23586 23587 23588 23589 23590 23591 23592 23593 23594 23595 23596 23597 23598 23599 23600 23601 23602 23603 23604 23605 23606 23607 23608 23609 23610 23611 23612 23613 23614 23615 23616 23617 23618 23619 23620 23621 23622 23623 23624 23625 23626 23627 23628 23629 23630 23631 23632 23633 23634 23635 23636 23637 23638 23639 23640 23641 23642 23643 23644 23645 23646 23647 23648 23649 23650 23651 23652 23653 23654 23655 23656 23657 23658 23659 23660 23661 23662 23663 23664 23665 23666 23667 23668 23669 23670 23671 23672 23673 23674 23675 23676 23677 23678 23679 23680 23681 23682 23683 23684 23685 23686 23687 23688 23689 23690 23691 23692 23693 23694 23695 23696 23697 23698 23699 23700 23701 23702 23703 23704 23705 23706 23707 23708 23709 23710 23711 23712 23713 23714 23715 23716 23717 23718 23719 23720 23721 23722 23723 23724 23725 23726 23727 23728 23729 23730 23731 23732 23733 23734 23735 23736 23737 23738 23739 23740 23741 23742 23743 23744 23745 23746 23747 23748 23749 23750 23751 23752 23753 23754 23755 23756 23757 23758 23759 23760 23761 23762 23763 23764 23765 23766 23767 23768 23769 23770 23771 23772 23773 23774 23775 23776 23777 23778 23779 23780 23781 23782 23783 23784 23785 23786 23787 23788 23789 23790 23791 23792 23793 23794 23795 23796 23797 23798 23799 23800 23801 23802 23803 23804 23805 23806 23807 23808 23809 23810 23811 23812 23813 23814 23815 23816 23817 23818 23819 23820 23821 23822 23823 23824 23825 23826 23827 23828 23829 23830 23831 23832 23833 23834 23835 23836 23837 23838 23839 23840 23841 23842 23843 23844 23845 23846 23847 23848 23849 23850 23851 23852 23853 23854 23855 23856 23857 23858 23859 23860 23861 23862 23863 23864 23865 23866 23867 23868 23869 23870 23871 23872 23873 23874 23875 23876 23877 23878 23879 23880 23881 23882 23883 23884 23885 23886 23887 23888 23889 23890 23891 23892 23893 23894 23895 23896 23897 23898 23899 23900 23901 23902 23903 23904 23905 23906 23907 23908 23909 23910 23911 23912 23913 23914 23915 23916 23917 23918 23919 23920 23921 23922 23923 23924 23925 23926 23927 23928 23929 23930 23931 23932 23933 23934 23935 23936 23937 23938 23939 23940 23941 23942 23943 23944 23945 23946 23947 23948 23949 23950 23951 23952 23953 23954 23955 23956 23957 23958 23959 23960 23961 23962 23963 23964 23965 23966 23967 23968 23969 23970 23971 23972 23973 23974 23975 23976 23977 23978 23979 23980 23981 23982 23983 23984 23985 23986 23987 23988 23989 23990 23991 23992 23993 23994 23995 23996 23997 23998 23999 24000 24001 24002 24003 24004 24005 24006 24007 24008 24009 24010 24011 24012 24013 24014 24015 24016 24017 24018 24019 24020 24021 24022 24023 24024 24025 24026 24027 24028 24029 24030 24031 24032 24033 24034 24035 24036 24037 24038 24039 24040 24041 24042 24043 24044 24045 24046 24047 24048 24049 24050 24051 24052 24053 24054 24055 24056 24057 24058 24059 24060 24061 24062 24063 24064 24065 24066 24067 24068 24069 24070 24071 24072 24073 24074 24075 24076 24077 24078 24079 24080 24081 24082 24083 24084 24085 24086 24087 24088 24089 24090 24091 24092 24093 24094 24095 24096 24097 24098 24099 24100 24101 24102 24103 24104 24105 24106 24107 24108 24109 24110 24111 24112 24113 24114 24115 24116 24117 24118 24119 24120 24121 24122 24123 24124 24125 24126 24127 24128 24129 24130 24131 24132 24133 24134 24135 24136 24137 24138 24139 24140 24141 24142 24143 24144 24145 24146 24147 24148 24149 24150 24151 24152 24153 24154 24155 24156 24157 24158 24159 24160 24161 24162 24163 24164 24165 24166 24167 24168 24169 24170 24171 24172 24173 24174 24175 24176 24177 24178 24179 24180 24181 24182 24183 24184 24185 24186 24187 24188 24189 24190 24191 24192 24193 24194 24195 24196 24197 24198 24199 24200 24201 24202 24203 24204 24205 24206 24207 24208 24209 24210 24211 24212 24213 24214 24215 24216 24217 24218 24219 24220 24221 24222 24223 24224 24225 24226 24227 24228 24229 24230 24231 24232 24233 24234 24235 24236 24237 24238 24239 24240 24241 24242 24243 24244 24245 24246 24247 24248 24249 24250 24251 24252 24253 24254 24255 24256 24257 24258 24259 24260 24261 24262 24263 24264 24265 24266 24267 24268 24269 24270 24271 24272 24273 24274 24275 24276 24277 24278 24279 24280 24281 24282 24283 24284 24285 24286 24287 24288 24289 24290 24291 24292 24293 24294 24295 24296 24297 24298 24299 24300 24301 24302 24303 24304 24305 24306 24307 24308 24309 24310 24311 24312 24313 24314 24315 24316 24317 24318 24319 24320 24321 24322 24323 24324 24325 24326 24327 24328 24329 24330 24331 24332 24333 24334 24335 24336 24337 24338 24339 24340 24341 24342 24343 24344 24345 24346 24347 24348 24349 24350 24351 24352 24353 24354 24355 24356 24357 24358 24359 24360 24361 24362 24363 24364 24365 24366 24367 24368 24369 24370 24371 24372 24373 24374 24375 24376 24377 24378 24379 24380 24381 24382 24383 24384 24385 24386 24387 24388 24389 24390 24391 24392 24393 24394 24395 24396 24397 24398 24399 24400 24401 24402 24403 24404 24405 24406 24407 24408 24409 24410 24411 24412 24413 24414 24415 24416 24417 24418 24419 24420 24421 24422 24423 24424 24425 24426 24427 24428 24429 24430 24431 24432 24433 24434 24435 24436 24437 24438 24439 24440 24441 24442 24443 24444 24445 24446 24447 24448 24449 24450 24451 24452 24453 24454 24455 24456 24457 24458 24459 24460 24461 24462 24463 24464 24465 24466 24467 24468 24469 24470 24471 24472 24473 24474 24475 24476 24477 24478 24479 24480 24481 24482 24483 24484 24485 24486 24487 24488 24489 24490 24491 24492 24493 24494 24495 24496 24497 24498 24499 24500 24501 24502 24503 24504 24505 24506 24507 24508 24509 24510 24511 24512 24513 24514 24515 24516 24517 24518 24519 24520 24521 24522 24523 24524 24525 24526 24527 24528 24529 24530 24531 24532 24533 24534 24535 24536 24537 24538 24539 24540 24541 24542 24543 24544 24545 24546 24547 24548 24549 24550 24551 24552 24553 24554 24555 24556 24557 24558 24559 24560 24561 24562 24563 24564 24565 24566 24567 24568 24569 24570 24571 24572 24573 24574 24575 24576 24577 24578 24579 24580 24581 24582 24583 24584 24585 24586 24587 24588 24589 24590 24591 24592 24593 24594 24595 24596 24597 24598 24599 24600 24601 24602 24603 24604 24605 24606 24607 24608 24609 24610 24611 24612 24613 24614 24615 24616 24617 24618 24619 24620 24621 24622 24623 24624 24625 24626 24627 24628 24629 24630 24631 24632 24633 24634 24635 24636 24637 24638 24639 24640 24641 24642 24643 24644 24645 24646 24647 24648 24649 24650 24651 24652 24653 24654 24655 24656 24657 24658 24659 24660 24661 24662 24663 24664 24665 24666 24667 24668 24669 24670 24671 24672 24673 24674 24675 24676 24677 24678 24679 24680 24681 24682 24683 24684 24685 24686 24687 24688 24689 24690 24691 24692 24693 24694 24695 24696 24697 24698 24699 24700 24701 24702 24703 24704 24705 24706 24707 24708 24709 24710 24711 24712 24713 24714 24715 24716 24717 24718 24719 24720 24721 24722 24723 24724 24725 24726 24727 24728 24729 24730 24731 24732 24733 24734 24735 24736 24737 24738 24739 24740 24741 24742 24743 24744 24745 24746 24747 24748 24749 24750 24751 24752 24753 24754 24755 24756 24757 24758 24759 24760 24761 24762 24763 24764 24765 24766 24767 24768 24769 24770 24771 24772 24773 24774 24775 24776 24777 24778 24779 24780 24781 24782 24783 24784 24785 24786 24787 24788 24789 24790 24791 24792 24793 24794 24795 24796 24797 24798 24799 24800 24801 24802 24803 24804 24805 24806 24807 24808 24809 24810 24811 24812 24813 24814 24815 24816 24817 24818 24819 24820 24821 24822 24823 24824 24825 24826 24827 24828 24829 24830 24831 24832 24833 24834 24835 24836 24837 24838 24839 24840 24841 24842 24843 24844 24845 24846 24847 24848 24849 24850 24851 24852 24853 24854 24855 24856 24857 24858 24859 24860 24861 24862 24863 24864 24865 24866 24867 24868 24869 24870 24871 24872 24873 24874 24875 24876 24877 24878 24879 24880 24881 24882 24883 24884 24885 24886 24887 24888 24889 24890 24891 24892 24893 24894 24895 24896 24897 24898 24899 24900 24901 24902 24903 24904 24905 24906 24907 24908 24909 24910 24911 24912 24913 24914 24915 24916 24917 24918 24919 24920 24921 24922 24923 24924 24925 24926 24927 24928 24929 24930 24931 24932 24933 24934 24935 24936 24937 24938 24939 24940 24941 24942 24943 24944 24945 24946 24947 24948 24949 24950 24951 24952 24953 24954 24955 24956 24957 24958 24959 24960 24961 24962 24963 24964 24965 24966 24967 24968 24969 24970 24971 24972 24973 24974 24975 24976 24977 24978 24979 24980 24981 24982 24983 24984 24985 24986 24987 24988 24989 24990 24991 24992 24993 24994 24995 24996 24997 24998 24999 25000 25001 25002 25003 25004 25005 25006 25007 25008 25009 25010 25011 25012 25013 25014 25015 25016 25017 25018 25019 25020 25021 25022 25023 25024 25025 25026 25027 25028 25029 25030 25031 25032 25033 25034 25035 25036 25037 25038 25039 25040 25041 25042 25043 25044 25045 25046 25047 25048 25049 25050 25051 25052 25053 25054 25055 25056 25057 25058 25059 25060 25061 25062 25063 25064 25065 25066 25067 25068 25069 25070 25071 25072 25073 25074 25075 25076 25077 25078 25079 25080 25081 25082 25083 25084 25085 25086 25087 25088 25089 25090 25091 25092 25093 25094 25095 25096 25097 25098 25099 25100 25101 25102 25103 25104 25105 25106 25107 25108 25109 25110 25111 25112 25113 25114 25115 25116 25117 25118 25119 25120 25121 25122 25123 25124 25125 25126 25127 25128 25129 25130 25131 25132 25133 25134 25135 25136 25137 25138 25139 25140 25141 25142 25143 25144 25145 25146 25147 25148 25149 25150 25151 25152 25153 25154 25155 25156 25157 25158 25159 25160 25161 25162 25163 25164 25165 25166 25167 25168 25169 25170 25171 25172 25173 25174 25175 25176 25177 25178 25179 25180 25181 25182 25183 25184 25185 25186 25187 25188 25189 25190 25191 25192 25193 25194 25195 25196 25197 25198 25199 25200 25201 25202 25203 25204 25205 25206 25207 25208 25209 25210 25211 25212 25213 25214 25215 25216 25217 25218 25219 25220 25221 25222 25223 25224 25225 25226 25227 25228 25229 25230 25231 25232 25233 25234 25235 25236 25237 25238 25239 25240 25241 25242 25243 25244 25245 25246 25247 25248 25249 25250 25251 25252 25253 25254 25255 25256 25257 25258 25259 25260 25261 25262 25263 25264 25265 25266 25267 25268 25269 25270 25271 25272 25273 25274 25275 25276 25277 25278 25279 25280 25281 25282 25283 25284 25285 25286 25287 25288 25289 25290 25291 25292 25293 25294 25295 25296 25297 25298 25299 25300 25301 25302 25303 25304 25305 25306 25307 25308 25309 25310 25311 25312 25313 25314 25315 25316 25317 25318 25319 25320 25321 25322 25323 25324 25325 25326 25327 25328 25329 25330 25331 25332 25333 25334 25335 25336 25337 25338 25339 25340 25341 25342 25343 25344 25345 25346 25347 25348 25349 25350 25351 25352 25353 25354 25355 25356 25357 25358 25359 25360 25361 25362 25363 25364 25365 25366 25367 25368 25369 25370 25371 25372 25373 25374 25375 25376 25377 25378 25379 25380 25381 25382 25383 25384 25385 25386 25387 25388 25389 25390 25391 25392 25393 25394 25395 25396 25397 25398 25399 25400 25401 25402 25403 25404 25405 25406 25407 25408 25409 25410 25411 25412 25413 25414 25415 25416 25417 25418 25419 25420 25421 25422 25423 25424 25425 25426 25427 25428 25429 25430 25431 25432 25433 25434 25435 25436 25437 25438 25439 25440 25441 25442 25443 25444 25445 25446 25447 25448 25449 25450 25451 25452 25453 25454 25455 25456 25457 25458 25459 25460 25461 25462 25463 25464 25465 25466 25467 25468 25469 25470 25471 25472 25473 25474 25475 25476 25477 25478 25479 25480 25481 25482 25483 25484 25485 25486 25487 25488 25489 25490 25491 25492 25493 25494 25495 25496 25497 25498 25499 25500 25501 25502 25503 25504 25505 25506 25507 25508 25509 25510 25511 25512 25513 25514 25515 25516 25517 25518 25519 25520 25521 25522 25523 25524 25525 25526 25527 25528 25529 25530 25531 25532 25533 25534 25535 25536 25537 25538 25539 25540 25541 25542 25543 25544 25545 25546 25547 25548 25549 25550 25551 25552 25553 25554 25555 25556 25557 25558 25559 25560 25561 25562 25563 25564 25565 25566 25567 25568 25569 25570 25571 25572 25573 25574 25575 25576 25577 25578 25579 25580 25581 25582 25583 25584 25585 25586 25587 25588 25589 25590 25591 25592 25593 25594 25595 25596 25597 25598 25599 25600 25601 25602 25603 25604 25605 25606 25607 25608 25609 25610 25611 25612 25613 25614 25615 25616 25617 25618 25619 25620 25621 25622 25623 25624 25625 25626 25627 25628 25629 25630 25631 25632 25633 25634 25635 25636 25637 25638 25639 25640 25641 25642 25643 25644 25645 25646 25647 25648 25649 25650 25651 25652 25653 25654 25655 25656 25657 25658 25659 25660 25661 25662 25663 25664 25665 25666 25667 25668 25669 25670 25671 25672 25673 25674 25675 25676 25677 25678 25679 25680 25681 25682 25683 25684 25685 25686 25687 25688 25689 25690 25691 25692 25693 25694 25695 25696 25697 25698 25699 25700 25701 25702 25703 25704 25705 25706 25707 25708 25709 25710 25711 25712 25713 25714 25715 25716 25717 25718 25719 25720 25721 25722 25723 25724 25725 25726 25727 25728 25729 25730 25731 25732 25733 25734 25735 25736 25737 25738 25739 25740 25741 25742 25743 25744 25745 25746 25747 25748 25749 25750 25751 25752 25753 25754 25755 25756 25757 25758 25759 25760 25761 25762 25763 25764 25765 25766 25767 25768 25769 25770 25771 25772 25773 25774 25775 25776 25777 25778 25779 25780 25781 25782 25783 25784 25785 25786 25787 25788 25789 25790 25791 25792 25793 25794 25795 25796 25797 25798 25799 25800 25801 25802 25803 25804 25805 25806 25807 25808 25809 25810 25811 25812 25813 25814 25815 25816 25817 25818 25819 25820 25821 25822 25823 25824 25825 25826 25827 25828 25829 25830 25831 25832 25833 25834 25835 25836 25837 25838 25839 25840 25841 25842 25843 25844 25845 25846 25847 25848 25849 25850 25851 25852 25853 25854 25855 25856 25857 25858 25859 25860 25861 25862 25863 25864 25865 25866 25867 25868 25869 25870 25871 25872 25873 25874 25875 25876 25877 25878 25879 25880 25881 25882 25883 25884 25885 25886 25887 25888 25889 25890 25891 25892 25893 25894 25895 25896 25897 25898 25899 25900 25901 25902 25903 25904 25905 25906 25907 25908 25909 25910 25911 25912 25913 25914 25915 25916 25917 25918 25919 25920 25921 25922 25923 25924 25925 25926 25927 25928 25929 25930 25931 25932 25933 25934 25935 25936 25937 25938 25939 25940 25941 25942 25943 25944 25945 25946 25947 25948 25949 25950 25951 25952 25953 25954 25955 25956 25957 25958 25959 25960 25961 25962 25963 25964 25965 25966 25967 25968 25969 25970 25971 25972 25973 25974 25975 25976 25977 25978 25979 25980 25981 25982 25983 25984 25985 25986 25987 25988 25989 25990 25991 25992 25993 25994 25995 25996 25997 25998 25999 26000 26001 26002 26003 26004 26005 26006 26007 26008 26009 26010 26011 26012 26013 26014 26015 26016 26017 26018 26019 26020 26021 26022 26023 26024 26025 26026 26027 26028 26029 26030 26031 26032 26033 26034 26035 26036 26037 26038 26039 26040 26041 26042 26043 26044 26045 26046 26047 26048 26049 26050 26051 26052 26053 26054 26055 26056 26057 26058 26059 26060 26061 26062 26063 26064 26065 26066 26067 26068 26069 26070 26071 26072 26073 26074 26075 26076 26077 26078 26079 26080 26081 26082 26083 26084 26085 26086 26087 26088 26089 26090 26091 26092 26093 26094 26095 26096 26097 26098 26099 26100 26101 26102 26103 26104 26105 26106 26107 26108 26109 26110 26111 26112 26113 26114 26115 26116 26117 26118 26119 26120 26121 26122 26123 26124 26125 26126 26127 26128 26129 26130 26131 26132 26133 26134 26135 26136 26137 26138 26139 26140 26141 26142 26143 26144 26145 26146 26147 26148 26149 26150 26151 26152 26153 26154 26155 26156 26157 26158 26159 26160 26161 26162 26163 26164 26165 26166 26167 26168 26169 26170 26171 26172 26173 26174 26175 26176 26177 26178 26179 26180 26181 26182 26183 26184 26185 26186 26187 26188 26189 26190 26191 26192 26193 26194 26195 26196 26197 26198 26199 26200 26201 26202 26203 26204 26205 26206 26207 26208 26209 26210 26211 26212 26213 26214 26215 26216 26217 26218 26219 26220 26221 26222 26223 26224 26225 26226 26227 26228 26229 26230 26231 26232 26233 26234 26235 26236 26237 26238 26239 26240 26241 26242 26243 26244 26245 26246 26247 26248 26249 26250 26251 26252 26253 26254 26255 26256 26257 26258 26259 26260 26261 26262 26263 26264 26265 26266 26267 26268 26269 26270 26271 26272 26273 26274 26275 26276 26277 26278 26279 26280 26281 26282 26283 26284 26285 26286 26287 26288 26289 26290 26291 26292 26293 26294 26295 26296 26297 26298 26299 26300 26301 26302 26303 26304 26305 26306 26307 26308 26309 26310 26311 26312 26313 26314 26315 26316 26317 26318 26319 26320 26321 26322 26323 26324 26325 26326 26327 26328 26329 26330 26331 26332 26333 26334 26335 26336 26337 26338 26339 26340 26341 26342 26343 26344 26345 26346 26347 26348 26349 26350 26351 26352 26353 26354 26355 26356 26357 26358 26359 26360 26361 26362 26363 26364 26365 26366 26367 26368 26369 26370 26371 26372 26373 26374 26375 26376 26377 26378 26379 26380 26381 26382 26383 26384 26385 26386 26387 26388 26389 26390 26391 26392 26393 26394 26395 26396 26397 26398 26399 26400 26401 26402 26403 26404 26405 26406 26407 26408 26409 26410 26411 26412 26413 26414 26415 26416 26417 26418 26419 26420 26421 26422 26423 26424 26425 26426 26427 26428 26429 26430 26431 26432 26433 26434 26435 26436 26437 26438 26439 26440 26441 26442 26443 26444 26445 26446 26447 26448 26449 26450 26451 26452 26453 26454 26455 26456 26457 26458 26459 26460 26461 26462 26463 26464 26465 26466 26467 26468 26469 26470 26471 26472 26473 26474 26475 26476 26477 26478 26479 26480 26481 26482 26483 26484 26485 26486 26487 26488 26489 26490 26491 26492 26493 26494 26495 26496 26497 26498 26499 26500 26501 26502 26503 26504 26505 26506 26507 26508 26509 26510 26511 26512 26513 26514 26515 26516 26517 26518 26519 26520 26521 26522 26523 26524 26525 26526 26527 26528 26529 26530 26531 26532 26533 26534 26535 26536 26537 26538 26539 26540 26541 26542 26543 26544 26545 26546 26547 26548 26549 26550 26551 26552 26553 26554 26555 26556 26557 26558 26559 26560 26561 26562 26563 26564 26565 26566 26567 26568 26569 26570 26571 26572 26573 26574 26575 26576 26577 26578 26579 26580 26581 26582 26583 26584 26585 26586 26587 26588 26589 26590 26591 26592 26593 26594 26595 26596 26597 26598 26599 26600 26601 26602 26603 26604 26605 26606 26607 26608 26609 26610 26611 26612 26613 26614 26615 26616 26617 26618 26619 26620 26621 26622 26623 26624 26625 26626 26627 26628 26629 26630 26631 26632 26633 26634 26635 26636 26637 26638 26639 26640 26641 26642 26643 26644 26645 26646 26647 26648 26649 26650 26651 26652 26653 26654 26655 26656 26657 26658 26659 26660 26661 26662 26663 26664 26665 26666 26667 26668 26669 26670 26671 26672 26673 26674 26675 26676 26677 26678 26679 26680 26681 26682 26683 26684 26685 26686 26687 26688 26689 26690 26691 26692 26693 26694 26695 26696 26697 26698 26699 26700 26701 26702 26703 26704 26705 26706 26707 26708 26709 26710 26711 26712 26713 26714 26715 26716 26717 26718 26719 26720 26721 26722 26723 26724 26725 26726 26727 26728 26729 26730 26731 26732 26733 26734 26735 26736 26737 26738 26739 26740 26741 26742 26743 26744 26745 26746 26747 26748 26749 26750 26751 26752 26753 26754 26755 26756 26757 26758 26759 26760 26761 26762 26763 26764 26765 26766 26767 26768 26769 26770 26771 26772 26773 26774 26775 26776 26777 26778 26779 26780 26781 26782 26783 26784 26785 26786 26787 26788 26789 26790 26791 26792 26793 26794 26795 26796 26797 26798 26799 26800 26801 26802 26803 26804 26805 26806 26807 26808 26809 26810 26811 26812 26813 26814 26815 26816 26817 26818 26819 26820 26821 26822 26823 26824 26825 26826 26827 26828 26829 26830 26831 26832 26833 26834 26835 26836 26837 26838 26839 26840 26841 26842 26843 26844 26845 26846 26847 26848 26849 26850 26851 26852 26853 26854 26855 26856 26857 26858 26859 26860 26861 26862 26863 26864 26865 26866 26867 26868 26869 26870 26871 26872 26873 26874 26875 26876 26877 26878 26879 26880 26881 26882 26883 26884 26885 26886 26887 26888 26889 26890 26891 26892 26893 26894 26895 26896 26897 26898 26899 26900 26901 26902 26903 26904 26905 26906 26907 26908 26909 26910 26911 26912 26913 26914 26915 26916 26917 26918 26919 26920 26921 26922 26923 26924 26925 26926 26927 26928 26929 26930 26931 26932 26933 26934 26935 26936 26937 26938 26939 26940 26941 26942 26943 26944 26945 26946 26947 26948 26949 26950 26951 26952 26953 26954 26955 26956 26957 26958 26959 26960 26961 26962 26963 26964 26965 26966 26967 26968 26969 26970 26971 26972 26973 26974 26975 26976 26977 26978 26979 26980 26981 26982 26983 26984 26985 26986 26987 26988 26989 26990 26991 26992 26993 26994 26995 26996 26997 26998 26999 27000 27001 27002 27003 27004 27005 27006 27007 27008 27009 27010 27011 27012 27013 27014 27015 27016 27017 27018 27019 27020 27021 27022 27023 27024 27025 27026 27027 27028 27029 27030 27031 27032 27033 27034 27035 27036 27037 27038 27039 27040 27041 27042 27043 27044 27045 27046 27047 27048 27049 27050 27051 27052 27053 27054 27055 27056 27057 27058 27059 27060 27061 27062 27063 27064 27065 27066 27067 27068 27069 27070 27071 27072 27073 27074 27075 27076 27077 27078 27079 27080 27081 27082 27083 27084 27085 27086 27087 27088 27089 27090 27091 27092 27093 27094 27095 27096 27097 27098 27099 27100 27101 27102 27103 27104 27105 27106 27107 27108 27109 27110 27111 27112 27113 27114 27115 27116 27117 27118 27119 27120 27121 27122 27123 27124 27125 27126 27127 27128 27129 27130 27131 27132 27133 27134 27135 27136 27137 27138 27139 27140 27141 27142 27143 27144 27145 27146 27147 27148 27149 27150 27151 27152 27153 27154 27155 27156 27157 27158 27159 27160 27161 27162 27163 27164 27165 27166 27167 27168 27169 27170 27171 27172 27173 27174 27175 27176 27177 27178 27179 27180 27181 27182 27183 27184 27185 27186 27187 27188 27189 27190 27191 27192 27193 27194 27195 27196 27197 27198 27199 27200 27201 27202 27203 27204 27205 27206 27207 27208 27209 27210 27211 27212 27213 27214 27215 27216 27217 27218 27219 27220 27221 27222 27223 27224 27225 27226 27227 27228 27229 27230 27231 27232 27233 27234 27235 27236 27237 27238 27239 27240 27241 27242 27243 27244 27245 27246 27247 27248 27249 27250 27251 27252 27253 27254 27255 27256 27257 27258 27259 27260 27261 27262 27263 27264 27265 27266 27267 27268 27269 27270 27271 27272 27273 27274 27275 27276 27277 27278 27279 27280 27281 27282 27283 27284 27285 27286 27287 27288 27289 27290 27291 27292 27293 27294 27295 27296 27297 27298 27299 27300 27301 27302 27303 27304 27305 27306 27307 27308 27309 27310 27311 27312 27313 27314 27315 27316 27317 27318 27319 27320 27321 27322 27323 27324 27325 27326 27327 27328 27329 27330 27331 27332 27333 27334 27335 27336 27337 27338 27339 27340 27341 27342 27343 27344 27345 27346 27347 27348 27349 27350 27351 27352 27353 27354 27355 27356 27357 27358 27359 27360 27361 27362 27363 27364 27365 27366 27367 27368 27369 27370 27371 27372 27373 27374 27375 27376 27377 27378 27379 27380 27381 27382 27383 27384 27385 27386 27387 27388 27389 27390 27391 27392 27393 27394 27395 27396 27397 27398 27399 27400 27401 27402 27403 27404 27405 27406 27407 27408 27409 27410 27411 27412 27413 27414 27415 27416 27417 27418 27419 27420 27421 27422 27423 27424 27425 27426 27427 27428 27429 27430 27431 27432 27433 27434 27435 27436 27437 27438 27439 27440 27441 27442 27443 27444 27445 27446 27447 27448 27449 27450 27451 27452 27453 27454 27455 27456 27457 27458 27459 27460 27461 27462 27463 27464 27465 27466 27467 27468 27469 27470 27471 27472 27473 27474 27475 27476 27477 27478 27479 27480 27481 27482 27483 27484 27485 27486 27487 27488 27489 27490 27491 27492 27493 27494 27495 27496 27497 27498 27499 27500 27501 27502 27503 27504 27505 27506 27507 27508 27509 27510 27511 27512 27513 27514 27515 27516 27517 27518 27519 27520 27521 27522 27523 27524 27525 27526 27527 27528 27529 27530 27531 27532 27533 27534 27535 27536 27537 27538 27539 27540 27541 27542 27543 27544 27545 27546 27547 27548 27549 27550 27551 27552 27553 27554 27555 27556 27557 27558 27559 27560 27561 27562 27563 27564 27565 27566 27567 27568 27569 27570 27571 27572 27573 27574 27575 27576 27577 27578 27579 27580 27581 27582 27583 27584 27585 27586 27587 27588 27589 27590 27591 27592 27593 27594 27595 27596 27597 27598 27599 27600 27601 27602 27603 27604 27605 27606 27607 27608 27609 27610 27611 27612 27613 27614 27615 27616 27617 27618 27619 27620 27621 27622 27623 27624 27625 27626 27627 27628 27629 27630 27631 27632 27633 27634 27635 27636 27637 27638 27639 27640 27641 27642 27643 27644 27645 27646 27647 27648 27649 27650 27651 27652 27653 27654 27655 27656 27657 27658 27659 27660 27661 27662 27663 27664 27665 27666 27667 27668 27669 27670 27671 27672 27673 27674 27675 27676 27677 27678 27679 27680 27681 27682 27683 27684 27685 27686 27687 27688 27689 27690 27691 27692 27693 27694 27695 27696 27697 27698 27699 27700 27701 27702 27703 27704 27705 27706 27707 27708 27709 27710 27711 27712 27713 27714 27715 27716 27717 27718 27719 27720 27721 27722 27723 27724 27725 27726 27727 27728 27729 27730 27731 27732 27733 27734 27735 27736 27737 27738 27739 27740 27741 27742 27743 27744 27745 27746 27747 27748 27749 27750 27751 27752 27753 27754 27755 27756 27757 27758 27759 27760 27761 27762 27763 27764 27765 27766 27767 27768 27769 27770 27771 27772 27773 27774 27775 27776 27777 27778 27779 27780 27781 27782 27783 27784 27785 27786 27787 27788 27789 27790 27791 27792 27793 27794 27795 27796 27797 27798 27799 27800 27801 27802 27803 27804 27805 27806 27807 27808 27809 27810 27811 27812 27813 27814 27815 27816 27817 27818 27819 27820 27821 27822 27823 27824 27825 27826 27827 27828 27829 27830 27831 27832 27833 27834 27835 27836 27837 27838 27839 27840 27841 27842 27843 27844 27845 27846 27847 27848 27849 27850 27851 27852 27853 27854 27855 27856 27857 27858 27859 27860 27861 27862 27863 27864 27865 27866 27867 27868 27869 27870 27871 27872 27873 27874 27875 27876 27877 27878 27879 27880 27881 27882 27883 27884 27885 27886 27887 27888 27889 27890 27891 27892 27893 27894 27895 27896 27897 27898 27899 27900 27901 27902 27903 27904 27905 27906 27907 27908 27909 27910 27911 27912 27913 27914 27915 27916 27917 27918 27919 27920 27921 27922 27923 27924 27925 27926 27927 27928 27929 27930 27931 27932 27933 27934 27935 27936 27937 27938 27939 27940 27941 27942 27943 27944 27945 27946 27947 27948 27949 27950 27951 27952 27953 27954 27955 27956 27957 27958 27959 27960 27961 27962 27963 27964 27965 27966 27967 27968 27969 27970 27971 27972 27973 27974 27975 27976 27977 27978 27979 27980 27981 27982 27983 27984 27985 27986 27987 27988 27989 27990 27991 27992 27993 27994 27995 27996 27997 27998 27999 28000 28001 28002 28003 28004 28005 28006 28007 28008 28009 28010 28011 28012 28013 28014 28015 28016 28017 28018 28019 28020 28021 28022 28023 28024 28025 28026 28027 28028 28029 28030 28031 28032 28033 28034 28035 28036 28037 28038 28039 28040 28041 28042 28043 28044 28045 28046 28047 28048 28049 28050 28051 28052 28053 28054 28055 28056 28057 28058 28059 28060 28061 28062 28063 28064 28065 28066 28067 28068 28069 28070 28071 28072 28073 28074 28075 28076 28077 28078 28079 28080 28081 28082 28083 28084 28085 28086 28087 28088 28089 28090 28091 28092 28093 28094 28095 28096 28097 28098 28099 28100 28101 28102 28103 28104 28105 28106 28107 28108 28109 28110 28111 28112 28113 28114 28115 28116 28117 28118 28119 28120 28121 28122 28123 28124 28125 28126 28127 28128 28129 28130 28131 28132 28133 28134 28135 28136 28137 28138 28139 28140 28141 28142 28143 28144 28145 28146 28147 28148 28149 28150 28151 28152 28153 28154 28155 28156 28157 28158 28159 28160 28161 28162 28163 28164 28165 28166 28167 28168 28169 28170 28171 28172 28173 28174 28175 28176 28177 28178 28179 28180 28181 28182 28183 28184 28185 28186 28187 28188 28189 28190 28191 28192 28193 28194 28195 28196 28197 28198 28199 28200 28201 28202 28203 28204 28205 28206 28207 28208 28209 28210 28211 28212 28213 28214 28215 28216 28217 28218 28219 28220 28221 28222 28223 28224 28225 28226 28227 28228 28229 28230 28231 28232 28233 28234 28235 28236 28237 28238 28239 28240 28241 28242 28243 28244 28245 28246 28247 28248 28249 28250 28251 28252 28253 28254 28255 28256 28257 28258 28259 28260 28261 28262 28263 28264 28265 28266 28267 28268 28269 28270 28271 28272 28273 28274 28275 28276 28277 28278 28279 28280 28281 28282 28283 28284 28285 28286 28287 28288 28289 28290 28291 28292 28293 28294 28295 28296 28297 28298 28299 28300 28301 28302 28303 28304 28305 28306 28307 28308 28309 28310 28311 28312 28313 28314 28315 28316 28317 28318 28319 28320 28321 28322 28323 28324 28325 28326 28327 28328 28329 28330 28331 28332 28333 28334 28335 28336 28337 28338 28339 28340 28341 28342 28343 28344 28345 28346 28347 28348 28349 28350 28351 28352 28353 28354 28355 28356 28357 28358 28359 28360 28361 28362 28363 28364 28365 28366 28367 28368 28369 28370 28371 28372 28373 28374 28375 28376 28377 28378 28379 28380 28381 28382 28383 28384 28385 28386 28387 28388 28389 28390 28391 28392 28393 28394 28395 28396 28397 28398 28399 28400 28401 28402 28403 28404 28405 28406 28407 28408 28409 28410 28411 28412 28413 28414 28415 28416 28417 28418 28419 28420 28421 28422 28423 28424 28425 28426 28427 28428 28429 28430 28431 28432 28433 28434 28435 28436 28437 28438 28439 28440 28441 28442 28443 28444 28445 28446 28447 28448 28449 28450 28451 28452 28453 28454 28455 28456 28457 28458 28459 28460 28461 28462 28463 28464 28465 28466 28467 28468 28469 28470 28471 28472 28473 28474 28475 28476 28477 28478 28479 28480 28481 28482 28483 28484 28485 28486 28487 28488 28489 28490 28491 28492 28493 28494 28495 28496 28497 28498 28499 28500 28501 28502 28503 28504 28505 28506 28507 28508 28509 28510 28511 28512 28513 28514 28515 28516 28517 28518 28519 28520 28521 28522 28523 28524 28525 28526 28527 28528 28529 28530 28531 28532 28533 28534 28535 28536 28537 28538 28539 28540 28541 28542 28543 28544 28545 28546 28547 28548 28549 28550 28551 28552 28553 28554 28555 28556 28557 28558 28559 28560 28561 28562 28563 28564 28565 28566 28567 28568 28569 28570 28571 28572 28573 28574 28575 28576 28577 28578 28579 28580 28581 28582 28583 28584 28585 28586 28587 28588 28589 28590 28591 28592 28593 28594 28595 28596 28597 28598 28599 28600 28601 28602 28603 28604 28605 28606 28607 28608 28609 28610 28611 28612 28613 28614 28615 28616 28617 28618 28619 28620 28621 28622 28623 28624 28625 28626 28627 28628 28629 28630 28631 28632 28633 28634 28635 28636 28637 28638 28639 28640 28641 28642 28643 28644 28645 28646 28647 28648 28649 28650 28651 28652 28653 28654 28655 28656 28657 28658 28659 28660 28661 28662 28663 28664 28665 28666 28667 28668 28669 28670 28671 28672 28673 28674 28675 28676 28677 28678 28679 28680 28681 28682 28683 28684 28685 28686 28687 28688 28689 28690 28691 28692 28693 28694 28695 28696 28697 28698 28699 28700 28701 28702 28703 28704 28705 28706 28707 28708 28709 28710 28711 28712 28713 28714 28715 28716 28717 28718 28719 28720 28721 28722 28723 28724 28725 28726 28727 28728 28729 28730 28731 28732 28733 28734 28735 28736 28737 28738 28739 28740 28741 28742 28743 28744 28745 28746 28747 28748 28749 28750 28751 28752 28753 28754 28755 28756 28757 28758 28759 28760 28761 28762 28763 28764 28765 28766 28767 28768 28769 28770 28771 28772 28773 28774 28775 28776 28777 28778 28779 28780 28781 28782 28783 28784 28785 28786 28787 28788 28789 28790 28791 28792 28793 28794 28795 28796 28797 28798 28799 28800 28801 28802 28803 28804 28805 28806 28807 28808 28809 28810 28811 28812 28813 28814 28815 28816 28817 28818 28819 28820 28821 28822 28823 28824 28825 28826 28827 28828 28829 28830 28831 28832 28833 28834 28835 28836 28837 28838 28839 28840 28841 28842 28843 28844 28845 28846 28847 28848 28849 28850 28851 28852 28853 28854 28855 28856 28857 28858 28859 28860 28861 28862 28863 28864 28865 28866 28867 28868 28869 28870 28871 28872 28873 28874 28875 28876 28877 28878 28879 28880 28881 28882 28883 28884 28885 28886 28887 28888 28889 28890 28891 28892 28893 28894 28895 28896 28897 28898 28899 28900 28901 28902 28903 28904 28905 28906 28907 28908 28909 28910 28911 28912 28913 28914 28915 28916 28917 28918 28919 28920 28921 28922 28923 28924 28925 28926 28927 28928 28929 28930 28931 28932 28933 28934 28935 28936 28937 28938 28939 28940 28941 28942 28943 28944 28945 28946 28947 28948 28949 28950 28951 28952 28953 28954 28955 28956 28957 28958 28959 28960 28961 28962 28963 28964 28965 28966 28967 28968 28969 28970 28971 28972 28973 28974 28975 28976 28977 28978 28979 28980 28981 28982 28983 28984 28985 28986 28987 28988 28989 28990 28991 28992 28993 28994 28995 28996 28997 28998 28999 29000 29001 29002 29003 29004 29005 29006 29007 29008 29009 29010 29011 29012 29013 29014 29015 29016 29017 29018 29019 29020 29021 29022 29023 29024 29025 29026 29027 29028 29029 29030 29031 29032 29033 29034 29035 29036 29037 29038 29039 29040 29041 29042 29043 29044 29045 29046 29047 29048 29049 29050 29051 29052 29053 29054 29055 29056 29057 29058 29059 29060 29061 29062 29063 29064 29065 29066 29067 29068 29069 29070 29071 29072 29073 29074 29075 29076 29077 29078 29079 29080 29081 29082 29083 29084 29085 29086 29087 29088 29089 29090 29091 29092 29093 29094 29095 29096 29097 29098 29099 29100 29101 29102 29103 29104 29105 29106 29107 29108 29109 29110 29111 29112 29113 29114 29115 29116 29117 29118 29119 29120 29121 29122 29123 29124 29125 29126 29127 29128 29129 29130 29131 29132 29133 29134 29135 29136 29137 29138 29139 29140 29141 29142 29143 29144 29145 29146 29147 29148 29149 29150 29151 29152 29153 29154 29155 29156 29157 29158 29159 29160 29161 29162 29163 29164 29165 29166 29167 29168 29169 29170 29171 29172 29173 29174 29175 29176 29177 29178 29179 29180 29181 29182 29183 29184 29185 29186 29187 29188 29189 29190 29191 29192 29193 29194 29195 29196 29197 29198 29199 29200 29201 29202 29203 29204 29205 29206 29207 29208 29209 29210 29211 29212 29213 29214 29215 29216 29217 29218 29219 29220 29221 29222 29223 29224 29225 29226 29227 29228 29229 29230 29231 29232 29233 29234 29235 29236 29237 29238 29239 29240 29241 29242 29243 29244 29245 29246 29247 29248 29249 29250 29251 29252 29253 29254 29255 29256 29257 29258 29259 29260 29261 29262 29263 29264 29265 29266 29267 29268 29269 29270 29271 29272 29273 29274 29275 29276 29277 29278 29279 29280 29281 29282 29283 29284 29285 29286 29287 29288 29289 29290 29291 29292 29293 29294 29295 29296 29297 29298 29299 29300 29301 29302 29303 29304 29305 29306 29307 29308 29309 29310 29311 29312 29313 29314 29315 29316 29317 29318 29319 29320 29321 29322 29323 29324 29325 29326 29327 29328 29329 29330 29331 29332 29333 29334 29335 29336 29337 29338 29339 29340 29341 29342 29343 29344 29345 29346 29347 29348 29349 29350 29351 29352 29353 29354 29355 29356 29357 29358 29359 29360 29361 29362 29363 29364 29365 29366 29367 29368 29369 29370 29371 29372 29373 29374 29375 29376 29377 29378 29379 29380 29381 29382 29383 29384 29385 29386 29387 29388 29389 29390 29391 29392 29393 29394 29395 29396 29397 29398 29399 29400 29401 29402 29403 29404 29405 29406 29407 29408 29409 29410 29411 29412 29413 29414 29415 29416 29417 29418 29419 29420 29421 29422 29423 29424 29425 29426 29427 29428 29429 29430 29431 29432 29433 29434 29435 29436 29437 29438 29439 29440 29441 29442 29443 29444 29445 29446 29447 29448 29449 29450 29451 29452 29453 29454 29455 29456 29457 29458 29459 29460 29461 29462 29463 29464 29465 29466 29467 29468 29469 29470 29471 29472 29473 29474 29475 29476 29477 29478 29479 29480 29481 29482 29483 29484 29485 29486 29487 29488 29489 29490 29491 29492 29493 29494 29495 29496 29497 29498 29499 29500 29501 29502 29503 29504 29505 29506 29507 29508 29509 29510 29511 29512 29513 29514 29515 29516 29517 29518 29519 29520 29521 29522 29523 29524 29525 29526 29527 29528 29529 29530 29531 29532 29533 29534 29535 29536 29537 29538 29539 29540 29541 29542 29543 29544 29545 29546 29547 29548 29549 29550 29551 29552 29553 29554 29555 29556 29557 29558 29559 29560 29561 29562 29563 29564 29565 29566 29567 29568 29569 29570 29571 29572 29573 29574 29575 29576 29577 29578 29579 29580 29581 29582 29583 29584 29585 29586 29587 29588 29589 29590 29591 29592 29593 29594 29595 29596 29597 29598 29599 29600 29601 29602 29603 29604 29605 29606 29607 29608 29609 29610 29611 29612 29613 29614 29615 29616 29617 29618 29619 29620 29621 29622 29623 29624 29625 29626 29627 29628 29629 29630 29631 29632 29633 29634 29635 29636 29637 29638 29639 29640 29641 29642 29643 29644 29645 29646 29647 29648 29649 29650 29651 29652 29653 29654 29655 29656 29657 29658 29659 29660 29661 29662 29663 29664 29665 29666 29667 29668 29669 29670 29671 29672 29673 29674 29675 29676 29677 29678 29679 29680 29681 29682 29683 29684 29685 29686 29687 29688 29689 29690 29691 29692 29693 29694 29695 29696 29697 29698 29699 29700 29701 29702 29703 29704 29705 29706 29707 29708 29709 29710 29711 29712 29713 29714 29715 29716 29717 29718 29719 29720 29721 29722 29723 29724 29725 29726 29727 29728 29729 29730 29731 29732 29733 29734 29735 29736 29737 29738 29739 29740 29741 29742 29743 29744 29745 29746 29747 29748 29749 29750 29751 29752 29753 29754 29755 29756 29757 29758 29759 29760 29761 29762 29763 29764 29765 29766 29767 29768 29769 29770 29771 29772 29773 29774 29775 29776 29777 29778 29779 29780 29781 29782 29783 29784 29785 29786 29787 29788 29789 29790 29791 29792 29793 29794 29795 29796 29797 29798 29799 29800 29801 29802 29803 29804 29805 29806 29807 29808 29809 29810 29811 29812 29813 29814 29815 29816 29817 29818 29819 29820 29821 29822 29823 29824 29825 29826 29827 29828 29829 29830 29831 29832 29833 29834 29835 29836 29837 29838 29839 29840 29841 29842 29843 29844 29845 29846 29847 29848 29849 29850 29851 29852 29853 29854 29855 29856 29857 29858 29859 29860 29861 29862 29863 29864 29865 29866 29867 29868 29869 29870 29871 29872 29873 29874 29875 29876 29877 29878 29879 29880 29881 29882 29883 29884 29885 29886 29887 29888 29889 29890 29891 29892 29893 29894 29895 29896 29897 29898 29899 29900 29901 29902 29903 29904 29905 29906 29907 29908 29909 29910 29911 29912 29913 29914 29915 29916 29917 29918 29919 29920 29921 29922 29923 29924 29925 29926 29927 29928 29929 29930 29931 29932 29933 29934 29935 29936 29937 29938 29939 29940 29941 29942 29943 29944 29945 29946 29947 29948 29949 29950 29951 29952 29953 29954 29955 29956 29957 29958 29959 29960 29961 29962 29963 29964 29965 29966 29967 29968 29969 29970 29971 29972 29973 29974 29975 29976 29977 29978 29979 29980 29981 29982 29983 29984 29985 29986 29987 29988 29989 29990 29991 29992 29993 29994 29995 29996 29997 29998 29999 30000 30001 30002 30003 30004 30005 30006 30007 30008 30009 30010 30011 30012 30013 30014 30015 30016 30017 30018 30019 30020 30021 30022 30023 30024 30025 30026 30027 30028 30029 30030 30031 30032 30033 30034 30035 30036 30037 30038 30039 30040 30041 30042 30043 30044 30045 30046 30047 30048 30049 30050 30051 30052 30053 30054 30055 30056 30057 30058 30059 30060 30061 30062 30063 30064 30065 30066 30067 30068 30069 30070 30071 30072 30073 30074 30075 30076 30077 30078 30079 30080 30081 30082 30083 30084 30085 30086 30087 30088 30089 30090 30091 30092 30093 30094 30095 30096 30097 30098 30099 30100 30101 30102 30103 30104 30105 30106 30107 30108 30109 30110 30111 30112 30113 30114 30115 30116 30117 30118 30119 30120 30121 30122 30123 30124 30125 30126 30127 30128 30129 30130 30131 30132 30133 30134 30135 30136 30137 30138 30139 30140 30141 30142 30143 30144 30145 30146 30147 30148 30149 30150 30151 30152 30153 30154 30155 30156 30157 30158 30159 30160 30161 30162 30163 30164 30165 30166 30167 30168 30169 30170 30171 30172 30173 30174 30175 30176 30177 30178 30179 30180 30181 30182 30183 30184 30185 30186 30187 30188 30189 30190 30191 30192 30193 30194 30195 30196 30197 30198 30199 30200 30201 30202 30203 30204 30205 30206 30207 30208 30209 30210 30211 30212 30213 30214 30215 30216 30217 30218 30219 30220 30221 30222 30223 30224 30225 30226 30227 30228 30229 30230 30231 30232 30233 30234 30235 30236 30237 30238 30239 30240 30241 30242 30243 30244 30245 30246 30247 30248 30249 30250 30251 30252 30253 30254 30255 30256 30257 30258 30259 30260 30261 30262 30263 30264 30265 30266 30267 30268 30269 30270 30271 30272 30273 30274 30275 30276 30277 30278 30279 30280 30281 30282 30283 30284 30285 30286 30287 30288 30289 30290 30291 30292 30293 30294 30295 30296 30297 30298 30299 30300 30301 30302 30303 30304 30305 30306 30307 30308 30309 30310 30311 30312 30313 30314 30315 30316 30317 30318 30319 30320 30321 30322 30323 30324 30325 30326 30327 30328 30329 30330 30331 30332 30333 30334 30335 30336 30337 30338 30339 30340 30341 30342 30343 30344 30345 30346 30347 30348 30349 30350 30351 30352 30353 30354 30355 30356 30357 30358 30359 30360 30361 30362 30363 30364 30365 30366 30367 30368 30369 30370 30371 30372 30373 30374 30375 30376 30377 30378 30379 30380 30381 30382 30383 30384 30385 30386 30387 30388 30389 30390 30391 30392 30393 30394 30395 30396 30397 30398 30399 30400 30401 30402 30403 30404 30405 30406 30407 30408 30409 30410 30411 30412 30413 30414 30415 30416 30417 30418 30419 30420 30421 30422 30423 30424 30425 30426 30427 30428 30429 30430 30431 30432 30433 30434 30435 30436 30437 30438 30439 30440 30441 30442 30443 30444 30445 30446 30447 30448 30449 30450 30451 30452 30453 30454 30455 30456 30457 30458 30459 30460 30461 30462 30463 30464 30465 30466 30467 30468 30469 30470 30471 30472 30473 30474 30475 30476 30477 30478 30479 30480 30481 30482 30483 30484 30485 30486 30487 30488 30489 30490 30491 30492 30493 30494 30495 30496 30497 30498 30499 30500 30501 30502 30503 30504 30505 30506 30507 30508 30509 30510 30511 30512 30513 30514 30515 30516 30517 30518 30519 30520 30521 30522 30523 30524 30525 30526 30527 30528 30529 30530 30531 30532 30533 30534 30535 30536 30537 30538 30539 30540 30541 30542 30543 30544 30545 30546 30547 30548 30549 30550 30551 30552 30553 30554 30555 30556 30557 30558 30559 30560 30561 30562 30563 30564 30565 30566 30567 30568 30569 30570 30571 30572 30573 30574 30575 30576 30577 30578 30579 30580 30581 30582 30583 30584 30585 30586 30587 30588 30589 30590 30591 30592 30593 30594 30595 30596 30597 30598 30599 30600 30601 30602 30603 30604 30605 30606 30607 30608 30609 30610 30611 30612 30613 30614 30615 30616 30617 30618 30619 30620 30621 30622 30623 30624 30625 30626 30627 30628 30629 30630 30631 30632 30633 30634 30635 30636 30637 30638 30639 30640 30641 30642 30643 30644 30645 30646 30647 30648 30649 30650 30651 30652 30653 30654 30655 30656 30657 30658 30659 30660 30661 30662 30663 30664 30665 30666 30667 30668 30669 30670 30671 30672 30673 30674 30675 30676 30677 30678 30679 30680 30681 30682 30683 30684 30685 30686 30687 30688 30689 30690 30691 30692 30693 30694 30695 30696 30697 30698 30699 30700 30701 30702 30703 30704 30705 30706 30707 30708 30709 30710 30711 30712 30713 30714 30715 30716 30717 30718 30719 30720 30721 30722 30723 30724 30725 30726 30727 30728 30729 30730 30731 30732 30733 30734 30735 30736 30737 30738 30739 30740 30741 30742 30743 30744 30745 30746 30747 30748 30749 30750 30751 30752 30753 30754 30755 30756 30757 30758 30759 30760 30761 30762 30763 30764 30765 30766 30767 30768 30769 30770 30771 30772 30773 30774 30775 30776 30777 30778 30779 30780 30781 30782 30783 30784 30785 30786 30787 30788 30789 30790 30791 30792 30793 30794 30795 30796 30797 30798 30799 30800 30801 30802 30803 30804 30805 30806 30807 30808 30809 30810 30811 30812 30813 30814 30815 30816 30817 30818 30819 30820 30821 30822 30823 30824 30825 30826 30827 30828 30829 30830 30831 30832 30833 30834 30835 30836 30837 30838 30839 30840 30841 30842 30843 30844 30845 30846 30847 30848 30849 30850 30851 30852 30853 30854 30855 30856 30857 30858 30859 30860 30861 30862 30863 30864 30865 30866 30867 30868 30869 30870 30871 30872 30873 30874 30875 30876 30877 30878 30879 30880 30881 30882 30883 30884 30885 30886 30887 30888 30889 30890 30891 30892 30893 30894 30895 30896 30897 30898 30899 30900 30901 30902 30903 30904 30905 30906 30907 30908 30909 30910 30911 30912 30913 30914 30915 30916 30917 30918 30919 30920 30921 30922 30923 30924 30925 30926 30927 30928 30929 30930 30931 30932 30933 30934 30935 30936 30937 30938 30939 30940 30941 30942 30943 30944 30945 30946 30947 30948 30949 30950 30951 30952 30953 30954 30955 30956 30957 30958 30959 30960 30961 30962 30963 30964 30965 30966 30967 30968 30969 30970 30971 30972 30973 30974 30975 30976 30977 30978 30979 30980 30981 30982 30983 30984 30985 30986 30987 30988 30989 30990 30991 30992 30993 30994 30995 30996 30997 30998 30999 31000 31001 31002 31003 31004 31005 31006 31007 31008 31009 31010 31011 31012 31013 31014 31015 31016 31017 31018 31019 31020 31021 31022 31023 31024 31025 31026 31027 31028 31029 31030 31031 31032 31033 31034 31035 31036 31037 31038 31039 31040 31041 31042 31043 31044 31045 31046 31047 31048 31049 31050 31051 31052 31053 31054 31055 31056 31057 31058 31059 31060 31061 31062 31063 31064 31065 31066 31067 31068 31069 31070 31071 31072 31073 31074 31075 31076 31077 31078 31079 31080 31081 31082 31083 31084 31085 31086 31087 31088 31089 31090 31091 31092 31093 31094 31095 31096 31097 31098 31099 31100 31101 31102 31103 31104 31105 31106 31107 31108 31109 31110 31111 31112 31113 31114 31115 31116 31117 31118 31119 31120 31121 31122 31123 31124 31125 31126 31127 31128 31129 31130 31131 31132 31133 31134 31135 31136 31137 31138 31139 31140 31141 31142 31143 31144 31145 31146 31147 31148 31149 31150 31151 31152 31153 31154 31155 31156 31157 31158 31159 31160 31161 31162 31163 31164 31165 31166 31167 31168 31169 31170 31171 31172 31173 31174 31175 31176 31177 31178 31179 31180 31181 31182 31183 31184 31185 31186 31187 31188 31189 31190 31191 31192 31193 31194 31195 31196 31197 31198 31199 31200 31201 31202 31203 31204 31205 31206 31207 31208 31209 31210 31211 31212 31213 31214 31215 31216 31217 31218 31219 31220 31221 31222 31223 31224 31225 31226 31227 31228 31229 31230 31231 31232 31233 31234 31235 31236 31237 31238 31239 31240 31241 31242 31243 31244 31245 31246 31247 31248 31249 31250 31251 31252 31253 31254 31255 31256 31257 31258 31259 31260 31261 31262 31263 31264 31265 31266 31267 31268 31269 31270 31271 31272 31273 31274 31275 31276 31277 31278 31279 31280 31281 31282 31283 31284 31285 31286 31287 31288 31289 31290 31291 31292 31293 31294 31295 31296 31297 31298 31299 31300 31301 31302 31303 31304 31305 31306 31307 31308 31309 31310 31311 31312 31313 31314 31315 31316 31317 31318 31319 31320 31321 31322 31323 31324 31325 31326 31327 31328 31329 31330 31331 31332 31333 31334 31335 31336 31337 31338 31339 31340 31341 31342 31343 31344 31345 31346 31347 31348 31349 31350 31351 31352 31353 31354 31355 31356 31357 31358 31359 31360 31361 31362 31363 31364 31365 31366 31367 31368 31369 31370 31371 31372 31373 31374 31375 31376 31377 31378 31379 31380 31381 31382 31383 31384 31385 31386 31387 31388 31389 31390 31391 31392 31393 31394 31395 31396 31397 31398 31399 31400 31401 31402 31403 31404 31405 31406 31407 31408 31409 31410 31411 31412 31413 31414 31415 31416 31417 31418 31419 31420 31421 31422 31423 31424 31425 31426 31427 31428 31429 31430 31431 31432 31433 31434 31435 31436 31437 31438 31439 31440 31441 31442 31443 31444 31445 31446 31447 31448 31449 31450 31451 31452 31453 31454 31455 31456 31457 31458 31459 31460 31461 31462 31463 31464 31465 31466 31467 31468 31469 31470 31471 31472 31473 31474 31475 31476 31477 31478 31479 31480 31481 31482 31483 31484 31485 31486 31487 31488 31489 31490 31491 31492 31493 31494 31495 31496 31497 31498 31499 31500 31501 31502 31503 31504 31505 31506 31507 31508 31509 31510 31511 31512 31513 31514 31515 31516 31517 31518 31519 31520 31521 31522 31523 31524 31525 31526 31527 31528 31529 31530 31531 31532 31533 31534 31535 31536 31537 31538 31539 31540 31541 31542 31543 31544 31545 31546 31547 31548 31549 31550 31551 31552 31553 31554 31555 31556 31557 31558 31559 31560 31561 31562 31563 31564 31565 31566 31567 31568 31569 31570 31571 31572 31573 31574 31575 31576 31577 31578 31579 31580 31581 31582 31583 31584 31585 31586 31587 31588 31589 31590 31591 31592 31593 31594 31595 31596 31597 31598 31599 31600 31601 31602 31603 31604 31605 31606 31607 31608 31609 31610 31611 31612 31613 31614 31615 31616 31617 31618 31619 31620 31621 31622 31623 31624 31625 31626 31627 31628 31629 31630 31631 31632 31633 31634 31635 31636 31637 31638 31639 31640 31641 31642 31643 31644 31645 31646 31647 31648 31649 31650 31651 31652 31653 31654 31655 31656 31657 31658 31659 31660 31661 31662 31663 31664 31665 31666 31667 31668 31669 31670 31671 31672 31673 31674 31675 31676 31677 31678 31679 31680 31681 31682 31683 31684 31685 31686 31687 31688 31689 31690 31691 31692 31693 31694 31695 31696 31697 31698 31699 31700 31701 31702 31703 31704 31705 31706 31707 31708 31709 31710 31711 31712 31713 31714 31715 31716 31717 31718 31719 31720 31721 31722 31723 31724 31725 31726 31727 31728 31729 31730 31731 31732 31733 31734 31735 31736 31737 31738 31739 31740 31741 31742 31743 31744 31745 31746 31747 31748 31749 31750 31751 31752 31753 31754 31755 31756 31757 31758 31759 31760 31761 31762 31763 31764 31765 31766 31767 31768 31769 31770 31771 31772 31773 31774 31775 31776 31777 31778 31779 31780 31781 31782 31783 31784 31785 31786 31787 31788 31789 31790 31791 31792 31793 31794 31795 31796 31797 31798 31799 31800 31801 31802 31803 31804 31805 31806 31807 31808 31809 31810 31811 31812 31813 31814 31815 31816 31817 31818 31819 31820 31821 31822 31823 31824 31825 31826 31827 31828 31829 31830 31831 31832 31833 31834 31835 31836 31837 31838 31839 31840 31841 31842 31843 31844 31845 31846 31847 31848 31849 31850 31851 31852 31853 31854 31855 31856 31857 31858 31859 31860 31861 31862 31863 31864 31865 31866 31867 31868 31869 31870 31871 31872 31873 31874 31875 31876 31877 31878 31879 31880 31881 31882 31883 31884 31885 31886 31887 31888 31889 31890 31891 31892 31893 31894 31895 31896 31897 31898 31899 31900 31901 31902 31903 31904 31905 31906 31907 31908 31909 31910 31911 31912 31913 31914 31915 31916 31917 31918 31919 31920 31921 31922 31923 31924 31925 31926 31927 31928 31929 31930 31931 31932 31933 31934 31935 31936 31937 31938 31939 31940 31941 31942 31943 31944 31945 31946 
</DataArray>
<DataArray type="UInt32" Name="offsets" format="ascii">
3 6 9 11 14 17 20 23 26 28 31 34 37 40 43 46 49 52 55 58 60 63 66 69 71 74 77 80 83 86 88 91 93 96 99 102 105 108 111 114 117 120 122 125 128 131 134 136 139 142 145 148 150 152 155 158 160 162 165 167 170 173 176 179 181 183 186 188 191 193 196 198 200 203 206 209 212 215 217 219 222 225 227 230 232 235 238 241 243 246 249 252 255 258 261 264 267 269 272 275 278 281 284 286 289 291 294 297 300 303 306 308 311 313 316 319 322 325 328 330 333 336 339 342 344 347 350 353 356 358 361 364 367 370 373 376 379 381 384 387 390 393 396 399 402 405 408 411 414 417 420 422 424 427 430 433 436 439 441 444 447 450 452 455 458 461 464 466 469 472 475 477 480 482 485 488 491 493 496 498 501 504 506 509 512 515 517 520 523 525 528 530 533 536 538 541 544 546 548 550 553 556 559 562 565 568 571 574 577 580 583 586 588 591 593 596 598 601 604 607 610 613 616 619 621 624 627 630 633 636 639 641 644 647 649 651 653 656 658 661 664 666 668 671 673 676 679 682 685 688 691 694 697 700 703 706 709 712 715 718 721 724 727 730 733 736 739 742 745 748 751 753 756 759 762 764 766 769 772 775 777 780 783 786 789 791 794 797 800 802 805 808 811 814 817 820 822 825 828 831 834 837 839 842 845 848 850 853 856 858 861 864 867 870 873 876 879 882 884 887 890 893 895 898 901 904 907 909 912 915 917 919 922 924 927 929 932 935 937 940 943 946 949 952 954 956 959 961 964 967 970 972 975 978 981 983 986 989 992 995 997 999 1002 1005 1008 1011 1013 1016 1019 1022 1024 1027 1030 1033 1035 1037 1040 1043 1046 1048 1051 1054 1056 1059 1061 1064 1066 1069 1072 1075 1078 1081 1084 1087 1090 1093 1096 1098 1101 1104 1107 1110 1113 1115 1118 1120 1122 1125 1128 1131 1133 1136 1139 1142 1144 1146 1149 1151 1154 1157 1159 1161 1164 1167 1170 1173 1176 1179 1182 1184 1187 1190 1192 1195 1198 1201 1204 1206 1209 1211 1214 1216 1219 1221 1223 1226 1229 1232 1235 1238 1241 1243 1246 1249 1252 1255 1258 1261 1264 1267 1270 1273 1276 1279 1282 1285 1288 1291 1294 1296 1299 1302 1305 1308 1311 1314 1317 1320 1322 1325 1327 1330 1333 1336 1338 1341 1344 1347 1349 1352 1354 1357 1360 1363 1366 1369 1372 1375 1377 1379 1382 1384 1387 1389 1392 1395 1398 1401 1404 1407 1410 1412 1415 1418 1421 1424 1427 1430 1433 1436 1439 1442 1445 1448 1451 1454 1457 1460 1463 1466 1469 1472 1475 1478 1481 1484 1487 1490 1493 1496 1499 1502 1505 1508 1511 1514 1517 1519 1522 1525 1528 1531 1534 1536 1539 1542 1545 1547 1550 1553 1556 1559 1561 1564 1566 1569 1572 1575 1578 1581 1583 1586 1589 1591 1594 1597 1599 1602 1605 1608 1610 1612 1615 1618 1621 1624 1626 1629 1631 1634 1637 1640 1643 1646 1649 1652 1654 1657 1660 1663 1666 1669 1672 1675 1678 1681 1684 1687 1690 1693 1696 1699 1702 1705 1708 1711 1713 1716 1719 1721 1724 1727 1729 1732 1735 1738 1741 1744 1747 1750 1753 1756 1759 1762 1765 1768 1771 1774 1777 1780 1783 1786 1789 1792 1795 1798 1801 1804 1806 1809 1812 1815 1818 1820 1823 1826 1829 1832 1834 1837 1840 1842 1845 1848 1851 1854 1857 1860 1863 1866 1869 1872 1875 1878 1881 1883 1886 1888 1891 1894 1897 1900 1903 1906 1909 1912 1915 1918 1921 1924 1927 1930 1933 1936 1939 1942 1945 1948 1951 1954 1957 1959 1962 1965 1968 1971 1974 1977 1980 1983 1986 1989 1992 1995 1997 2000 2003 2006 2009 2012 2015 2018 2021 2024 2026 2028 2031 2034 2036 2039 2042 2045 2048 2051 2054 2057 2060 2063 2066 2069 2072 2075 2078 2080 2083 2086 2088 2091 2094 2096 2099 2102 2105 2108 2111 2114 2117 2120 2123 2126 2129 2132 2135 2138 2141 2144 2147 2150 2152 2155 2158 2161 2164 2167 2170 2172 2174 2177 2180 2183 2185 2188 2191 2193 2196 2199 2202 2205 2208 2211 2214 2217 2220 2223 2226 2228 2231 2234 2237 2240 2243 2246 2249 2252 2255 2258 2261 2264 2267 2270 2273 2276 2278 2281 2284 2287 2289 2292 2295 2298 2301 2304 2307 2310 2313 2316 2319 2322 2325 2328 2331 2334 2337 2340 2343 2346 2349 2352 2354 2357 2360 2363 2365 2368 2371 2374 2376 2379 2382 2384 2387 2389 2391 2394 2397 2400 2402 2404 2407 2409 2412 2415 2417 2420 2422 2424 2427 2429 2432 2434 2437 2440 2443 2446 2449 2451 2454 2456 2459 2462 2465 2467 2470 2473 2476 2479 2482 2485 2488 2491 2494 2497 2499 2502 2505 2508 2511 2514 2517 2520 2523 2526 2529 2532 2535 2538 2541 2544 2547 2549 2552 2555 2558 2561 2564 2567 2570 2573 2576 2578 2581 2584 2587 2590 2592 2595 2598 2601 2604 2607 2610 2613 2616 2619 2622 2625 2628 2630 2633 2636 2638 2641 2644 2647 2650 2653 2656 2658 2661 2664 2666 2669 2672 2675 2678 2680 2683 2686 2689 2692 2695 2698 2701 2704 2707 2710 2713 2715 2718 2721 2724 2726 2729 2732 2734 2737 2740 2742 2744 2746 2749 2751 2754 2757 2760 2762 2765 2768 2771 2773 2776 2779 2782 2785 2788 2791 2793 2796 2799 2802 2805 2807 2810 2813 2816 2819 2822 2825 2828 2831 2834 2836 2838 2841 2844 2847 2850 2852 2854 2857 2860 2862 2864 2867 2870 2872 2874 2877 2880 2883 2886 2889 2891 2894 2897 2900 2902 2904 2907 2910 2913 2915 2918 2921 2924 2926 2929 2932 2934 2936 2938 2941 2944 2947 2950 2953 2956 2959 2962 2965 2968 2970 2973 2975 2978 2981 2983 2986 2988 2991 2994 2997 3000 3003 3006 3009 3012 3015 3018 3021 3024 3026 3029 3032 3035 3037 3040 3043 3046 3049 3052 3054 3057 3060 3063 3066 3069 3072 3075 3078 3081 3084 3087 3089 3092 3095 3098 3101 3104 3107 3110 3112 3115 3118 3120 3123 3126 3129 3131 3134 3137 3140 3143 3146 3149 3152 3155 3158 3161 3164 3167 3170 3173 3176 3179 3182 3185 3188 3191 3194 3197 3200 3203 3206 3209 3212 3214 3217 3220 3223 3226 3228 3231 3233 3235 3238 3241 3244 3247 3250 3253 3256 3258 3260 3263 3266 3269 3272 3275 3278 3281 3284 3287 3289 3292 3295 3297 3299 3302 3304 3307 3310 3313 3316 3319 3322 3325 3328 3331 3333 3336 3339 3342 3345 3348 3351 3354 3357 3360 3363 3366 3369 3371 3374 3377 3380 3382 3384 3387 3390 3393 3396 3399 3402 3404 3407 3409 3412 3415 3418 3421 3424 3427 3430 3433 3435 3438 3441 3444 3447 3450 3453 3456 3459 3462 3465 3468 3471 3474 3477 3480 3483 3486 3489 3492 3495 3498 3500 3503 3506 3509 3512 3514 3517 3520 3523 3525 3527 3529 3532 3534 3537 3540 3542 3545 3547 3550 3553 3555 3558 3560 3563 3566 3568 3571 3574 3577 3579 3582 3585 3588 3591 3594 3597 3600 3603 3606 3609 3612 3615 3618 3620 3623 3626 3628 3631 3634 3637 3640 3643 3646 3649 3651 3654 3657 3660 3663 3666 3669 3672 3675 3678 3681 3684 3687 3690 3693 3696 3699 3701 3704 3706 3709 3711 3714 3717 3720 3723 3726 3729 3732 3735 3738 3740 3742 3745 3748 3751 3753 3755 3758 3760 3763 3766 3769 3771 3774 3777 3780 3783 3786 3788 3790 3793 3796 3799 3801 3804 3807 3810 3812 3815 3818 3821 3824 3827 3829 3832 3834 3837 3840 3842 3845 3848 3851 3854 3856 3859 3862 3865 3868 3871 3874 3876 3879 3881 3884 3887 3889 3891 3894 3897 3900 3902 3905 3908 3911 3914 3916 3919 3921 3924 3927 3930 3933 3935 3938 3941 3944 3947 3950 3953 3956 3959 3962 3965 3968 3970 3973 3976 3979 3982 3985 3988 3991 3994 3997 4000 4003 4006 4009 4012 4015 4018 4021 4024 4027 4030 4033 4036 4039 4042 4045 4048 4051 4054 4057 4060 4063 4066 4069 4072 4075 4078 4081 4084 4087 4089 4092 4095 4098 4101 4104 4107 4110 4113 4116 4119 4122 4125 4128 4131 4134 4137 4139 4142 4145 4148 4151 4154 4157 4159 4162 4164 4167 4170 4172 4175 4178 4181 4184 4187 4189 4192 4195 4198 4201 4204 4207 4210 4213 4216 4219 4222 4225 4227 4230 4233 4236 4239 4242 4245 4247 4250 4253 4256 4259 4261 4264 4267 4270 4273 4276 4279 4281 4284 4287 4290 4292 4294 4297 4300 4302 4305 4308 4311 4314 4317 4320 4323 4326 4329 4332 4335 4338 4341 4344 4347 4349 4352 4354 4357 4360 4362 4364 4366 4369 4372 4375 4377 4380 4383 4386 4389 4391 4394 4397 4399 4402 4405 4408 4411 4414 4417 4420 4423 4426 4428 4431 4433 4436 4439 4441 4444 4447 4450 4453 4456 4459 4462 4465 4468 4471 4474 4477 4480 4482 4485 4488 4491 4494 4497 4500 4503 4506 4509 4512 4515 4518 4521 4524 4527 4530 4533 4536 4539 4542 4545 4548 4551 4554 4557 4560 4563 4566 4569 4572 4575 4578 4581 4584 4587 4590 4593 4596 4599 4602 4605 4608 4611 4614 4617 4620 4623 4626 4628 4631 4633 4636 4639 4642 4645 4648 4651 4654 4657 4660 4663 4666 4669 4672 4675 4678 4681 4684 4686 4689 4692 4695 4698 4700 4703 4706 4709 4712 4715 4718 4721 4724 4727 4730 4733 4736 4739 4742 4745 4748 4750 4753 4756 4759 4762 4765 4767 4770 4773 4776 4779 4781 4784 4787 4790 4793 4796 4799 4802 4805 4808 4811 4814 4817 4820 4823 4826 4829 4832 4835 4838 4841 4844 4847 4850 4853 4856 4859 4862 4864 4867 4870 4873 4876 4879 4882 4885 4888 4890 4893 4896 4899 4902 4905 4908 4911 4914 4917 4920 4923 4926 4929 4932 4935 4938 4941 4944 4946 4949 4952 4955 4958 4961 4964 4967 4970 4973 4976 4979 4982 4984 4987 4990 4993 4996 4998 5001 5004 5007 5010 5013 5016 5019 5022 5025 5028 5031 5034 5037 5040 5043 5046 5049 5052 5055 5058 5061 5064 5066 5069 5072 5075 5078 5081 5084 5086 5089 5092 5095 5098 5101 5103 5106 5109 5112 5115 5118 5121 5124 5126 5129 5132 5135 5138 5141 5143 5146 5149 5152 5155 5158 5161 5164 5167 5170 5173 5176 5178 5181 5184 5187 5190 5193 5196 5198 5201 5203 5206 5208 5211 5214 5216 5219 5222 5225 5228 5231 5234 5237 5239 5242 5245 5248 5251 5254 5256 5259 5262 5265 5268 5271 5274 5276 5278 5281 5283 5286 5288 5291 5293 5296 5299 5302 5304 5306 5309 5311 5314 5317 5320 5323 5325 5328 5331 5333 5335 5338 5340 5342 5345 5348 5351 5354 5357 5360 5362 5365 5368 5371 5374 5377 5380 5383 5386 5389 5392 5395 5398 5401 5404 5407 5409 5412 5415 5418 5421 5424 5427 5430 5433 5436 5439 5442 5445 5448 5451 5453 5456 5459 5462 5465 5468 5471 5474 5477 5480 5483 5486 5489 5492 5495 5498 5501 5504 5507 5510 5513 5516 5519 5521 5524 5527 5530 5532 5535 5538 5541 5544 5547 5550 5553 5556 5559 5562 5565 5568 5571 5574 5577 5580 5583 5586 5589 5592 5595 5598 5601 5604 5607 5610 5612 5615 5618 5621 5624 5627 5630 5633 5636 5639 5642 5645 5648 5651 5653 5656 5659 5661 5664 5667 5669 5672 5675 5677 5680 5683 5686 5689 5692 5695 5697 5700 5703 5706 5709 5712 5715 5718 5721 5724 5727 5729 5732 5735 5738 5741 5744 5747 5750 5753 5756 5759 5761 5764 5767 5770 5773 5776 5779 5782 5785 5788 5791 5794 5797 5800 5803 5806 5809 5812 5815 5818 5821 5824 5827 5830 5833 5836 5838 5841 5844 5847 5850 5853 5856 5859 5862 5864 5867 5870 5873 5876 5879 5882 5884 5887 5890 5893 5896 5899 5902 5905 5908 5911 5914 5917 5920 5923 5926 5929 5932 5935 5937 5940 5943 5946 5949 5952 5955 5958 5961 5964 5967 5970 5973 5976 5979 5982 5985 5988 5991 5994 5997 6000 6003 6006 6009 6012 6015 6018 6021 6024 6027 6030 6033 6036 6039 6042 6045 6048 6051 6054 6057 6060 6063 6066 6069 6072 6074 6077 6080 6083 6086 6089 6092 6095 6098 6101 6104 6107 6110 6113 6116 6119 6122 6125 6128 6131 6134 6137 6140 6143 6146 6149 6152 6155 6158 6161 6164 6167 6170 6173 6176 6179 6182 6185 6188 6191 6194 6197 6200 6203 6206 6209 6212 6215 6218 6221 6224 6227 6230 6233 6236 6238 6241 6244 6247 6250 6253 6256 6259 6262 6265 6268 6271 6274 6277 6280 6282 6284 6287 6290 6293 6296 6299 6302 6305 6307 6310 6313 6316 6319 6322 6324 6327 6330 6332 6335 6337 6340 6342 6345 6348 6351 6354 6356 6358 6361 6363 6366 6369 6371 6374 6377 6379 6381 6383 6386 6389 6391 6394 6396 6399 6402 6405 6408 6411 6414 6417 6420 6423 6426 6429 6432 6435 6438 6441 6444 6447 6450 6452 6455 6458 6461 6464 6467 6469 6472 6475 6478 6481 6484 6487 6490 6493 6496 6499 6501 6504 6507 6510 6513 6516 6519 6522 6524 6527 6529 6532 6535 6537 6540 6543 6546 6548 6551 6554 6557 6559 6562 6565 6568 6570 6573 6575 6578 6581 6583 6586 6588 6590 6592 6595 6598 6601 6604 6606 6609 6611 6614 6617 6620 6623 6626 6628 6631 6634 6637 6640 6642 6645 6647 6650 6653 6656 6659 6662 6665 6668 6671 6674 6676 6679 6681 6684 6687 6690 6693 6695 6698 6701 6704 6706 6708 6711 6714 6716 6719 6722 6724 6727 6730 6733 6736 6739 6741 6744 6747 6749 6752 6755 6758 6761 6764 6767 6769 6772 6774 6776 6778 6781 6784 6787 6790 6792 6795 6798 6801 6804 6807 6810 6813 6816 6819 6822 6825 6828 6831 6834 6837 6840 6843 6846 6849 6852 6855 6858 6861 6864 6867 6870 6873 6876 6879 6882 6885 6888 6891 6894 6897 6900 6903 6906 6909 6912 6915 6918 6921 6924 6927 6930 6933 6936 6939 6942 6945 6947 6950 6953 6955 6958 6961 6964 6967 6970 6972 6975 6978 6981 6984 6987 6990 6993 6996 6999 7002 7005 7007 7010 7013 7015 7018 7020 7023 7026 7029 7032 7034 7037 7040 7042 7045 7048 7051 7053 7055 7058 7060 7063 7065 7068 7070 7072 7075 7077 7080 7083 7086 7088 7091 7094 7097 7100 7103 7105 7108 7111 7113 7115 7118 7120 7123 7126 7129 7132 7135 7138 7141 7144 7147 7149 7152 7155 7157 7160 7163 7165 7168 7171 7173 7175 7177 7180 7183 7185 7188 7191 7193 7196 7198 7200 7203 7206 7208 7211 7214 7216 7218 7221 7224 7227 7230 7232 7235 7238 7241 7244 7246 7249 7252 7255 7258 7261 7264 7267 7270 7273 7276 7279 7281 7284 7287 7290 7293 7296 7299 7301 7304 7306 7309 7312 7315 7317 7320 7322 7325 7328 7331 7333 7336 7339 7342 7345 7348 7351 7354 7356 7359 7362 7365 7367 7370 7373 7376 7378 7381 7384 7387 7390 7393 7396 7399 7402 7405 7408 7411 7414 7417 7420 7423 7426 7429 7432 7435 7438 7441 7444 7447 7450 7453 7456 7459 7462 7465 7468 7470 7473 7476 7479 7482 7484 7487 7490 7492 7495 7498 7501 7504 7507 7510 7512 7515 7518 7521 7523 7526 7529 7532 7535 7538 7541 7544 7547 7550 7553 7555 7558 7560 7562 7565 7568 7571 7573 7576 7579 7582 7585 7588 7591 7594 7597 7600 7602 7605 7608 7611 7614 7617 7619 7622 7625 7628 7631 7633 7636 7639 7642 7644 7646 7649 7652 7655 7658 7660 7663 7666 7669 7672 7675 7678 7680 7683 7686 7689 7692 7695 7698 7701 7704 7707 7710 7713 7715 7718 7721 7724 7727 7729 7731 7734 7737 7740 7743 7746 7748 7751 7753 7756 7759 7761 7764 7766 7769 7772 7775 7778 7780 7783 7786 7788 7791 7794 7797 7799 7802 7805 7808 7811 7814 7817 7820 7823 7826 7829 7832 7835 7838 7841 7844 7847 7850 7853 7856 7858 7861 7863 7866 7869 7872 7875 7878 7881 7884 7887 7890 7893 7896 7899 7902 7905 7908 7911 7914 7917 7920 7923 7926 7929 7932 7935 7938 7941 7944 7947 7950 7953 7956 7959 7962 7965 7968 7970 7972 7975 7978 7981 7984 7987 7990 7993 7996 7999 8001 8004 8007 8010 8013 8016 8019 8022 8024 8027 8030 8033 8036 8039 8042 8045 8048 8051 8054 8057 8060 8063 8066 8069 8072 8075 8078 8081 8084 8087 8090 8093 8096 8099 8102 8105 8108 8111 8113 8116 8119 8122 8125 8128 8131 8134 8137 8139 8142 8145 8148 8150 8153 8156 8159 8161 8164 8166 8169 8172 8175 8178 8181 8184 8186 8189 8192 8195 8198 8201 8204 8207 8210 8213 8216 8218 8220 8223 8226 8228 8231 8234 8237 8240 8242 8245 8248 8250 8253 8255 8258 8261 8264 8267 8270 8273 8276 8278 8280 8283 8286 8289 8292 8295 8298 8301 8304 8307 8310 8313 8316 8319 8322 8325 8328 8331 8334 8337 8340 8343 8346 8349 8351 8354 8357 8360 8363 8366 8369 8371 8374 8377 8380 8383 8386 8389 8391 8394 8397 8400 8403 8406 8409 8412 8415 8418 8421 8424 8427 8430 8433 8435 8437 8440 8443 8446 8449 8452 8454 8457 8460 8463 8466 8469 8472 8475 8477 8480 8483 8486 8488 8491 8494 8497 8500 8503 8506 8509 8512 8514 8517 8519 8521 8524 8527 8530 8533 8535 8538 8540 8542 8544 8547 8550 8553 8556 8558 8561 8564 8566 8569 8572 8574 8577 8580 8583 8586 8589 8592 8595 8598 8601 8604 8607 8610 8613 8616 8619 8622 8625 8628 8630 8633 8636 8639 8642 8645 8648 8650 8653 8656 8659 8662 8665 8668 8671 8674 8677 8680 8682 8685 8688 8691 8694 8697 8700 8702 8705 8708 8711 8714 8717 8720 8723 8726 8729 8732 8735 8738 8741 8744 8747 8749 8752 8755 8758 8761 8764 8767 8769 8772 8775 8778 8781 8784 8787 8790 8792 8795 8798 8800 8803 8806 8809 8812 8814 8816 8819 8822 8825 8828 8831 8834 8837 8840 8843 8845 8848 8851 8854 8857 8860 8863 8866 8869 8872 8875 8878 8881 8884 8887 8889 8892 8895 8898 8901 8904 8907 8910 8913 8916 8919 8922 8925 8928 8930 8933 8936 8939 8942 8945 8948 8951 8954 8957 8960 8963 8965 8968 8970 8973 8975 8978 8981 8984 8987 8990 8992 8995 8998 9001 9004 9007 9010 9013 9016 9019 9022 9024 9026 9029 9032 9034 9037 9039 9042 9045 9048 9051 9054 9057 9060 9063 9066 9069 9072 9075 9078 9081 9084 9087 9090 9093 9096 9099 9101 9104 9107 9109 9112 9115 9118 9121 9124 9127 9130 9133 9136 9139 9142 9144 9147 9149 9152 9155 9158 9161 9164 9167 9170 9173 9175 9178 9181 9184 9187 9190 9193 9196 9198 9201 9204 9206 9209 9212 9215 9218 9221 9224 9226 9229 9232 9235 9237 9240 9243 9245 9248 9250 9253 9255 9258 9261 9264 9266 9269 9272 9275 9278 9281 9284 9287 9290 9292 9295 9298 9300 9302 9305 9308 9310 9313 9316 9318 9321 9324 9327 9330 9333 9336 9339 9342 9345 9348 9351 9354 9357 9360 9363 9366 9369 9372 9375 9378 9380 9383 9386 9389 9392 9395 9398 9400 9403 9406 9409 9412 9414 9417 9420 9423 9426 9429 9432 9434 9437 9440 9443 9446 9449 9452 9455 9458 9461 9464 9467 9470 9473 9476 9479 9482 9485 9488 9491 9494 9497 9500 9503 9506 9509 9512 9515 9518 9521 9524 9527 9530 9533 9536 9539 9542 9545 9548 9551 9554 9557 9559 9562 9565 9568 9571 9574 9576 9579 9582 9585 9588 9591 9593 9595 9598 9601 9604 9607 9610 9613 9616 9619 9622 9625 9628 9631 9634 9636 9639 9642 9644 9647 9650 9653 9656 9659 9662 9665 9668 9671 9674 9677 9680 9682 9685 9688 9690 9693 9696 9699 9702 9705 9708 9711 9714 9717 9720 9723 9726 9729 9732 9735 9738 9741 9744 9747 9750 9753 9756 9759 9762 9765 9768 9771 9774 9777 9780 9783 9786 9789 9792 9795 9798 9801 9803 9806 9809 9812 9815 9818 9821 9824 9827 9830 9833 9836 9839 9842 9845 9848 9851 9854 9857 9860 9863 9866 9869 9872 9875 9878 9881 9884 9887 9890 9893 9896 9899 9902 9905 9908 9911 9914 9917 9920 9923 9926 9929 9932 9935 9938 9941 9944 9947 9950 9953 9956 9959 9962 9965 9968 9971 9974 9977 9980 9983 9986 9989 9992 9995 9998 10001 10004 10007 10010 10012 10015 10018 10021 10024 10026 10029 10032 10035 10038 10041 10044 10047 10050 10053 10056 10059 10062 10065 10068 10071 10074 10077 10080 10083 10086 10088 10091 10094 10097 10100 10103 10106 10109 10112 10115 10118 10121 10124 10127 10130 10133 10136 10139 10142 10144 10147 10150 10153 10156 10158 10161 10164 10167 10170 10173 10176 10178 10180 10183 10186 10189 10192 10195 10198 10200 10203 10206 10209 10212 10214 10216 10219 10222 10225 10228 10230 10233 10236 10239 10242 10244 10246 10248 10251 10254 10257 10260 10263 10265 10268 10271 10274 10277 10279 10282 10285 10288 10291 10294 10297 10300 10303 10306 10309 10312 10314 10317 10320 10322 10325 10328 10331 10334 10337 10340 10343 10346 10349 10352 10355 10358 10361 10364 10367 10369 10372 10375 10378 10381 10384 10387 10390 10393 10396 10398 10401 10404 10406 10408 10411 10414 10417 10420 10423 10426 10428 10431 10434 10437 10439 10442 10445 10448 10450 10453 10456 10459 10461 10464 10467 10470 10472 10474 10477 10480 10482 10485 10488 10491 10494 10496 10499 10502 10505 10507 10510 10512 10515 10518 10521 10523 10525 10528 10531 10534 10537 10540 10543 10546 10548 10551 10554 10557 10559 10561 10564 10566 10569 10572 10574 10577 10580 10583 10586 10589 10592 10595 10598 10601 10603 10605 10608 10611 10614 10617 10620 10622 10625 10628 10631 10633 10636 10639 10641 10644 10647 10650 10653 10656 10659 10662 10664 10667 10670 10673 10676 10678 10680 10683 10686 10688 10691 10694 10697 10700 10702 10705 10708 10711 10714 10717 10720 10722 10725 10728 10731 10734 10737 10740 10743 10746 10748 10751 10754 10757 10760 10763 10766 10769 10772 10775 10778 10781 10784 10786 10789 10792 10795 10798 10801 10804 10807 10810 10813 10816 10819 10822 10825 10828 10831 10834 10837 10840 10843 10846 10849 10852 10855 10858 10861 10863 10866 10869 10872 10874 10877 10880 10883 10886 10889 10891 10894 10896 10899 10902 10905 10908 10911 10914 10917 10920 10923 10926 10929 10932 10935 10938 10941 10944 10947 10950 10953 10956 10959 10962 10964 10967 10970 10973 10976 10978 10981 10984 10987 10990 10992 10995 10998 11001 11004 11007 11010 11013 11015 11018 11021 11024 11027 11030 11033 11036 11039 11042 11045 11048 11051 11054 11057 11060 11063 11066 11069 11071 11074 11076 11079 11082 11085 11088 11091 11093 11096 11099 11102 11105 11108 11111 11114 11116 11119 11122 11125 11128 11131 11134 11137 11140 11143 11146 11149 11152 11155 11158 11161 11164 11167 11170 11173 11176 11179 11182 11185 11188 11191 11194 11197 11200 11203 11206 11209 11212 11215 11218 11221 11224 11227 11230 11233 11236 11239 11241 11244 11247 11250 11253 11256 11259 11262 11265 11268 11270 11273 11276 11278 11281 11284 11287 11290 11293 11296 11298 11301 11303 11306 11308 11310 11312 11315 11317 11320 11322 11324 11327 11329 11332 11335 11338 11341 11344 11347 11350 11353 11356 11359 11362 11365 11368 11371 11374 11377 11380 11383 11385 11388 11391 11394 11397 11400 11403 11406 11409 11412 11415 11418 11421 11424 11426 11429 11432 11435 11438 11441 11444 11447 11450 11453 11456 11458 11460 11463 11466 11469 11471 11473 11476 11479 11481 11484 11487 11490 11493 11496 11499 11502 11505 11507 11510 11513 11515 11518 11521 11523 11526 11529 11532 11535 11538 11541 11544 11547 11550 11553 11556 11559 11562 11565 11568 11571 11574 11577 11580 11583 11586 11589 11592 11595 11598 11601 11604 11607 11610 11613 11616 11619 11622 11625 11628 11631 11634 11637 11640 11643 11646 11649 11652 11655 11657 11660 11663 11666 11669 11672 11675 11678 11681 11684 11686 11689 11692 11695 11697 11700 11703 11706 11709 11712 11715 11718 11721 11724 11727 11730 11733 11736 11739 11742 11745 11748 11751 11754 11757 11760 11763 11766 11769 11772 11775 11778 11781 11784 11787 11790 11792 11795 11798 11801 11804 11807 11810 11812 11815 11818 11821 11824 11827 11830 11833 11836 11839 11842 11845 11847 11850 11852 11855 11858 11861 11864 11867 11870 11873 11876 11879 11882 11884 11887 11890 11892 11895 11898 11901 11904 11907 11910 11913 11916 11919 11922 11925 11928 11931 11934 11937 11940 11943 11946 11949 11952 11955 11958 11960 11963 11966 11969 11972 11974 11977 11980 11983 11986 11989 11992 11994 11997 12000 12003 12006 12009 12012 12015 12018 12021 12024 12027 12030 12033 12036 12039 12042 12045 12048 12051 12054 12057 12060 12063 12066 12069 12071 12074 12077 12080 12083 12085 12088 12091 12094 12097 12099 12102 12105 12107 12109 12112 12115 12118 12121 12124 12127 12130 12132 12135 12138 12141 12143 12146 12149 12152 12154 12157 12160 12163 12166 12169 12172 12174 12177 12180 12183 12186 12188 12191 12194 12197 12200 12202 12205 12208 12210 12213 12215 12217 12220 12223 12226 12229 12232 12235 12238 12241 12244 12247 12250 12253 12255 12257 12260 12263 12266 12268 12271 12274 12277 12280 12283 12286 12289 12292 12295 12298 12300 12303 12306 12309 12312 12315 12318 12320 12323 12326 12329 12332 12335 12338 12341 12344 12347 12350 12353 12356 12359 12362 12365 12368 12371 12374 12377 12380 12383 12386 12389 12392 12395 12398 12401 12404 12406 12409 12412 12415 12418 12421 12424 12427 12430 12432 12435 12438 12440 12443 12446 12449 12452 12455 12457 12460 12463 12465 12468 12471 12474 12477 12480 12483 12485 12488 12491 12494 12497 12500 12503 12506 12509 12512 12515 12518 12521 12524 12527 12530 12533 12535 12538 12541 12544 12546 12549 12552 12555 12558 12561 12564 12567 12570 12573 12576 12579 12582 12585 12588 12591 12594 12597 12600 12603 12606 12609 12612 12615 12617 12620 12622 12625 12628 12631 12634 12637 12640 12643 12646 12649 12652 12655 12658 12661 12664 12667 12670 12673 12676 12679 12682 12685 12688 12691 12694 12697 12700 12702 12705 12708 12711 12713 12715 12718 12721 12724 12727 12730 12733 12736 12739 12742 12745 12748 12751 12753 12756 12759 12762 12764 12767 12770 12773 12775 12778 12781 12784 12786 12789 12792 12795 12798 12801 12804 12807 12810 12812 12815 12818 12820 12823 12826 12829 12832 12835 12838 12840 12843 12846 12849 12852 12855 12858 12861 12864 12866 12869 12871 12873 12875 12878 12880 12883 12886 12888 12891 12894 12897 12900 12903 12906 12909 12912 12915 12917 12919 12922 12925 12928 12930 12933 12935 12938 12941 12944 12947 12950 12953 12956 12958 12961 12964 12967 12970 12973 12976 12979 12982 12985 12988 12991 12994 12997 12999 13002 13005 13007 13010 13013 13015 13018 13021 13024 13027 13030 13033 13036 13039 13042 13045 13048 13051 13054 13056 13059 13062 13065 13068 13071 13074 13077 13080 13083 13086 13089 13092 13094 13097 13100 13103 13106 13109 13112 13115 13118 13121 13124 13127 13130 13133 13136 13138 13141 13143 13146 13149 13152 13155 13158 13161 13164 13167 13170 13173 13176 13179 13182 13185 13188 13191 13194 13197 13200 13203 13205 13208 13211 13214 13216 13219 13222 13225 13227 13230 13233 13236 13239 13241 13244 13247 13250 13252 13255 13257 13260 13262 13264 13267 13270 13273 13276 13279 13282 13285 13287 13290 13293 13296 13299 13302 13305 13307 13309 13312 13315 13318 13321 13324 13327 13330 13333 13336 13339 13342 13345 13348 13351 13354 13357 13360 13363 13366 13369 13372 13375 13378 13381 13384 13387 13390 13393 13396 13399 13402 13405 13408 13411 13414 13417 13420 13423 13426 13429 13432 13435 13438 13441 13444 13447 13450 13453 13456 13459 13462 13465 13468 13471 13474 13477 13480 13483 13486 13489 13492 13495 13498 13501 13504 13507 13510 13513 13516 13519 13522 13525 13528 13531 13534 13537 13540 13543 13546 13549 13552 13555 13558 13561 13564 13567 13570 13573 13576 13579 13582 13585 13588 13591 13594 13597 13600 13603 13606 13609 13612 13615 13618 13621 13624 13627 13630 13633 13636 13639 13642 13645 13648 13651 13654 13657 13660 13663 13666 13669 13672 13675 13678 13681 13684 13687 13690 13693 13696 13699 13702 13705 13708 13711 13714 13716 13718 13721 13724 13727 13729 13732 13734 13737 13740 13743 13745 13748 13751 13754 13757 13760 13763 13766 13768 13771 13774 13777 13780 13782 13785 13788 13791 13794 13797 13800 13802 13804 13807 13810 13813 13816 13819 13822 13825 13828 13831 13834 13837 13840 13842 13845 13848 13851 13854 13857 13860 13863 13866 13868 13871 13874 13877 13880 13883 13886 13889 13892 13895 13898 13901 13904 13907 13909 13911 13914 13917 13920 13923 13926 13928 13931 13934 13937 13940 13943 13946 13949 13952 13954 13956 13959 13962 13965 13968 13971 13974 13977 13979 13982 13985 13988 13991 13994 13997 14000 14003 14006 14009 14012 14015 14018 14021 14024 14027 14030 14033 14036 14039 14042 14045 14048 14051 14054 14057 14060 14063 14066 14069 14072 14075 14078 14081 14084 14087 14090 14093 14096 14099 14102 14105 14108 14111 14114 14117 14120 14123 14126 14129 14132 14135 14138 14141 14144 14147 14150 14153 14156 14159 14162 14165 14168 14171 14174 14176 14179 14182 14185 14188 14190 14192 14195 14198 14200 14203 14205 14207 14210 14213 14216 14219 14222 14225 14228 14230 14233 14236 14239 14242 14245 14248 14251 14253 14256 14259 14261 14263 14266 14269 14272 14275 14278 14281 14284 14287 14290 14293 14296 14299 14302 14305 14307 14310 14313 14316 14319 14321 14324 14327 14330 14333 14335 14338 14341 14344 14347 14350 14352 14355 14358 14360 14363 14366 14369 14372 14375 14378 14381 14384 14387 14390 14393 14396 14398 14401 14404 14406 14409 14412 14415 14418 14421 14424 14426 14429 14432 14435 14437 14440 14443 14446 14449 14451 14454 14457 14460 14463 14466 14468 14471 14474 14477 14480 14483 14486 14489 14492 14495 14498 14500 14503 14506 14509 14512 14515 14518 14521 14524 14527 14530 14533 14536 14539 14541 14544 14547 14550 14553 14556 14559 14562 14565 14568 14570 14573 14576 14579 14582 14585 14588 14591 14594 14597 14600 14603 14606 14609 14612 14615 14617 14620 14623 14626 14628 14631 14634 14637 14640 14643 14646 14649 14652 14655 14658 14661 14664 14667 14670 14673 14676 14679 14681 14684 14687 14689 14692 14694 14697 14699 14702 14704 14707 14710 14713 14715 14718 14721 14723 14726 14729 14731 14734 14737 14740 14743 14746 14748 14751 14754 14756 14759 14762 14765 14768 14771 14774 14777 14779 14781 14784 14787 14790 14793 14796 14799 14802 14804 14807 14810 14813 14816 14819 14822 14825 14828 14831 14834 14837 14840 14843 14846 14849 14852 14855 14858 14861 14864 14867 14870 14873 14876 14879 14882 14885 14888 14891 14894 14897 14900 14903 14906 14909 14912 14915 14918 14921 14924 14927 14930 14933 14936 14939 14942 14945 14948 14951 14954 14957 14960 14963 14966 14969 14972 14975 14978 14981 14984 14987 14990 14993 14996 14999 15002 15005 15008 15011 15014 15017 15020 15023 15026 15029 15032 15035 15038 15041 15044 15047 15050 15053 15056 15059 15062 15065 15068 15071 15074 15077 15080 15083 15086 15089 15092 15094 15097 15100 15103 15106 15109 15111 15114 15117 15120 15123 15126 15129 15132 15135 15138 15141 15144 15147 15149 15152 15155 15158 15161 15164 15167 15169 15172 15175 15178 15181 15184 15187 15189 15192 15195 15198 15200 15203 15206 15209 15212 15215 15218 15221 15224 15227 15230 15233 15235 15238 15241 15244 15246 15249 15252 15255 15258 15261 15264 15267 15270 15273 15276 15279 15281 15284 15287 15290 15292 15295 15298 15301 15303 15306 15309 15312 15315 15318 15321 15324 15327 15330 15333 15336 15339 15342 15345 15347 15350 15353 15356 15358 15361 15364 15366 15369 15372 15375 15378 15381 15384 15387 15390 15393 15396 15399 15402 15405 15408 15411 15414 15417 15420 15423 15426 15429 15432 15435 15438 15441 15444 15447 15450 15453 15456 15459 15462 15465 15468 15471 15474 15477 15480 15483 15486 15489 15492 15495 15498 15501 15504 15507 15510 15513 15516 15519 15522 15525 15528 15531 15534 15536 15539 15542 15545 15548 15550 15553 15556 15559 15562 15564 15567 15570 15573 15576 15579 15582 15585 15588 15591 15594 15597 15600 15603 15606 15609 15612 15615 15618 15621 15624 15627 15630 15633 15636 15639 15642 15645 15648 15651 15654 15657 15660 15663 15666 15669 15672 15675 15678 15681 15684 15687 15690 15693 15696 15699 15702 15705 15708 15711 15714 15717 15720 15723 15726 15729 15732 15735 15738 15741 15744 15747 15750 15752 15755 15758 15760 15763 15766 15769 15771 15774 15777 15779 15782 15785 15788 15790 15792 15795 15798 15801 15804 15807 15810 15812 15815 15817 15819 15822 15825 15828 15831 15833 15836 15839 15842 15845 15848 15851 15854 15857 15860 15863 15865 15868 15871 15874 15877 15880 15883 15885 15888 15890 15893 15896 15899 15902 15905 15908 15910 15913 15916 15919 15922 15925 15928 15931 15934 15937 15940 15943 15946 15949 15952 15955 15958 15961 15964 15966 15969 15972 15975 15978 15981 15984 15987 15990 15993 15996 15999 16002 16005 16008 16011 16014 16017 16020 16022 16025 16028 16031 16034 16036 16039 16042 16045 16047 16050 16053 16056 16059 16062 16065 16067 16070 16073 16076 16078 16081 16084 16086 16089 16092 16095 16098 16101 16104 16107 16110 16113 16116 16119 16122 16124 16127 16129 16132 16135 16138 16141 16144 16147 16150 16153 16156 16158 16161 16164 16167 16170 16173 16176 16179 16181 16183 16186 16189 16191 16193 16196 16199 16201 16203 16206 16208 16210 16213 16216 16219 16221 16224 16227 16230 16233 16236 16238 16240 16243 16246 16249 16252 16255 16258 16261 16264 16267 16270 16273 16276 16279 16282 16285 16288 16291 16293 16296 16299 16302 16305 16308 16311 16314 16317 16320 16323 16326 16328 16331 16334 16337 16340 16342 16345 16348 16351 16353 16356 16359 16362 16365 16368 16371 16374 16377 16379 16382 16385 16388 16390 16393 16396 16399 16402 16405 16408 16411 16414 16417 16420 16423 16426 16429 16432 16435 16438 16441 16444 16447 16450 16453 16456 16459 16462 16465 16468 16471 16474 16476 16479 16482 16484 16487 16490 16493 16496 16498 16501 16504 16507 16510 16513 16516 16518 16521 16524 16527 16530 16533 16536 16539 16542 16545 16548 16551 16554 16557 16559 16562 16565 16568 16571 16574 16577 16580 16583 16586 16589 16592 16595 16598 16601 16604 16607 16610 16613 16616 16619 16621 16624 16627 16630 16633 16635 16638 16641 16643 16645 16648 16651 16654 16657 16660 16662 16665 16668 16671 16674 16677 16680 16683 16686 16689 16692 16695 16697 16700 16703 16706 16709 16712 16715 16717 16720 16723 16726 16729 16732 16735 16738 16741 16744 16747 16750 16753 16756 16759 16762 16765 16768 16771 16773 16775 16778 16781 16784 16787 16790 16793 16796 16799 16802 16805 16808 16811 16814 16817 16820 16823 16825 16828 16831 16833 16836 16839 16842 16845 16848 16851 16854 16857 16860 16863 16866 16869 16872 16875 16878 16881 16884 16887 16890 16893 16896 16898 16901 16904 16906 16909 16912 16915 16917 16920 16923 16926 16929 16932 16934 16936 16939 16942 16945 16948 16950 16953 16956 16958 16961 16964 16967 16970 16973 16976 16979 16982 16985 16987 16990 16992 16995 16998 17001 17004 17007 17010 17013 17016 17019 17021 17024 17027 17030 17033 17036 17038 17041 17044 17047 17050 17053 17056 17059 17062 17065 17068 17071 17073 17076 17079 17082 17085 17087 17089 17092 17095 17098 17101 17104 17107 17110 17113 17116 17119 17121 17124 17127 17130 17133 17136 17138 17141 17144 17147 17149 17152 17155 17158 17161 17164 17167 17170 17173 17176 17179 17182 17185 17188 17191 17194 17197 17200 17203 17206 17209 17212 17214 17217 17220 17222 17224 17227 17230 17233 17235 17238 17241 17243 17246 17249 17252 17255 17258 17261 17264 17267 17270 17273 17276 17279 17282 17285 17287 17290 17293 17296 17298 17301 17304 17307 17310 17313 17316 17319 17322 17325 17328 17331 17334 17337 17340 17343 17346 17349 17351 17354 17356 17359 17362 17365 17368 17371 17374 17377 17380 17383 17386 17389 17392 17395 17398 17401 17404 17406 17409 17412 17415 17417 17420 17423 17426 17428 17430 17432 17435 17438 17440 17443 17446 17449 17452 17454 17457 17460 17463 17465 17468 17471 17474 17477 17480 17483 17485 17488 17491 17494 17497 17500 17503 17506 17509 17512 17514 17517 17520 17523 17526 17529 17532 17535 17538 17540 17543 17546 17549 17552 17555 17558 17561 17564 17567 17570 17573 17575 17578 17581 17583 17586 17589 17591 17594 17597 17600 17602 17605 17608 17611 17614 17617 17620 17623 17626 17629 17632 17635 17638 17641 17644 17647 17650 17653 17655 17658 17661 17663 17665 17668 17670 17673 17676 17679 17682 17684 17687 17690 17693 17696 17699 17702 17705 17708 17711 17714 17717 17720 17723 17726 17729 17732 17735 17738 17740 17743 17746 17749 17752 17755 17758 17761 17764 17767 17770 17773 17776 17779 17782 17785 17788 17791 17794 17797 17800 17803 17806 17809 17812 17815 17818 17821 17824 17827 17830 17833 17836 17839 17842 17845 17848 17851 17854 17857 17860 17862 17865 17868 17871 17874 17877 17880 17883 17885 17888 17891 17893 17896 17899 17902 17905 17908 17911 17914 17917 17920 17923 17926 17929 17932 17935 17938 17941 17944 17947 17950 17953 17956 17958 17961 17964 17967 17970 17973 17976 17979 17981 17984 17987 17990 17993 17996 17998 18001 18004 18007 18010 18013 18016 18019 18022 18025 18028 18031 18033 18036 18039 18041 18044 18047 18050 18053 18056 18059 18062 18064 18067 18070 18073 18076 18079 18082 18085 18088 18091 18094 18097 18100 18103 18105 18108 18111 18114 18117 18120 18123 18126 18129 18132 18135 18137 18140 18143 18146 18149 18152 18155 18158 18161 18164 18167 18169 18172 18174 18177 18180 18183 18186 18189 18191 18194 18197 18200 18203 18206 18208 18211 18214 18217 18219 18222 18225 18227 18230 18232 18235 18238 18241 18244 18247 18250 18253 18256 18259 18262 18265 18268 18271 18274 18277 18280 18283 18286 18289 18292 18294 18297 18299 18302 18305 18308 18311 18314 18317 18320 18323 18326 18329 18332 18335 18338 18341 18344 18346 18349 18352 18354 18357 18360 18363 18366 18369 18372 18375 18378 18381 18383 18386 18389 18392 18395 18397 18400 18403 18406 18408 18411 18414 18417 18419 18422 18425 18427 18429 18432 18435 18438 18440 18443 18446 18448 18451 18454 18456 18459 18461 18464 18467 18470 18473 18476 18478 18481 18484 18487 18489 18492 18495 18498 18500 18503 18505 18508 18511 18513 18516 18519 18522 18525 18528 18531 18533 18536 18539 18542 18545 18547 18550 18553 18556 18558 18561 18563 18566 18569 18572 18575 18578 18581 18584 18587 18589 18592 18595 18598 18601 18604 18607 18610 18613 18616 18619 18622 18625 18628 18631 18634 18637 18640 18643 18646 18648 18651 18654 18657 18660 18662 18665 18668 18671 18673 18676 18679 18682 18684 18687 18690 18693 18696 18699 18702 18705 18708 18710 18713 18716 18719 18722 18725 18728 18731 18734 18737 18740 18742 18745 18748 18751 18754 18756 18759 18762 18765 18768 18771 18773 18776 18778 18781 18784 18787 18790 18793 18796 18799 18802 18805 18808 18811 18814 18817 18820 18823 18826 18829 18832 18835 18838 18841 18844 18846 18849 18851 18853 18856 18859 18862 18865 18868 18871 18874 18877 18880 18883 18886 18889 18892 18895 18898 18900 18903 18906 18909 18912 18915 18917 18920 18923 18926 18929 18932 18935 18937 18940 18943 18946 18949 18952 18955 18958 18961 18964 18967 18970 18973 18976 18979 18981 18984 18987 18990 18993 18996 18999 19002 19005 19008 19011 19014 19017 19020 19023 19026 19029 19032 19035 19038 19041 19044 19047 19050 19052 19054 19057 19060 19063 19065 19067 19070 19073 19076 19079 19082 19085 19088 19091 19094 19097 19100 19102 19105 19108 19111 19114 19117 19120 19123 19126 19128 19131 19134 19136 19139 19142 19144 19147 19150 19153 19156 19159 19162 19165 19168 19171 19174 19177 19179 19182 19185 19188 19191 19194 19197 19200 19203 19206 19209 19212 19215 19218 19220 19223 19226 19229 19232 19234 19237 19240 19243 19246 19249 19251 19254 19257 19260 19263 19266 19269 19272 19275 19278 19281 19284 19287 19290 19293 19296 19299 19302 19305 19308 19311 19314 19317 19320 19323 19326 19329 19332 19335 19338 19341 19344 19347 19350 19353 19356 19359 19362 19365 19368 19371 19374 19377 19380 19383 19386 19389 19392 19395 19398 19401 19404 19407 19410 19413 19416 19419 19422 19425 19428 19431 19434 19437 19440 19443 19446 19449 19452 19455 19458 19461 19464 19467 19470 19473 19476 19479 19482 19485 19488 19491 19494 19497 19500 19503 19506 19509 19512 19515 19518 19521 19524 19527 19530 19533 19536 19539 19542 19545 19548 19551 19554 19557 19560 19563 19566 19569 19572 19575 19578 19581 19584 19587 19590 19593 19596 19599 19602 19605 19608 19611 19614 19617 19620 19623 19626 19629 19632 19635 19638 19641 19644 19647 19650 19653 19656 19659 19662 19665 19668 19671 19674 19677 19680 19683 19686 19689 19692 19695 19698 19700 19703 19706 19709 19712 19715 19718 19721 19724 19727 19730 19733 19736 19739 19742 19745 19748 19751 19754 19757 19760 19763 19766 19769 19772 19775 19778 19781 19784 19787 19790 19793 19796 19799 19801 19804 19807 19810 19813 19815 19817 19820 19823 19826 19829 19832 19835 19838 19841 19844 19846 19849 19852 19855 19858 19861 19864 19867 19869 19872 19875 19878 19881 19884 19887 19890 19893 19896 19899 19902 19905 19908 19911 19914 19917 19920 19923 19926 19929 19932 19935 19938 19941 19944 19947 19950 19953 19956 19959 19962 19965 19967 19970 19972 19975 19978 19981 19984 19987 19989 19991 19994 19997 20000 20003 20006 20009 20012 20015 20018 20021 20023 20026 20029 20032 20034 20037 20040 20043 20046 20049 20052 20055 20058 20061 20064 20067 20070 20072 20075 20078 20081 20084 20086 20089 20092 20095 20098 20101 20104 20107 20110 20113 20116 20119 20122 20125 20128 20131 20134 20137 20140 20142 20145 20147 20150 20153 20155 20158 20161 20164 20167 20169 20172 20174 20177 20180 20183 20186 20189 20192 20195 20198 20201 20204 20207 20209 20212 20215 20218 20221 20224 20226 20228 20231 20234 20237 20240 20243 20245 20248 20251 20254 20257 20260 20263 20266 20269 20272 20275 20278 20281 20284 20287 20290 20293 20296 20299 20301 20304 20307 20309 20312 20315 20317 20320 20323 20326 20329 20332 20335 20338 20341 20343 20345 20348 20351 20353 20356 20359 20362 20365 20368 20371 20374 20377 20380 20383 20386 20389 20392 20395 20398 20401 20404 20407 20410 20413 20416 20419 20422 20425 20428 20431 20434 20437 20440 20443 20445 20448 20451 20453 20456 20459 20461 20464 20466 20469 20472 20474 20477 20480 20482 20485 20487 20490 20493 20496 20499 20502 20505 20508 20511 20514 20517 20519 20522 20525 20528 20531 20534 20537 20540 20543 20545 20548 20551 20554 20557 20560 20562 20564 20567 20570 20573 20575 20578 20581 20583 20586 20589 20592 20595 20598 20600 20603 20606 20609 20611 20614 20617 20620 20623 20626 20629 20632 20634 20637 20640 20642 20644 20647 20650 20653 20656 20659 20661 20664 20667 20670 20673 20676 20678 20681 20684 20687 20690 20693 20696 20698 20701 20704 20706 20709 20712 20715 20718 20720 20723 20726 20729 20732 20734 20737 20740 20743 20745 20748 20751 20754 20757 20760 20763 20765 20768 20771 20774 20777 20780 20783 20786 20789 20792 20795 20798 20801 20804 20807 20810 20813 20816 20819 20822 20825 20828 20830 20833 20835 20837 20840 20843 20846 20848 20851 20854 20857 20860 20863 20866 20869 20872 20875 20877 20880 20883 20886 20888 20891 20894 20897 20900 20903 20906 20909 20912 20915 20918 20921 20923 20926 20929 20932 20934 20937 20940 20943 20946 20949 20952 20955 20958 20961 20964 20967 20970 20973 20976 20979 20982 20985 20988 20991 20994 20997 21000 21003 21006 21009 21012 21015 21017 21020 21023 21026 21029 21032 21035 21038 21041 21044 21047 21050 21053 21055 21058 21061 21064 21067 21070 21073 21076 21078 21081 21084 21086 21089 21092 21095 21098 21101 21104 21107 21110 21112 21114 21117 21120 21122 21125 21127 21130 21133 21136 21139 21142 21145 21148 21151 21154 21157 21160 21163 21166 21169 21172 21175 21178 21180 21183 21186 21189 21191 21194 21196 21199 21202 21205 21208 21210 21213 21215 21218 21221 21224 21227 21230 21233 21236 21239 21242 21245 21248 21251 21254 21257 21260 21263 21266 21269 21272 21275 21278 21281 21284 21287 21290 21293 21296 21299 21301 21304 21307 21310 21312 21315 21318 21321 21324 21326 21329 21332 21335 21338 21341 21344 21347 21350 21353 21356 21359 21362 21365 21368 21371 21374 21377 21380 21383 21386 21389 21392 21395 21398 21401 21404 21407 21410 21413 21416 21419 21422 21425 21428 21431 21434 21437 21440 21443 21446 21449 21452 21455 21458 21461 21464 21467 21470 21473 21476 21479 21482 21485 21488 21491 21494 21497 21500 21503 21506 21509 21512 21515 21518 21521 21524 21527 21530 21533 21536 21539 21542 21545 21548 21551 21554 21557 21560 21563 21566 21569 21572 21575 21578 21581 21584 21587 21590 21593 21596 21599 21602 21605 21608 21611 21614 21617 21620 21623 21626 21629 21632 21635 21638 21641 21644 21647 21650 21653 21656 21659 21662 21665 21668 21671 21674 21677 21680 21683 21686 21689 21692 21695 21698 21701 21704 21707 21710 21713 21716 21719 21722 21725 21728 21731 21734 21737 21740 21743 21746 21749 21752 21755 21758 21761 21764 21767 21770 21773 21776 21779 21782 21785 21788 21791 21793 21796 21799 21802 21805 21808 21811 21814 21817 21820 21823 21826 21829 21832 21835 21838 21841 21844 21847 21850 21853 21856 21859 21862 21865 21868 21871 21874 21877 21880 21883 21886 21889 21892 21895 21898 21901 21904 21907 21910 21912 21915 21918 21921 21924 21927 21930 21933 21936 21939 21942 21945 21948 21951 21953 21956 21959 21962 21965 21967 21969 21972 21975 21978 21980 21983 21986 21989 21992 21995 21998 22001 22004 22007 22010 22013 22016 22019 22022 22025 22028 22030 22033 22036 22039 22042 22045 22048 22051 22054 22057 22060 22063 22066 22069 22071 22074 22077 22080 22083 22086 22089 22092 22094 22096 22099 22102 22105 22108 22111 22114 22117 22120 22122 22124 22127 22130 22133 22136 22139 22142 22145 22148 22151 22154 22157 22159 22162 22165 22168 22170 22173 22176 22178 22181 22184 22186 22189 22192 22195 22198 22201 22204 22207 22210 22213 22216 22219 22221 22223 22226 22229 22232 22234 22237 22240 22243 22246 22249 22252 22255 22258 22260 22263 22266 22269 22272 22274 22276 22279 22282 22285 22288 22291 22294 22297 22300 22303 22305 22308 22311 22314 22317 22320 22322 22325 22328 22330 22333 22336 22339 22342 22345 22348 22350 22353 22355 22358 22361 22364 22367 22370 22373 22376 22379 22381 22384 22386 22389 22392 22395 22398 22401 22404 22407 22410 22413 22416 22419 22421 22424 22427 22430 22433 22436 22439 22442 22445 22448 22451 22454 22457 22459 22462 22465 22468 22471 22474 22477 22480 22483 22486 22489 22492 22495 22498 22501 22503 22506 22509 22512 22515 22517 22520 22523 22526 22529 22532 22534 22537 22540 22543 22546 22549 22552 22555 22558 22561 22563 22566 22569 22572 22575 22578 22581 22583 22586 22589 22592 22595 22598 22601 22603 22606 22609 22612 22615 22618 22621 22624 22627 22630 22633 22636 22639 22642 22645 22648 22651 22654 22657 22660 22662 22665 22667 22670 22673 22676 22679 22682 22685 22688 22691 22694 22697 22700 22703 22706 22709 22712 22715 22718 22721 22723 22726 22729 22732 22735 22738 22741 22744 22746 22749 22752 22755 22758 22761 22764 22767 22770 22773 22776 22779 22782 22785 22787 22789 22792 22795 22798 22801 22804 22807 22810 22813 22816 22819 22822 22825 22828 22831 22834 22837 22840 22843 22846 22849 22852 22855 22858 22861 22864 22867 22869 22872 22875 22878 22881 22884 22886 22889 22892 22895 22898 22901 22904 22907 22910 22913 22916 22919 22922 22925 22928 22931 22934 22937 22940 22943 22946 22949 22952 22955 22957 22960 22963 22966 22969 22972 22975 22978 22981 22983 22986 22989 22992 22995 22998 23001 23004 23007 23010 23012 23015 23018 23020 23023 23026 23029 23032 23035 23038 23041 23043 23046 23049 23052 23055 23057 23060 23063 23066 23069 23071 23074 23077 23080 23083 23086 23089 23092 23095 23097 23100 23102 23105 23108 23110 23113 23115 23118 23121 23124 23127 23129 23132 23135 23138 23140 23143 23146 23149 23151 23154 23157 23160 23162 23165 23168 23171 23174 23177 23180 23183 23186 23189 23192 23195 23198 23200 23203 23206 23209 23212 23215 23217 23220 23223 23226 23229 23232 23235 23238 23241 23244 23247 23250 23253 23256 23259 23262 23265 23268 23270 23273 23276 23279 23282 23285 23288 23291 23294 23297 23300 23302 23305 23308 23311 23314 23317 23319 23322 23325 23328 23330 23333 23336 23339 23342 23345 23348 23351 23354 23357 23360 23363 23366 23369 23372 23375 23378 23380 23383 23386 23388 23391 23394 23397 23399 23402 23405 23408 23411 23413 23416 23419 23422 23425 23427 23429 23432 23435 23438 23440 23443 23446 23448 23451 23454 23457 23460 23462 23465 23468 23471 23474 23477 23480 23483 23486 23489 23492 23495 23498 23501 23504 23507 23510 23513 23516 23519 23522 23525 23528 23531 23534 23537 23540 23543 23546 23549 23552 23555 23558 23561 23564 23567 23570 23573 23576 23579 23582 23585 23588 23591 23594 23597 23600 23603 23606 23609 23612 23615 23618 23621 23624 23627 23630 23633 23636 23639 23642 23645 23648 23651 23654 23657 23660 23663 23666 23669 23672 23675 23678 23681 23684 23686 23689 23691 23694 23697 23700 23703 23706 23708 23711 23714 23717 23720 23722 23725 23728 23731 23734 23737 23740 23743 23746 23749 23751 23754 23757 23760 23763 23766 23769 23772 23775 23778 23781 23784 23787 23790 23793 23796 23799 23802 23804 23807 23810 23813 23816 23819 23822 23825 23828 23831 23834 23837 23840 23843 23846 23849 23852 23855 23858 23861 23864 23867 23870 23873 23876 23879 23882 23885 23888 23891 23894 23897 23900 23903 23906 23909 23912 23915 23917 23920 23923 23926 23929 23932 23935 23938 23940 23943 23946 23948 23951 23954 23957 23960 23963 23966 23969 23972 23975 23978 23981 23984 23987 23990 23992 23995 23998 24001 24003 24006 24009 24012 24015 24018 24020 24023 24026 24029 24032 24035 24038 24040 24043 24046 24049 24052 24055 24057 24060 24062 24065 24068 24071 24074 24077 24080 24083 24086 24089 24092 24095 24097 24100 24103 24106 24109 24112 24115 24117 24120 24123 24126 24129 24131 24134 24136 24139 24141 24144 24147 24150 24152 24155 24158 24161 24164 24167 24170 24173 24176 24179 24182 24185 24188 24191 24193 24196 24199 24202 24205 24207 24210 24213 24216 24219 24222 24225 24228 24231 24234 24237 24240 24242 24245 24247 24250 24253 24256 24258 24261 24264 24267 24270 24272 24275 24278 24281 24284 24287 24290 24292 24294 24297 24300 24303 24306 24309 24312 24315 24318 24321 24324 24327 24330 24333 24336 24339 24341 24344 24347 24350 24353 24356 24358 24360 24363 24366 24369 24371 24374 24376 24379 24382 24385 24388 24391 24393 24396 24399 24401 24404 24407 24410 24413 24416 24418 24421 24424 24427 24429 24432 24435 24437 24440 24442 24445 24448 24451 24454 24457 24459 24462 24465 24468 24471 24474 24477 24480 24483 24486 24488 24491 24494 24497 24500 24503 24506 24509 24512 24515 24518 24521 24524 24526 24529 24532 24535 24538 24541 24544 24547 24550 24553 24555 24558 24561 24564 24567 24570 24573 24576 24579 24582 24585 24588 24591 24594 24597 24600 24603 24606 24608 24611 24614 24617 24619 24622 24625 24628 24631 24634 24637 24640 24643 24646 24649 24652 24655 24658 24661 24664 24667 24670 24673 24676 24679 24682 24685 24688 24691 24694 24697 24700 24703 24706 24709 24712 24715 24718 24721 24724 24726 24729 24732 24735 24737 24740 24743 24746 24749 24752 24755 24757 24760 24762 24765 24768 24771 24773 24776 24779 24782 24785 24788 24791 24794 24797 24799 24802 24805 24808 24811 24814 24817 24820 24823 24826 24829 24832 24835 24838 24841 24844 24847 24850 24852 24855 24858 24861 24864 24867 24870 24873 24875 24878 24881 24883 24886 24889 24892 24895 24898 24901 24903 24906 24908 24911 24914 24916 24919 24922 24924 24927 24929 24931 24934 24937 24940 24943 24945 24948 24951 24954 24957 24960 24963 24966 24969 24972 24975 24978 24980 24982 24985 24988 24991 24993 24996 24999 25002 25004 25006 25009 25012 25015 25018 25021 25024 25027 25030 25033 25035 25038 25041 25044 25047 25050 25053 25056 25059 25062 25065 25068 25071 25073 25075 25078 25080 25083 25086 25088 25091 25094 25097 25099 25101 25103 25106 25109 25112 25115 25117 25120 25123 25125 25128 25131 25134 25136 25139 25142 25145 25148 25151 25154 25157 25159 25162 25165 25168 25170 25173 25176 25179 25182 25185 25188 25190 25193 25196 25199 25202 25205 25208 25211 25214 25217 25220 25222 25225 25228 25231 25234 25237 25240 25243 25246 25249 25252 25255 25258 25261 25264 25267 25270 25273 25276 25279 25282 25285 25288 25291 25294 25297 25300 25303 25306 25309 25311 25314 25317 25320 25322 25325 25328 25330 25333 25335 25338 25340 25342 25345 25348 25351 25354 25357 25360 25363 25366 25369 25372 25375 25378 25380 25382 25385 25388 25391 25394 25397 25400 25403 25406 25409 25412 25415 25418 25421 25424 25427 25430 25433 25436 25439 25442 25445 25448 25451 25454 25457 25459 25462 25465 25468 25471 25474 25477 25480 25483 25486 25489 25492 25495 25498 25501 25504 25507 25509 25512 25515 25517 25520 25523 25526 25529 25532 25535 25538 25541 25544 25547 25549 25552 25554 25557 25560 25563 25565 25568 25571 25574 25577 25580 25582 25585 25588 25590 25593 25596 25599 25602 25605 25608 25611 25614 25617 25620 25623 25626 25629 25632 25635 25638 25641 25644 25647 25650 25653 25656 25659 25662 25665 25668 25671 25674 25677 25680 25683 25686 25689 25692 25695 25698 25701 25704 25707 25710 25713 25716 25719 25722 25725 25728 25731 25734 25737 25740 25743 25746 25749 25752 25754 25757 25760 25763 25765 25768 25771 25774 25777 25780 25783 25786 25789 25792 25795 25798 25801 25804 25807 25810 25813 25816 25819 25822 25825 25828 25831 25834 25837 25840 25843 25846 25849 25852 25855 25858 25860 25863 25866 25868 25871 25873 25876 25879 25882 25884 25887 25890 25893 25896 25898 25901 25904 25907 25910 25913 25916 25919 25922 25925 25927 25930 25933 25936 25939 25942 25945 25948 25950 25953 25955 25958 25961 25964 25967 25969 25972 25975 25977 25980 25983 25986 25989 25991 25994 25997 26000 26002 26005 26008 26011 26014 26017 26020 26023 26026 26029 26032 26035 26038 26040 26043 26046 26049 26052 26055 26058 26061 26064 26067 26070 26073 26076 26079 26082 26085 26088 26091 26094 26097 26100 26103 26106 26109 26112 26115 26118 26121 26123 26126 26129 26132 26135 26138 26141 26144 26146 26148 26151 26154 26157 26160 26163 26166 26169 26172 26175 26178 26181 26184 26187 26190 26193 26196 26199 26202 26205 26208 26211 26214 26217 26220 26223 26226 26229 26232 26235 26238 26241 26244 26247 26250 26253 26256 26259 26262 26265 26268 26271 26274 26277 26280 26283 26286 26289 26291 26294 26297 26300 26303 26306 26308 26311 26314 26316 26319 26322 26325 26328 26331 26333 26336 26338 26341 26344 26347 26350 26353 26356 26359 26362 26365 26367 26370 26373 26376 26379 26381 26384 26386 26389 26392 26395 26398 26401 26404 26406 26409 26412 26415 26418 26421 26423 26426 26429 26432 26435 26438 26441 26444 26447 26450 26453 26456 26459 26462 26465 26468 26471 26474 26477 26480 26483 26486 26489 26492 26495 26498 26501 26504 26507 26510 26513 26516 26519 26522 26525 26528 26531 26534 26536 26539 26542 26545 26548 26551 26553 26556 26559 26562 26564 26567 26570 26573 26576 26579 26582 26585 26587 26590 26592 26594 26597 26600 26603 26606 26609 26612 26615 26618 26621 26624 26627 26630 26633 26636 26639 26642 26645 26648 26651 26654 26657 26660 26663 26666 26669 26672 26675 26678 26680 26683 26686 26688 26691 26694 26696 26699 26702 26705 26707 26710 26713 26716 26719 26722 26725 26728 26731 26734 26737 26740 26743 26746 26749 26752 26755 26758 26761 26764 26767 26770 26773 26776 26779 26782 26785 26788 26791 26793 26796 26799 26801 26804 26807 26809 26812 26815 26817 26820 26822 26825 26827 26830 26833 26836 26838 26841 26844 26847 26849 26852 26855 26857 26860 26863 26866 26869 26871 26874 26877 26879 26881 26884 26887 26890 26893 26896 26899 26902 26905 26908 26911 26914 26917 26919 26922 26924 26927 26930 26932 26935 26938 26940 26943 26946 26949 26952 26954 26957 26959 26962 26965 26968 26971 26973 26976 26979 26981 26983 26986 26989 26992 26995 26998 27001 27004 27007 27009 27012 27014 27017 27019 27022 27025 27028 27031 27033 27036 27039 27042 27044 27047 27049 27052 27055 27058 27061 27064 27067 27070 27073 27076 27079 27082 27085 27088 27091 27094 27097 27100 27103 27106 27109 27112 27115 27118 27121 27124 27127 27130 27132 27135 27138 27141 27144 27147 27150 27152 27155 27158 27161 27164 27167 27170 27173 27176 27179 27182 27185 27188 27191 27194 27197 27200 27203 27206 27209 27212 27215 27218 27221 27224 27227 27230 27233 27236 27239 27242 27245 27248 27251 27254 27257 27260 27263 27266 27269 27271 27274 27277 27280 27283 27285 27288 27291 27293 27296 27299 27302 27305 27307 27310 27313 27316 27319 27322 27325 27327 27330 27333 27336 27339 27342 27345 27348 27351 27353 27356 27358 27361 27364 27367 27370 27373 27375 27378 27380 27383 27386 27389 27392 27395 27397 27400 27403 27406 27409 27412 27415 27418 27421 27424 27427 27429 27432 27435 27438 27441 27444 27447 27450 27453 27456 27459 27462 27465 27468 27471 27474 27477 27480 27483 27485 27488 27491 27493 27496 27499 27502 27505 27508 27511 27514 27517 27520 27522 27525 27528 27531 27534 27537 27540 27543 27546 27549 27552 27555 27558 27561 27564 27567 27570 27572 27575 27578 27581 27584 27586 27589 27592 27594 27597 27600 27603 27606 27609 27612 27614 27617 27620 27623 27626 27629 27632 27634 27637 27640 27643 27646 27649 27652 27655 27658 27660 27663 27666 27669 27672 27675 27678 27681 27684 27687 27690 27693 27695 27698 27701 27704 27707 27710 27713 27715 27718 27721 27723 27726 27729 27732 27735 27738 27741 27744 27747 27750 27753 27756 27759 27762 27765 27768 27771 27774 27777 27780 27783 27786 27789 27792 27795 27798 27801 27804 27807 27810 27813 27816 27819 27822 27825 27828 27831 27834 27837 27840 27843 27846 27849 27852 27855 27858 27861 27864 27867 27870 27873 27876 27879 27882 27885 27888 27891 27894 27897 27900 27903 27905 27908 27911 27914 27917 27920 27923 27926 27929 27932 27935 27937 27940 27943 27946 27949 27952 27955 27958 27961 27964 27967 27970 27973 27976 27979 27982 27985 27988 27991 27994 27997 28000 28003 28006 28009 28012 28014 28017 28019 28022 28025 28028 28031 28034 28037 28040 28043 28046 28049 28051 28054 28057 28060 28062 28065 28068 28071 28074 28077 28080 28083 28086 28089 28092 28095 28098 28101 28104 28107 28110 28113 28116 28119 28122 28125 28127 28129 28132 28135 28138 28140 28143 28146 28148 28151 28154 28156 28159 28162 28165 28168 28171 28173 28176 28179 28181 28184 28186 28189 28192 28195 28198 28201 28204 28207 28210 28213 28216 28218 28221 28224 28226 28229 28232 28235 28238 28241 28244 28247 28249 28252 28255 28258 28260 28263 28266 28269 28272 28275 28277 28280 28282 28285 28288 28291 28294 28297 28300 28303 28306 28309 28311 28314 28317 28320 28323 28325 28327 28330 28333 28336 28339 28342 28345 28348 28351 28354 28357 28360 28363 28366 28369 28372 28375 28378 28381 28384 28386 28389 28392 28395 28398 28400 28403 28406 28409 28412 28415 28418 28420 28423 28426 28429 28432 28435 28437 28440 28443 28445 28447 28450 28453 28456 28459 28462 28464 28467 28470 28472 28474 28477 28480 28483 28486 28489 28492 28495 28498 28501 28503 28505 28508 28511 28514 28517 28519 28522 28525 28527 28529 28532 28534 28536 28539 28542 28544 28547 28549 28551 28554 28557 28560 28563 28565 28568 28571 28574 28577 28580 28583 28586 28589 28591 28594 28597 28600 28603 28606 28609 28612 28615 28618 28621 28624 28627 28630 28633 28636 28639 28642 28645 28648 28651 28654 28657 28659 28661 28664 28667 28670 28673 28676 28679 28682 28685 28688 28691 28694 28697 28700 28702 28705 28708 28711 28714 28717 28720 28723 28726 28729 28731 28734 28737 28740 28743 28746 28749 28751 28754 28757 28759 28762 28764 28767 28770 28773 28776 28778 28781 28783 28786 28788 28791 28794 28796 28798 28801 28804 28807 28809 28811 28814 28817 28820 28823 28826 28828 28831 28833 28836 28839 28842 28845 28848 28851 28854 28857 28860 28863 28866 28869 28872 28875 28878 28881 28884 28887 28890 28893 28896 28898 28901 28904 28907 28909 28911 28914 28917 28920 28923 28926 28929 28931 28933 28936 28938 28941 28944 28947 28949 28952 28955 28958 28961 28964 28967 28970 28973 28976 28979 28982 28985 28988 28991 28994 28997 28999 29001 29004 29006 29008 29011 29014 29016 29019 29022 29024 29027 29030 29033 29036 29039 29042 29045 29048 29051 29053 29056 29059 29061 29064 29067 29070 29073 29076 29079 29081 29084 29087 29090 29093 29096 29098 29100 29103 29106 29108 29111 29113 29116 29119 29122 29125 29127 29130 29132 29135 29138 29140 29143 29146 29149 29151 29154 29156 29159 29162 29165 29167 29170 29173 29175 29178 29181 29184 29186 29189 29192 29195 29197 29200 29202 29205 29208 29211 29214 29217 29219 29221 29224 29226 29228 29231 29234 29237 29239 29242 29244 29247 29250 29252 29255 29258 29261 29264 29267 29269 29272 29275 29278 29281 29284 29287 29290 29293 29295 29297 29300 29303 29306 29308 29310 29312 29315 29318 29321 29324 29327 29330 29332 29335 29338 29341 29344 29347 29350 29353 29356 29359 29362 29365 29368 29371 29374 29377 29380 29382 29385 29388 29391 29394 29397 29399 29402 29405 29408 29411 29414 29417 29420 29423 29426 29429 29432 29435 29438 29441 29444 29447 29450 29453 29456 29459 29462 29465 29468 29470 29473 29475 29478 29481 29484 29487 29489 29492 29495 29498 29501 29504 29507 29510 29513 29516 29519 29521 29524 29527 29530 29533 29536 29539 29542 29545 29547 29550 29553 29555 29558 29561 29564 29567 29569 29572 29574 29577 29580 29583 29585 29588 29590 29593 29596 29598 29600 29603 29606 29609 29612 29615 29618 29621 29624 29627 29630 29633 29636 29638 29640 29643 29646 29649 29651 29654 29657 29660 29663 29665 29668 29670 29673 29676 29679 29682 29684 29687 29690 29692 29695 29698 29700 29703 29705 29708 29711 29713 29716 29719 29721 29724 29727 29730 29733 29736 29738 29741 29743 29746 29749 29752 29754 29757 29760 29763 29766 29769 29772 29775 29777 29780 29783 29785 29788 29791 29794 29797 29800 29802 29805 29808 29811 29814 29817 29820 29823 29826 29828 29831 29834 29837 29840 29843 29846 29849 29851 29854 29857 29860 29863 29866 29869 29872 29875 29878 29881 29884 29887 29890 29893 29896 29899 29902 29905 29908 29911 29913 29916 29919 29921 29924 29927 29930 29933 29936 29939 29942 29945 29948 29951 29954 29956 29958 29961 29964 29966 29969 29972 29975 29978 29981 29984 29987 29990 29992 29995 29998 30001 30004 30007 30010 30013 30015 30018 30021 30024 30027 30029 30032 30035 30037 30040 30042 30045 30047 30050 30053 30055 30058 30060 30063 30066 30069 30072 30074 30077 30080 30083 30086 30089 30092 30095 30098 30101 30104 30107 30110 30113 30116 30119 30122 30124 30127 30130 30133 30135 30138 30141 30144 30147 30150 30152 30155 30158 30161 30164 30166 30169 30172 30174 30176 30179 30182 30185 30187 30190 30192 30195 30197 30199 30202 30205 30208 30211 30214 30217 30219 30222 30225 30228 30230 30233 30236 30239 30242 30245 30248 30251 30254 30257 30260 30263 30265 30268 30271 30274 30277 30280 30282 30285 30287 30290 30293 30296 30298 30301 30303 30306 30309 30312 30315 30318 30321 30324 30326 30329 30332 30335 30337 30340 30343 30346 30349 30352 30355 30358 30361 30364 30367 30370 30373 30376 30379 30382 30385 30388 30391 30394 30397 30400 30403 30406 30409 30411 30414 30417 30420 30423 30426 30429 30432 30435 30438 30441 30444 30447 30450 30453 30456 30458 30461 30464 30466 30469 30472 30475 30478 30481 30483 30486 30489 30492 30495 30498 30500 30503 30505 30508 30511 30514 30517 30519 30522 30525 30527 30530 30533 30536 30539 30541 30544 30546 30549 30552 30555 30558 30560 30562 30564 30567 30570 30573 30576 30579 30582 30585 30587 30590 30593 30596 30599 30602 30604 30607 30610 30613 30616 30619 30622 30625 30628 30631 30634 30636 30639 30642 30645 30648 30651 30654 30657 30660 30663 30666 30669 30672 30675 30678 30681 30684 30687 30690 30693 30696 30699 30702 30704 30706 30708 30711 30714 30717 30720 30723 30726 30729 30731 30734 30737 30740 30743 30746 30748 30751 30754 30757 30760 30763 30766 30768 30771 30774 30777 30780 30782 30785 30788 30791 30794 30797 30800 30803 30806 30809 30812 30815 30818 30821 30823 30826 30829 30831 30834 30837 30840 30843 30846 30848 30851 30854 30856 30858 30861 30864 30867 30870 30873 30876 30879 30882 30885 30888 30891 30894 30897 30900 30903 30905 30908 30911 30913 30916 30919 30922 30925 30928 30931 30934 30937 30940 30943 30945 30948 30951 30954 30957 30960 30963 30966 30969 30972 30975 30978 30981 30984 30987 30990 30992 30995 30998 31001 31004 31007 31010 31013 31015 31018 31021 31024 31027 31029 31032 31035 31037 31040 31043 31046 31049 31052 31055 31058 31061 31064 31067 31070 31073 31076 31079 31082 31085 31088 31091 31094 31096 31099 31102 31105 31108 31110 31113 31116 31119 31122 31125 31128 31131 31134 31137 31140 31143 31146 31149 31152 31154 31157 31160 31163 31166 31169 31172 31175 31178 31181 31184 31187 31190 31192 31195 31198 31201 31203 31206 31208 31210 31213 31216 31219 31222 31225 31228 31230 31233 31236 31239 31241 31244 31246 31249 31252 31255 31258 31261 31264 31267 31270 31272 31275 31278 31281 31284 31287 31289 31292 31295 31298 31301 31304 31307 31310 31312 31315 31318 31321 31323 31325 31328 31331 31334 31337 31340 31343 31346 31349 31351 31354 31357 31360 31363 31366 31369 31372 31375 31378 31381 31384 31386 31389 31392 31394 31397 31400 31403 31406 31409 31412 31415 31418 31420 31423 31426 31429 31432 31435 31438 31441 31444 31447 31450 31453 31456 31459 31462 31465 31468 31471 31474 31477 31480 31483 31486 31489 31492 31495 31498 31501 31504 31507 31509 31512 31515 31517 31519 31522 31524 31527 31530 31532 31535 31538 31540 31543 31546 31549 31551 31554 31557 31560 31563 31566 31569 31572 31575 31578 31581 31584 31587 31590 31592 31595 31598 31600 31603 31605 31608 31611 31614 31617 31620 31623 31625 31628 31631 31634 31637 31639 31642 31645 31648 31651 31654 31656 31659 31661 31664 31667 31670 31673 31676 31678 31680 31683 31685 31688 31691 31694 31697 31700 31703 31706 31708 31711 31714 31717 31720 31723 31726 31729 31732 31735 31737 31740 31743 31746 31749 31751 31754 31757 31760 31763 31766 31769 31772 31775 31778 31780 31783 31786 31789 31792 31795 31798 31801 31804 31807 31810 31813 31816 31819 31822 31825 31828 31831 31834 31837 31840 31843 31846 31849 31852 31855 31858 31861 31864 31867 31869 31872 31875 31878 31881 31884 31887 31890 31893 31896 31898 31901 31904 31906 31908 31910 31913 31916 31918 31921 31923 31926 31929 31932 31935 31938 31941 31944 31947 
</DataArray>
<DataArray type="UInt32" Name="types" format="ascii">
5 5 5 3 5 5 5 5 5 3 5 5 5 5 5 5 5 5 5 5 3 5 5 5 3 5 5 5 5 5 3 5 3 5 5 5 5 5 5 5 5 5 3 5 5 5 5 3 5 5 5 5 3 3 5 5 3 3 5 3 5 5 5 5 3 3 5 3 5 3 5 3 3 5 5 5 5 5 3 3 5 5 3 5 3 5 5 5 3 5 5 5 5 5 5 5 5 3 5 5 5 5 5 3 5 3 5 5 5 5 5 3 5 3 5 5 5 5 5 3 5 5 5 5 3 5 5 5 5 3 5 5 5 5 5 5 5 3 5 5 5 5 5 5 5 5 5 5 5 5 5 3 3 5 5 5 5 5 3 5 5 5 3 5 5 5 5 3 5 5 5 3 5 3 5 5 5 3 5 3 5 5 3 5 5 5 3 5 5 3 5 3 5 5 3 5 5 3 3 3 5 5 5 5 5 5 5 5 5 5 5 5 3 5 3 5 3 5 5 5 5 5 5 5 3 5 5 5 5 5 5 3 5 5 3 3 3 5 3 5 5 3 3 5 3 5 5 5 5 5 5 5 5 5 5 5 5 5 5 5 5 5 5 5 5 5 5 5 5 5 5 3 5 5 5 3 3 5 5 5 3 5 5 5 5 3 5 5 5 3 5 5 5 5 5 5 3 5 5 5 5 5 3 5 5 5 3 5 5 3 5 5 5 5 5 5 5 5 3 5 5 5 3 5 5 5 5 3 5 5 3 3 5 3 5 3 5 5 3 5 5 5 5 5 3 3 5 3 5 5 5 3 5 5 5 3 5 5 5 5 3 3 5 5 5 5 3 5 5 5 3 5 5 5 3 3 5 5 5 3 5 5 3 5 3 5 3 5 5 5 5 5 5 5 5 5 5 3 5 5 5 5 5 3 5 3 3 5 5 5 3 5 5 5 3 3 5 3 5 5 3 3 5 5 5 5 5 5 5 3 5 5 3 5 5 5 5 3 5 3 5 3 5 3 3 5 5 5 5 5 5 3 5 5 5 5 5 5 5 5 5 5 5 5 5 5 5 5 5 3 5 5 5 5 5 5 5 5 3 5 3 5 5 5 3 5 5 5 3 5 3 5 5 5 5 5 5 5 3 3 5 3 5 3 5 5 5 5 5 5 5 3 5 5 5 5 5 5 5 5 5 5 5 5 5 5 5 5 5 5 5 5 5 5 5 5 5 5 5 5 5 5 5 5 5 5 5 3 5 5 5 5 5 3 5 5 5 3 5 5 5 5 3 5 3 5 5 5 5 5 3 5 5 3 5 5 3 5 5 5 3 3 5 5 5 5 3 5 3 5 5 5 5 5 5 5 3 5 5 5 5 5 5 5 5 5 5 5 5 5 5 5 5 5 5 5 3 5 5 3 5 5 3 5 5 5 5 5 5 5 5 5 5 5 5 5 5 5 5 5 5 5 5 5 5 5 5 5 3 5 5 5 5 3 5 5 5 5 3 5 5 3 5 5 5 5 5 5 5 5 5 5 5 5 5 3 5 3 5 5 5 5 5 5 5 5 5 5 5 5 5 5 5 5 5 5 5 5 5 5 5 3 5 5 5 5 5 5 5 5 5 5 5 5 3 5 5 5 5 5 5 5 5 5 3 3 5 5 3 5 5 5 5 5 5 5 5 5 5 5 5 5 5 3 5 5 3 5 5 3 5 5 5 5 5 5 5 5 5 5 5 5 5 5 5 5 5 5 3 5 5 5 5 5 5 3 3 5 5 5 3 5 5 3 5 5 5 5 5 5 5 5 5 5 5 3 5 5 5 5 5 5 5 5 5 5 5 5 5 5 5 5 3 5 5 5 3 5 5 5 5 5 5 5 5 5 5 5 5 5 5 5 5 5 5 5 5 5 3 5 5 5 3 5 5 5 3 5 5 3 5 3 3 5 5 5 3 3 5 3 5 5 3 5 3 3 5 3 5 3 5 5 5 5 5 3 5 3 5 5 5 3 5 5 5 5 5 5 5 5 5 5 3 5 5 5 5 5 5 5 5 5 5 5 5 5 5 5 5 3 5 5 5 5 5 5 5 5 5 3 5 5 5 5 3 5 5 5 5 5 5 5 5 5 5 5 5 3 5 5 3 5 5 5 5 5 5 3 5 5 3 5 5 5 5 3 5 5 5 5 5 5 5 5 5 5 5 3 5 5 5 3 5 5 3 5 5 3 3 3 5 3 5 5 5 3 5 5 5 3 5 5 5 5 5 5 3 5 5 5 5 3 5 5 5 5 5 5 5 5 5 3 3 5 5 5 5 3 3 5 5 3 3 5 5 3 3 5 5 5 5 5 3 5 5 5 3 3 5 5 5 3 5 5 5 3 5 5 3 3 3 5 5 5 5 5 5 5 5 5 5 3 5 3 5 5 3 5 3 5 5 5 5 5 5 5 5 5 5 5 5 3 5 5 5 3 5 5 5 5 5 3 5 5 5 5 5 5 5 5 5 5 5 3 5 5 5 5 5 5 5 3 5 5 3 5 5 5 3 5 5 5 5 5 5 5 5 5 5 5 5 5 5 5 5 5 5 5 5 5 5 5 5 5 5 5 3 5 5 5 5 3 5 3 3 5 5 5 5 5 5 5 3 3 5 5 5 5 5 5 5 5 5 3 5 5 3 3 5 3 5 5 5 5 5 5 5 5 5 3 5 5 5 5 5 5 5 5 5 5 5 5 3 5 5 5 3 3 5 5 5 5 5 5 3 5 3 5 5 5 5 5 5 5 5 3 5 5 5 5 5 5 5 5 5 5 5 5 5 5 5 5 5 5 5 5 5 3 5 5 5 5 3 5 5 5 3 3 3 5 3 5 5 3 5 3 5 5 3 5 3 5 5 3 5 5 5 3 5 5 5 5 5 5 5 5 5 5 5 5 5 3 5 5 3 5 5 5 5 5 5 5 3 5 5 5 5 5 5 5 5 5 5 5 5 5 5 5 5 3 5 3 5 3 5 5 5 5 5 5 5 5 5 3 3 5 5 5 3 3 5 3 5 5 5 3 5 5 5 5 5 3 3 5 5 5 3 5 5 5 3 5 5 5 5 5 3 5 3 5 5 3 5 5 5 5 3 5 5 5 5 5 5 3 5 3 5 5 3 3 5 5 5 3 5 5 5 5 3 5 3 5 5 5 5 3 5 5 5 5 5 5 5 5 5 5 5 3 5 5 5 5 5 5 5 5 5 5 5 5 5 5 5 5 5 5 5 5 5 5 5 5 5 5 5 5 5 5 5 5 5 5 5 5 5 5 5 3 5 5 5 5 5 5 5 5 5 5 5 5 5 5 5 5 3 5 5 5 5 5 5 3 5 3 5 5 3 5 5 5 5 5 3 5 5 5 5 5 5 5 5 5 5 5 5 3 5 5 5 5 5 5 3 5 5 5 5 3 5 5 5 5 5 5 3 5 5 5 3 3 5 5 3 5 5 5 5 5 5 5 5 5 5 5 5 5 5 5 3 5 3 5 5 3 3 3 5 5 5 3 5 5 5 5 3 5 5 3 5 5 5 5 5 5 5 5 5 3 5 3 5 5 3 5 5 5 5 5 5 5 5 5 5 5 5 5 3 5 5 5 5 5 5 5 5 5 5 5 5 5 5 5 5 5 5 5 5 5 5 5 5 5 5 5 5 5 5 5 5 5 5 5 5 5 5 5 5 5 5 5 5 5 5 5 5 3 5 3 5 5 5 5 5 5 5 5 5 5 5 5 5 5 5 5 5 3 5 5 5 5 3 5 5 5 5 5 5 5 5 5 5 5 5 5 5 5 5 3 5 5 5 5 5 3 5 5 5 5 3 5 5 5 5 5 5 5 5 5 5 5 5 5 5 5 5 5 5 5 5 5 5 5 5 5 5 5 3 5 5 5 5 5 5 5 5 3 5 5 5 5 5 5 5 5 5 5 5 5 5 5 5 5 5 5 3 5 5 5 5 5 5 5 5 5 5 5 5 3 5 5 5 5 3 5 5 5 5 5 5 5 5 5 5 5 5 5 5 5 5 5 5 5 5 5 5 3 5 5 5 5 5 5 3 5 5 5 5 5 3 5 5 5 5 5 5 5 3 5 5 5 5 5 3 5 5 5 5 5 5 5 5 5 5 5 3 5 5 5 5 5 5 3 5 3 5 3 5 5 3 5 5 5 5 5 5 5 3 5 5 5 5 5 3 5 5 5 5 5 5 3 3 5 3 5 3 5 3 5 5 5 3 3 5 3 5 5 5 5 3 5 5 3 3 5 3 3 5 5 5 5 5 5 3 5 5 5 5 5 5 5 5 5 5 5 5 5 5 5 3 5 5 5 5 5 5 5 5 5 5 5 5 5 5 3 5 5 5 5 5 5 5 5 5 5 5 5 5 5 5 5 5 5 5 5 5 5 3 5 5 5 3 5 5 5 5 5 5 5 5 5 5 5 5 5 5 5 5 5 5 5 5 5 5 5 5 5 5 3 5 5 5 5 5 5 5 5 5 5 5 5 5 3 5 5 3 5 5 3 5 5 3 5 5 5 5 5 5 3 5 5 5 5 5 5 5 5 5 5 3 5 5 5 5 5 5 5 5 5 5 3 5 5 5 5 5 5 5 5 5 5 5 5 5 5 5 5 5 5 5 5 5 5 5 5 5 3 5 5 5 5 5 5 5 5 3 5 5 5 5 5 5 3 5 5 5 5 5 5 5 5 5 5 5 5 5 5 5 5 5 3 5 5 5 5 5 5 5 5 5 5 5 5 5 5 5 5 5 5 5 5 5 5 5 5 5 5 5 5 5 5 5 5 5 5 5 5 5 5 5 5 5 5 5 5 5 3 5 5 5 5 5 5 5 5 5 5 5 5 5 5 5 5 5 5 5 5 5 5 5 5 5 5 5 5 5 5 5 5 5 5 5 5 5 5 5 5 5 5 5 5 5 5 5 5 5 5 5 5 5 5 3 5 5 5 5 5 5 5 5 5 5 5 5 5 5 3 3 5 5 5 5 5 5 5 3 5 5 5 5 5 3 5 5 3 5 3 5 3 5 5 5 5 3 3 5 3 5 5 3 5 5 3 3 3 5 5 3 5 3 5 5 5 5 5 5 5 5 5 5 5 5 5 5 5 5 5 5 3 5 5 5 5 5 3 5 5 5 5 5 5 5 5 5 5 3 5 5 5 5 5 5 5 3 5 3 5 5 3 5 5 5 3 5 5 5 3 5 5 5 3 5 3 5 5 3 5 3 3 3 5 5 5 5 3 5 3 5 5 5 5 5 3 5 5 5 5 3 5 3 5 5 5 5 5 5 5 5 5 3 5 3 5 5 5 5 3 5 5 5 3 3 5 5 3 5 5 3 5 5 5 5 5 3 5 5 3 5 5 5 5 5 5 3 5 3 3 3 5 5 5 5 3 5 5 5 5 5 5 5 5 5 5 5 5 5 5 5 5 5 5 5 5 5 5 5 5 5 5 5 5 5 5 5 5 5 5 5 5 5 5 5 5 5 5 5 5 5 5 5 5 5 5 5 3 5 5 3 5 5 5 5 5 3 5 5 5 5 5 5 5 5 5 5 5 3 5 5 3 5 3 5 5 5 5 3 5 5 3 5 5 5 3 3 5 3 5 3 5 3 3 5 3 5 5 5 3 5 5 5 5 5 3 5 5 3 3 5 3 5 5 5 5 5 5 5 5 5 3 5 5 3 5 5 3 5 5 3 3 3 5 5 3 5 5 3 5 3 3 5 5 3 5 5 3 3 5 5 5 5 3 5 5 5 5 3 5 5 5 5 5 5 5 5 5 5 5 3 5 5 5 5 5 5 3 5 3 5 5 5 3 5 3 5 5 5 3 5 5 5 5 5 5 5 3 5 5 5 3 5 5 5 3 5 5 5 5 5 5 5 5 5 5 5 5 5 5 5 5 5 5 5 5 5 5 5 5 5 5 5 5 5 5 3 5 5 5 5 3 5 5 3 5 5 5 5 5 5 3 5 5 5 3 5 5 5 5 5 5 5 5 5 5 3 5 3 3 5 5 5 3 5 5 5 5 5 5 5 5 5 3 5 5 5 5 5 3 5 5 5 5 3 5 5 5 3 3 5 5 5 5 3 5 5 5 5 5 5 3 5 5 5 5 5 5 5 5 5 5 5 3 5 5 5 5 3 3 5 5 5 5 5 3 5 3 5 5 3 5 3 5 5 5 5 3 5 5 3 5 5 5 3 5 5 5 5 5 5 5 5 5 5 5 5 5 5 5 5 5 5 5 3 5 3 5 5 5 5 5 5 5 5 5 5 5 5 5 5 5 5 5 5 5 5 5 5 5 5 5 5 5 5 5 5 5 5 5 5 5 3 3 5 5 5 5 5 5 5 5 5 3 5 5 5 5 5 5 5 3 5 5 5 5 5 5 5 5 5 5 5 5 5 5 5 5 5 5 5 5 5 5 5 5 5 5 5 5 5 3 5 5 5 5 5 5 5 5 3 5 5 5 3 5 5 5 3 5 3 5 5 5 5 5 5 3 5 5 5 5 5 5 5 5 5 5 3 3 5 5 3 5 5 5 5 3 5 5 3 5 3 5 5 5 5 5 5 5 3 3 5 5 5 5 5 5 5 5 5 5 5 5 5 5 5 5 5 5 5 5 5 5 5 3 5 5 5 5 5 5 3 5 5 5 5 5 5 3 5 5 5 5 5 5 5 5 5 5 5 5 5 5 3 3 5 5 5 5 5 3 5 5 5 5 5 5 5 3 5 5 5 3 5 5 5 5 5 5 5 5 3 5 3 3 5 5 5 5 3 5 3 3 3 5 5 5 5 3 5 5 3 5 5 3 5 5 5 5 5 5 5 5 5 5 5 5 5 5 5 5 5 5 3 5 5 5 5 5 5 3 5 5 5 5 5 5 5 5 5 5 3 5 5 5 5 5 5 3 5 5 5 5 5 5 5 5 5 5 5 5 5 5 5 3 5 5 5 5 5 5 3 5 5 5 5 5 5 5 3 5 5 3 5 5 5 5 3 3 5 5 5 5 5 5 5 5 5 3 5 5 5 5 5 5 5 5 5 5 5 5 5 5 3 5 5 5 5 5 5 5 5 5 5 5 5 5 3 5 5 5 5 5 5 5 5 5 5 5 3 5 3 5 3 5 5 5 5 5 3 5 5 5 5 5 5 5 5 5 5 3 3 5 5 3 5 3 5 5 5 5 5 5 5 5 5 5 5 5 5 5 5 5 5 5 5 5 3 5 5 3 5 5 5 5 5 5 5 5 5 5 5 3 5 3 5 5 5 5 5 5 5 5 3 5 5 5 5 5 5 5 3 5 5 3 5 5 5 5 5 5 3 5 5 5 3 5 5 3 5 3 5 3 5 5 5 3 5 5 5 5 5 5 5 5 3 5 5 3 3 5 5 3 5 5 3 5 5 5 5 5 5 5 5 5 5 5 5 5 5 5 5 5 5 5 5 3 5 5 5 5 5 5 3 5 5 5 5 3 5 5 5 5 5 5 3 5 5 5 5 5 5 5 5 5 5 5 5 5 5 5 5 5 5 5 5 5 5 5 5 5 5 5 5 5 5 5 5 5 5 5 5 5 5 5 5 5 3 5 5 5 5 5 3 5 5 5 5 5 3 3 5 5 5 5 5 5 5 5 5 5 5 5 5 3 5 5 3 5 5 5 5 5 5 5 5 5 5 5 5 3 5 5 3 5 5 5 5 5 5 5 5 5 5 5 5 5 5 5 5 5 5 5 5 5 5 5 5 5 5 5 5 5 5 5 5 5 5 5 5 5 3 5 5 5 5 5 5 5 5 5 5 5 5 5 5 5 5 5 5 5 5 5 5 5 5 5 5 5 5 5 5 5 5 5 5 5 5 5 5 5 5 5 5 5 5 5 5 5 5 5 5 5 5 5 5 5 5 5 5 5 5 5 5 5 5 5 5 5 5 5 3 5 5 5 5 3 5 5 5 5 5 5 5 5 5 5 5 5 5 5 5 5 5 5 5 5 3 5 5 5 5 5 5 5 5 5 5 5 5 5 5 5 5 5 5 3 5 5 5 5 3 5 5 5 5 5 5 3 3 5 5 5 5 5 5 3 5 5 5 5 3 3 5 5 5 5 3 5 5 5 5 3 3 3 5 5 5 5 5 3 5 5 5 5 3 5 5 5 5 5 5 5 5 5 5 5 3 5 5 3 5 5 5 5 5 5 5 5 5 5 5 5 5 5 5 3 5 5 5 5 5 5 5 5 5 3 5 5 3 3 5 5 5 5 5 5 3 5 5 5 3 5 5 5 3 5 5 5 3 5 5 5 3 3 5 5 3 5 5 5 5 3 5 5 5 3 5 3 5 5 5 3 3 5 5 5 5 5 5 5 3 5 5 5 3 3 5 3 5 5 3 5 5 5 5 5 5 5 5 5 3 3 5 5 5 5 5 3 5 5 5 3 5 5 3 5 5 5 5 5 5 5 3 5 5 5 5 3 3 5 5 3 5 5 5 5 3 5 5 5 5 5 5 3 5 5 5 5 5 5 5 5 3 5 5 5 5 5 5 5 5 5 5 5 5 3 5 5 5 5 5 5 5 5 5 5 5 5 5 5 5 5 5 5 5 5 5 5 5 5 5 3 5 5 5 3 5 5 5 5 5 3 5 3 5 5 5 5 5 5 5 5 5 5 5 5 5 5 5 5 5 5 5 5 5 5 3 5 5 5 5 3 5 5 5 5 3 5 5 5 5 5 5 5 3 5 5 5 5 5 5 5 5 5 5 5 5 5 5 5 5 5 5 3 5 3 5 5 5 5 5 3 5 5 5 5 5 5 5 3 5 5 5 5 5 5 5 5 5 5 5 5 5 5 5 5 5 5 5 5 5 5 5 5 5 5 5 5 5 5 5 5 5 5 5 5 5 5 5 5 5 3 5 5 5 5 5 5 5 5 5 3 5 5 3 5 5 5 5 5 5 3 5 3 5 3 3 3 5 3 5 3 3 5 3 5 5 5 5 5 5 5 5 5 5 5 5 5 5 5 5 5 5 3 5 5 5 5 5 5 5 5 5 5 5 5 5 3 5 5 5 5 5 5 5 5 5 5 3 3 5 5 5 3 3 5 5 3 5 5 5 5 5 5 5 5 3 5 5 3 5 5 3 5 5 5 5 5 5 5 5 5 5 5 5 5 5 5 5 5 5 5 5 5 5 5 5 5 5 5 5 5 5 5 5 5 5 5 5 5 5 5 5 5 5 5 5 3 5 5 5 5 5 5 5 5 5 3 5 5 5 3 5 5 5 5 5 5 5 5 5 5 5 5 5 5 5 5 5 5 5 5 5 5 5 5 5 5 5 5 5 5 5 3 5 5 5 5 5 5 3 5 5 5 5 5 5 5 5 5 5 5 3 5 3 5 5 5 5 5 5 5 5 5 5 3 5 5 3 5 5 5 5 5 5 5 5 5 5 5 5 5 5 5 5 5 5 5 5 5 5 3 5 5 5 5 3 5 5 5 5 5 5 3 5 5 5 5 5 5 5 5 5 5 5 5 5 5 5 5 5 5 5 5 5 5 5 5 5 3 5 5 5 5 3 5 5 5 5 3 5 5 3 3 5 5 5 5 5 5 5 3 5 5 5 3 5 5 5 3 5 5 5 5 5 5 3 5 5 5 5 3 5 5 5 5 3 5 5 3 5 3 3 5 5 5 5 5 5 5 5 5 5 5 5 3 3 5 5 5 3 5 5 5 5 5 5 5 5 5 5 3 5 5 5 5 5 5 3 5 5 5 5 5 5 5 5 5 5 5 5 5 5 5 5 5 5 5 5 5 5 5 5 5 5 5 5 3 5 5 5 5 5 5 5 5 3 5 5 3 5 5 5 5 5 3 5 5 3 5 5 5 5 5 5 3 5 5 5 5 5 5 5 5 5 5 5 5 5 5 5 5 3 5 5 5 3 5 5 5 5 5 5 5 5 5 5 5 5 5 5 5 5 5 5 5 5 5 5 5 3 5 3 5 5 5 5 5 5 5 5 5 5 5 5 5 5 5 5 5 5 5 5 5 5 5 5 5 5 3 5 5 5 3 3 5 5 5 5 5 5 5 5 5 5 5 5 3 5 5 5 3 5 5 5 3 5 5 5 3 5 5 5 5 5 5 5 5 3 5 5 3 5 5 5 5 5 5 3 5 5 5 5 5 5 5 5 3 5 3 3 3 5 3 5 5 3 5 5 5 5 5 5 5 5 5 3 3 5 5 5 3 5 3 5 5 5 5 5 5 5 3 5 5 5 5 5 5 5 5 5 5 5 5 5 3 5 5 3 5 5 3 5 5 5 5 5 5 5 5 5 5 5 5 5 3 5 5 5 5 5 5 5 5 5 5 5 5 3 5 5 5 5 5 5 5 5 5 5 5 5 5 5 3 5 3 5 5 5 5 5 5 5 5 5 5 5 5 5 5 5 5 5 5 5 5 3 5 5 5 3 5 5 5 3 5 5 5 5 3 5 5 5 3 5 3 5 3 3 5 5 5 5 5 5 5 3 5 5 5 5 5 5 3 3 5 5 5 5 5 5 5 5 5 5 5 5 5 5 5 5 5 5 5 5 5 5 5 5 5 5 5 5 5 5 5 5 5 5 5 5 5 5 5 5 5 5 5 5 5 5 5 5 5 5 5 5 5 5 5 5 5 5 5 5 5 5 5 5 5 5 5 5 5 5 5 5 5 5 5 5 5 5 5 5 5 5 5 5 5 5 5 5 5 5 5 5 5 5 5 5 5 5 5 5 5 5 5 5 5 5 5 5 5 5 5 5 5 5 5 5 5 5 5 5 5 5 5 5 5 5 5 5 5 5 5 5 5 5 5 3 3 5 5 5 3 5 3 5 5 5 3 5 5 5 5 5 5 5 3 5 5 5 5 3 5 5 5 5 5 5 3 3 5 5 5 5 5 5 5 5 5 5 5 5 3 5 5 5 5 5 5 5 5 3 5 5 5 5 5 5 5 5 5 5 5 5 5 3 3 5 5 5 5 5 3 5 5 5 5 5 5 5 5 3 3 5 5 5 5 5 5 5 3 5 5 5 5 5 5 5 5 5 5 5 5 5 5 5 5 5 5 5 5 5 5 5 5 5 5 5 5 5 5 5 5 5 5 5 5 5 5 5 5 5 5 5 5 5 5 5 5 5 5 5 5 5 5 5 5 5 5 5 5 5 5 5 5 5 3 5 5 5 5 3 3 5 5 3 5 3 3 5 5 5 5 5 5 5 3 5 5 5 5 5 5 5 3 5 5 3 3 5 5 5 5 5 5 5 5 5 5 5 5 5 5 3 5 5 5 5 3 5 5 5 5 3 5 5 5 5 5 3 5 5 3 5 5 5 5 5 5 5 5 5 5 5 5 3 5 5 3 5 5 5 5 5 5 3 5 5 5 3 5 5 5 5 3 5 5 5 5 5 3 5 5 5 5 5 5 5 5 5 5 3 5 5 5 5 5 5 5 5 5 5 5 5 5 3 5 5 5 5 5 5 5 5 5 3 5 5 5 5 5 5 5 5 5 5 5 5 5 5 5 3 5 5 5 3 5 5 5 5 5 5 5 5 5 5 5 5 5 5 5 5 5 3 5 5 3 5 3 5 3 5 3 5 5 5 3 5 5 3 5 5 3 5 5 5 5 5 3 5 5 3 5 5 5 5 5 5 5 3 3 5 5 5 5 5 5 5 3 5 5 5 5 5 5 5 5 5 5 5 5 5 5 5 5 5 5 5 5 5 5 5 5 5 5 5 5 5 5 5 5 5 5 5 5 5 5 5 5 5 5 5 5 5 5 5 5 5 5 5 5 5 5 5 5 5 5 5 5 5 5 5 5 5 5 5 5 5 5 5 5 5 5 5 5 5 5 5 5 5 5 5 5 5 5 5 5 5 5 5 5 5 5 5 5 3 5 5 5 5 5 3 5 5 5 5 5 5 5 5 5 5 5 5 3 5 5 5 5 5 5 3 5 5 5 5 5 5 3 5 5 5 3 5 5 5 5 5 5 5 5 5 5 5 3 5 5 5 3 5 5 5 5 5 5 5 5 5 5 5 3 5 5 5 3 5 5 5 3 5 5 5 5 5 5 5 5 5 5 5 5 5 5 3 5 5 5 3 5 5 3 5 5 5 5 5 5 5 5 5 5 5 5 5 5 5 5 5 5 5 5 5 5 5 5 5 5 5 5 5 5 5 5 5 5 5 5 5 5 5 5 5 5 5 5 5 5 5 5 5 5 5 5 5 5 5 5 3 5 5 5 5 3 5 5 5 5 3 5 5 5 5 5 5 5 5 5 5 5 5 5 5 5 5 5 5 5 5 5 5 5 5 5 5 5 5 5 5 5 5 5 5 5 5 5 5 5 5 5 5 5 5 5 5 5 5 5 5 5 5 5 5 5 5 5 5 5 5 5 5 3 5 5 3 5 5 5 3 5 5 3 5 5 5 3 3 5 5 5 5 5 5 3 5 3 3 5 5 5 5 3 5 5 5 5 5 5 5 5 5 5 3 5 5 5 5 5 5 3 5 3 5 5 5 5 5 5 3 5 5 5 5 5 5 5 5 5 5 5 5 5 5 5 5 5 5 3 5 5 5 5 5 5 5 5 5 5 5 5 5 5 5 5 5 5 3 5 5 5 5 3 5 5 5 3 5 5 5 5 5 5 3 5 5 5 3 5 5 3 5 5 5 5 5 5 5 5 5 5 5 5 3 5 3 5 5 5 5 5 5 5 5 5 3 5 5 5 5 5 5 5 3 3 5 5 3 3 5 5 3 3 5 3 3 5 5 5 3 5 5 5 5 5 3 3 5 5 5 5 5 5 5 5 5 5 5 5 5 5 5 5 5 3 5 5 5 5 5 5 5 5 5 5 5 3 5 5 5 5 3 5 5 5 3 5 5 5 5 5 5 5 5 3 5 5 5 3 5 5 5 5 5 5 5 5 5 5 5 5 5 5 5 5 5 5 5 5 5 5 5 5 5 5 5 5 3 5 5 3 5 5 5 5 3 5 5 5 5 5 5 3 5 5 5 5 5 5 5 5 5 5 5 5 5 3 5 5 5 5 5 5 5 5 5 5 5 5 5 5 5 5 5 5 5 5 3 5 5 5 5 3 5 5 3 3 5 5 5 5 5 3 5 5 5 5 5 5 5 5 5 5 5 3 5 5 5 5 5 5 3 5 5 5 5 5 5 5 5 5 5 5 5 5 5 5 5 5 5 3 3 5 5 5 5 5 5 5 5 5 5 5 5 5 5 5 5 3 5 5 3 5 5 5 5 5 5 5 5 5 5 5 5 5 5 5 5 5 5 5 5 5 3 5 5 3 5 5 5 3 5 5 5 5 5 3 3 5 5 5 5 3 5 5 3 5 5 5 5 5 5 5 5 5 3 5 3 5 5 5 5 5 5 5 5 5 3 5 5 5 5 5 3 5 5 5 5 5 5 5 5 5 5 5 3 5 5 5 5 3 3 5 5 5 5 5 5 5 5 5 5 3 5 5 5 5 5 3 5 5 5 3 5 5 5 5 5 5 5 5 5 5 5 5 5 5 5 5 5 5 5 5 5 3 5 5 3 3 5 5 5 3 5 5 3 5 5 5 5 5 5 5 5 5 5 5 5 5 5 3 5 5 5 3 5 5 5 5 5 5 5 5 5 5 5 5 5 5 5 5 5 3 5 3 5 5 5 5 5 5 5 5 5 5 5 5 5 5 5 5 3 5 5 5 3 5 5 5 3 3 3 5 5 3 5 5 5 5 3 5 5 5 3 5 5 5 5 5 5 3 5 5 5 5 5 5 5 5 5 3 5 5 5 5 5 5 5 5 3 5 5 5 5 5 5 5 5 5 5 5 3 5 5 3 5 5 3 5 5 5 3 5 5 5 5 5 5 5 5 5 5 5 5 5 5 5 5 5 3 5 5 3 3 5 3 5 5 5 5 3 5 5 5 5 5 5 5 5 5 5 5 5 5 5 5 5 5 5 3 5 5 5 5 5 5 5 5 5 5 5 5 5 5 5 5 5 5 5 5 5 5 5 5 5 5 5 5 5 5 5 5 5 5 5 5 5 5 5 5 3 5 5 5 5 5 5 5 3 5 5 3 5 5 5 5 5 5 5 5 5 5 5 5 5 5 5 5 5 5 5 5 5 3 5 5 5 5 5 5 5 3 5 5 5 5 5 3 5 5 5 5 5 5 5 5 5 5 5 3 5 5 3 5 5 5 5 5 5 5 3 5 5 5 5 5 5 5 5 5 5 5 5 5 3 5 5 5 5 5 5 5 5 5 5 3 5 5 5 5 5 5 5 5 5 5 3 5 3 5 5 5 5 5 3 5 5 5 5 5 3 5 5 5 3 5 5 3 5 3 5 5 5 5 5 5 5 5 5 5 5 5 5 5 5 5 5 5 5 5 3 5 3 5 5 5 5 5 5 5 5 5 5 5 5 5 5 5 3 5 5 3 5 5 5 5 5 5 5 5 5 3 5 5 5 5 3 5 5 5 3 5 5 5 3 5 5 3 3 5 5 5 3 5 5 3 5 5 3 5 3 5 5 5 5 5 3 5 5 5 3 5 5 5 3 5 3 5 5 3 5 5 5 5 5 5 3 5 5 5 5 3 5 5 5 3 5 3 5 5 5 5 5 5 5 5 3 5 5 5 5 5 5 5 5 5 5 5 5 5 5 5 5 5 5 5 3 5 5 5 5 3 5 5 5 3 5 5 5 3 5 5 5 5 5 5 5 5 3 5 5 5 5 5 5 5 5 5 5 3 5 5 5 5 3 5 5 5 5 5 3 5 3 5 5 5 5 5 5 5 5 5 5 5 5 5 5 5 5 5 5 5 5 5 5 3 5 3 3 5 5 5 5 5 5 5 5 5 5 5 5 5 5 5 3 5 5 5 5 5 3 5 5 5 5 5 5 3 5 5 5 5 5 5 5 5 5 5 5 5 5 5 3 5 5 5 5 5 5 5 5 5 5 5 5 5 5 5 5 5 5 5 5 5 5 5 3 3 5 5 5 3 3 5 5 5 5 5 5 5 5 5 5 5 3 5 5 5 5 5 5 5 5 3 5 5 3 5 5 3 5 5 5 5 5 5 5 5 5 5 5 3 5 5 5 5 5 5 5 5 5 5 5 5 5 3 5 5 5 5 3 5 5 5 5 5 3 5 5 5 5 5 5 5 5 5 5 5 5 5 5 5 5 5 5 5 5 5 5 5 5 5 5 5 5 5 5 5 5 5 5 5 5 5 5 5 5 5 5 5 5 5 5 5 5 5 5 5 5 5 5 5 5 5 5 5 5 5 5 5 5 5 5 5 5 5 5 5 5 5 5 5 5 5 5 5 5 5 5 5 5 5 5 5 5 5 5 5 5 5 5 5 5 5 5 5 5 5 5 5 5 5 5 5 5 5 5 5 5 5 5 5 5 5 5 5 5 5 5 5 5 5 5 5 5 5 5 5 5 5 5 5 5 5 5 5 5 5 5 5 5 5 5 5 5 5 3 5 5 5 5 5 5 5 5 5 5 5 5 5 5 5 5 5 5 5 5 5 5 5 5 5 5 5 5 5 5 5 5 5 3 5 5 5 5 3 3 5 5 5 5 5 5 5 5 5 3 5 5 5 5 5 5 5 3 5 5 5 5 5 5 5 5 5 5 5 5 5 5 5 5 5 5 5 5 5 5 5 5 5 5 5 5 5 5 5 5 3 5 3 5 5 5 5 5 3 3 5 5 5 5 5 5 5 5 5 5 3 5 5 5 3 5 5 5 5 5 5 5 5 5 5 5 5 3 5 5 5 5 3 5 5 5 5 5 5 5 5 5 5 5 5 5 5 5 5 5 5 3 5 3 5 5 3 5 5 5 5 3 5 3 5 5 5 5 5 5 5 5 5 5 5 3 5 5 5 5 5 3 3 5 5 5 5 5 3 5 5 5 5 5 5 5 5 5 5 5 5 5 5 5 5 5 5 3 5 5 3 5 5 3 5 5 5 5 5 5 5 5 3 3 5 5 3 5 5 5 5 5 5 5 5 5 5 5 5 5 5 5 5 5 5 5 5 5 5 5 5 5 5 5 5 5 5 3 5 5 3 5 5 3 5 3 5 5 3 5 5 3 5 3 5 5 5 5 5 5 5 5 5 5 3 5 5 5 5 5 5 5 5 3 5 5 5 5 5 3 3 5 5 5 3 5 5 3 5 5 5 5 5 3 5 5 5 3 5 5 5 5 5 5 5 3 5 5 3 3 5 5 5 5 5 3 5 5 5 5 5 3 5 5 5 5 5 5 3 5 5 3 5 5 5 5 3 5 5 5 5 3 5 5 5 3 5 5 5 5 5 5 3 5 5 5 5 5 5 5 5 5 5 5 5 5 5 5 5 5 5 5 5 5 3 5 3 3 5 5 5 3 5 5 5 5 5 5 5 5 5 3 5 5 5 3 5 5 5 5 5 5 5 5 5 5 5 3 5 5 5 3 5 5 5 5 5 5 5 5 5 5 5 5 5 5 5 5 5 5 5 5 5 5 5 5 5 5 5 3 5 5 5 5 5 5 5 5 5 5 5 5 3 5 5 5 5 5 5 5 3 5 5 3 5 5 5 5 5 5 5 5 3 3 5 5 3 5 3 5 5 5 5 5 5 5 5 5 5 5 5 5 5 5 5 5 3 5 5 5 3 5 3 5 5 5 5 3 5 3 5 5 5 5 5 5 5 5 5 5 5 5 5 5 5 5 5 5 5 5 5 5 5 5 5 5 5 5 3 5 5 5 3 5 5 5 5 3 5 5 5 5 5 5 5 5 5 5 5 5 5 5 5 5 5 5 5 5 5 5 5 5 5 5 5 5 5 5 5 5 5 5 5 5 5 5 5 5 5 5 5 5 5 5 5 5 5 5 5 5 5 5 5 5 5 5 5 5 5 5 5 5 5 5 5 5 5 5 5 5 5 5 5 5 5 5 5 5 5 5 5 5 5 5 5 5 5 5 5 5 5 5 5 5 5 5 5 5 5 5 5 5 5 5 5 5 5 5 5 5 5 5 5 5 5 5 5 5 5 5 5 5 5 5 5 5 5 5 5 5 5 5 5 5 5 5 5 5 5 5 5 5 5 5 5 5 5 5 5 5 5 5 5 3 5 5 5 5 5 5 5 5 5 5 5 5 5 5 5 5 5 5 5 5 5 5 5 5 5 5 5 5 5 5 5 5 5 5 5 5 5 5 5 3 5 5 5 5 5 5 5 5 5 5 5 5 5 3 5 5 5 5 3 3 5 5 5 3 5 5 5 5 5 5 5 5 5 5 5 5 5 5 5 5 3 5 5 5 5 5 5 5 5 5 5 5 5 5 3 5 5 5 5 5 5 5 3 3 5 5 5 5 5 5 5 5 3 3 5 5 5 5 5 5 5 5 5 5 5 3 5 5 5 3 5 5 3 5 5 3 5 5 5 5 5 5 5 5 5 5 5 3 3 5 5 5 3 5 5 5 5 5 5 5 5 3 5 5 5 5 3 3 5 5 5 5 5 5 5 5 5 3 5 5 5 5 5 3 5 5 3 5 5 5 5 5 5 3 5 3 5 5 5 5 5 5 5 5 3 5 3 5 5 5 5 5 5 5 5 5 5 5 3 5 5 5 5 5 5 5 5 5 5 5 5 3 5 5 5 5 5 5 5 5 5 5 5 5 5 5 3 5 5 5 5 3 5 5 5 5 5 3 5 5 5 5 5 5 5 5 5 3 5 5 5 5 5 5 3 5 5 5 5 5 5 3 5 5 5 5 5 5 5 5 5 5 5 5 5 5 5 5 5 5 5 3 5 3 5 5 5 5 5 5 5 5 5 5 5 5 5 5 5 5 5 5 3 5 5 5 5 5 5 5 3 5 5 5 5 5 5 5 5 5 5 5 5 5 3 3 5 5 5 5 5 5 5 5 5 5 5 5 5 5 5 5 5 5 5 5 5 5 5 5 5 5 3 5 5 5 5 5 3 5 5 5 5 5 5 5 5 5 5 5 5 5 5 5 5 5 5 5 5 5 5 5 3 5 5 5 5 5 5 5 5 3 5 5 5 5 5 5 5 5 5 3 5 5 3 5 5 5 5 5 5 5 3 5 5 5 5 3 5 5 5 5 3 5 5 5 5 5 5 5 5 3 5 3 5 5 3 5 3 5 5 5 5 3 5 5 5 3 5 5 5 3 5 5 5 3 5 5 5 5 5 5 5 5 5 5 5 5 3 5 5 5 5 5 3 5 5 5 5 5 5 5 5 5 5 5 5 5 5 5 5 5 3 5 5 5 5 5 5 5 5 5 5 3 5 5 5 5 5 3 5 5 5 3 5 5 5 5 5 5 5 5 5 5 5 5 5 5 5 5 3 5 5 3 5 5 5 3 5 5 5 5 3 5 5 5 5 3 3 5 5 5 3 5 5 3 5 5 5 5 3 5 5 5 5 5 5 5 5 5 5 5 5 5 5 5 5 5 5 5 5 5 5 5 5 5 5 5 5 5 5 5 5 5 5 5 5 5 5 5 5 5 5 5 5 5 5 5 5 5 5 5 5 5 5 5 5 5 5 5 5 5 5 5 5 5 5 5 5 5 5 5 5 5 5 3 5 3 5 5 5 5 5 3 5 5 5 5 3 5 5 5 5 5 5 5 5 5 3 5 5 5 5 5 5 5 5 5 5 5 5 5 5 5 5 5 3 5 5 5 5 5 5 5 5 5 5 5 5 5 5 5 5 5 5 5 5 5 5 5 5 5 5 5 5 5 5 5 5 5 5 5 5 5 3 5 5 5 5 5 5 5 3 5 5 3 5 5 5 5 5 5 5 5 5 5 5 5 5 5 3 5 5 5 3 5 5 5 5 5 3 5 5 5 5 5 5 3 5 5 5 5 5 3 5 3 5 5 5 5 5 5 5 5 5 5 5 3 5 5 5 5 5 5 3 5 5 5 5 3 5 3 5 3 5 5 5 3 5 5 5 5 5 5 5 5 5 5 5 5 5 3 5 5 5 5 3 5 5 5 5 5 5 5 5 5 5 5 3 5 3 5 5 5 3 5 5 5 5 3 5 5 5 5 5 5 3 3 5 5 5 5 5 5 5 5 5 5 5 5 5 5 5 3 5 5 5 5 5 3 3 5 5 5 3 5 3 5 5 5 5 5 3 5 5 3 5 5 5 5 5 3 5 5 5 3 5 5 3 5 3 5 5 5 5 5 3 5 5 5 5 5 5 5 5 5 3 5 5 5 5 5 5 5 5 5 5 5 5 3 5 5 5 5 5 5 5 5 5 3 5 5 5 5 5 5 5 5 5 5 5 5 5 5 5 5 5 3 5 5 5 3 5 5 5 5 5 5 5 5 5 5 5 5 5 5 5 5 5 5 5 5 5 5 5 5 5 5 5 5 5 5 5 5 5 5 5 3 5 5 5 3 5 5 5 5 5 5 3 5 3 5 5 5 3 5 5 5 5 5 5 5 5 3 5 5 5 5 5 5 5 5 5 5 5 5 5 5 5 5 5 3 5 5 5 5 5 5 5 3 5 5 3 5 5 5 5 5 5 3 5 3 5 5 3 5 5 3 5 3 3 5 5 5 5 3 5 5 5 5 5 5 5 5 5 5 5 3 3 5 5 5 3 5 5 5 3 3 5 5 5 5 5 5 5 5 5 3 5 5 5 5 5 5 5 5 5 5 5 5 3 3 5 3 5 5 3 5 5 5 3 3 3 5 5 5 5 3 5 5 3 5 5 5 3 5 5 5 5 5 5 5 3 5 5 5 3 5 5 5 5 5 5 3 5 5 5 5 5 5 5 5 5 5 3 5 5 5 5 5 5 5 5 5 5 5 5 5 5 5 5 5 5 5 5 5 5 5 5 5 5 5 5 5 3 5 5 5 3 5 5 3 5 3 5 3 3 5 5 5 5 5 5 5 5 5 5 5 5 3 3 5 5 5 5 5 5 5 5 5 5 5 5 5 5 5 5 5 5 5 5 5 5 5 5 5 3 5 5 5 5 5 5 5 5 5 5 5 5 5 5 5 5 3 5 5 3 5 5 5 5 5 5 5 5 5 5 3 5 3 5 5 5 3 5 5 5 5 5 3 5 5 3 5 5 5 5 5 5 5 5 5 5 5 5 5 5 5 5 5 5 5 5 5 5 5 5 5 5 5 5 5 5 5 5 5 5 5 5 5 5 5 5 5 5 5 5 5 5 5 5 5 5 5 5 5 5 3 5 5 5 3 5 5 5 5 5 5 5 5 5 5 5 5 5 5 5 5 5 5 5 5 5 5 5 5 5 5 5 5 5 5 5 3 5 5 3 5 3 5 5 5 3 5 5 5 5 3 5 5 5 5 5 5 5 5 5 3 5 5 5 5 5 5 5 3 5 3 5 5 5 5 3 5 5 3 5 5 5 5 3 5 5 5 3 5 5 5 5 5 5 5 5 5 5 5 5 3 5 5 5 5 5 5 5 5 5 5 5 5 5 5 5 5 5 5 5 5 5 5 5 5 5 5 5 3 5 5 5 5 5 5 5 3 3 5 5 5 5 5 5 5 5 5 5 5 5 5 5 5 5 5 5 5 5 5 5 5 5 5 5 5 5 5 5 5 5 5 5 5 5 5 5 5 5 5 5 5 5 5 5 5 3 5 5 5 5 5 3 5 5 3 5 5 5 5 5 3 5 3 5 5 5 5 5 5 5 5 5 3 5 5 5 5 3 5 3 5 5 5 5 5 5 3 5 5 5 5 5 3 5 5 5 5 5 5 5 5 5 5 5 5 5 5 5 5 5 5 5 5 5 5 5 5 5 5 5 5 5 5 5 5 5 5 5 5 5 3 5 5 5 5 5 3 5 5 5 3 5 5 5 5 5 5 5 3 5 3 3 5 5 5 5 5 5 5 5 5 5 5 5 5 5 5 5 5 5 5 5 5 5 5 5 5 5 5 5 3 5 5 3 5 5 3 5 5 5 3 5 5 5 5 5 5 5 5 5 5 5 5 5 5 5 5 5 5 5 5 5 5 5 5 5 5 5 5 3 5 5 3 5 5 3 5 5 3 5 3 5 3 5 5 5 3 5 5 5 3 5 5 3 5 5 5 5 3 5 5 3 3 5 5 5 5 5 5 5 5 5 5 5 5 3 5 3 5 5 3 5 5 3 5 5 5 5 3 5 3 5 5 5 5 3 5 5 3 3 5 5 5 5 5 5 5 5 3 5 3 5 3 5 5 5 5 3 5 5 5 3 5 3 5 5 5 5 5 5 5 5 5 5 5 5 5 5 5 5 5 5 5 5 5 5 5 5 5 5 5 3 5 5 5 5 5 5 3 5 5 5 5 5 5 5 5 5 5 5 5 5 5 5 5 5 5 5 5 5 5 5 5 5 5 5 5 5 5 5 5 5 5 5 5 5 5 5 3 5 5 5 5 3 5 5 3 5 5 5 5 3 5 5 5 5 5 5 3 5 5 5 5 5 5 5 5 3 5 3 5 5 5 5 5 3 5 3 5 5 5 5 5 3 5 5 5 5 5 5 5 5 5 5 3 5 5 5 5 5 5 5 5 5 5 5 5 5 5 5 5 5 5 3 5 5 3 5 5 5 5 5 5 5 5 5 3 5 5 5 5 5 5 5 5 5 5 5 5 5 5 5 5 3 5 5 5 5 3 5 5 3 5 5 5 5 5 5 3 5 5 5 5 5 5 3 5 5 5 5 5 5 5 5 3 5 5 5 5 5 5 5 5 5 5 5 3 5 5 5 5 5 5 3 5 5 3 5 5 5 5 5 5 5 5 5 5 5 5 5 5 5 5 5 5 5 5 5 5 5 5 5 5 5 5 5 5 5 5 5 5 5 5 5 5 5 5 5 5 5 5 5 5 5 5 5 5 5 5 5 5 5 5 5 5 5 5 3 5 5 5 5 5 5 5 5 5 5 3 5 5 5 5 5 5 5 5 5 5 5 5 5 5 5 5 5 5 5 5 5 5 5 5 5 3 5 3 5 5 5 5 5 5 5 5 5 5 3 5 5 5 3 5 5 5 5 5 5 5 5 5 5 5 5 5 5 5 5 5 5 5 5 5 3 3 5 5 5 3 5 5 3 5 5 3 5 5 5 5 5 3 5 5 3 5 3 5 5 5 5 5 5 5 5 5 5 3 5 5 3 5 5 5 5 5 5 5 3 5 5 5 3 5 5 5 5 5 3 5 3 5 5 5 5 5 5 5 5 5 3 5 5 5 5 3 3 5 5 5 5 5 5 5 5 5 5 5 5 5 5 5 5 5 5 5 3 5 5 5 5 3 5 5 5 5 5 5 3 5 5 5 5 5 3 5 5 3 3 5 5 5 5 5 3 5 5 3 3 5 5 5 5 5 5 5 5 5 3 3 5 5 5 5 3 5 5 3 3 5 3 3 5 5 3 5 3 3 5 5 5 5 3 5 5 5 5 5 5 5 5 3 5 5 5 5 5 5 5 5 5 5 5 5 5 5 5 5 5 5 5 5 5 5 3 3 5 5 5 5 5 5 5 5 5 5 5 5 5 3 5 5 5 5 5 5 5 5 5 3 5 5 5 5 5 5 3 5 5 3 5 3 5 5 5 5 3 5 3 5 3 5 5 3 3 5 5 5 3 3 5 5 5 5 5 3 5 3 5 5 5 5 5 5 5 5 5 5 5 5 5 5 5 5 5 5 5 5 5 3 5 5 5 3 3 5 5 5 5 5 5 3 3 5 3 5 5 5 3 5 5 5 5 5 5 5 5 5 5 5 5 5 5 5 5 3 3 5 3 3 5 5 3 5 5 3 5 5 5 5 5 5 5 5 5 3 5 5 3 5 5 5 5 5 5 3 5 5 5 5 5 3 3 5 5 3 5 3 5 5 5 5 3 5 3 5 5 3 5 5 5 3 5 3 5 5 5 3 5 5 3 5 5 5 3 5 5 5 3 5 3 5 5 5 5 5 3 3 5 3 3 5 5 5 3 5 3 5 5 3 5 5 5 5 5 3 5 5 5 5 5 5 5 5 3 3 5 5 5 3 3 3 5 5 5 5 5 5 3 5 5 5 5 5 5 5 5 5 5 5 5 5 5 5 5 3 5 5 5 5 5 3 5 5 5 5 5 5 5 5 5 5 5 5 5 5 5 5 5 5 5 5 5 5 5 3 5 3 5 5 5 5 3 5 5 5 5 5 5 5 5 5 5 3 5 5 5 5 5 5 5 5 3 5 5 3 5 5 5 5 3 5 3 5 5 5 3 5 3 5 5 3 3 5 5 5 5 5 5 5 5 5 5 5 5 3 3 5 5 5 3 5 5 5 5 3 5 3 5 5 5 5 3 5 5 3 5 5 3 5 3 5 5 3 5 5 3 5 5 5 5 5 3 5 3 5 5 5 3 5 5 5 5 5 5 5 3 5 5 3 5 5 5 5 5 3 5 5 5 5 5 5 5 5 3 5 5 5 5 5 5 5 3 5 5 5 5 5 5 5 5 5 5 5 5 5 5 5 5 5 5 5 5 3 5 5 3 5 5 5 5 5 5 5 5 5 5 5 3 3 5 5 3 5 5 5 5 5 5 5 5 3 5 5 5 5 5 5 5 3 5 5 5 5 3 5 5 3 5 3 5 3 5 5 3 5 3 5 5 5 5 3 5 5 5 5 5 5 5 5 5 5 5 5 5 5 5 5 3 5 5 5 3 5 5 5 5 5 3 5 5 5 5 3 5 5 3 3 5 5 5 3 5 3 5 3 3 5 5 5 5 5 5 3 5 5 5 3 5 5 5 5 5 5 5 5 5 5 5 3 5 5 5 5 5 3 5 3 5 5 5 3 5 3 5 5 5 5 5 5 5 3 5 5 5 3 5 5 5 5 5 5 5 5 5 5 5 5 5 5 5 5 5 5 5 5 5 5 5 5 3 5 5 5 5 5 5 5 5 5 5 5 5 5 5 5 3 5 5 3 5 5 5 5 5 3 5 5 5 5 5 3 5 3 5 5 5 5 3 5 5 3 5 5 5 5 3 5 3 5 5 5 5 3 3 3 5 5 5 5 5 5 5 3 5 5 5 5 5 3 5 5 5 5 5 5 5 5 5 5 3 5 5 5 5 5 5 5 5 5 5 5 5 5 5 5 5 5 5 5 5 5 5 3 3 3 5 5 5 5 5 5 5 3 5 5 5 5 5 3 5 5 5 5 5 5 3 5 5 5 5 3 5 5 5 5 5 5 5 5 5 5 5 5 5 3 5 5 3 5 5 5 5 5 3 5 5 3 3 5 5 5 5 5 5 5 5 5 5 5 5 5 5 5 3 5 5 3 5 5 5 5 5 5 5 5 5 5 3 5 5 5 5 5 5 5 5 5 5 5 5 5 5 5 3 5 5 5 5 5 5 5 3 5 5 5 5 3 5 5 3 5 5 5 5 5 5 5 5 5 5 5 5 5 5 5 5 5 5 5 3 5 5 5 5 3 5 5 5 5 5 5 5 5 5 5 5 5 5 5 3 5 5 5 5 5 5 5 5 5 5 5 5 3 5 5 5 3 5 3 3 5 5 5 5 5 5 3 5 5 5 3 5 3 5 5 5 5 5 5 5 5 3 5 5 5 5 5 3 5 5 5 5 5 5 5 3 5 5 5 3 3 5 5 5 5 5 5 5 5 3 5 5 5 5 5 5 5 5 5 5 5 3 5 5 3 5 5 5 5 5 5 5 5 3 5 5 5 5 5 5 5 5 5 5 5 5 5 5 5 5 5 5 5 5 5 5 5 5 5 5 5 5 5 3 5 5 3 3 5 3 5 5 3 5 5 3 5 5 5 3 5 5 5 5 5 5 5 5 5 5 5 5 5 3 5 5 3 5 3 5 5 5 5 5 5 3 5 5 5 5 3 5 5 5 5 5 3 5 3 5 5 5 5 5 3 3 5 3 5 5 5 5 5 5 5 3 5 5 5 5 5 5 5 5 5 3 5 5 5 5 3 5 5 5 5 5 5 5 5 5 3 5 5 5 5 5 5 5 5 5 5 5 5 5 5 5 5 5 5 5 5 5 5 5 5 5 5 5 5 5 3 5 5 5 5 5 5 5 5 5 3 5 5 3 3 3 5 5 3 5 3 5 5 5 5 5 5 5 5 
</DataArray>
</Cells>
<PointData Scalars="" Vectors="displacement," Tensors="">
<DataArray type="Float64" Name="displacement" NumberOfComponents="3" format="ascii">
-0.05000001183511734 -1.9913558134301923e-07 0 -0.047009341915155857 -0.00018947832850458151 0 -0.043145809640777771 -1.7168032564349973e-06 0 -0.05000001183511734 -1.9913558134301923e-07 0 -0.049992434232174109 1.7493606827064969e-06 0 -0.047009341915155857 -0.00018947832850458151 0 -0.049992434232174109 1.7493606827064969e-06 0 -0.047009341915155857 -0.00018947832850458151 0 -0.0465947631508416 0.00020565512526700123 0 -0.049999002698141233 -8.8796805716069337e-08 0 -0.048285091066217055 -4.9558456471446032e-05 0 -0.047009341915155857 -0.00018947832850458151 0 -0.04580733569010819 -0.00026172216414335124 0 -0.0465947631508416 0.00020565512526700123 0 -0.047009341915155857 -0.00018947832850458151 0 -0.044971834238905939 -0.00039620046039619446 0 -0.043145809640777771 -1.7168032564349973e-06 0 -0.047009341915155857 -0.00018947832850458151 0 -0.044971834238905939 -0.00039620046039619446 0 -0.04580733569010819 -0.00026172216414335124 0 -0.044320747921383838 -0.00056956128547166454 0 -0.044228236883533431 -0.00053446562866836403 0 -0.04481654137245613 -0.00044400610448539933 0 -0.044320747921383838 -0.00056956128547166454 0 -0.044145213548861383 -0.00057832855615467756 0 -0.044228236883533431 -0.00053446562866836403 0 -0.044264023846620607 -0.00033662488187267964 0 -0.045495404071858862 -0.00015308679347033211 0 -0.044320747921383838 -0.00056956128547166454 0 -0.044145213548861383 -0.00057832855615467756 0 -0.044217275721187721 -0.00059868335017561889 0 -0.044145213548861383 -0.00057832855615467756 0 -0.044233606746245761 -0.00050928304574883996 0 -0.043878483636636746 -0.0005068456187608657 0 -0.044145213548861383 -0.00057832855615467756 0 -0.044217275721187721 -0.00059868335017561889 0 -0.044233606746245761 -0.00050928304574883996 0 -0.044145213548861383 -0.00057832855615467756 0 -0.044228236883533431 -0.00053446562866836403 0 -0.043878483636636746 -0.0005068456187608657 0 -0.044971834238905939 -0.00039620046039619446 0 -0.044228236883533431 -0.00053446562866836403 0 -0.043575670287655272 -0.00051660988557620038 0 -0.044971834238905939 -0.00039620046039619446 0 -0.044228236883533431 -0.00053446562866836403 0 -0.04481654137245613 -0.00044400610448539933 0 -0.04481654137245613 -0.00044400610448539933 0 -0.04484031529396118 -7.270695169314846e-05 0 -0.04580733569010819 -0.00026172216414335124 0 -0.044971834238905939 -0.00039620046039619446 0 -0.04481654137245613 -0.00044400610448539933 0 -0.04580733569010819 -0.00026172216414335124 0 -0.044320747921383838 -0.00056956128547166454 0 -0.04481654137245613 -0.00044400610448539933 0 -0.044182410281105172 -0.00042951943886382717 0 -0.04481654137245613 -0.00044400610448539933 0 -0.04484031529396118 -7.270695169314846e-05 0 -0.044182410281105172 -0.00042951943886382717 0 -0.047340426410429168 -0.00016248858351094892 0 -0.047803573383670639 -0.00031782318413293254 0 -0.049987839485995042 -7.0733875209743249e-05 0 -0.049985961735782208 -2.6010065978788517e-05 0 -0.049950214360067163 -5.2984513207986497e-05 0 -0.049987839485995042 -7.0733875209743249e-05 0 -0.050002669642696014 -1.9973635715445644e-05 0 -0.049985961735782208 -2.6010065978788517e-05 0 -0.04484031529396118 -7.270695169314846e-05 0 -0.04580733569010819 -0.00026172216414335124 0 -0.0465947631508416 0.00020565512526700123 0 -0.047340426410429168 -0.00016248858351094892 0 -0.048285091066217055 -4.9558456471446032e-05 0 -0.050000010126685188 -5.4014224658733822e-10 0 -0.050002669642696014 -1.9973635715445644e-05 0 -0.050000002767855219 -2.5094579433580683e-08 0 -0.050000002767855219 -2.5094579433580683e-08 0 -0.049985961735782208 -2.6010065978788517e-05 0 -0.04999534394925581 -8.3368507534324158e-09 0 -0.050002669642696014 -1.9973635715445644e-05 0 -0.050000002767855219 -2.5094579433580683e-08 0 -0.049985961735782208 -2.6010065978788517e-05 0 -0.049995304507231095 6.3575722528400855e-08 0 -0.049964665407629047 2.3803745559478208e-06 0 -0.04995548024872222 -2.7377843853715744e-05 0 -0.049985961735782208 -2.6010065978788517e-05 0 -0.04999534394925581 -8.3368507534324158e-09 0 -0.049950214360067163 -5.2984513207986497e-05 0 -0.04999536137977658 4.4128419317744063e-08 0 -0.050108414166332292 -6.506354235920385e-05 0 -0.049964665407629047 2.3803745559478208e-06 0 -0.049882700673452011 -4.3487897652191394e-05 0 -0.049796878213999023 1.4960187494969592e-05 0 -0.049919170651539009 -2.2545136114934646e-06 0 -0.049987422267107839 3.5388725546610931e-05 0 -0.049964665407629047 2.3803745559478208e-06 0 -0.050000021209112518 -2.7164532416019258e-08 0 -0.049997459313101997 2.5433966703400249e-06 0 -0.049995304507231095 6.3575722528400855e-08 0 -0.049964665407629047 2.3803745559478208e-06 0 -0.050000021209112518 -2.7164532416019258e-08 0 -0.049882700673452011 -4.3487897652191394e-05 0 -0.049796878213999023 1.4960187494969592e-05 0 -0.049781064255646497 -0.00010113686732300621 0 -0.049964665407629047 2.3803745559478208e-06 0 -0.049882700673452011 -4.3487897652191394e-05 0 -0.04995548024872222 -2.7377843853715744e-05 0 -0.04995548024872222 -2.7377843853715744e-05 0 -0.049902276993568445 -0.00014423048574081093 0 -0.049870230402522628 -0.00010844160856991969 0 -0.049882700673452011 -4.3487897652191394e-05 0 -0.049781064255646497 -0.00010113686732300621 0 -0.049870230402522628 -0.00010844160856991969 0 -0.049882700673452011 -4.3487897652191394e-05 0 -0.04995548024872222 -2.7377843853715744e-05 0 -0.049870230402522628 -0.00010844160856991969 0 -0.049987839485995042 -7.0733875209743249e-05 0 -0.049950214360067163 -5.2984513207986497e-05 0 -0.049934103594209134 -0.00014249658692465798 0 -0.049999979391966862 -1.77292756862188e-08 0 -0.049999689221571393 -3.7974616307609511e-06 0 -0.049994221139052143 -2.109150467433821e-05 0 -0.050000190397345337 -2.7944662345826723e-07 0 -0.049186356036705015 9.9182731529203315e-05 0 -0.050000053318771033 -1.1252374587758184e-09 0 -0.050012221844685449 -1.742828971070086e-05 0 -0.050013551970377226 -3.1304652609835378e-05 0 -0.049999979391966862 -1.77292756862188e-08 0 -0.049999689221571393 -3.7974616307609511e-06 0 -0.050000021209112518 -2.7164532416019258e-08 0 -0.049999689221571393 -3.7974616307609511e-06 0 -0.049997459313101997 2.5433966703400249e-06 0 -0.049994221139052143 -2.109150467433821e-05 0 -0.049999689221571393 -3.7974616307609511e-06 0 -0.050000021209112518 -2.7164532416019258e-08 0 -0.049997459313101997 2.5433966703400249e-06 0 -0.049987422267107839 3.5388725546610931e-05 0 -0.049186356036705015 9.9182731529203315e-05 0 -0.049796878213999023 1.4960187494969592e-05 0 -0.049781064255646497 -0.00010113686732300621 0 -0.049661142158501176 -1.6950175721738547e-05 0 -0.047251991969765879 0.00018676930300844392 0 -0.046932429010222557 -0.00023082192837531914 0 -0.046444326734327801 -6.4984870721141659e-05 0 -0.047251991969765879 0.00018676930300844392 0 -0.046932429010222557 -0.00023082192837531914 0 -0.047402211605016294 -0.0006512400120839574 0 -0.046932429010222557 -0.00023082192837531914 0 -0.047402211605016294 -0.0006512400120839574 0 -0.046547470101954834 -0.00058999346922333274 0 -0.04636529032156695 -0.00060293310749982105 0 -0.044334127542904819 -0.00069844391926964227 0 -0.049186356036705015 9.9182731529203315e-05 0 -0.04636529032156695 -0.00060293310749982105 0 -0.049781064255646497 -0.00010113686732300621 0 -0.049661142158501176 -1.6950175721738547e-05 0 -0.049687130699183207 -0.00021676194274382544 0 -0.049781064255646497 -0.00010113686732300621 0 -0.049687130699183207 -0.00021676194274382544 0 -0.049809720324892004 -0.00021640564890875708 0 -0.04356304749937049 -0.00075115403869092749 0 -0.045247697580193411 -0.00048702600401105635 0 -0.04636529032156695 -0.00060293310749982105 0 -0.048412690954402003 -0.00034276242110204113 0 -0.045539291085958791 -0.00035044456143625436 0 -0.045620086521873278 -0.00077214010771755031 0 -0.046312114959762146 -0.00039857174115970058 0 -0.04636529032156695 -0.00060293310749982105 0 -0.04356304749937049 -0.00075115403869092749 0 -0.039977945520981786 -0.0012085763901217069 0 -0.039921053716448517 -0.001204748940369938 0 -0.039924291947497324 -0.0012362760354200138 0 -0.043449122903271978 -0.00084050948702567557 0 -0.042498053013663217 -0.00081205234952629903 0 -0.042540341794697761 -0.0010182268092917134 0 -0.043449122903271978 -0.00084050948702567557 0 -0.042943124552911369 -0.0010670482237472186 0 -0.042540341794697761 -0.0010182268092917134 0 -0.043449122903271978 -0.00084050948702567557 0 -0.043506835064551157 -0.0011378608028788444 0 -0.042943124552911369 -0.0010670482237472186 0 -0.04356304749937049 -0.00075115403869092749 0 -0.039631310824851711 -0.0011506055742611333 0 -0.039631310824851711 -0.0011506055742611333 0 -0.03691997684255019 -0.001816167871154454 0 -0.035964074867550398 -0.0020526320830535809 0 -0.035895511000442235 -0.0022894794038248291 0 -0.035816195276784715 -0.001936048237243135 0 -0.03636745333805242 -0.0016891753014932123 0 -0.03691997684255019 -0.001816167871154454 0 -0.04995548024872222 -2.7377843853715744e-05 0 -0.049957009085264723 -0.00016234157658649723 0 -0.049902276993568445 -0.00014423048574081093 0 -0.050108414166332292 -6.506354235920385e-05 0 -0.047803573383670639 -0.00031782318413293254 0 -0.049957009085264723 -0.00016234157658649723 0 -0.049902276993568445 -0.00014423048574081093 0 -0.049910940936265892 -0.00021239091696043528 0 -0.047803573383670639 -0.00031782318413293254 0 -0.047419558543544509 -0.00016023708111204574 0 -0.047803573383670639 -0.00031782318413293254 0 -0.045495404071858862 -0.00015308679347033211 0 -0.049902276993568445 -0.00014423048574081093 0 -0.049809720324892004 -0.00021640564890875708 0 -0.049910940936265892 -0.00021239091696043528 0 -0.049781064255646497 -0.00010113686732300621 0 -0.049870230402522628 -0.00010844160856991969 0 -0.049809720324892004 -0.00021640564890875708 0 -0.049902276993568445 -0.00014423048574081093 0 -0.049870230402522628 -0.00010844160856991969 0 -0.049809720324892004 -0.00021640564890875708 0 -0.046312114959762146 -0.00039857174115970058 0 -0.046585558114725652 -0.00091268077396955286 0 -0.047085205049971234 -0.00044920349474872605 0 -0.045620086521873278 -0.00077214010771755031 0 -0.046312114959762146 -0.00039857174115970058 0 -0.046585558114725652 -0.00091268077396955286 0 -0.045247697580193411 -0.00048702600401105635 0 -0.047419558543544509 -0.00016023708111204574 0 -0.048412690954402003 -0.00034276242110204113 0 -0.047419558543544509 -0.00016023708111204574 0 -0.043458044610435252 -0.00054722786183688903 0 -0.043440110265202531 -0.00054000907459965288 0 -0.043441831991900409 -0.00052668487419156281 0 -0.043440110265202531 -0.00054000907459965288 0 -0.043428162062311905 -0.00050594500305183629 0 -0.04343261626666578 -0.00053189405882068561 0 -0.045247697580193411 -0.00048702600401105635 0 -0.044136216102390706 -0.00031661556447426867 0 -0.045722956857765631 -0.00016887730299314048 0 -0.045511330887494802 -0.00036631355418724248 0 -0.045265251762013792 -9.6595980096298844e-05 0 -0.047419558543544509 -0.00016023708111204574 0 -0.045495404071858862 -0.00015308679347033211 0 -0.045511330887494802 -0.00036631355418724248 0 -0.045322894916812136 -0.00035207551851172968 0 -0.045265251762013792 -9.6595980096298844e-05 0 -0.044320747921383838 -0.00056956128547166454 0 -0.044182410281105172 -0.00042951943886382717 0 -0.044221468829102217 -0.00054208315608723944 0 -0.046876559945935169 2.9200178902441606e-05 0 -0.046936856387491226 8.20737232973609e-05 0 -0.046861312968539896 9.008815593638694e-05 0 -0.045495404071858862 -0.00015308679347033211 0 -0.044136216102390706 -0.00031661556447426867 0 -0.043428162062311905 -0.00050594500305183629 0 -0.043417615238168394 -0.00052795143805084996 0 -0.043435438379098218 -0.00054647048971789185 0 -0.043428162062311905 -0.00050594500305183629 0 -0.043417615238168394 -0.00052795143805084996 0 -0.04343261626666578 -0.00053189405882068561 0 -0.043417615238168394 -0.00052795143805084996 0 -0.04340286071742807 -0.00053120782424795517 0 -0.043435438379098218 -0.00054647048971789185 0 -0.043417615238168394 -0.00052795143805084996 0 -0.043441831991900409 -0.00052668487419156281 0 -0.04340286071742807 -0.00053120782424795517 0 -0.043440110265202531 -0.00054000907459965288 0 -0.04343261626666578 -0.00053189405882068561 0 -0.043441831991900409 -0.00052668487419156281 0 -0.043417615238168394 -0.00052795143805084996 0 -0.04343261626666578 -0.00053189405882068561 0 -0.043441831991900409 -0.00052668487419156281 0 -0.03496671939134266 -0.0010489529606229641 0 -0.035521362824419207 -0.0014115004930532395 0 -0.035368637490340533 -0.00093561865659601133 0 -0.043441831991900409 -0.00052668487419156281 0 -0.043464341304220479 -0.0004265789771881256 0 -0.04340286071742807 -0.00053120782424795517 0 -0.039266484229173039 -0.00072121522322523613 0 -0.039114958191953528 -0.0011992701020544744 0 -0.03496671939134266 -0.0010489529606229641 0 -0.035540080516525685 -0.0014913132336532079 0 -0.035521362824419207 -0.0014115004930532395 0 -0.043441831991900409 -0.00052668487419156281 0 -0.043464341304220479 -0.0004265789771881256 0 -0.043450678781021657 -0.00051389616855425455 0 -0.04340286071742807 -0.00053120782424795517 0 -0.043435438379098218 -0.00054647048971789185 0 -0.043115950308347181 -0.00050095987571748685 0 -0.043464341304220479 -0.0004265789771881256 0 -0.04340286071742807 -0.00053120782424795517 0 -0.043115950308347181 -0.00050095987571748685 0 -0.035801620264610506 -0.0019297733306166327 0 -0.035635413709107035 -0.0012068466538521097 0 -0.035971363850223634 -0.0014654223437589868 0 -0.03691997684255019 -0.001816167871154454 0 -0.039114958191953528 -0.0011992701020544744 0 -0.036085851797835813 -0.0018966151754529769 0 -0.035751230153860301 -0.0014127602119936074 0 -0.035911453244944845 -0.0012276781480575168 0 -0.03691997684255019 -0.001816167871154454 0 -0.035683378358598049 -0.0012146278907164327 0 -0.035801620264610506 -0.0019297733306166327 0 -0.035971363850223634 -0.0014654223437589868 0 -0.036056560516555557 -0.0017643391364807021 0 -0.035964074867550398 -0.0020526320830535809 0 -0.035801620264610506 -0.0019297733306166327 0 -0.036056560516555557 -0.0017643391364807021 0 -0.036085851797835813 -0.0018966151754529769 0 -0.035538425426696406 -0.0014916502936817343 0 -0.035751230153860301 -0.0014127602119936074 0 -0.039977945520981786 -0.0012085763901217069 0 -0.039924291947497324 -0.0012362760354200138 0 -0.03997602310713981 -0.001268468869515382 0 -0.043458044610435252 -0.00054722786183688903 0 -0.043441831991900409 -0.00052668487419156281 0 -0.043450678781021657 -0.00051389616855425455 0 -0.04356304749937049 -0.00075115403869092749 0 -0.039114958191953528 -0.0011992701020544744 0 -0.035521362824419207 -0.0014115004930532395 0 -0.035622903821808743 -0.0011397827327353986 0 -0.035368637490340533 -0.00093561865659601133 0 -0.039114958191953528 -0.0011992701020544744 0 -0.038833010514423366 -0.0011305967747880065 0 -0.035622903821808743 -0.0011397827327353986 0 -0.035751230153860301 -0.0014127602119936074 0 -0.035911453244944845 -0.0012276781480575168 0 -0.035538425426696406 -0.0014916502936817343 0 -0.035521362824419207 -0.0014115004930532395 0 -0.035751230153860301 -0.0014127602119936074 0 -0.035521362824419207 -0.0014115004930532395 0 -0.035622903821808743 -0.0011397827327353986 0 -0.035751230153860301 -0.0014127602119936074 0 -0.035635413709107035 -0.0012068466538521097 0 -0.035971363850223634 -0.0014654223437589868 0 -0.0360398992937076 -0.00092624266576193535 0 -0.035489926572948957 -0.00053641937223710247 0 -0.035870783924654814 -0.00022805810142485818 0 -0.0360398992937076 -0.00092624266576193535 0 -0.035683378358598049 -0.0012146278907164327 0 -0.035610244745902506 -0.00057246125608226251 0 -0.035635413709107035 -0.0012068466538521097 0 -0.035489926572948957 -0.00053641937223710247 0 -0.0360398992937076 -0.00092624266576193535 0 -0.035622903821808743 -0.0011397827327353986 0 -0.035911453244944845 -0.0012276781480575168 0 -0.035709587983787851 -0.00058840379673770168 0 -0.035622903821808743 -0.0011397827327353986 0 -0.035368637490340533 -0.00093561865659601133 0 -0.035709587983787851 -0.00058840379673770168 0 -0.035368637490340533 -0.00093561865659601133 0 -0.035709587983787851 -0.00058840379673770168 0 -0.035026129353888005 -0.00050630598192932179 0 -0.035610244745902506 -0.00057246125608226251 0 -0.035437035270284481 4.3347147569857684e-05 0 -0.035709587983787851 -0.00058840379673770168 0 -0.035026129353888005 -0.00050630598192932179 0 -0.03550776358815555 1.1628417825111679e-05 0 -0.035489926572948957 -0.00053641937223710247 0 -0.035870783924654814 -0.00022805810142485818 0 -0.035371175434434465 7.1602476570287936e-05 0 -0.043464341304220479 -0.0004265789771881256 0 -0.043087975275811138 -4.4555508101659287e-05 0 -0.043115950308347181 -0.00050095987571748685 0 -0.03496671939134266 -0.0010489529606229641 0 -0.035026129353888005 -0.00050630598192932179 0 -0.034430132361592938 -0.00060948908513557649 0 -0.039266484229173039 -0.00072121522322523613 0 -0.038736865642514114 -0.00033639320709331156 0 -0.03496671939134266 -0.0010489529606229641 0 -0.035368637490340533 -0.00093561865659601133 0 -0.035026129353888005 -0.00050630598192932179 0 -0.035026129353888005 -0.00050630598192932179 0 -0.034717233211603256 -0.00025060813323138354 0 -0.034937489194164791 3.637206683656258e-05 0 -0.034717233211603256 -0.00025060813323138354 0 -0.034430132361592938 -0.00060948908513557649 0 -0.034479351013477433 7.459458583343192e-05 0 -0.035026129353888005 -0.00050630598192932179 0 -0.034717233211603256 -0.00025060813323138354 0 -0.034430132361592938 -0.00060948908513557649 0 -0.034430132361592938 -0.00060948908513557649 0 -0.034179034438215794 -7.0882352205685908e-06 0 -0.034479351013477433 7.459458583343192e-05 0 -0.034430132361592938 -0.00060948908513557649 0 -0.033945870327300051 -0.00016492392677480849 0 -0.034179034438215794 -7.0882352205685908e-06 0 -0.043087975275811138 -4.4555508101659287e-05 0 -0.042231495517534939 -0.0001697229927406446 0 -0.041658593466980337 0.00056078041707076885 0 -0.038736865642514114 -0.00033639320709331156 0 -0.037804098316460248 0.00015099894525477664 0 -0.043087975275811138 -4.4555508101659287e-05 0 -0.042231495517534939 -0.0001697229927406446 0 -0.043115950308347181 -0.00050095987571748685 0 -0.042231495517534939 -0.0001697229927406446 0 -0.040538629301008072 -0.00018791881617546293 0 -0.042267193771604858 -0.00039967613214013592 0 -0.042231495517534939 -0.0001697229927406446 0 -0.043115950308347181 -0.00050095987571748685 0 -0.042267193771604858 -0.00039967613214013592 0 -0.042231495517534939 -0.0001697229927406446 0 -0.041658593466980337 0.00056078041707076885 0 -0.040538629301008072 -0.00018791881617546293 0 -0.040538629301008072 -0.00018791881617546293 0 -0.038246999027971414 -6.6634782510933155e-07 0 -0.043145809640777771 -1.7168032564349973e-06 0 -0.041658593466980337 0.00056078041707076885 0 -0.040538629301008072 -0.00018791881617546293 0 -0.038902855881134478 0.00076247875057701376 0 -0.040538629301008072 -0.00018791881617546293 0 -0.038246999027971414 -6.6634782510933155e-07 0 -0.038902855881134478 0.00076247875057701376 0 -0.043145809640777771 -1.7168032564349973e-06 0 -0.043575670287655272 -0.00051660988557620038 0 -0.042267193771604858 -0.00039967613214013592 0 -0.040538629301008072 -0.00018791881617546293 0 -0.043145809640777771 -1.7168032564349973e-06 0 -0.042267193771604858 -0.00039967613214013592 0 -0.044971834238905939 -0.00039620046039619446 0 -0.043145809640777771 -1.7168032564349973e-06 0 -0.043575670287655272 -0.00051660988557620038 0 -0.044228236883533431 -0.00053446562866836403 0 -0.043575670287655272 -0.00051660988557620038 0 -0.043878483636636746 -0.0005068456187608657 0 -0.043575670287655272 -0.00051660988557620038 0 -0.043878483636636746 -0.0005068456187608657 0 -0.043435438379098218 -0.00054647048971789185 0 -0.043644172322399338 -0.00046176731460378288 0 -0.043878483636636746 -0.0005068456187608657 0 -0.043435438379098218 -0.00054647048971789185 0 -0.044136216102390706 -0.00031661556447426867 0 -0.043894289502587121 -0.0004163244604603306 0 -0.044136216102390706 -0.00031661556447426867 0 -0.043553802682864851 -0.00055293765479928986 0 -0.043575670287655272 -0.00051660988557620038 0 -0.043435438379098218 -0.00054647048971789185 0 -0.043115950308347181 -0.00050095987571748685 0 -0.043575670287655272 -0.00051660988557620038 0 -0.043115950308347181 -0.00050095987571748685 0 -0.042267193771604858 -0.00039967613214013592 0 -0.045618866864579465 -0.00041732869264642607 0 -0.04522201568675694 -0.00068675065493522191 0 -0.045054459233240439 -0.00035066157854118533 0 -0.045618866864579465 -0.00041732869264642607 0 -0.045564240074042264 7.8568043051004761e-05 0 -0.045054459233240439 -0.00035066157854118533 0 -0.045618866864579465 -0.00041732869264642607 0 -0.045773369816577501 -0.00013941896255727964 0 -0.045564240074042264 7.8568043051004761e-05 0 -0.045786188619811957 -0.00048539015557291798 0 -0.045860299617301079 -0.0011612335414697892 0 -0.045618866864579465 -0.00041732869264642607 0 -0.045818708715868579 -0.00036811011921069286 0 -0.045792455930498875 -0.00064690442826608569 0 -0.04607216745640761 -0.00027241136253016427 0 -0.045773369816577501 -0.00013941896255727964 0 -0.045877117422300738 3.5468556410590697e-05 0 -0.045618866864579465 -0.00041732869264642607 0 -0.04607216745640761 -0.00027241136253016427 0 -0.045773369816577501 -0.00013941896255727964 0 -0.045860299617301079 -0.0011612335414697892 0 -0.047223362176403536 0.0005194357208099773 0 -0.048557134711592731 -0.0011243561670373334 0 -0.048600088490314997 -0.00033854850361602999 0 -0.048926870084165131 -0.00066407838848960119 0 -0.045877117422300738 3.5468556410590697e-05 0 -0.045564240074042264 7.8568043051004761e-05 0 -0.046087288093146474 0.00046382827789642582 0 -0.04607216745640761 -0.00027241136253016427 0 -0.045877117422300738 3.5468556410590697e-05 0 -0.046087288093146474 0.00046382827789642582 0 -0.045564240074042264 7.8568043051004761e-05 0 -0.046405215548420302 0.00096498045205956572 0 -0.047146700428899048 0.00089107037723984623 0 -0.045449483802586566 9.6429510691500896e-05 0 -0.047223362176403536 0.0005194357208099773 0 -0.045564240074042264 7.8568043051004761e-05 0 -0.045377326049230261 0.00073703050642073896 0 -0.045054459233240439 -0.00035066157854118533 0 -0.045564240074042264 7.8568043051004761e-05 0 -0.045377326049230261 0.00073703050642073896 0 -0.046405215548420302 0.00096498045205956572 0 -0.045773369816577501 -0.00013941896255727964 0 -0.045877117422300738 3.5468556410590697e-05 0 -0.045564240074042264 7.8568043051004761e-05 0 -0.048700362374120836 -0.00098290348146338352 0 -0.049745983805176419 -0.000614988419185389 0 -0.048270783833604225 -0.0010705821210395814 0 -0.048723415492508394 -0.00066224619783956137 0 -0.048626883876816317 -0.00025654529869125484 0 -0.048700362374120836 -0.00098290348146338352 0 -0.047380774363588854 0.00032613863467094342 0 -0.045377326049230261 0.00073703050642073896 0 -0.046217404229752748 0.0015927837007702382 0 -0.046405215548420302 0.00096498045205956572 0 -0.050014563093246062 -2.5970172108400558e-06 0 -0.050000053906517891 -4.1883561879519252e-09 0 -0.050000036237695347 -5.4461375517265166e-09 0 -0.050047642784622592 -0.0013649008468622117 0 -0.049987937852755973 -0.0013405362949780388 0 -0.050018060246890747 -0.0013365605477619487 0 -0.049745983805176419 -0.000614988419185389 0 -0.049999978032158103 -9.2375344876982334e-08 0 -0.04999836059486637 -4.4389110659698811e-07 0 -0.049999990339201057 -6.8488389992442628e-09 0 -0.049999999179187189 3.5344522052687722e-09 0 -0.049745983805176419 -0.000614988419185389 0 -0.049013915992752087 0.00045751497015209566 0 -0.04999747262933759 -3.0529461889065805e-06 0 -0.04999836059486637 -4.4389110659698811e-07 0 -0.049999990339201057 -6.8488389992442628e-09 0 -0.048723415492508394 -0.00066224619783956137 0 -0.048626883876816317 -0.00025654529869125484 0 -0.049177341164685778 -0.00025260575629600161 0 -0.047380774363588854 0.00032613863467094342 0 -0.049013915992752087 0.00045751497015209566 0 -0.046217404229752748 0.0015927837007702382 0 -0.047204186215988354 0.0024813976445825676 0 -0.047190317729606593 0.0011638563342333617 0 -0.046217404229752748 0.0015927837007702382 0 -0.046405215548420302 0.00096498045205956572 0 -0.047190317729606593 0.0011638563342333617 0 -0.046405215548420302 0.00096498045205956572 0 -0.047190317729606593 0.0011638563342333617 0 -0.047146700428899048 0.00089107037723984623 0 -0.047224510405470925 0.00072726663825909549 0 -0.047223362176403536 0.0005194357208099773 0 -0.047204186215988354 0.0024813976445825676 0 -0.047190317729606593 0.0011638563342333617 0 -0.048329193630507625 0.0016781421258464865 0 -0.048600088490314997 -0.00033854850361602999 0 -0.049172783788467525 -0.00042672039573375014 0 -0.049055726999257879 -6.3530013634271809e-05 0 -0.047223362176403536 0.0005194357208099773 0 -0.048771026916685355 0.00085748693579172338 0 -0.047190317729606593 0.0011638563342333617 0 -0.047185645087466144 0.00088760356957531534 0 -0.048329193630507625 0.0016781421258464865 0 -0.049013915992752087 0.00045751497015209566 0 -0.049553285719160116 0.0008815064627946727 0 -0.049995804617647382 1.9652969208072371e-06 0 -0.049999976374221163 9.8449605070656284e-09 0 -0.049998747229814081 2.216605375690327e-06 0 -0.047204186215988354 0.0024813976445825676 0 -0.048329193630507625 0.0016781421258464865 0 -0.049444342788592291 0.0024624294258261629 0 -0.049013915992752087 0.00045751497015209566 0 -0.049999704881171649 4.9574120841149057e-07 0 -0.049999976374221163 9.8449605070656284e-09 0 -0.049998747229814081 2.216605375690327e-06 0 -0.050000004821454544 6.0591397727063059e-10 0 -0.049836760638229796 6.3610888208157274e-05 0 -0.049869095097967858 4.8467767013164281e-05 0 -0.04999939172380552 1.871878719944849e-07 0 -0.049553285719160116 0.0008815064627946727 0 -0.049787463420992613 0.00051981615391564736 0 -0.049553285719160116 0.0008815064627946727 0 -0.049999648381652113 2.4358164203943493e-07 0 -0.048771026916685355 0.00085748693579172338 0 -0.049553285719160116 0.0008815064627946727 0 -0.049055726999257879 -6.3530013634271809e-05 0 -0.049560699450801361 0.00014449383685782684 0 -0.049413464391507719 -0.00016990134790375802 0 -0.049560699450801361 0.00014449383685782684 0 -0.049695293777148465 -9.22147758917294e-05 0 -0.049413464391507719 -0.00016990134790375802 0 -0.049560699450801361 0.00014449383685782684 0 -0.049695293777148465 -9.22147758917294e-05 0 -0.049869095097967858 4.8467767013164281e-05 0 -0.049695293777148465 -9.22147758917294e-05 0 -0.049413464391507719 -0.00016990134790375802 0 -0.049618916560523328 -0.00023892295845764525 0 -0.049172783788467525 -0.00042672039573375014 0 -0.049055726999257879 -6.3530013634271809e-05 0 -0.049413464391507719 -0.00016990134790375802 0 -0.049172783788467525 -0.00042672039573375014 0 -0.049470364632894767 -0.00035496668821678832 0 -0.049486486672926676 -0.00048745478396366911 0 -0.049172783788467525 -0.00042672039573375014 0 -0.049413464391507719 -0.00016990134790375802 0 -0.049470364632894767 -0.00035496668821678832 0 -0.049413464391507719 -0.00016990134790375802 0 -0.049470364632894767 -0.00035496668821678832 0 -0.049618916560523328 -0.00023892295845764525 0 -0.049470364632894767 -0.00035496668821678832 0 -0.049618916560523328 -0.00023892295845764525 0 -0.049681867319058257 -0.00036571997243267873 0 -0.049486486672926676 -0.00048745478396366911 0 -0.049286525845215215 -0.00068914313057009621 0 -0.049776547031435865 -0.00056293991251242308 0 -0.049469456740235257 -0.00073779339961916094 0 -0.049114590339439948 -0.00093725004940782683 0 -0.049507765361582592 -0.00073735856188024006 0 -0.049469456740235257 -0.00073779339961916094 0 -0.049286525845215215 -0.00068914313057009621 0 -0.049114590339439948 -0.00093725004940782683 0 -0.049888826451583164 -0.00070649026069971241 0 -0.047976535110756474 -0.00058925343801917429 0 -0.049469456740235257 -0.00073779339961916094 0 -0.049286525845215215 -0.00068914313057009621 0 -0.049599763505012218 -0.00071193412779347719 0 -0.045338383449928972 -0.0013569985350548547 0 -0.045477461064938121 -0.001137924609337858 0 -0.049470364632894767 -0.00035496668821678832 0 -0.049486486672926676 -0.00048745478396366911 0 -0.049681867319058257 -0.00036571997243267873 0 -0.04601505623256396 -0.0011831308763278485 0 -0.045477461064938121 -0.001137924609337858 0 -0.049172783788467525 -0.00042672039573375014 0 -0.049486486672926676 -0.00048745478396366911 0 -0.049286525845215215 -0.00068914313057009621 0 -0.048600088490314997 -0.00033854850361602999 0 -0.049172783788467525 -0.00042672039573375014 0 -0.048926870084165131 -0.00066407838848960119 0 -0.049172783788467525 -0.00042672039573375014 0 -0.049286525845215215 -0.00068914313057009621 0 -0.048926870084165131 -0.00066407838848960119 0 -0.049286525845215215 -0.00068914313057009621 0 -0.048926870084165131 -0.00066407838848960119 0 -0.049114590339439948 -0.00093725004940782683 0 -0.04240513258564569 -0.0015008586625627326 0 -0.041787980135521624 -0.0017046015313048599 0 -0.04204143350263858 -0.0011955227258164337 0 -0.048557134711592731 -0.0011243561670373334 0 -0.048926870084165131 -0.00066407838848960119 0 -0.049114590339439948 -0.00093725004940782683 0 -0.041787980135521624 -0.0017046015313048599 0 -0.041323322404280882 -0.0013341503427063903 0 -0.04204143350263858 -0.0011955227258164337 0 -0.045860299617301079 -0.0011612335414697892 0 -0.045338383449928972 -0.0013569985350548547 0 -0.041787980135521624 -0.0017046015313048599 0 -0.041323322404280882 -0.0013341503427063903 0 -0.041142186500803077 -0.0019217345726388873 0 -0.041323322404280882 -0.0013341503427063903 0 -0.040669940920766735 -0.0014479237528431761 0 -0.041142186500803077 -0.0019217345726388873 0 -0.040669940920766735 -0.0014479237528431761 0 -0.040131335565475358 -0.0017693552342714326 0 -0.041142186500803077 -0.0019217345726388873 0 -0.041323322404280882 -0.0013341503427063903 0 -0.040669940920766735 -0.0014479237528431761 0 -0.040763016164401748 -0.00097076848587166105 0 -0.040669940920766735 -0.0014479237528431761 0 -0.039963015131864767 -0.0012457253356962419 0 -0.040763016164401748 -0.00097076848587166105 0 -0.040669940920766735 -0.0014479237528431761 0 -0.039963015131864767 -0.0012457253356962419 0 -0.040131335565475358 -0.0017693552342714326 0 -0.036732231485792133 -0.0016697892890048796 0 -0.040593879275779982 -0.0014694215171239281 0 -0.045481583793667041 -4.7402354244997158e-05 0 -0.04571993810260179 -0.00085440270783763734 0 -0.04776577250347696 -0.00022896684996259051 0 -0.042123808179153718 -0.00031122100893900609 0 -0.042344173203785598 -0.0010610563500209947 0 -0.045779288472814435 -0.0013299011173193054 0 -0.043634791381019618 -0.00078056342977278709 0 -0.047976535110756474 -0.00058925343801917429 0 -0.040593879275779982 -0.0014694215171239281 0 -0.043634791381019618 -0.00078056342977278709 0 -0.043634791381019618 -0.00078056342977278709 0 -0.047577709535337888 -0.00045805244840104006 0 -0.049986639550409204 -0.00028465762311949064 0 -0.049867392081138599 -0.0003138203996010812 0 -0.049964385296842759 -0.00022552931551635244 0 -0.047577709535337888 -0.00045805244840104006 0 -0.048599630839625589 -0.00059128376960052281 0 -0.042123808179153718 -0.00031122100893900609 0 -0.046725250271236703 -0.0010383258646459988 0 -0.045779288472814435 -0.0013299011173193054 0 -0.049986639550409204 -0.00028465762311949064 0 -0.049776547031435865 -0.00056293991251242308 0 -0.049867392081138599 -0.0003138203996010812 0 -0.040593879275779982 -0.0014694215171239281 0 -0.045477461064938121 -0.001137924609337858 0 -0.047577709535337888 -0.00045805244840104006 0 -0.047976535110756474 -0.00058925343801917429 0 -0.049469456740235257 -0.00073779339961916094 0 -0.049506699770917151 -0.00074424190309864988 0 -0.049599763505012218 -0.00071193412779347719 0 -0.045477461064938121 -0.001137924609337858 0 -0.047976535110756474 -0.00058925343801917429 0 -0.049776547031435865 -0.00056293991251242308 0 -0.049681867319058257 -0.00036571997243267873 0 -0.049867392081138599 -0.0003138203996010812 0 -0.049486486672926676 -0.00048745478396366911 0 -0.049776547031435865 -0.00056293991251242308 0 -0.049681867319058257 -0.00036571997243267873 0 -0.049681867319058257 -0.00036571997243267873 0 -0.049773223690673815 -0.00022251296947128435 0 -0.049867392081138599 -0.0003138203996010812 0 -0.049618916560523328 -0.00023892295845764525 0 -0.049681867319058257 -0.00036571997243267873 0 -0.049773223690673815 -0.00022251296947128435 0 -0.049773223690673815 -0.00022251296947128435 0 -0.049867392081138599 -0.0003138203996010812 0 -0.049907729761353943 -0.0001714371038584567 0 -0.049907729761353943 -0.0001714371038584567 0 -0.049866852388673888 -7.2433594079042595e-05 0 -0.049957599288534542 -6.0202949411339101e-05 0 -0.049773223690673815 -0.00022251296947128435 0 -0.049907729761353943 -0.0001714371038584567 0 -0.049866852388673888 -7.2433594079042595e-05 0 -0.049695293777148465 -9.22147758917294e-05 0 -0.049773223690673815 -0.00022251296947128435 0 -0.049866852388673888 -7.2433594079042595e-05 0 -0.049695293777148465 -9.22147758917294e-05 0 -0.049618916560523328 -0.00023892295845764525 0 -0.049773223690673815 -0.00022251296947128435 0 -0.049695293777148465 -9.22147758917294e-05 0 -0.049866852388673888 -7.2433594079042595e-05 0 -0.049869095097967858 4.8467767013164281e-05 0 -0.049866852388673888 -7.2433594079042595e-05 0 -0.049952084873512353 -2.9945683678683517e-06 0 -0.049869095097967858 4.8467767013164281e-05 0 -0.049952084873512353 -2.9945683678683517e-06 0 -0.04999939172380552 1.871878719944849e-07 0 -0.050000080744095052 -7.1892411147089086e-08 0 -0.049866852388673888 -7.2433594079042595e-05 0 -0.049952084873512353 -2.9945683678683517e-06 0 -0.049957599288534542 -6.0202949411339101e-05 0 -0.049952084873512353 -2.9945683678683517e-06 0 -0.049869095097967858 4.8467767013164281e-05 0 -0.04999939172380552 1.871878719944849e-07 0 -0.050000080744095052 -7.1892411147089086e-08 0 -0.049957599288534542 -6.0202949411339101e-05 0 -0.050006752106112662 -8.3442912264889476e-05 0 -0.049952084873512353 -2.9945683678683517e-06 0 -0.050000080744095052 -7.1892411147089086e-08 0 -0.049957599288534542 -6.0202949411339101e-05 0 -0.049957599288534542 -6.0202949411339101e-05 0 -0.049964649928390184 -0.00013325211096686416 0 -0.050006752106112662 -8.3442912264889476e-05 0 -0.049978413286211651 -0.0002870423905669709 0 -0.049964385296842759 -0.00022552931551635244 0 -0.050006752106112662 -8.3442912264889476e-05 0 -0.049964649928390184 -0.00013325211096686416 0 -0.049964385296842759 -0.00022552931551635244 0 -0.050006752106112662 -8.3442912264889476e-05 0 -0.049907729761353943 -0.0001714371038584567 0 -0.049957599288534542 -6.0202949411339101e-05 0 -0.049964649928390184 -0.00013325211096686416 0 -0.049907729761353943 -0.0001714371038584567 0 -0.049964649928390184 -0.00013325211096686416 0 -0.049964385296842759 -0.00022552931551635244 0 -0.049867392081138599 -0.0003138203996010812 0 -0.049907729761353943 -0.0001714371038584567 0 -0.049964385296842759 -0.00022552931551635244 0 -0.049978413286211651 -0.0002870423905669709 0 -0.050006752106112662 -8.3442912264889476e-05 0 -0.050022426364377488 -9.0172021301351393e-05 0 -0.050000080744095052 -7.1892411147089086e-08 0 -0.050006752106112662 -8.3442912264889476e-05 0 -0.05000000684872441 -3.2133479400272359e-08 0 -0.050006752106112662 -8.3442912264889476e-05 0 -0.050013551970377226 -3.1304652609835378e-05 0 -0.05000000684872441 -3.2133479400272359e-08 0 -0.050000053318771033 -1.1252374587758184e-09 0 -0.050013551970377226 -3.1304652609835378e-05 0 -0.05000000684872441 -3.2133479400272359e-08 0 -0.049186356036705015 9.9182731529203315e-05 0 -0.048163622473144971 -7.4940561106610947e-05 0 -0.050006752106112662 -8.3442912264889476e-05 0 -0.050013551970377226 -3.1304652609835378e-05 0 -0.050022426364377488 -9.0172021301351393e-05 0 -0.050012221844685449 -1.742828971070086e-05 0 -0.050013551970377226 -3.1304652609835378e-05 0 -0.050022426364377488 -9.0172021301351393e-05 0 -0.046932429010222557 -0.00023082192837531914 0 -0.046444326734327801 -6.4984870721141659e-05 0 -0.046547470101954834 -0.00058999346922333274 0 -0.047577709535337888 -0.00045805244840104006 0 -0.048163622473144971 -7.4940561106610947e-05 0 -0.043634791381019618 -0.00078056342977278709 0 -0.044334127542904819 -0.00069844391926964227 0 -0.045697298949832627 -0.00053639988944396326 0 -0.046444326734327801 -6.4984870721141659e-05 0 -0.046547470101954834 -0.00058999346922333274 0 -0.041695445503086917 -0.00090985937067721955 0 -0.041662092087937613 -0.0007843388546899566 0 -0.042498053013663217 -0.00081205234952629903 0 -0.045697298949832627 -0.00053639988944396326 0 -0.045641956264197855 -0.00032548088451935116 0 -0.046444326734327801 -6.4984870721141659e-05 0 -0.040593879275779982 -0.0014694215171239281 0 -0.039108678667972858 -0.0016512760485959393 0 -0.037352125450007628 -0.0025884055243975139 0 -0.036678364128610322 -0.002220355929190039 0 -0.03625703286493262 -0.0023678153415195541 0 -0.041695445503086917 -0.00090985937067721955 0 -0.042498053013663217 -0.00081205234952629903 0 -0.042540341794697761 -0.0010182268092917134 0 -0.037192889791946272 -0.0020354302331810057 0 -0.037352125450007628 -0.0025884055243975139 0 -0.036678364128610322 -0.002220355929190039 0 -0.037045251960218364 -0.0020464323959751784 0 -0.036678364128610322 -0.002220355929190039 0 -0.03662883159138422 -0.0017959491955858971 0 -0.036732231485792133 -0.0016697892890048796 0 -0.036767613055420326 -0.0020928755158774507 0 -0.036678364128610322 -0.002220355929190039 0 -0.03625703286493262 -0.0023678153415195541 0 -0.036334317891260418 -0.0019393319105479295 0 -0.035964074867550398 -0.0020526320830535809 0 -0.035895511000442235 -0.0022894794038248291 0 -0.03625703286493262 -0.0023678153415195541 0 -0.035964074867550398 -0.0020526320830535809 0 -0.03625703286493262 -0.0023678153415195541 0 -0.036334317891260418 -0.0019393319105479295 0 -0.039631310824851711 -0.0011506055742611333 0 -0.039108678667972858 -0.0016512760485959393 0 -0.035971363850223634 -0.0014654223437589868 0 -0.036314431993818244 -0.001519836226798899 0 -0.036056560516555557 -0.0017643391364807021 0 -0.036314431993818244 -0.001519836226798899 0 -0.036056560516555557 -0.0017643391364807021 0 -0.036334317891260418 -0.0019393319105479295 0 -0.035964074867550398 -0.0020526320830535809 0 -0.036056560516555557 -0.0017643391364807021 0 -0.036334317891260418 -0.0019393319105479295 0 -0.036314431993818244 -0.001519836226798899 0 -0.036334317891260418 -0.0019393319105479295 0 -0.03662883159138422 -0.0017959491955858971 0 -0.036678364128610322 -0.002220355929190039 0 -0.036334317891260418 -0.0019393319105479295 0 -0.03662883159138422 -0.0017959491955858971 0 -0.036314431993818244 -0.001519836226798899 0 -0.03662883159138422 -0.0017959491955858971 0 -0.036760479754252895 -0.0012687649259402734 0 -0.036732231485792133 -0.0016697892890048796 0 -0.034760328398835187 -0.0012464199004723494 0 -0.037045251960218364 -0.0020464323959751784 0 -0.03662883159138422 -0.0017959491955858971 0 -0.036760479754252895 -0.0012687649259402734 0 -0.036314431993818244 -0.001519836226798899 0 -0.036760479754252895 -0.0012687649259402734 0 -0.0360398992937076 -0.00092624266576193535 0 -0.035971363850223634 -0.0014654223437589868 0 -0.036314431993818244 -0.001519836226798899 0 -0.0360398992937076 -0.00092624266576193535 0 -0.036760479754252895 -0.0012687649259402734 0 -0.0360398992937076 -0.00092624266576193535 0 -0.036468225716097154 -0.00054037107504361444 0 -0.035870783924654814 -0.00022805810142485818 0 -0.0360398992937076 -0.00092624266576193535 0 -0.036468225716097154 -0.00054037107504361444 0 -0.034630019817879665 -0.0002054263639659346 0 -0.034748902512604644 0.00047377993793489448 0 -0.035870783924654814 -0.00022805810142485818 0 -0.036468225716097154 -0.00054037107504361444 0 -0.036192055440526942 0.00010810513529871083 0 -0.032842972023934228 0.00011691984074924594 0 -0.033155132799363912 0.00057861737089270101 0 -0.032650233273896823 0.00080188546074666718 0 -0.032842972023934228 0.00011691984074924594 0 -0.033459486482098608 9.6302261504274439e-05 0 -0.033155132799363912 0.00057861737089270101 0 -0.034760328398835187 -0.0012464199004723494 0 -0.034630019817879665 -0.0002054263639659346 0 -0.033035705962875674 -0.00099557180819626469 0 -0.032842972023934228 0.00011691984074924594 0 -0.033342580283320503 -0.00036187460827715828 0 -0.032842972023934228 0.00011691984074924594 0 -0.033342580283320503 -0.00036187460827715828 0 -0.033459486482098608 9.6302261504274439e-05 0 -0.03331574439512084 -0.00035457071285631089 0 -0.034871839948607375 -0.00018110089947516678 0 -0.033342580283320503 -0.00036187460827715828 0 -0.033459486482098608 9.6302261504274439e-05 0 -0.034078514304793903 -0.00026784008054292404 0 -0.033670046616902018 0.00045691643392136713 0 -0.033459486482098608 9.6302261504274439e-05 0 -0.033155132799363912 0.00057861737089270101 0 -0.033670046616902018 0.00045691643392136713 0 -0.034078514304793903 -0.00026784008054292404 0 -0.034461837878273893 0.00056621981245372557 0 -0.033670046616902018 0.00045691643392136713 0 -0.033459486482098608 9.6302261504274439e-05 0 -0.034078514304793903 -0.00026784008054292404 0 -0.035231970583891416 -0.00014787740162662419 0 -0.034878574423025811 -0.0021304802685619532 0 -0.036304155161953122 -0.0015966203411401222 0 -0.035231970583891416 -0.00014787740162662419 0 -0.034032265957616874 -0.0012248184703439087 0 -0.034878574423025811 -0.0021304802685619532 0 -0.033342580283320503 -0.00036187460827715828 0 -0.035231970583891416 -0.00014787740162662419 0 -0.034032265957616874 -0.0012248184703439087 0 -0.033035705962875674 -0.00099557180819626469 0 -0.033342580283320503 -0.00036187460827715828 0 -0.034032265957616874 -0.0012248184703439087 0 -0.036732231485792133 -0.0016697892890048796 0 -0.037777543203771628 -0.0015904898998177896 0 -0.033510874269646947 -0.0026423218520334152 0 -0.033035705962875674 -0.00099557180819626469 0 -0.034032265957616874 -0.0012248184703439087 0 -0.033510874269646947 -0.0026423218520334152 0 -0.034032265957616874 -0.0012248184703439087 0 -0.034878574423025811 -0.0021304802685619532 0 -0.041323322404280882 -0.0013341503427063903 0 -0.040763016164401748 -0.00097076848587166105 0 -0.041521349746582746 -0.00071716567172471185 0 -0.037777543203771628 -0.0015904898998177896 0 -0.039071644725476973 -0.0010742879157692984 0 -0.041323322404280882 -0.0013341503427063903 0 -0.041521349746582746 -0.00071716567172471185 0 -0.04204143350263858 -0.0011955227258164337 0 -0.041521349746582746 -0.00071716567172471185 0 -0.04204143350263858 -0.0011955227258164337 0 -0.042143992849753238 -0.00077684696782847175 0 -0.04204143350263858 -0.0011955227258164337 0 -0.042143992849753238 -0.00077684696782847175 0 -0.042393491463467291 -0.00094551573449894557 0 -0.036304155161953122 -0.0015966203411401222 0 -0.03712260961631763 -3.5117716672050653e-05 0 -0.037745137495061164 -0.0010516857592916544 0 -0.039071644725476973 -0.0010742879157692984 0 -0.039263052480294269 -0.0012794418880991011 0 -0.041521349746582746 -0.00071716567172471185 0 -0.042143992849753238 -0.00077684696782847175 0 -0.042220120285613109 -0.00048208801027730335 0 -0.042143992849753238 -0.00077684696782847175 0 -0.042276074573930129 -0.00058990591946923019 0 -0.042220120285613109 -0.00048208801027730335 0 -0.034053307455570059 -0.00077322321617249849 0 -0.039263052480294269 -0.0012794418880991011 0 -0.035058107184580418 -0.00035316463720746902 0 -0.039263052480294269 -0.0012794418880991011 0 -0.035231970583891416 -0.00014787740162662419 0 -0.036304155161953122 -0.0015966203411401222 0 -0.03712260961631763 -3.5117716672050653e-05 0 -0.034871839948607375 -0.00018110089947516678 0 -0.035058107184580418 -0.00035316463720746902 0 -0.034078514304793903 -0.00026784008054292404 0 -0.034461837878273893 0.00056621981245372557 0 -0.034928392247408208 -0.00021530560664069536 0 -0.032990745532944739 0.0004323810162342678 0 -0.035058107184580418 -0.00035316463720746902 0 -0.030355262580744554 0.00034882114115698045 0 -0.031027539654653026 -0.00020381096226906122 0 -0.030944011749549305 0.0010969776994305611 0 -0.030355262580744554 0.00034882114115698045 0 -0.031027539654653026 -0.00020381096226906122 0 -0.03100627984741296 -0.0014166219720828264 0 -0.031275569190836135 0.00023462060166109996 0 -0.034053307455570059 -0.00077322321617249849 0 -0.03114470239842046 0.00044196233582890473 0 -0.032076688276634138 0.00033660054267128827 0 -0.032364477769917029 -0.0015226345952116022 0 -0.032076688276634138 0.00033660054267128827 0 -0.032364477769917029 -0.0015226345952116022 0 -0.032749321733253421 -0.0014982394310926591 0 -0.03100627984741296 -0.0014166219720828264 0 -0.03142433921358511 -0.0010487233917727016 0 -0.031309358240254243 -0.00073032563356582414 0 -0.031027539654653026 -0.00020381096226906122 0 -0.03100627984741296 -0.0014166219720828264 0 -0.031309358240254243 -0.00073032563356582414 0 -0.035138304494620874 -1.5363965227758698e-05 0 -0.036056330878731876 3.6524435921319669e-05 0 -0.036820856982853097 -0.0028037045973953916 0 -0.035058107184580418 -0.00035316463720746902 0 -0.034053307455570059 -0.00077322321617249849 0 -0.034053307455570059 -0.00077322321617249849 0 -0.037357458290374949 -0.00097065920033511462 0 -0.037322184919887029 -0.0010801291223972412 0 -0.037416767393793703 -0.0010894422631999704 0 -0.037425332200728245 -0.0011997268347868171 0 -0.037357458290374949 -0.00097065920033511462 0 -0.042342209076408115 -0.0011387724398563735 0 -0.043536208865018425 -0.00099792871100863037 0 -0.044371104129889594 -0.0014707208974312617 0 -0.043501220723162731 -0.0017753115235099204 0 -0.035128108207341413 -0.0013539837465102588 0 -0.035136429197943381 -0.00094261133545409288 0 -0.035649433696613747 -0.00090292505772563163 0 -0.031766196949306019 -0.0013736777360869 0 -0.03142433921358511 -0.0010487233917727016 0 -0.031695094176504172 -0.0007664460309756777 0 -0.037357458290374949 -0.00097065920033511462 0 -0.032755286722023665 -0.00029867155307915607 0 -0.031766196949306019 -0.0013736777360869 0 -0.031695094176504172 -0.0007664460309756777 0 -0.031775180621102503 -0.00065605227906895486 0 -0.03100627984741296 -0.0014166219720828264 0 -0.031766196949306019 -0.0013736777360869 0 -0.03142433921358511 -0.0010487233917727016 0 -0.03142433921358511 -0.0010487233917727016 0 -0.031695094176504172 -0.0007664460309756777 0 -0.031309358240254243 -0.00073032563356582414 0 -0.032755286722023665 -0.00029867155307915607 0 -0.031182004596150541 0.00082681958622902703 0 -0.030656158779852904 0.00067683747975970203 0 -0.030851123239205972 0.00098209378195943239 0 -0.03064762311217497 0.0010353810773409515 0 -0.031027539654653026 -0.00020381096226906122 0 -0.031771937223894188 -0.00065449869493951511 0 -0.031784032781444795 0.00055942193346974957 0 -0.031027539654653026 -0.00020381096226906122 0 -0.031309358240254243 -0.00073032563356582414 0 -0.031771937223894188 -0.00065449869493951511 0 -0.031695094176504172 -0.0007664460309756777 0 -0.031309358240254243 -0.00073032563356582414 0 -0.031771937223894188 -0.00065449869493951511 0 -0.032672539086914247 -0.00038032813838393895 0 -0.032755286722023665 -0.00029867155307915607 0 -0.032755286722023665 -0.00029867155307915607 0 -0.033339401394321871 0.00053941825836867645 0 -0.035136429197943381 -0.00094261133545409288 0 -0.035556797961356905 -0.00034780022953832899 0 -0.035649433696613747 -0.00090292505772563163 0 -0.036207252603458293 -0.00055126282456448013 0 -0.035649433696613747 -0.00090292505772563163 0 -0.03622807710965472 -0.0013195896658429595 0 -0.036207252603458293 -0.00055126282456448013 0 -0.035556797961356905 -0.00034780022953832899 0 -0.035649433696613747 -0.00090292505772563163 0 -0.043536208865018425 -0.00099792871100863037 0 -0.04494603847980945 -0.0010549054332682922 0 -0.044371104129889594 -0.0014707208974312617 0 -0.037357458290374949 -0.00097065920033511462 0 -0.040788978994778471 -0.0011728026417092753 0 -0.035128108207341413 -0.0013539837465102588 0 -0.035649433696613747 -0.00090292505772563163 0 -0.03622807710965472 -0.0013195896658429595 0 -0.045206893564079795 -0.0010279262488661492 0 -0.045428147616035808 -0.001108426787423493 0 -0.045014550664290463 -0.0011154720603512064 0 -0.04494603847980945 -0.0010549054332682922 0 -0.044371104129889594 -0.0014707208974312617 0 -0.045014550664290463 -0.0011154720603512064 0 -0.045173673093482913 -0.0011144691303007898 0 -0.044924596303066971 -0.0011954198712085552 0 -0.045206893564079795 -0.0010279262488661492 0 -0.045466628778413593 -0.00082236232772936544 0 -0.045166712892655177 -0.00089558700541447224 0 -0.045206893564079795 -0.0010279262488661492 0 -0.045466628778413593 -0.00082236232772936544 0 -0.045428147616035808 -0.001108426787423493 0 -0.04237790979349193 -0.00042698518855634795 0 -0.042346867017689062 -0.00072799543169666393 0 -0.042393491463467291 -0.00094551573449894557 0 -0.042342209076408115 -0.0011387724398563735 0 -0.044095955767273147 -0.00069576175514947597 0 -0.045173673093482913 -0.0011144691303007898 0 -0.042342209076408115 -0.0011387724398563735 0 -0.045466628778413593 -0.00082236232772936544 0 -0.045745854914643891 -0.00099419801562153375 0 -0.045792455930498875 -0.00064690442826608569 0 -0.045466628778413593 -0.00082236232772936544 0 -0.045428147616035808 -0.001108426787423493 0 -0.045745854914643891 -0.00099419801562153375 0 -0.037322184919887029 -0.0010801291223972412 0 -0.037425332200728245 -0.0011997268347868171 0 -0.03737601374838493 -0.0012100274619966974 0 -0.042342209076408115 -0.0011387724398563735 0 -0.039263052480294269 -0.0012794418880991011 0 -0.04237790979349193 -0.00042698518855634795 0 -0.042264893448922813 -0.00059481214284580529 0 -0.042346867017689062 -0.00072799543169666393 0 -0.04237790979349193 -0.00042698518855634795 0 -0.042264893448922813 -0.00059481214284580529 0 -0.042205856810510915 -0.00049001966360551967 0 -0.04035170596740336 -0.0012947153876910929 0 -0.039263052480294269 -0.0012794418880991011 0 -0.042143992849753238 -0.00077684696782847175 0 -0.042276074573930129 -0.00058990591946923019 0 -0.042346867017689062 -0.00072799543169666393 0 -0.04035170596740336 -0.0012947153876910929 0 -0.040788938451929033 -0.0012855264282757219 0 -0.04240513258564569 -0.0015008586625627326 0 -0.04204143350263858 -0.0011955227258164337 0 -0.042393491463467291 -0.00094551573449894557 0 -0.045860299617301079 -0.0011612335414697892 0 -0.044095955767273147 -0.00069576175514947597 0 -0.045618866864579465 -0.00041732869264642607 0 -0.045466628778413593 -0.00082236232772936544 0 -0.045792455930498875 -0.00064690442826608569 0 -0.042143992849753238 -0.00077684696782847175 0 -0.042346867017689062 -0.00072799543169666393 0 -0.042393491463467291 -0.00094551573449894557 0 -0.045618866864579465 -0.00041732869264642607 0 -0.045466628778413593 -0.00082236232772936544 0 -0.04522201568675694 -0.00068675065493522191 0 -0.045466628778413593 -0.00082236232772936544 0 -0.04522201568675694 -0.00068675065493522191 0 -0.045166712892655177 -0.00089558700541447224 0 -0.023372605259859063 0.0013332904941589867 0 -0.023108219348986318 0.0010926420908627422 0 -0.023030100595972481 0.0014554234410552229 0 -0.023372605259859063 0.0013332904941589867 0 -0.023292380720651238 0.0017542452087392253 0 -0.023030100595972481 0.0014554234410552229 0 -0.024644321051944983 0.0014649895449478179 0 -0.024569614321065275 0.0014907744559235739 0 -0.024691982365772476 0.0016450879430707523 0 -0.024569614321065275 0.0014907744559235739 0 -0.024629853630095389 0.0016283139556468472 0 -0.024691982365772476 0.0016450879430707523 0 -0.024629853630095389 0.0016283139556468472 0 -0.024691982365772476 0.0016450879430707523 0 -0.024709711575873212 0.0017538049186028774 0 -0.024629853630095389 0.0016283139556468472 0 -0.024709711575873212 0.0017538049186028774 0 -0.024545499181232576 0.0016948518326283407 0 -0.024105926741694921 0.0013015983968224629 0 -0.02349534885985826 0.0020271789919921184 0 -0.024569614321065275 0.0014907744559235739 0 -0.024629853630095389 0.0016283139556468472 0 -0.024545499181232576 0.0016948518326283407 0 -0.023292380720651238 0.0017542452087392253 0 -0.023019615870584605 0.0017120775236432711 0 -0.023030100595972481 0.0014554234410552229 0 -0.023292380720651238 0.0017542452087392253 0 -0.023022424863939302 0.0019735383160516401 0 -0.023019615870584605 0.0017120775236432711 0 -0.023292380720651238 0.0017542452087392253 0 -0.023243349798427081 0.0021191490365666827 0 -0.023022424863939302 0.0019735383160516401 0 -0.023292380720651238 0.0017542452087392253 0 -0.023243349798427081 0.0021191490365666827 0 -0.023257112552804955 0.0021548660983208225 0 -0.02349534885985826 0.0020271789919921184 0 -0.028806723738280242 0.0015043111400508996 0 -0.024709711575873212 0.0017538049186028774 0 -0.024545499181232576 0.0016948518326283407 0 -0.024441870087500935 0.0021833723254528928 0 -0.028806723738280242 0.0015043111400508996 0 -0.028360091530060944 0.0017489427816220102 0 -0.02354323471346367 0.0015102758185066838 0 -0.02539752911856297 0.00084253959235698237 0 -0.023243349798427081 0.0021191490365666827 0 -0.023255626083565364 0.0021102059080245501 0 -0.02340582677094993 0.0021598134710841266 0 -0.035988817006515079 0.00040152676949599733 0 -0.035928159116796268 0.00031569214747945829 0 -0.036351859147872492 8.2694206094193311e-05 0 -0.031033377644078042 0.0013148403088603278 0 -0.030844750914460331 0.0011981435644665887 0 -0.030642993085893119 0.0013853865700449682 0 -0.036525948665373009 -0.00098363429766021825 0 -0.031139121082973124 0.00077340717054592649 0 -0.036207252603458293 -0.00055126282456448013 0 -0.035928159116796268 0.00031569214747945829 0 -0.036351859147872492 8.2694206094193311e-05 0 -0.036207252603458293 -0.00055126282456448013 0 -0.035556797961356905 -0.00034780022953832899 0 -0.035964701976576377 0.00025182277596932397 0 -0.029632696277955381 0.00062254125489591774 0 -0.030823694871587599 0.0022444977326777061 0 -0.031298756142011414 0.00035355695254695341 0 -0.031139121082973124 0.00077340717054592649 0 -0.028806723738280242 0.0015043111400508996 0 -0.030220044172291363 0.00072423618469280365 0 -0.031139121082973124 0.00077340717054592649 0 -0.023243349798427081 0.0021191490365666827 0 -0.023255626083565364 0.0021102059080245501 0 -0.023257112552804955 0.0021548660983208225 0 -0.030220044172291363 0.00072423618469280365 0 -0.028806723738280242 0.0015043111400508996 0 -0.031045185793375913 0.0012721552578213221 0 -0.031033377644078042 0.0013148403088603278 0 -0.030844750914460331 0.0011981435644665887 0 -0.030851123239205972 0.00098209378195943239 0 -0.031045185793375913 0.0012721552578213221 0 -0.030844750914460331 0.0011981435644665887 0 -0.033339401394321871 0.00053941825836867645 0 -0.031139121082973124 0.00077340717054592649 0 -0.031182004596150541 0.00082681958622902703 0 -0.028360091530060944 0.0017489427816220102 0 -0.030844750914460331 0.0011981435644665887 0 -0.03064762311217497 0.0010353810773409515 0 -0.030642993085893119 0.0013853865700449682 0 -0.031027539654653026 -0.00020381096226906122 0 -0.031784032781444795 0.00055942193346974957 0 -0.030944011749549305 0.0010969776994305611 0 -0.031784032781444795 0.00055942193346974957 0 -0.031807669644388678 0.0017700132537535093 0 -0.030944011749549305 0.0010969776994305611 0 -0.030851123239205972 0.00098209378195943239 0 -0.030844750914460331 0.0011981435644665887 0 -0.03064762311217497 0.0010353810773409515 0 -0.024709711575873212 0.0017538049186028774 0 -0.024441870087500935 0.0021833723254528928 0 -0.024870546537132741 0.0021108546188683933 0 -0.024441870087500935 0.0021833723254528928 0 -0.024875446841798977 0.0021552979788798266 0 -0.024870546537132741 0.0021108546188683933 0 -0.024876851430462695 0.0021552431215769051 0 -0.024870546537132741 0.0021108546188683933 0 -0.025205951488394742 0.0019278297431385319 0 -0.028360091530060944 0.0017489427816220102 0 -0.028267472538505378 0.0017767184729224957 0 -0.024709711575873212 0.0017538049186028774 0 -0.024870546537132741 0.0021108546188683933 0 -0.025205951488394742 0.0019278297431385319 0 -0.031807669644388678 0.0017700132537535093 0 -0.030944011749549305 0.0010969776994305611 0 -0.029721239514471906 0.0021115063514530776 0 -0.028360091530060944 0.0017489427816220102 0 -0.028008813434873794 0.0019513096543610302 0 -0.025205951488394742 0.0019278297431385319 0 -0.025512765796478137 0.0018557425431961305 0 -0.025671650630681945 0.0020577771575525433 0 -0.024876851430462695 0.0021552431215769051 0 -0.025205951488394742 0.0019278297431385319 0 -0.025671650630681945 0.0020577771575525433 0 -0.030355262580744554 0.00034882114115698045 0 -0.030944011749549305 0.0010969776994305611 0 -0.029721239514471906 0.0021115063514530776 0 -0.03114470239842046 0.00044196233582890473 0 -0.031410653669478934 0.0021753550326233597 0 -0.029938996464052788 0.0024096159191977539 0 -0.031275569190836135 0.00023462060166109996 0 -0.028008813434873794 0.0019513096543610302 0 -0.03114470239842046 0.00044196233582890473 0 -0.032076688276634138 0.00033660054267128827 0 -0.031410653669478934 0.0021753550326233597 0 -0.032990745532944739 0.0004323810162342678 0 -0.029370915458985195 0.0016083413157431986 0 -0.025736449196823399 0.0019502428222726599 0 -0.025936545197939358 0.0017629341124915602 0 -0.026002837458059674 0.0019000646733225647 0 -0.028008813434873794 0.0019513096543610302 0 -0.029370915458985195 0.0016083413157431986 0 -0.025512765796478137 0.0018557425431961305 0 -0.025671650630681945 0.0020577771575525433 0 -0.025786033817939136 0.0016478575909057225 0 -0.028008813434873794 0.0019513096543610302 0 -0.025458585877638919 0.0018842958605329739 0 -0.025143065030865528 0.0016610629173725872 0 -0.025606321381851226 0.0017061189664510166 0 -0.025786033817939136 0.0016478575909057225 0 -0.025573601091524973 0.0016163072244367916 0 -0.026070800480118301 0.0016409603284323502 0 -0.024724162857625877 0.0016701656089104847 0 -0.024850854105758442 0.001610836258007567 0 -0.025120733017562145 0.0017947021285703499 0 -0.025736449196823399 0.0019502428222726599 0 -0.025786033817939136 0.0016478575909057225 0 -0.025936545197939358 0.0017629341124915602 0 -0.025512765796478137 0.0018557425431961305 0 -0.025786033817939136 0.0016478575909057225 0 -0.025573601091524973 0.0016163072244367916 0 -0.024691982365772476 0.0016450879430707523 0 -0.024709920632749235 0.0016171994032859174 0 -0.024724162857625877 0.0016701656089104847 0 -0.025205951488394742 0.0019278297431385319 0 -0.025512765796478137 0.0018557425431961305 0 -0.025573601091524973 0.0016163072244367916 0 -0.024721671542490289 0.0017493807324043757 0 -0.025143065030865528 0.0016610629173725872 0 -0.024709711575873212 0.0017538049186028774 0 -0.025205951488394742 0.0019278297431385319 0 -0.025573601091524973 0.0016163072244367916 0 -0.024691982365772476 0.0016450879430707523 0 -0.024709711575873212 0.0017538049186028774 0 -0.024724162857625877 0.0016701656089104847 0 -0.024709920632749235 0.0016171994032859174 0 -0.024724162857625877 0.0016701656089104847 0 -0.024735573444302966 0.0015892554352302322 0 -0.024709920632749235 0.0016171994032859174 0 -0.024735573444302966 0.0015892554352302322 0 -0.024694855579333385 0.0015165295437459783 0 -0.024644321051944983 0.0014649895449478179 0 -0.024691982365772476 0.0016450879430707523 0 -0.024694855579333385 0.0015165295437459783 0 -0.024691982365772476 0.0016450879430707523 0 -0.024709920632749235 0.0016171994032859174 0 -0.024694855579333385 0.0015165295437459783 0 -0.024735573444302966 0.0015892554352302322 0 -0.024694855579333385 0.0015165295437459783 0 -0.024734114650018655 0.0015046225259471553 0 -0.024734114650018655 0.0015046225259471553 0 -0.024850854105758442 0.001610836258007567 0 -0.024691705902828237 0.0013673100975766577 0 -0.024850854105758442 0.001610836258007567 0 -0.025020771970215915 0.0014651362423282212 0 -0.024691705902828237 0.0013673100975766577 0 -0.024694855579333385 0.0015165295437459783 0 -0.024734114650018655 0.0015046225259471553 0 -0.024691705902828237 0.0013673100975766577 0 -0.024724162857625877 0.0016701656089104847 0 -0.024735573444302966 0.0015892554352302322 0 -0.024850854105758442 0.001610836258007567 0 -0.024735573444302966 0.0015892554352302322 0 -0.024734114650018655 0.0015046225259471553 0 -0.024850854105758442 0.001610836258007567 0 -0.024850854105758442 0.001610836258007567 0 -0.025120733017562145 0.0017947021285703499 0 -0.025020771970215915 0.0014651362423282212 0 -0.025120733017562145 0.0017947021285703499 0 -0.025435601146250316 0.0014935930100621801 0 -0.025020771970215915 0.0014651362423282212 0 -0.026070800480118301 0.0016409603284323502 0 -0.026081747116580345 0.0016944455336365095 0 -0.026060343102756331 0.001682312897483319 0 -0.025120733017562145 0.0017947021285703499 0 -0.025435601146250316 0.0014935930100621801 0 -0.026060343102756331 0.001682312897483319 0 -0.025435601146250316 0.0014935930100621801 0 -0.026060343102756331 0.001682312897483319 0 -0.025806479287280273 0.0013253902057523198 0 -0.025606321381851226 0.0017061189664510166 0 -0.026038907757537037 0.0016745086063845894 0 -0.026070800480118301 0.0016409603284323502 0 -0.026081747116580345 0.0016944455336365095 0 -0.026083218921551271 0.0017336790881933672 0 -0.026081747116580345 0.0016944455336365095 0 -0.026100853369966929 0.001740131663119406 0 -0.026060343102756331 0.001682312897483319 0 -0.026081747116580345 0.0016944455336365095 0 -0.026100853369966929 0.001740131663119406 0 -0.026083218921551271 0.0017336790881933672 0 -0.026100853369966929 0.001740131663119406 0 -0.026083218921551271 0.0017336790881933672 0 -0.026100681607372243 0.0017428933700482925 0 -0.025786033817939136 0.0016478575909057225 0 -0.026070800480118301 0.0016409603284323502 0 -0.025936545197939358 0.0017629341124915602 0 -0.026083218921551271 0.0017336790881933672 0 -0.025936545197939358 0.0017629341124915602 0 -0.026002837458059674 0.0019000646733225647 0 -0.026070800480118301 0.0016409603284323502 0 -0.026083218921551271 0.0017336790881933672 0 -0.025936545197939358 0.0017629341124915602 0 -0.03394221814641956 0.001486258319705552 0 -0.033760914849659318 0.00097044317148253692 0 -0.033343932042109101 0.001611116068195738 0 -0.02625665157368548 0.0023874871685681987 0 -0.029370915458985195 0.0016083413157431986 0 -0.026083218921551271 0.0017336790881933672 0 -0.026119861363264919 0.0017275658555751289 0 -0.026100681607372243 0.0017428933700482925 0 -0.029370915458985195 0.0016083413157431986 0 -0.02977633495119926 0.0016527014968631681 0 -0.033670046616902018 0.00045691643392136713 0 -0.034461837878273893 0.00056621981245372557 0 -0.033760914849659318 0.00097044317148253692 0 -0.034461837878273893 0.00056621981245372557 0 -0.03394221814641956 0.001486258319705552 0 -0.033760914849659318 0.00097044317148253692 0 -0.033670046616902018 0.00045691643392136713 0 -0.033357383921662112 0.0009337555243590915 0 -0.033155132799363912 0.00057861737089270101 0 -0.033550810339002812 0.00060015453585379264 0 -0.033524277382552925 0.00078106444876000186 0 -0.033670046616902018 0.00045691643392136713 0 -0.033760914849659318 0.00097044317148253692 0 -0.033169443749606814 0.0010501622439356389 0 -0.033760914849659318 0.00097044317148253692 0 -0.033169443749606814 0.0010501622439356389 0 -0.033343932042109101 0.001611116068195738 0 -0.033169443749606814 0.0010501622439356389 0 -0.033343932042109101 0.001611116068195738 0 -0.032685113763904546 0.0017214129066388398 0 -0.02977633495119926 0.0016527014968631681 0 -0.029628004154177528 0.0013968341545744793 0 -0.026100853369966929 0.001740131663119406 0 -0.026100681607372243 0.0017428933700482925 0 -0.026132210874048316 0.001784308939949747 0 -0.033524277382552925 0.00078106444876000186 0 -0.029628004154177528 0.0013968341545744793 0 -0.033357383921662112 0.0009337555243590915 0 -0.03303664245109153 0.0014003934240744895 0 -0.032968192379718812 0.001018399040547828 0 -0.03303664245109153 0.0014003934240744895 0 -0.032968192379718812 0.001018399040547828 0 -0.032425198580577248 0.0014924175271337965 0 -0.032968192379718812 0.001018399040547828 0 -0.033155132799363912 0.00057861737089270101 0 -0.032650233273896823 0.00080188546074666718 0 -0.033357383921662112 0.0009337555243590915 0 -0.032968192379718812 0.001018399040547828 0 -0.033155132799363912 0.00057861737089270101 0 -0.035870783924654814 -0.00022805810142485818 0 -0.036192055440526942 0.00010810513529871083 0 -0.035718354070777392 0.00034142942175859986 0 -0.036192055440526942 0.00010810513529871083 0 -0.035950503198252992 0.00067938070117055157 0 -0.035718354070777392 0.00034142942175859986 0 -0.032968192379718812 0.001018399040547828 0 -0.032650233273896823 0.00080188546074666718 0 -0.032425198580577248 0.0014924175271337965 0 -0.034748902512604644 0.00047377993793489448 0 -0.031274593590360146 0.00056387483475363852 0 -0.031274593590360146 0.00056387483475363852 0 -0.028755457461891405 0.00091220892115013682 0 -0.027796172949491747 0.0004646252762581981 0 -0.027746874433463017 0.00046641528018563649 0 -0.027719882940096183 0.00048652506254355098 0 -0.029628004154177528 0.0013968341545744793 0 -0.031274593590360146 0.00056387483475363852 0 -0.027746874433463017 0.00046641528018563649 0 -0.027727264584618504 0.00047943634838205028 0 -0.027719882940096183 0.00048652506254355098 0 -0.029628004154177528 0.0013968341545744793 0 -0.02661858241909975 0.0011517406336821207 0 -0.026100853369966929 0.001740131663119406 0 -0.026132210874048316 0.001784308939949747 0 -0.026060343102756331 0.001682312897483319 0 -0.026132210874048316 0.001784308939949747 0 -0.026060343102756331 0.001682312897483319 0 -0.026315913455691523 0.0017269162716839939 0 -0.026060343102756331 0.001682312897483319 0 -0.026315913455691523 0.0017269162716839939 0 -0.026252424953170171 0.0014165351332616014 0 -0.027719882940096183 0.00048652506254355098 0 -0.027705361159006941 0.0004675819237288528 0 -0.027679843383650732 0.0004107913397507748 0 -0.027727264584618504 0.00047943634838205028 0 -0.027719882940096183 0.00048652506254355098 0 -0.027705361159006941 0.0004675819237288528 0 -0.026252424953170171 0.0014165351332616014 0 -0.026198871529309727 0.0010437238588444193 0 -0.026948341090958391 0.0011795308827216638 0 -0.026315913455691523 0.0017269162716839939 0 -0.026252424953170171 0.0014165351332616014 0 -0.026948341090958391 0.0011795308827216638 0 -0.02661858241909975 0.0011517406336821207 0 -0.02739116914409687 0.00074857823221410587 0 -0.025806479287280273 0.0013253902057523198 0 -0.026198871529309727 0.0010437238588444193 0 -0.025620430433695811 0.00092994945965572332 0 -0.026060343102756331 0.001682312897483319 0 -0.026252424953170171 0.0014165351332616014 0 -0.025806479287280273 0.0013253902057523198 0 -0.026252424953170171 0.0014165351332616014 0 -0.025806479287280273 0.0013253902057523198 0 -0.026198871529309727 0.0010437238588444193 0 -0.026198871529309727 0.0010437238588444193 0 -0.026015115945114048 0.00064817213908615148 0 -0.025620430433695811 0.00092994945965572332 0 -0.026015115945114048 0.00064817213908615148 0 -0.025583490011307775 0.00043855861091251553 0 -0.025620430433695811 0.00092994945965572332 0 -0.026198871529309727 0.0010437238588444193 0 -0.026015115945114048 0.00064817213908615148 0 -0.026563331880748643 0.00059983299846566682 0 -0.026198871529309727 0.0010437238588444193 0 -0.026563331880748643 0.00059983299846566682 0 -0.026948341090958391 0.0011795308827216638 0 -0.026563331880748643 0.00059983299846566682 0 -0.026618337664404079 -5.0857355638241459e-06 0 -0.026127689129963372 0.00018107441582684633 0 -0.026563331880748643 0.00059983299846566682 0 -0.026618337664404079 -5.0857355638241459e-06 0 -0.026994463249271999 0.00030136903070731138 0 -0.026618337664404079 -5.0857355638241459e-06 0 -0.026994463249271999 0.00030136903070731138 0 -0.02709615485747275 -8.7869709848313615e-05 0 -0.026618337664404079 -5.0857355638241459e-06 0 -0.026800230722132654 -0.00035573314164699226 0 -0.02709615485747275 -8.7869709848313615e-05 0 -0.026618337664404079 -5.0857355638241459e-06 0 -0.026250095276507349 -0.00044568936147334527 0 -0.026127689129963372 0.00018107441582684633 0 -0.026618337664404079 -5.0857355638241459e-06 0 -0.026250095276507349 -0.00044568936147334527 0 -0.026800230722132654 -0.00035573314164699226 0 -0.026250095276507349 -0.00044568936147334527 0 -0.025656590597745058 -0.00028215194462987548 0 -0.026127689129963372 0.00018107441582684633 0 -0.025656590597745058 -0.00028215194462987548 0 -0.026127689129963372 0.00018107441582684633 0 -0.025583490011307775 0.00043855861091251553 0 -0.026015115945114048 0.00064817213908615148 0 -0.026563331880748643 0.00059983299846566682 0 -0.026127689129963372 0.00018107441582684633 0 -0.026015115945114048 0.00064817213908615148 0 -0.026127689129963372 0.00018107441582684633 0 -0.025583490011307775 0.00043855861091251553 0 -0.025583490011307775 0.00043855861091251553 0 -0.025000159245753596 -3.5830180356438254e-05 0 -0.024949929167387766 0.00074087333339312134 0 -0.025656590597745058 -0.00028215194462987548 0 -0.025583490011307775 0.00043855861091251553 0 -0.025000159245753596 -3.5830180356438254e-05 0 -0.025656590597745058 -0.00028215194462987548 0 -0.025095794000815855 -0.00056623603353313451 0 -0.025000159245753596 -3.5830180356438254e-05 0 -0.025000159245753596 -3.5830180356438254e-05 0 -0.024346755267203615 -0.00059719324131756249 0 -0.02428774289406788 1.7207854621149175e-05 0 -0.025095794000815855 -0.00056623603353313451 0 -0.025000159245753596 -3.5830180356438254e-05 0 -0.024346755267203615 -0.00059719324131756249 0 -0.025000159245753596 -3.5830180356438254e-05 0 -0.024949929167387766 0.00074087333339312134 0 -0.02428774289406788 1.7207854621149175e-05 0 -0.024949929167387766 0.00074087333339312134 0 -0.025256557885673082 0.0012095369961908915 0 -0.024820792303069272 0.0010796513030694524 0 -0.025583490011307775 0.00043855861091251553 0 -0.024949929167387766 0.00074087333339312134 0 -0.025620430433695811 0.00092994945965572332 0 -0.024949929167387766 0.00074087333339312134 0 -0.025620430433695811 0.00092994945965572332 0 -0.025256557885673082 0.0012095369961908915 0 -0.025435601146250316 0.0014935930100621801 0 -0.025806479287280273 0.0013253902057523198 0 -0.025256557885673082 0.0012095369961908915 0 -0.025806479287280273 0.0013253902057523198 0 -0.025620430433695811 0.00092994945965572332 0 -0.025256557885673082 0.0012095369961908915 0 -0.025256557885673082 0.0012095369961908915 0 -0.025020771970215915 0.0014651362423282212 0 -0.024820792303069272 0.0010796513030694524 0 -0.025435601146250316 0.0014935930100621801 0 -0.025256557885673082 0.0012095369961908915 0 -0.025020771970215915 0.0014651362423282212 0 -0.025020771970215915 0.0014651362423282212 0 -0.024691705902828237 0.0013673100975766577 0 -0.024820792303069272 0.0010796513030694524 0 -0.024691705902828237 0.0013673100975766577 0 -0.024494866026646502 0.0010485666304895652 0 -0.024820792303069272 0.0010796513030694524 0 -0.024694855579333385 0.0015165295437459783 0 -0.024691705902828237 0.0013673100975766577 0 -0.024675216783357153 0.0013786035655570701 0 -0.024644321051944983 0.0014649895449478179 0 -0.024694855579333385 0.0015165295437459783 0 -0.024675216783357153 0.0013786035655570701 0 -0.024691705902828237 0.0013673100975766577 0 -0.024192127333201283 0.0012647323143138648 0 -0.024494866026646502 0.0010485666304895652 0 -0.024593892143236967 0.0013496363575547174 0 -0.024626235521258585 0.0013802806627272034 0 -0.024160625845200658 0.00091809768929790824 0 -0.024543863447957903 0.00069051723862512907 0 -0.023864363035680056 0.00056070852972472257 0 -0.024192127333201283 0.0012647323143138648 0 -0.024160625845200658 0.00091809768929790824 0 -0.024494866026646502 0.0010485666304895652 0 -0.024192127333201283 0.0012647323143138648 0 -0.024160625845200658 0.00091809768929790824 0 -0.023726092716868468 0.001133633842795469 0 -0.024160625845200658 0.00091809768929790824 0 -0.024494866026646502 0.0010485666304895652 0 -0.024543863447957903 0.00069051723862512907 0 -0.024949929167387766 0.00074087333339312134 0 -0.024820792303069272 0.0010796513030694524 0 -0.024543863447957903 0.00069051723862512907 0 -0.024586234143529256 0.00069213278290764912 0 -0.024928248746146662 0.0007535187026060377 0 -0.024494866026646502 0.0010485666304895652 0 -0.024820792303069272 0.0010796513030694524 0 -0.024543863447957903 0.00069051723862512907 0 -0.02428774289406788 1.7207854621149175e-05 0 -0.023765286707814175 0.00059192291742354928 0 -0.023526444276892444 -0.00013766501411245275 0 -0.024949929167387766 0.00074087333339312134 0 -0.02428774289406788 1.7207854621149175e-05 0 -0.023765286707814175 0.00059192291742354928 0 -0.024034037213878721 -0.00028472298845041603 0 -0.024278487089302844 -0.00026073708248206456 0 -0.024346755267203615 -0.00059719324131756249 0 -0.02428774289406788 1.7207854621149175e-05 0 -0.023562125678930731 -0.00069637218572516431 0 -0.02428774289406788 1.7207854621149175e-05 0 -0.023784641790330588 -0.00084819383913342899 0 -0.023526444276892444 -0.00013766501411245275 0 -0.023784641790330588 -0.00084819383913342899 0 -0.023526444276892444 -0.00013766501411245275 0 -0.022941606405613241 -0.0006645148454182616 0 -0.023526444276892444 -0.00013766501411245275 0 -0.022941606405613241 -0.0006645148454182616 0 -0.02266741174747253 0.00037342909731047792 0 -0.024928248746146662 0.0007535187026060377 0 -0.019779504752983776 -0.00017595309981490923 0 -0.023765286707814175 0.00059192291742354928 0 -0.023526444276892444 -0.00013766501411245275 0 -0.02266741174747253 0.00037342909731047792 0 -0.017755965074721009 -0.0020998139702190764 0 -0.019779504752983776 -0.00017595309981490923 0 -0.012828386080683929 -0.003211194089322118 0 -0.012607876873276153 -0.0021633115522340734 0 -0.012114551360991727 -0.0029437767662912409 0 -0.012828386080683929 -0.003211194089322118 0 -0.012114551360991727 -0.0029437767662912409 0 -0.012092992843786617 -0.0036765997368909233 0 -0.012114551360991727 -0.0029437767662912409 0 -0.011462267286226938 -0.0033427301623373275 0 -0.011504574404589204 -0.0024146340573989594 0 -0.012114551360991727 -0.0029437767662912409 0 -0.011462267286226938 -0.0033427301623373275 0 -0.012092992843786617 -0.0036765997368909233 0 -0.012607876873276153 -0.0021633115522340734 0 -0.012114551360991727 -0.0029437767662912409 0 -0.011504574404589204 -0.0024146340573989594 0 -0.019779504752983776 -0.00017595309981490923 0 -0.01430413768074279 -0.0020152779545843887 0 -0.020651373504137132 -0.0009911935021764684 0 -0.018095905068996436 -0.0013444666027236998 0 -0.019252315124222839 -0.00019764667415185256 0 -0.018095905068996436 -0.0013444666027236998 0 -0.019252315124222839 -0.00019764667415185256 0 -0.017781719628922072 0.00045588069353356422 0 -0.020047142615280684 0.00049202875508251348 0 -0.022874887302531639 0.0011279435009309013 0 -0.019252315124222839 -0.00019764667415185256 0 -0.017781719628922072 0.00045588069353356422 0 -0.020122996611229314 0.0011772655704985052 0 -0.020651373504137132 -0.0009911935021764684 0 -0.019252315124222839 -0.00019764667415185256 0 -0.020122996611229314 0.0011772655704985052 0 -0.019779504752983776 -0.00017595309981490923 0 -0.022874887302531639 0.0011279435009309013 0 -0.024160625845200658 0.00091809768929790824 0 -0.023864363035680056 0.00056070852972472257 0 -0.023726092716868468 0.001133633842795469 0 -0.024644321051944983 0.0014649895449478179 0 -0.024569614321065275 0.0014907744559235739 0 -0.024580567184421656 0.0013074085487162017 0 -0.024644321051944983 0.0014649895449478179 0 -0.024675216783357153 0.0013786035655570701 0 -0.024580567184421656 0.0013074085487162017 0 -0.024105926741694921 0.0013015983968224629 0 -0.022874887302531639 0.0011279435009309013 0 -0.024626235521258585 0.0013802806627272034 0 -0.022874887302531639 0.0011279435009309013 0 -0.023372605259859063 0.0013332904941589867 0 -0.023476308144255852 0.0008849900228133287 0 -0.023108219348986318 0.0010926420908627422 0 -0.023018170457544979 0.00067338317713715146 0 -0.023476308144255852 0.0008849900228133287 0 -0.023108219348986318 0.0010926420908627422 0 -0.032649909349094036 4.7163244020230213e-05 0 -0.033001276446750938 -7.2227642914898238e-05 0 -0.032747409687655792 0.00011257900343679643 0 -0.033001276446750938 -7.2227642914898238e-05 0 -0.032949399792083542 -0.0001304557577214026 0 -0.032747409687655792 0.00011257900343679643 0 -0.031074076470474107 0.00042768609491297108 0 -0.02989350873754363 0.0003672716975837011 0 -0.032649909349094036 4.7163244020230213e-05 0 -0.032747409687655792 0.00011257900343679643 0 -0.032421729993232923 0.00013732761874345905 0 -0.033184576226628043 0.00022434776399531681 0 -0.033961777125067052 0.00040550792379711421 0 -0.032649909349094036 4.7163244020230213e-05 0 -0.033001276446750938 -7.2227642914898238e-05 0 -0.03237683945494349 -4.8454299130815543e-05 0 -0.032649909349094036 4.7163244020230213e-05 0 -0.03237683945494349 -4.8454299130815543e-05 0 -0.032421729993232923 0.00013732761874345905 0 -0.028217494211282022 0.00062022873755518198 0 -0.028383879904815647 0.00033927013371713575 0 -0.028970629193226138 0.0009907736806949851 0 -0.028217494211282022 0.00062022873755518198 0 -0.028970629193226138 0.0009907736806949851 0 -0.02804230070718481 0.00078582718008848276 0 -0.028217494211282022 0.00062022873755518198 0 -0.028383879904815647 0.00033927013371713575 0 -0.027960186817055314 0.00045478026478736706 0 -0.028970629193226138 0.0009907736806949851 0 -0.028925702176901658 5.8817569384311445e-05 0 -0.02984513552352239 -7.065172728054213e-05 0 -0.028383879904815647 0.00033927013371713575 0 -0.028970629193226138 0.0009907736806949851 0 -0.028925702176901658 5.8817569384311445e-05 0 -0.031074076470474107 0.00042768609491297108 0 -0.031835211566909348 0.00025909815416465856 0 -0.033001276446750938 -7.2227642914898238e-05 0 -0.031937696184314912 0.00022584148476535162 0 -0.032641845775014104 -5.7114744396945407e-05 0 -0.028970629193226138 0.0009907736806949851 0 -0.031937696184314912 0.00022584148476535162 0 -0.02984513552352239 -7.065172728054213e-05 0 -0.031937696184314912 0.00022584148476535162 0 -0.03072233237676604 -5.1639461846186076e-05 0 -0.02984513552352239 -7.065172728054213e-05 0 -0.031937696184314912 0.00022584148476535162 0 -0.032361239140983392 1.3045360107852286e-07 0 -0.03072233237676604 -5.1639461846186076e-05 0 -0.031937696184314912 0.00022584148476535162 0 -0.032600773788146228 -4.1137094237127216e-07 0 -0.032641845775014104 -5.7114744396945407e-05 0 -0.031937696184314912 0.00022584148476535162 0 -0.032361239140983392 1.3045360107852286e-07 0 -0.032600773788146228 -4.1137094237127216e-07 0 -0.032600773788146228 -4.1137094237127216e-07 0 -0.033130428110068263 -4.7230922412322481e-05 0 -0.034738018448594685 9.1441651496346828e-07 0 -0.032361239140983392 1.3045360107852286e-07 0 -0.032600773788146228 -4.1137094237127216e-07 0 -0.034738018448594685 9.1441651496346828e-07 0 -0.032600773788146228 -4.1137094237127216e-07 0 -0.033130428110068263 -4.7230922412322481e-05 0 -0.032641845775014104 -5.7114744396945407e-05 0 -0.033130428110068263 -4.7230922412322481e-05 0 -0.032993541015614247 -7.4948563105298191e-05 0 -0.032641845775014104 -5.7114744396945407e-05 0 -0.033130428110068263 -4.7230922412322481e-05 0 -0.032993541015614247 -7.4948563105298191e-05 0 -0.033322133631747929 -7.491351566945323e-05 0 -0.033322133631747929 -7.491351566945323e-05 0 -0.033715991758555712 -3.5562121663089992e-05 0 -0.034070293270179269 1.7233547804666096e-05 0 -0.033130428110068263 -4.7230922412322481e-05 0 -0.033322133631747929 -7.491351566945323e-05 0 -0.033715991758555712 -3.5562121663089992e-05 0 -0.033130428110068263 -4.7230922412322481e-05 0 -0.033715991758555712 -3.5562121663089992e-05 0 -0.034738018448594685 9.1441651496346828e-07 0 -0.033322133631747929 -7.491351566945323e-05 0 -0.032949399792083542 -0.0001304557577214026 0 -0.032747409687655792 0.00011257900343679643 0 -0.033001276446750938 -7.2227642914898238e-05 0 -0.032641845775014104 -5.7114744396945407e-05 0 -0.032949399792083542 -0.0001304557577214026 0 -0.033322133631747929 -7.491351566945323e-05 0 -0.034070293270179269 1.7233547804666096e-05 0 -0.032747409687655792 0.00011257900343679643 0 -0.032993541015614247 -7.4948563105298191e-05 0 -0.032641845775014104 -5.7114744396945407e-05 0 -0.032949399792083542 -0.0001304557577214026 0 -0.032993541015614247 -7.4948563105298191e-05 0 -0.033322133631747929 -7.491351566945323e-05 0 -0.032949399792083542 -0.0001304557577214026 0 -0.034077859535403036 7.137553267649902e-05 0 -0.033184576226628043 0.00022434776399531681 0 -0.038246999027971414 -6.6634782510933155e-07 0 -0.034747215426662981 3.4735502249050034e-06 0 -0.038902855881134478 0.00076247875057701376 0 -0.034070293270179269 1.7233547804666096e-05 0 -0.033677537695164836 0.00032909559646424318 0 -0.033787982071598999 0.00038613499858557838 0 -0.034743824168250177 5.6687398987036822e-09 0 -0.036403095579231146 0.00037798218688260809 0 -0.034738018448594685 9.1441651496346828e-07 0 -0.034070293270179269 1.7233547804666096e-05 0 -0.033677537695164836 0.00032909559646424318 0 -0.033715991758555712 -3.5562121663089992e-05 0 -0.034738018448594685 9.1441651496346828e-07 0 -0.034070293270179269 1.7233547804666096e-05 0 -0.037804098316460248 0.00015099894525477664 0 -0.036403095579231146 0.00037798218688260809 0 -0.033945870327300051 -0.00016492392677480849 0 -0.033899799515884552 0.00021575576354295871 0 -0.034179034438215794 -7.0882352205685908e-06 0 -0.033945870327300051 -0.00016492392677480849 0 -0.033677537695164836 0.00032909559646424318 0 -0.033899799515884552 0.00021575576354295871 0 -0.033677537695164836 0.00032909559646424318 0 -0.033899799515884552 0.00021575576354295871 0 -0.033787982071598999 0.00038613499858557838 0 -0.033899799515884552 0.00021575576354295871 0 -0.033787982071598999 0.00038613499858557838 0 -0.034163095791137743 0.00034264165854330813 0 -0.033787982071598999 0.00038613499858557838 0 -0.034163095791137743 0.00034264165854330813 0 -0.034487178170276772 0.00066291431518534952 0 -0.034163095791137743 0.00034264165854330813 0 -0.034445152122680761 0.00041381787691100748 0 -0.034487178170276772 0.00066291431518534952 0 -0.034163095791137743 0.00034264165854330813 0 -0.034479351013477433 7.459458583343192e-05 0 -0.034445152122680761 0.00041381787691100748 0 -0.034163095791137743 0.00034264165854330813 0 -0.034179034438215794 -7.0882352205685908e-06 0 -0.034479351013477433 7.459458583343192e-05 0 -0.033899799515884552 0.00021575576354295871 0 -0.034163095791137743 0.00034264165854330813 0 -0.034179034438215794 -7.0882352205685908e-06 0 -0.034717233211603256 -0.00025060813323138354 0 -0.034479351013477433 7.459458583343192e-05 0 -0.034937489194164791 3.637206683656258e-05 0 -0.034479351013477433 7.459458583343192e-05 0 -0.034937489194164791 3.637206683656258e-05 0 -0.034627596603710974 0.00032487429976024018 0 -0.035026129353888005 -0.00050630598192932179 0 -0.034937489194164791 3.637206683656258e-05 0 -0.03550776358815555 1.1628417825111679e-05 0 -0.034937489194164791 3.637206683656258e-05 0 -0.035177096048195668 0.00027698364690874821 0 -0.03550776358815555 1.1628417825111679e-05 0 -0.034937489194164791 3.637206683656258e-05 0 -0.034892043232295229 0.00040096270587087411 0 -0.035177096048195668 0.00027698364690874821 0 -0.034892043232295229 0.00040096270587087411 0 -0.035177096048195668 0.00027698364690874821 0 -0.035045186141590183 0.00051872205290485205 0 -0.035177096048195668 0.00027698364690874821 0 -0.035045186141590183 0.00051872205290485205 0 -0.035286099324353185 0.00058573860296870593 0 -0.034892043232295229 0.00040096270587087411 0 -0.035045186141590183 0.00051872205290485205 0 -0.034773099059548805 0.00052442495398022631 0 -0.034892043232295229 0.00040096270587087411 0 -0.034773099059548805 0.00052442495398022631 0 -0.034627596603710974 0.00032487429976024018 0 -0.034773099059548805 0.00052442495398022631 0 -0.034445152122680761 0.00041381787691100748 0 -0.034627596603710974 0.00032487429976024018 0 -0.034773099059548805 0.00052442495398022631 0 -0.034445152122680761 0.00041381787691100748 0 -0.034487178170276772 0.00066291431518534952 0 -0.034479351013477433 7.459458583343192e-05 0 -0.034445152122680761 0.00041381787691100748 0 -0.034627596603710974 0.00032487429976024018 0 -0.034937489194164791 3.637206683656258e-05 0 -0.034892043232295229 0.00040096270587087411 0 -0.034627596603710974 0.00032487429976024018 0 -0.035870783924654814 -0.00022805810142485818 0 -0.035371175434434465 7.1602476570287936e-05 0 -0.035718354070777392 0.00034142942175859986 0 -0.035371175434434465 7.1602476570287936e-05 0 -0.035286099324353185 0.00058573860296870593 0 -0.035496572161717428 0.00048114628659543565 0 -0.035177096048195668 0.00027698364690874821 0 -0.03550776358815555 1.1628417825111679e-05 0 -0.035286099324353185 0.00058573860296870593 0 -0.035437035270284481 4.3347147569857684e-05 0 -0.035302916451916765 0.0005419316431034411 0 -0.035286099324353185 0.00058573860296870593 0 -0.035496572161717428 0.00048114628659543565 0 -0.035555955662360972 0.00072280669247488721 0 -0.035950503198252992 0.00067938070117055157 0 -0.035718354070777392 0.00034142942175859986 0 -0.035555955662360972 0.00072280669247488721 0 -0.035371175434434465 7.1602476570287936e-05 0 -0.035496572161717428 0.00048114628659543565 0 -0.035718354070777392 0.00034142942175859986 0 -0.035496572161717428 0.00048114628659543565 0 -0.035718354070777392 0.00034142942175859986 0 -0.035555955662360972 0.00072280669247488721 0 -0.031274593590360146 0.00056387483475363852 0 -0.031784681211582448 0.00058891111438965304 0 -0.027753399529513601 0.00046830693171936571 0 -0.027727264584618504 0.00047943634838205028 0 -0.027727238712212245 0.0004928148992702679 0 -0.027727238712212245 0.0004928148992702679 0 -0.027713096492772527 0.00050388052095434277 0 -0.027710389175111434 0.00048412782293292904 0 -0.027727264584618504 0.00047943634838205028 0 -0.027727238712212245 0.0004928148992702679 0 -0.027710389175111434 0.00048412782293292904 0 -0.035286099324353185 0.00058573860296870593 0 -0.035555955662360972 0.00072280669247488721 0 -0.035193610319191514 0.0007751327845662865 0 -0.031784681211582448 0.00058891111438965304 0 -0.03118145578091866 0.00051764311126656262 0 -0.027727238712212245 0.0004928148992702679 0 -0.027735055647759924 0.0005463273530770241 0 -0.027730980390085435 0.00053494896599349422 0 -0.027727238712212245 0.0004928148992702679 0 -0.027713096492772527 0.00050388052095434277 0 -0.027730980390085435 0.00053494896599349422 0 -0.03118145578091866 0.00051764311126656262 0 -0.029700040355941894 0.00039284393888802693 0 -0.027713096492772527 0.00050388052095434277 0 -0.027730980390085435 0.00053494896599349422 0 -0.027724454332898267 0.00053632347221731018 0 -0.027714344984800673 0.00056422187324470284 0 -0.027724454332898267 0.00053632347221731018 0 -0.027746063597105287 0.00055859103174171786 0 -0.027714344984800673 0.00056422187324470284 0 -0.027730980390085435 0.00053494896599349422 0 -0.027724454332898267 0.00053632347221731018 0 -0.027724454332898267 0.00053632347221731018 0 -0.02771347320644299 0.00048517769918331969 0 -0.027751132732865329 0.00053501459620910693 0 -0.027713096492772527 0.00050388052095434277 0 -0.027724454332898267 0.00053632347221731018 0 -0.02771347320644299 0.00048517769918331969 0 -0.02771347320644299 0.00048517769918331969 0 -0.027691562908713892 0.00044875116326530221 0 -0.027703930602712246 0.00040202957833459146 0 -0.027713096492772527 0.00050388052095434277 0 -0.027691562908713892 0.00044875116326530221 0 -0.027710389175111434 0.00048412782293292904 0 -0.027713096492772527 0.00050388052095434277 0 -0.02771347320644299 0.00048517769918331969 0 -0.027691562908713892 0.00044875116326530221 0 -0.027691562908713892 0.00044875116326530221 0 -0.027710389175111434 0.00048412782293292904 0 -0.027705361159006941 0.0004675819237288528 0 -0.027727264584618504 0.00047943634838205028 0 -0.027710389175111434 0.00048412782293292904 0 -0.027705361159006941 0.0004675819237288528 0 -0.02804230070718481 0.00078582718008848276 0 -0.02780947178023754 0.00059827626579697418 0 -0.027937232657169898 0.00061487933149201725 0 -0.031669241510878333 6.5223902684052095e-05 0 -0.03237683945494349 -4.8454299130815543e-05 0 -0.032421729993232923 0.00013732761874345905 0 -0.035045186141590183 0.00051872205290485205 0 -0.034773099059548805 0.00052442495398022631 0 -0.035193610319191514 0.0007751327845662865 0 -0.03118145578091866 0.00051764311126656262 0 -0.02989350873754363 0.0003672716975837011 0 -0.027714344984800673 0.00056422187324470284 0 -0.02804230070718481 0.00078582718008848276 0 -0.02780947178023754 0.00059827626579697418 0 -0.03118145578091866 0.00051764311126656262 0 -0.033961777125067052 0.00040550792379711421 0 -0.034773099059548805 0.00052442495398022631 0 -0.035193610319191514 0.0007751327845662865 0 -0.034487178170276772 0.00066291431518534952 0 -0.035045186141590183 0.00051872205290485205 0 -0.035286099324353185 0.00058573860296870593 0 -0.035193610319191514 0.0007751327845662865 0 -0.027714344984800673 0.00056422187324470284 0 -0.027746063597105287 0.00055859103174171786 0 -0.02780947178023754 0.00059827626579697418 0 -0.027746063597105287 0.00055859103174171786 0 -0.02780947178023754 0.00059827626579697418 0 -0.027751132732865329 0.00053501459620910693 0 -0.027724454332898267 0.00053632347221731018 0 -0.027746063597105287 0.00055859103174171786 0 -0.027751132732865329 0.00053501459620910693 0 -0.02780947178023754 0.00059827626579697418 0 -0.027817015904941695 0.00053855603625738472 0 -0.027937232657169898 0.00061487933149201725 0 -0.02780947178023754 0.00059827626579697418 0 -0.027817015904941695 0.00053855603625738472 0 -0.027751132732865329 0.00053501459620910693 0 -0.02771347320644299 0.00048517769918331969 0 -0.027751132732865329 0.00053501459620910693 0 -0.027746028468664807 0.00047008879037090914 0 -0.027817015904941695 0.00053855603625738472 0 -0.027751132732865329 0.00053501459620910693 0 -0.027746028468664807 0.00047008879037090914 0 -0.027746028468664807 0.00047008879037090914 0 -0.027783656579955126 0.00038112081506465209 0 -0.027703930602712246 0.00040202957833459146 0 -0.02771347320644299 0.00048517769918331969 0 -0.027746028468664807 0.00047008879037090914 0 -0.027703930602712246 0.00040202957833459146 0 -0.027817015904941695 0.00053855603625738472 0 -0.027746028468664807 0.00047008879037090914 0 -0.027783656579955126 0.00038112081506465209 0 -0.027817015904941695 0.00053855603625738472 0 -0.027960186817055314 0.00045478026478736706 0 -0.027783656579955126 0.00038112081506465209 0 -0.027817015904941695 0.00053855603625738472 0 -0.027937232657169898 0.00061487933149201725 0 -0.027960186817055314 0.00045478026478736706 0 -0.028217494211282022 0.00062022873755518198 0 -0.02804230070718481 0.00078582718008848276 0 -0.027937232657169898 0.00061487933149201725 0 -0.028217494211282022 0.00062022873755518198 0 -0.027937232657169898 0.00061487933149201725 0 -0.027960186817055314 0.00045478026478736706 0 -0.028383879904815647 0.00033927013371713575 0 -0.027960186817055314 0.00045478026478736706 0 -0.027891785633270796 0.00014559119522137694 0 -0.027891785633270796 0.00014559119522137694 0 -0.027783656579955126 0.00038112081506465209 0 -0.02772588083875633 0.00028281079142529833 0 -0.027960186817055314 0.00045478026478736706 0 -0.027891785633270796 0.00014559119522137694 0 -0.027783656579955126 0.00038112081506465209 0 -0.027703930602712246 0.00040202957833459146 0 -0.02772588083875633 0.00028281079142529833 0 -0.027668659508274223 0.00033601806684362687 0 -0.027783656579955126 0.00038112081506465209 0 -0.027703930602712246 0.00040202957833459146 0 -0.02772588083875633 0.00028281079142529833 0 -0.02772588083875633 0.00028281079142529833 0 -0.027668659508274223 0.00033601806684362687 0 -0.027612714204033349 0.00029847871114084404 0 -0.027668659508274223 0.00033601806684362687 0 -0.027612714204033349 0.00029847871114084404 0 -0.027645912897588998 0.00040783612141558225 0 -0.027834695446571921 0.00020121414646078189 0 -0.028027801704961133 2.9373758603115056e-05 0 -0.027891785633270796 0.00014559119522137694 0 -0.02772588083875633 0.00028281079142529833 0 -0.027612714204033349 0.00029847871114084404 0 -0.027891785633270796 0.00014559119522137694 0 -0.027612714204033349 0.00029847871114084404 0 -0.02727086759878793 0.00032166807970139945 0 -0.027691562908713892 0.00044875116326530221 0 -0.027705361159006941 0.0004675819237288528 0 -0.027679843383650732 0.0004107913397507748 0 -0.027691562908713892 0.00044875116326530221 0 -0.027679843383650732 0.0004107913397507748 0 -0.027671100865860141 0.00039541299585219469 0 -0.027703930602712246 0.00040202957833459146 0 -0.027668659508274223 0.00033601806684362687 0 -0.027671100865860141 0.00039541299585219469 0 -0.027691562908713892 0.00044875116326530221 0 -0.027703930602712246 0.00040202957833459146 0 -0.027671100865860141 0.00039541299585219469 0 -0.027679843383650732 0.0004107913397507748 0 -0.027671100865860141 0.00039541299585219469 0 -0.027643697030866485 0.0003968535957531499 0 -0.027679843383650732 0.0004107913397507748 0 -0.027643697030866485 0.0003968535957531499 0 -0.027592509904666628 0.00044278036412426496 0 -0.027668659508274223 0.00033601806684362687 0 -0.027671100865860141 0.00039541299585219469 0 -0.027643697030866485 0.0003968535957531499 0 -0.027668659508274223 0.00033601806684362687 0 -0.027643697030866485 0.0003968535957531499 0 -0.027645912897588998 0.00040783612141558225 0 -0.026948341090958391 0.0011795308827216638 0 -0.027105003459594879 0.00055284074648216653 0 -0.027592509904666628 0.00044278036412426496 0 -0.026563331880748643 0.00059983299846566682 0 -0.026948341090958391 0.0011795308827216638 0 -0.027105003459594879 0.00055284074648216653 0 -0.02739116914409687 0.00074857823221410587 0 -0.027554956042638256 0.0004687922831973409 0 -0.026994463249271999 0.00030136903070731138 0 -0.027105003459594879 0.00055284074648216653 0 -0.027399779102972345 0.00029831949290334527 0 -0.026563331880748643 0.00059983299846566682 0 -0.026994463249271999 0.00030136903070731138 0 -0.027105003459594879 0.00055284074648216653 0 -0.026994463249271999 0.00030136903070731138 0 -0.027399779102972345 0.00029831949290334527 0 -0.027217545677145048 0.00017392079734980119 0 -0.027105003459594879 0.00055284074648216653 0 -0.027399779102972345 0.00029831949290334527 0 -0.027592509904666628 0.00044278036412426496 0 -0.027399779102972345 0.00029831949290334527 0 -0.027592509904666628 0.00044278036412426496 0 -0.027655190815002954 0.00045357891435729452 0 -0.027643697030866485 0.0003968535957531499 0 -0.027592509904666628 0.00044278036412426496 0 -0.027645912897588998 0.00040783612141558225 0 -0.027592509904666628 0.00044278036412426496 0 -0.027655190815002954 0.00045357891435729452 0 -0.027645912897588998 0.00040783612141558225 0 -0.027684139519444553 0.00059699888120548256 0 -0.027655190815002954 0.00045357891435729452 0 -0.027269886465590663 3.6482092622924637e-05 0 -0.027399779102972345 0.00029831949290334527 0 -0.027655190815002954 0.00045357891435729452 0 -0.027269886465590663 3.6482092622924637e-05 0 -0.023688646324198075 0.00055684432469809721 0 -0.02466886904734537 -0.00023164583022676309 0 -0.027019623057860733 0.00075495251981210734 0 -0.02466886904734537 -0.00023164583022676309 0 -0.027399779102972345 0.00029831949290334527 0 -0.027320282352319498 8.8259447658486374e-06 0 -0.027217545677145048 0.00017392079734980119 0 -0.026800230722132654 -0.00035573314164699226 0 -0.02727652111350265 -0.00015391994793386817 0 -0.02709615485747275 -8.7869709848313615e-05 0 -0.02466886904734537 -0.00023164583022676309 0 -0.025759375449664893 -0.00039806240659630022 0 -0.026994463249271999 0.00030136903070731138 0 -0.02709615485747275 -8.7869709848313615e-05 0 -0.027217545677145048 0.00017392079734980119 0 -0.027320282352319498 8.8259447658486374e-06 0 -0.02709615485747275 -8.7869709848313615e-05 0 -0.027217545677145048 0.00017392079734980119 0 -0.027355807417838461 0.00051610712362718837 0 -0.0269629502037501 0.00074336644915029191 0 -0.02727086759878793 0.00032166807970139945 0 -0.027612714204033349 0.00029847871114084404 0 -0.027355807417838461 0.00051610712362718837 0 -0.02727086759878793 0.00032166807970139945 0 -0.027355807417838461 0.00051610712362718837 0 -0.02757047872741528 0.00047255796889003436 0 -0.027508411184535571 0.00071331667909279792 0 -0.027612714204033349 0.00029847871114084404 0 -0.027355807417838461 0.00051610712362718837 0 -0.02757047872741528 0.00047255796889003436 0 -0.027612714204033349 0.00029847871114084404 0 -0.027645912897588998 0.00040783612141558225 0 -0.02757047872741528 0.00047255796889003436 0 -0.027655190815002954 0.00045357891435729452 0 -0.027645912897588998 0.00040783612141558225 0 -0.02757047872741528 0.00047255796889003436 0 -0.027684139519444553 0.00059699888120548256 0 -0.027508411184535571 0.00071331667909279792 0 -0.02730242911386278 0.0014589781523055259 0 -0.027655190815002954 0.00045357891435729452 0 -0.02757047872741528 0.00047255796889003436 0 -0.027508411184535571 0.00071331667909279792 0 -0.027684139519444553 0.00059699888120548256 0 -0.027655190815002954 0.00045357891435729452 0 -0.027508411184535571 0.00071331667909279792 0 -0.0269629502037501 0.00074336644915029191 0 -0.026408521099073531 0.00089560150201606435 0 -0.02730242911386278 0.0014589781523055259 0 -0.027355807417838461 0.00051610712362718837 0 -0.027508411184535571 0.00071331667909279792 0 -0.0269629502037501 0.00074336644915029191 0 -0.027508411184535571 0.00071331667909279792 0 -0.0269629502037501 0.00074336644915029191 0 -0.02730242911386278 0.0014589781523055259 0 -0.026718592484511326 0.00031285365805178584 0 -0.025718146811261795 8.2699946645839383e-05 0 -0.028741619687679205 -0.00011073391946125176 0 -0.02871306082679544 -0.0003111608033937151 0 -0.02838678641110149 0.00031734939595828968 0 -0.021209079808774497 0.00011307492507088458 0 -0.021825504826352142 0.00065816631153933856 0 -0.021433616347268702 0.00011896408045034939 0 -0.025718146811261795 8.2699946645839383e-05 0 -0.024964567723512125 0.00040474652827805475 0 -0.028741619687679205 -0.00011073391946125176 0 -0.02871306082679544 -0.0003111608033937151 0 -0.028483539272590272 -0.00033154560546422654 0 -0.0269629502037501 0.00074336644915029191 0 -0.026788880369147894 0.00076298273849162109 0 -0.02727086759878793 0.00032166807970139945 0 -0.025718146811261795 8.2699946645839383e-05 0 -0.028027801704961133 2.9373758603115056e-05 0 -0.02871306082679544 -0.0003111608033937151 0 -0.028483539272590272 -0.00033154560546422654 0 -0.028610479893268228 -0.00014447816707324076 0 -0.027891785633270796 0.00014559119522137694 0 -0.028483539272590272 -0.00033154560546422654 0 -0.028610479893268228 -0.00014447816707324076 0 -0.02871306082679544 -0.0003111608033937151 0 -0.028610479893268228 -0.00014447816707324076 0 -0.029011771425097425 -0.00031978552498377943 0 -0.029011771425097425 -0.00031978552498377943 0 -0.028925702176901658 5.8817569384311445e-05 0 -0.02984513552352239 -7.065172728054213e-05 0 -0.028610479893268228 -0.00014447816707324076 0 -0.029011771425097425 -0.00031978552498377943 0 -0.028925702176901658 5.8817569384311445e-05 0 -0.028383879904815647 0.00033927013371713575 0 -0.027891785633270796 0.00014559119522137694 0 -0.028610479893268228 -0.00014447816707324076 0 -0.028383879904815647 0.00033927013371713575 0 -0.028610479893268228 -0.00014447816707324076 0 -0.028925702176901658 5.8817569384311445e-05 0 -0.029978233196057427 -2.8780174626131194e-07 0 -0.03072233237676604 -5.1639461846186076e-05 0 -0.029267704138186888 -0.00031735458073013721 0 -0.032361239140983392 1.3045360107852286e-07 0 -0.029978233196057427 -2.8780174626131194e-07 0 -0.03072233237676604 -5.1639461846186076e-05 0 -0.029011771425097425 -0.00031978552498377943 0 -0.02984513552352239 -7.065172728054213e-05 0 -0.029267704138186888 -0.00031735458073013721 0 -0.03072233237676604 -5.1639461846186076e-05 0 -0.02984513552352239 -7.065172728054213e-05 0 -0.029267704138186888 -0.00031735458073013721 0 -0.02871306082679544 -0.0003111608033937151 0 -0.029011771425097425 -0.00031978552498377943 0 -0.028332615110146842 -0.00032032184039538863 0 -0.029011771425097425 -0.00031978552498377943 0 -0.029267704138186888 -0.00031735458073013721 0 -0.028332615110146842 -0.00032032184039538863 0 -0.029978233196057427 -2.8780174626131194e-07 0 -0.029267704138186888 -0.00031735458073013721 0 -0.027595548748010363 -1.3573116522931691e-06 0 -0.029267704138186888 -0.00031735458073013721 0 -0.027595548748010363 -1.3573116522931691e-06 0 -0.028332615110146842 -0.00032032184039538863 0 -0.027595548748010363 -1.3573116522931691e-06 0 -0.028332615110146842 -0.00032032184039538863 0 -0.025218965651568108 2.2108916163203512e-06 0 -0.02871306082679544 -0.0003111608033937151 0 -0.028332615110146842 -0.00032032184039538863 0 -0.02838678641110149 0.00031734939595828968 0 -0.028332615110146842 -0.00032032184039538863 0 -0.02838678641110149 0.00031734939595828968 0 -0.025218965651568108 2.2108916163203512e-06 0 -0.024964567723512125 0.00040474652827805475 0 -0.025214340761725313 1.8653138428486066e-07 0 -0.025208515783743474 2.7721335019980017e-06 0 -0.022438547550435825 -0.00025176480827876735 0 -0.02231577130775185 -1.8042243225617031e-06 0 -0.021825504826352142 0.00065816631153933856 0 -0.025208515783743474 2.7721335019980017e-06 0 -0.022438547550435825 -0.00025176480827876735 0 -0.021825504826352142 0.00065816631153933856 0 -0.022438547550435825 -0.00025176480827876735 0 -0.021398357034147018 -0.00022388708300033925 0 -0.022438547550435825 -0.00025176480827876735 0 -0.021241242725124471 -0.00036564213788626876 0 -0.021398357034147018 -0.00022388708300033925 0 -0.022438547550435825 -0.00025176480827876735 0 -0.021241242725124471 -0.00036564213788626876 0 -0.02231577130775185 -1.8042243225617031e-06 0 -0.020882261903918706 0.00011693353634558215 0 -0.020677916022433782 1.771786764773743e-05 0 -0.020591891334062345 0.0002122155082530754 0 -0.022447989069446901 0.00083376364603153811 0 -0.024113418544574685 0.00082993978929876851 0 -0.025718146811261795 8.2699946645839383e-05 0 -0.022447989069446901 0.00083376364603153811 0 -0.021209079808774497 0.00011307492507088458 0 -0.021317295098220036 -0.00015571753388278747 0 -0.021433616347268702 0.00011896408045034939 0 -0.026408521099073531 0.00089560150201606435 0 -0.025818898356249662 0.0022965813150025551 0 -0.02730242911386278 0.0014589781523055259 0 -0.021825504826352142 0.00065816631153933856 0 -0.021433616347268702 0.00011896408045034939 0 -0.021398357034147018 -0.00022388708300033925 0 -0.022447989069446901 0.00083376364603153811 0 -0.02125172490911828 6.9155080970684867e-05 0 -0.021317295098220036 -0.00015571753388278747 0 -0.021433616347268702 0.00011896408045034939 0 -0.021398357034147018 -0.00022388708300033925 0 -0.021283943780996982 -0.00018663814301059415 0 -0.021398357034147018 -0.00022388708300033925 0 -0.02092193415452687 -0.00033835325220903388 0 -0.022447989069446901 0.00083376364603153811 0 -0.020690178865618507 -0.00059624108832787026 0 -0.021241242725124471 -0.00036564213788626876 0 -0.021398357034147018 -0.00022388708300033925 0 -0.02092193415452687 -0.00033835325220903388 0 -0.020882261903918706 0.00011693353634558215 0 -0.020769599951535565 -0.00011763184817676863 0 -0.02092193415452687 -0.00033835325220903388 0 -0.020769599951535565 -0.00011763184817676863 0 -0.020677916022433782 1.771786764773743e-05 0 -0.020646195309272457 -0.00013975640581916418 0 -0.020882261903918706 0.00011693353634558215 0 -0.020769599951535565 -0.00011763184817676863 0 -0.020677916022433782 1.771786764773743e-05 0 -0.020734743775532413 -0.000245370377317975 0 -0.020776213587361161 -0.0003418012736491303 0 -0.02092193415452687 -0.00033835325220903388 0 -0.020769599951535565 -0.00011763184817676863 0 -0.020734743775532413 -0.000245370377317975 0 -0.02092193415452687 -0.00033835325220903388 0 -0.020734743775532413 -0.000245370377317975 0 -0.020776213587361161 -0.0003418012736491303 0 -0.020654455920631268 -0.00027394439160643839 0 -0.020734743775532413 -0.000245370377317975 0 -0.020654455920631268 -0.00027394439160643839 0 -0.020646195309272457 -0.00013975640581916418 0 -0.020769599951535565 -0.00011763184817676863 0 -0.020734743775532413 -0.000245370377317975 0 -0.020646195309272457 -0.00013975640581916418 0 -0.021241242725124471 -0.00036564213788626876 0 -0.02092193415452687 -0.00033835325220903388 0 -0.020342612332960811 -0.00028396570667611889 0 -0.020776213587361161 -0.0003418012736491303 0 -0.02092193415452687 -0.00033835325220903388 0 -0.020342612332960811 -0.00028396570667611889 0 -0.020365607088747548 -0.00023611497947299145 0 -0.020600508915906257 -0.00017865398516044077 0 -0.020776213587361161 -0.0003418012736491303 0 -0.020342612332960811 -0.00028396570667611889 0 -0.020760853382356437 -0.00028326517013400903 0 -0.020760853382356437 -0.00028326517013400903 0 -0.020704082610385345 -0.00032807293957735055 0 -0.02059246003487903 -0.00048661394635251745 0 -0.020776213587361161 -0.0003418012736491303 0 -0.020760853382356437 -0.00028326517013400903 0 -0.020704082610385345 -0.00032807293957735055 0 -0.020776213587361161 -0.0003418012736491303 0 -0.020704082610385345 -0.00032807293957735055 0 -0.020654455920631268 -0.00027394439160643839 0 -0.02231577130775185 -1.8042243225617031e-06 0 -0.020362222068420921 -0.00028670179892831027 0 -0.019415914406055435 -1.1704110667018918e-07 0 -0.021241242725124471 -0.00036564213788626876 0 -0.02231577130775185 -1.8042243225617031e-06 0 -0.020362222068420921 -0.00028670179892831027 0 -0.021241242725124471 -0.00036564213788626876 0 -0.020342612332960811 -0.00028396570667611889 0 -0.020362222068420921 -0.00028670179892831027 0 -0.020342612332960811 -0.00028396570667611889 0 -0.020362222068420921 -0.00028670179892831027 0 -0.019291361231819931 -0.00015173730906606106 0 -0.020362222068420921 -0.00028670179892831027 0 -0.019291361231819931 -0.00015173730906606106 0 -0.019415914406055435 -1.1704110667018918e-07 0 -0.019291361231819931 -0.00015173730906606106 0 -0.019415914406055435 -1.1704110667018918e-07 0 -0.017505616287599009 0.00040815067578909762 0 -0.019415914406055435 -1.1704110667018918e-07 0 -0.017505616287599009 0.00040815067578909762 0 -0.016518013025393817 9.3243732911812102e-07 0 -0.017505616287599009 0.00040815067578909762 0 -0.016518013025393817 9.3243732911812102e-07 0 -0.016052989616673789 -0.00015300483028347626 0 -0.016052989616673789 -0.00015300483028347626 0 -0.014900780849133526 0.00043726038426207553 0 -0.015079224355087467 -0.0003262182295914978 0 -0.017505616287599009 0.00040815067578909762 0 -0.016052989616673789 -0.00015300483028347626 0 -0.014900780849133526 0.00043726038426207553 0 -0.020342612332960811 -0.00028396570667611889 0 -0.019291361231819931 -0.00015173730906606106 0 -0.02037533913992344 0.00052154861538851807 0 -0.019291361231819931 -0.00015173730906606106 0 -0.017505616287599009 0.00040815067578909762 0 -0.02037533913992344 0.00052154861538851807 0 -0.01752485268447182 0.00042731877632710985 0 -0.017600111036249051 0.00045176808573465295 0 -0.020342612332960811 -0.00028396570667611889 0 -0.020607004700644888 0.00014223525838696132 0 -0.02037533913992344 0.00052154861538851807 0 -0.020607004700644888 0.00014223525838696132 0 -0.02037533913992344 0.00052154861538851807 0 -0.020569152013186275 0.00022447985952448471 0 -0.020607004700644888 0.00014223525838696132 0 -0.020569152013186275 0.00022447985952448471 0 -0.020435519474008304 0.00027500134097071843 0 -0.017600111036249051 0.00045176808573465295 0 -0.017571273275233806 0.00022166376840106043 0 -0.014900780849133526 0.00043726038426207553 0 -0.014390929491613379 0.0002771153024513716 0 -0.014548069256195067 9.2090466795156803e-05 0 -0.014390929491613379 0.0002771153024513716 0 -0.014548069256195067 9.2090466795156803e-05 0 -0.01426129506323735 9.1082459292870033e-05 0 -0.014900780849133526 0.00043726038426207553 0 -0.014548069256195067 9.2090466795156803e-05 0 -0.015079224355087467 -0.0003262182295914978 0 -0.014521112538393235 -0.00018140072925803747 0 -0.014517081135784609 -0.00025451088550105735 0 -0.015079224355087467 -0.0003262182295914978 0 -0.014548069256195067 9.2090466795156803e-05 0 -0.014521112538393235 -0.00018140072925803747 0 -0.015079224355087467 -0.0003262182295914978 0 -0.014548069256195067 9.2090466795156803e-05 0 -0.014407317840033353 -0.00011951299505611012 0 -0.01426129506323735 9.1082459292870033e-05 0 -0.014548069256195067 9.2090466795156803e-05 0 -0.014521112538393235 -0.00018140072925803747 0 -0.014407317840033353 -0.00011951299505611012 0 -0.014395193430043151 -0.00014614042211262695 0 -0.014407317840033353 -0.00011951299505611012 0 -0.014509653756570979 -9.0422963453700293e-05 0 -0.014521112538393235 -0.00018140072925803747 0 -0.014395193430043151 -0.00014614042211262695 0 -0.014407317840033353 -0.00011951299505611012 0 -0.014517081135784609 -0.00025451088550105735 0 -0.014395193430043151 -0.00014614042211262695 0 -0.013854858101974918 -8.339874773927408e-05 0 -0.014521112538393235 -0.00018140072925803747 0 -0.014517081135784609 -0.00025451088550105735 0 -0.014395193430043151 -0.00014614042211262695 0 -0.014517081135784609 -0.00025451088550105735 0 -0.013618000640254065 -2.1018975190164792e-06 0 -0.015079224355087467 -0.0003262182295914978 0 -0.014517081135784609 -0.00025451088550105735 0 -0.013618000640254065 -2.1018975190164792e-06 0 -0.013854858101974918 -8.339874773927408e-05 0 -0.016052989616673789 -0.00015300483028347626 0 -0.013618000640254065 -2.1018975190164792e-06 0 -0.015079224355087467 -0.0003262182295914978 0 -0.016518013025393817 9.3243732911812102e-07 0 -0.016052989616673789 -0.00015300483028347626 0 -0.013618000640254065 -2.1018975190164792e-06 0 -0.0012627431216916799 0.00085446019185218066 0 -0.0016708918372882735 0.0006275970409121719 0 -0.0018048411888745416 0.0012425535692261742 0 -0.0012627431216916799 0.00085446019185218066 0 -0.0012604482254890577 0.00030960256898574737 0 -0.0007364781977958558 0.00037244239838038723 0 -0.0012627431216916799 0.00085446019185218066 0 -0.0012604482254890577 0.00030960256898574737 0 -0.0016708918372882735 0.0006275970409121719 0 -0.0012604482254890577 0.00030960256898574737 0 -0.0016708918372882735 0.0006275970409121719 0 -0.0015900339940513907 0.00026994369244622772 0 -0.0016708918372882735 0.0006275970409121719 0 -0.0020061321734718214 0.00035814723062755515 0 -0.0015900339940513907 0.00026994369244622772 0 -0.0016708918372882735 0.0006275970409121719 0 -0.0021186073744517853 0.00076215776671613455 0 -0.0020061321734718214 0.00035814723062755515 0 -0.0082014152559668121 0.00042262574298425017 0 -0.0084296459293185903 0.00016743529572587891 0 -0.014407317840033353 -0.00011951299505611012 0 -0.014198237799694535 -0.00010461978403887078 0 -0.014509653756570979 -9.0422963453700293e-05 0 -0.0021186073744517853 0.00076215776671613455 0 -0.0024234034037261742 0.00037913938714346319 0 -0.0020061321734718214 0.00035814723062755515 0 -0.014407317840033353 -0.00011951299505611012 0 -0.014198237799694535 -0.00010461978403887078 0 -0.01426129506323735 9.1082459292870033e-05 0 -0.0082014152559668121 0.00042262574298425017 0 -0.0074384888991125293 0.00012260476807576931 0 -0.0016708918372882735 0.0006275970409121719 0 -0.0021186073744517853 0.00076215776671613455 0 -0.0018048411888745416 0.0012425535692261742 0 -0.01426129506323735 9.1082459292870033e-05 0 -0.014089931310795443 0.0002583980015383252 0 -0.013937069582161421 0.00014969997384055639 0 -0.014198237799694535 -0.00010461978403887078 0 -0.01426129506323735 9.1082459292870033e-05 0 -0.013937069582161421 0.00014969997384055639 0 -0.016687024423600774 0.00066117155293362695 0 -0.0074384888991125293 0.00012260476807576931 0 -0.014317353445402246 0.00054389623370946192 0 -0.016350084626460978 0.00060138426657216739 0 -0.013177625846158638 -0.0020083425404318436 0 -0.014390929491613379 0.0002771153024513716 0 -0.01426129506323735 9.1082459292870033e-05 0 -0.014089931310795443 0.0002583980015383252 0 -0.017571273275233806 0.00022166376840106043 0 -0.016687024423600774 0.00066117155293362695 0 -0.020569152013186275 0.00022447985952448471 0 -0.020435519474008304 0.00027500134097071843 0 -0.020222645946488101 0.00012710531478720934 0 -0.020600508915906257 -0.00017865398516044077 0 -0.020498491194320081 0.00095349858480824447 0 -0.020498491194320081 0.00095349858480824447 0 -0.016898084613390468 0.0013375343338582065 0 -0.020688861577695037 0.004134393066539825 0 -0.016239847854241825 0.0018739596960876969 0 -0.014524065135620847 0.0025340068507772838 0 -0.020584184868876115 -0.00047660565903198741 0 -0.020263640507642244 -0.00058900503814408921 0 -0.020370794972350288 -0.00036470097125742776 0 -0.016239847854241825 0.0018739596960876969 0 -0.0144614450132424 0.0025668857486107351 0 -0.014317353445402246 0.00054389623370946192 0 -0.015973793804749236 0.0017722961534391139 0 -0.016898084613390468 0.0013375343338582065 0 -0.015383615772692712 0.00061032467687316958 0 -0.016687024423600774 0.00066117155293362695 0 -0.016239847854241825 0.0018739596960876969 0 -0.014317353445402246 0.00054389623370946192 0 -0.01639038750963985 0.00059629723181892937 0 -0.020498491194320081 0.00095349858480824447 0 -0.016687024423600774 0.00066117155293362695 0 -0.020688861577695037 0.004134393066539825 0 -0.016239847854241825 0.0018739596960876969 0 -0.01639038750963985 0.00059629723181892937 0 -0.014353049896114599 0.0012515886181062579 0 -0.013832692780742067 0.0011117364659461659 0 -0.01350992241519366 0.0015560782477620106 0 -0.016898084613390468 0.0013375343338582065 0 -0.015343517747443419 0.00079470865724368296 0 -0.020263640507642244 -0.00058900503814408921 0 -0.01995792644044514 -0.00049557178349888826 0 -0.020145056728447411 -0.00041567651834395562 0 -0.0086799672896253101 0.0014075218613666487 0 -0.015343517747443419 0.00079470865724368296 0 -0.016898084613390468 0.0013375343338582065 0 -0.0086799672896253101 0.0014075218613666487 0 -0.0144614450132424 0.0025668857486107351 0 -0.014317353445402246 0.00054389623370946192 0 -0.010590719923756736 0.0015586855408699033 0 -0.0086799672896253101 0.0014075218613666487 0 -0.0074384888991125293 0.00012260476807576931 0 -0.014317353445402246 0.00054389623370946192 0 -0.010590719923756736 0.0015586855408699033 0 -0.013177625846158638 -0.0020083425404318436 0 -0.0011816184783931408 0.00022164706418055421 0 -0.0074384888991125293 0.00012260476807576931 0 -0.0027038588628655632 -0.00017277201127596713 0 -0.0036500350782853763 0.00049062223560340096 0 -0.0029976046963486715 0.00049730709838540193 0 -0.0033012444642067595 0.00098378443428022715 0 -0.0036500350782853763 0.00049062223560340096 0 -0.0029976046963486715 0.00049730709838540193 0 -0.0027038588628655632 -0.00017277201127596713 0 -0.0029976046963486715 0.00049730709838540193 0 -0.00235596807896101 0.00070113427792754476 0 -0.0033012444642067595 0.00098378443428022715 0 -0.0029976046963486715 0.00049730709838540193 0 -0.00235596807896101 0.00070113427792754476 0 -0.0075384198814227171 0.002695299872975928 0 -0.0054721170546587284 0.0034670724720257595 0 -0.0059098003053713166 0.00085869851067446211 0 -0.0086799672896253101 0.0014075218613666487 0 -0.0035850277414397184 0.00068042673531618395 0 -0.0084286486793385285 0.0014661895002951713 0 -0.0075384198814227171 0.002695299872975928 0 -0.0059098003053713166 0.00085869851067446211 0 -0.015343517747443419 0.00079470865724368296 0 -0.011590131456539744 0.0019702720172467617 0 -0.019813934484552147 -0.00034650808183073678 0 -0.01981984499650714 -0.00031372392464311231 0 -0.019716826884691115 -0.00035221312878298356 0 -0.01981984499650714 -0.00031372392464311231 0 -0.020001662667012414 -0.00034140934739359196 0 -0.019971912739153785 -0.00019123158899112794 0 -0.01995792644044514 -0.00049557178349888826 0 -0.01981984499650714 -0.00031372392464311231 0 -0.020001662667012414 -0.00034140934739359196 0 -0.015343517747443419 0.00079470865724368296 0 -0.020092811149252349 -0.0013529608003440608 0 -0.01995792644044514 -0.00049557178349888826 0 -0.020001662667012414 -0.00034140934739359196 0 -0.020145056728447411 -0.00041567651834395562 0 -0.020145056728447411 -0.00041567651834395562 0 -0.020146171153036005 -0.00027590228914049493 0 -0.020370794972350288 -0.00036470097125742776 0 -0.020001662667012414 -0.00034140934739359196 0 -0.020146171153036005 -0.00027590228914049493 0 -0.019971912739153785 -0.00019123158899112794 0 -0.020001662667012414 -0.00034140934739359196 0 -0.020145056728447411 -0.00041567651834395562 0 -0.020146171153036005 -0.00027590228914049493 0 -0.020146171153036005 -0.00027590228914049493 0 -0.020149027949897168 -0.00011103628529199333 0 -0.019971912739153785 -0.00019123158899112794 0 -0.020146171153036005 -0.00027590228914049493 0 -0.020149027949897168 -0.00011103628529199333 0 -0.020335618253541507 -0.00017435406070988619 0 -0.020149027949897168 -0.00011103628529199333 0 -0.019971912739153785 -0.00019123158899112794 0 -0.020026024021407626 4.7845043748931239e-06 0 -0.01981984499650714 -0.00031372392464311231 0 -0.019848405588914687 -9.9294577448314386e-05 0 -0.019971912739153785 -0.00019123158899112794 0 -0.019848405588914687 -9.9294577448314386e-05 0 -0.019971912739153785 -0.00019123158899112794 0 -0.020026024021407626 4.7845043748931239e-06 0 -0.020704082610385345 -0.00032807293957735055 0 -0.020580916553318358 -0.00034372396956104624 0 -0.020654455920631268 -0.00027394439160643839 0 -0.020450035479338994 -0.00045784536837450507 0 -0.020498491194320081 0.00095349858480824447 0 -0.020704082610385345 -0.00032807293957735055 0 -0.020584184868876115 -0.00047660565903198741 0 -0.020580916553318358 -0.00034372396956104624 0 -0.020584184868876115 -0.00047660565903198741 0 -0.020580916553318358 -0.00034372396956104624 0 -0.020370794972350288 -0.00036470097125742776 0 -0.020580916553318358 -0.00034372396956104624 0 -0.020494598178994797 -0.00026884835172528689 0 -0.020654455920631268 -0.00027394439160643839 0 -0.020263640507642244 -0.00058900503814408921 0 -0.020145056728447411 -0.00041567651834395562 0 -0.020370794972350288 -0.00036470097125742776 0 -0.020146171153036005 -0.00027590228914049493 0 -0.020370794972350288 -0.00036470097125742776 0 -0.020335618253541507 -0.00017435406070988619 0 -0.020580916553318358 -0.00034372396956104624 0 -0.020370794972350288 -0.00036470097125742776 0 -0.020494598178994797 -0.00026884835172528689 0 -0.020370794972350288 -0.00036470097125742776 0 -0.020335618253541507 -0.00017435406070988619 0 -0.020494598178994797 -0.00026884835172528689 0 -0.020335618253541507 -0.00017435406070988619 0 -0.020529406767600459 -0.00017812637816547579 0 -0.020495215384431501 -3.0624134873684754e-05 0 -0.020335618253541507 -0.00017435406070988619 0 -0.020494598178994797 -0.00026884835172528689 0 -0.020529406767600459 -0.00017812637816547579 0 -0.020494598178994797 -0.00026884835172528689 0 -0.020529406767600459 -0.00017812637816547579 0 -0.020654455920631268 -0.00027394439160643839 0 -0.020529406767600459 -0.00017812637816547579 0 -0.020654455920631268 -0.00027394439160643839 0 -0.020646195309272457 -0.00013975640581916418 0 -0.020677916022433782 1.771786764773743e-05 0 -0.020495215384431501 -3.0624134873684754e-05 0 -0.020591891334062345 0.0002122155082530754 0 -0.020677916022433782 1.771786764773743e-05 0 -0.020646195309272457 -0.00013975640581916418 0 -0.020495215384431501 -3.0624134873684754e-05 0 -0.020529406767600459 -0.00017812637816547579 0 -0.020646195309272457 -0.00013975640581916418 0 -0.020495215384431501 -3.0624134873684754e-05 0 -0.020495215384431501 -3.0624134873684754e-05 0 -0.020591891334062345 0.0002122155082530754 0 -0.020261493334551007 7.0014377704910436e-05 0 -0.020335618253541507 -0.00017435406070988619 0 -0.020495215384431501 -3.0624134873684754e-05 0 -0.020261493334551007 7.0014377704910436e-05 0 -0.023688646324198075 0.00055684432469809721 0 -0.024113418544574685 0.00082993978929876851 0 -0.02030825972527547 0.00031802339325672874 0 -0.020591891334062345 0.0002122155082530754 0 -0.020261493334551007 7.0014377704910436e-05 0 -0.019848405588914687 -9.9294577448314386e-05 0 -0.020026024021407626 4.7845043748931239e-06 0 -0.01985373392895922 0.00017896107213165934 0 -0.020026024021407626 4.7845043748931239e-06 0 -0.020095009376491755 0.00019684097816790778 0 -0.01985373392895922 0.00017896107213165934 0 -0.020026024021407626 4.7845043748931239e-06 0 -0.020261493334551007 7.0014377704910436e-05 0 -0.020095009376491755 0.00019684097816790778 0 -0.020149027949897168 -0.00011103628529199333 0 -0.020335618253541507 -0.00017435406070988619 0 -0.020261493334551007 7.0014377704910436e-05 0 -0.020149027949897168 -0.00011103628529199333 0 -0.020026024021407626 4.7845043748931239e-06 0 -0.020261493334551007 7.0014377704910436e-05 0 -0.02030825972527547 0.00031802339325672874 0 -0.020027692538887268 0.00040659248340308676 0 -0.020095009376491755 0.00019684097816790778 0 -0.02030825972527547 0.00031802339325672874 0 -0.020261493334551007 7.0014377704910436e-05 0 -0.020095009376491755 0.00019684097816790778 0 -0.020027692538887268 0.00040659248340308676 0 -0.020095009376491755 0.00019684097816790778 0 -0.01985373392895922 0.00017896107213165934 0 -0.02466886904734537 -0.00023164583022676309 0 -0.023161536953096102 -0.00054200947976492731 0 -0.026800230722132654 -0.00035573314164699226 0 -0.02727652111350265 -0.00015391994793386817 0 -0.026794177839424116 -0.0011122472893459359 0 -0.026250095276507349 -0.00044568936147334527 0 -0.026794177839424116 -0.0011122472893459359 0 -0.02566878682993317 -0.0011691049394288767 0 -0.026250095276507349 -0.00044568936147334527 0 -0.026800230722132654 -0.00035573314164699226 0 -0.026794177839424116 -0.0011122472893459359 0 -0.026794177839424116 -0.0011122472893459359 0 -0.026290971388400076 -0.0019712344044742328 0 -0.02566878682993317 -0.0011691049394288767 0 -0.023161536953096102 -0.00054200947976492731 0 -0.023655464258112362 -0.00075110416353045897 0 -0.019848405588914687 -9.9294577448314386e-05 0 -0.01985373392895922 0.00017896107213165934 0 -0.019665430671799575 -5.0142411753206518e-05 0 -0.026290971388400076 -0.0019712344044742328 0 -0.02566878682993317 -0.0011691049394288767 0 -0.025551107805644634 -0.0020881976088091532 0 -0.026250095276507349 -0.00044568936147334527 0 -0.025656590597745058 -0.00028215194462987548 0 -0.02566878682993317 -0.0011691049394288767 0 -0.025656590597745058 -0.00028215194462987548 0 -0.025095794000815855 -0.00056623603353313451 0 -0.02566878682993317 -0.0011691049394288767 0 -0.025095794000815855 -0.00056623603353313451 0 -0.02566878682993317 -0.0011691049394288767 0 -0.024704338987143158 -0.0011658787624043954 0 -0.024346755267203615 -0.00059719324131756249 0 -0.024704338987143158 -0.0011658787624043954 0 -0.023799111026795477 -0.0014701261534137444 0 -0.025095794000815855 -0.00056623603353313451 0 -0.024346755267203615 -0.00059719324131756249 0 -0.024704338987143158 -0.0011658787624043954 0 -0.024704338987143158 -0.0011658787624043954 0 -0.025001691149098518 -0.0017970555737228772 0 -0.024017402906010749 -0.0021825241370107456 0 -0.024704338987143158 -0.0011658787624043954 0 -0.023799111026795477 -0.0014701261534137444 0 -0.024017402906010749 -0.0021825241370107456 0 -0.02566878682993317 -0.0011691049394288767 0 -0.024704338987143158 -0.0011658787624043954 0 -0.025001691149098518 -0.0017970555737228772 0 -0.02566878682993317 -0.0011691049394288767 0 -0.025001691149098518 -0.0017970555737228772 0 -0.025551107805644634 -0.0020881976088091532 0 -0.024911924888213262 -0.0024589424038581804 0 -0.02575883587188061 -0.0027800784632461607 0 -0.025551107805644634 -0.0020881976088091532 0 -0.018891924880952836 -0.0024619904171884702 0 -0.015151110094140687 -0.00053040933056570461 0 -0.025001691149098518 -0.0017970555737228772 0 -0.024911924888213262 -0.0024589424038581804 0 -0.025551107805644634 -0.0020881976088091532 0 -0.025001691149098518 -0.0017970555737228772 0 -0.024911924888213262 -0.0024589424038581804 0 -0.024017402906010749 -0.0021825241370107456 0 -0.018891924880952836 -0.0024619904171884702 0 -0.018131978968240283 -0.0020103974855291279 0 -0.011560575777081158 -0.0018650845303691702 0 -0.011401433152470561 -0.0018658208752796676 0 -0.011338273791137825 -0.0019713228057963187 0 -0.011560575777081158 -0.0018650845303691702 0 -0.011450956269745285 -0.0020133382042233426 0 -0.011338273791137825 -0.0019713228057963187 0 -0.011450956269745285 -0.0020133382042233426 0 -0.011338273791137825 -0.0019713228057963187 0 -0.011341835602017764 -0.0020560552560414031 0 -0.011560575777081158 -0.0018650845303691702 0 -0.011588954960020353 -0.0019683572583717958 0 -0.011782748600758588 -0.001879353512922208 0 -0.011560575777081158 -0.0018650845303691702 0 -0.011450956269745285 -0.0020133382042233426 0 -0.011588954960020353 -0.0019683572583717958 0 -0.011588954960020353 -0.0019683572583717958 0 -0.011782748600758588 -0.001879353512922208 0 -0.011574385266131224 -0.0021272177458542614 0 -0.015151110094140687 -0.00053040933056570461 0 -0.0057186904610904169 -0.00024824966916802321 0 -0.0034965489939528592 0.0041768834091098217 0 -0.0054721170546587284 0.0034670724720257595 0 -0.0040303115689303897 0.0021022265958700972 0 -0.019473965047400874 -0.00028797316549852267 0 -0.019716826884691115 -0.00035221312878298356 0 -0.019721221362759053 -0.00021089607503934856 0 -0.015151110094140687 -0.00053040933056570461 0 -0.011590131456539744 0.0019702720172467617 0 -0.01981984499650714 -0.00031372392464311231 0 -0.019716826884691115 -0.00035221312878298356 0 -0.019721221362759053 -0.00021089607503934856 0 -0.019665430671799575 -5.0142411753206518e-05 0 -0.019473965047400874 -0.00028797316549852267 0 -0.019721221362759053 -0.00021089607503934856 0 -0.01981984499650714 -0.00031372392464311231 0 -0.019848405588914687 -9.9294577448314386e-05 0 -0.019721221362759053 -0.00021089607503934856 0 -0.019848405588914687 -9.9294577448314386e-05 0 -0.019665430671799575 -5.0142411753206518e-05 0 -0.019721221362759053 -0.00021089607503934856 0 -0.023655464258112362 -0.00075110416353045897 0 -0.015151110094140687 -0.00053040933056570461 0 -0.026290971388400076 -0.0019712344044742328 0 -0.02575883587188061 -0.0027800784632461607 0 -0.025551107805644634 -0.0020881976088091532 0 -0.0113609124662295 -0.0049080981725110199 0 -0.011819050818587194 -0.0047257945853066427 0 -0.011814349709245798 -0.0051855987966590899 0 -0.011819050818587194 -0.0047257945853066427 0 -0.012184284794141596 -0.0048712538742668966 0 -0.011814349709245798 -0.0051855987966590899 0 -0.011819050818587194 -0.0047257945853066427 0 -0.011512146462484728 -0.0042470276354244114 0 -0.012232281926724476 -0.0044035644921094838 0 -0.0113609124662295 -0.0049080981725110199 0 -0.011819050818587194 -0.0047257945853066427 0 -0.011512146462484728 -0.0042470276354244114 0 -0.011462267286226938 -0.0033427301623373275 0 -0.011512146462484728 -0.0042470276354244114 0 -0.012092992843786617 -0.0036765997368909233 0 -0.011462267286226938 -0.0033427301623373275 0 -0.011512146462484728 -0.0042470276354244114 0 -0.010901428282735937 -0.0039028018195717607 0 -0.011512146462484728 -0.0042470276354244114 0 -0.012092992843786617 -0.0036765997368909233 0 -0.012232281926724476 -0.0044035644921094838 0 -0.012092992843786617 -0.0036765997368909233 0 -0.012632210328196093 -0.003893613831504382 0 -0.012232281926724476 -0.0044035644921094838 0 -0.012828386080683929 -0.003211194089322118 0 -0.012092992843786617 -0.0036765997368909233 0 -0.012632210328196093 -0.003893613831504382 0 -0.012632210328196093 -0.003893613831504382 0 -0.012232281926724476 -0.0044035644921094838 0 -0.012873709891081421 -0.0045924718246207778 0 -0.012550245933868583 -0.0045276670978847099 0 -0.01182108584608688 -0.0042791111023398019 0 -0.012232281926724476 -0.0044035644921094838 0 -0.012184284794141596 -0.0048712538742668966 0 -0.012750479393794376 -0.0046203067156683087 0 -0.011819050818587194 -0.0047257945853066427 0 -0.012232281926724476 -0.0044035644921094838 0 -0.012184284794141596 -0.0048712538742668966 0 -0.012184284794141596 -0.0048712538742668966 0 -0.012750479393794376 -0.0046203067156683087 0 -0.012252799056656201 -0.005313295927550604 0 -0.01182108584608688 -0.0042791111023398019 0 -0.0095236122693064338 -0.00401624126691173 0 -0.023026643096668169 -0.0018976063760267109 0 -0.02292283433421434 -0.0014971525579619547 0 -0.023799111026795477 -0.0014701261534137444 0 -0.0073880969821948092 -0.0023640167188693599 0 -0.0072587603909968811 -0.0023125398006926131 0 -0.0072446241406909032 -0.0025553346808652976 0 -0.013865956820698806 -0.0028855478797774124 0 -0.01182108584608688 -0.0042791111023398019 0 -0.012546866251875897 -0.0038386586255886685 0 -0.012775036700798484 -0.0047541345522733452 0 -0.013211104266304298 -0.0041122945736327809 0 -0.012632210328196093 -0.003893613831504382 0 -0.013093782711681403 -0.0042612317395465376 0 -0.012873709891081421 -0.0045924718246207778 0 -0.013865956820698806 -0.0028855478797774124 0 -0.017879829770313903 -0.0025693535889842558 0 -0.017879829770313903 -0.0025693535889842558 0 -0.01182108584608688 -0.0042791111023398019 0 -0.024278487089302844 -0.00026073708248206456 0 -0.017879829770313903 -0.0025693535889842558 0 -0.012828386080683929 -0.003211194089322118 0 -0.012632210328196093 -0.003893613831504382 0 -0.013093782711681403 -0.0042612317395465376 0 -0.017755965074721009 -0.0020998139702190764 0 -0.017879829770313903 -0.0025693535889842558 0 -0.023784641790330588 -0.00084819383913342899 0 -0.022941606405613241 -0.0006645148454182616 0 -0.023228327329527888 -0.0017055886344788929 0 -0.023562125678930731 -0.00069637218572516431 0 -0.02292283433421434 -0.0014971525579619547 0 -0.023799111026795477 -0.0014701261534137444 0 -0.024346755267203615 -0.00059719324131756249 0 -0.023562125678930731 -0.00069637218572516431 0 -0.023799111026795477 -0.0014701261534137444 0 -0.013865956820698806 -0.0028855478797774124 0 -0.018131978968240283 -0.0020103974855291279 0 -0.023026643096668169 -0.0018976063760267109 0 -0.023799111026795477 -0.0014701261534137444 0 -0.024017402906010749 -0.0021825241370107456 0 -0.011300913087556428 -0.0018506902714158476 0 -0.011401433152470561 -0.0018658208752796676 0 -0.011278141989120147 -0.0019499703972201061 0 -0.011401433152470561 -0.0018658208752796676 0 -0.011338273791137825 -0.0019713228057963187 0 -0.011278141989120147 -0.0019499703972201061 0 -0.0092445226738926203 -0.002225230639834274 0 -0.0064434913197305528 -0.0022901971473405177 0 -0.011338273791137825 -0.0019713228057963187 0 -0.011278141989120147 -0.0019499703972201061 0 -0.011227427350436105 -0.0020816563415733207 0 -0.011338273791137825 -0.0019713228057963187 0 -0.011251155078567998 -0.0020707506422309998 0 -0.011341835602017764 -0.0020560552560414031 0 -0.011338273791137825 -0.0019713228057963187 0 -0.011251155078567998 -0.0020707506422309998 0 -0.011227427350436105 -0.0020816563415733207 0 -0.0072306298840111201 -0.0030086247422381062 0 -0.0074527567488486077 -0.0027512036434032966 0 -0.0075462155159192737 -0.0031720421138827239 0 -0.0072306298840111201 -0.0030086247422381062 0 -0.0074527567488486077 -0.0027512036434032966 0 -0.0071599176842610385 -0.0028020104099383378 0 -0.0074527567488486077 -0.0027512036434032966 0 -0.0072446241406909032 -0.0025553346808652976 0 -0.0071599176842610385 -0.0028020104099383378 0 -0.013865956820698806 -0.0028855478797774124 0 -0.0092445226738926203 -0.002225230639834274 0 -0.0073880969821948092 -0.0023640167188693599 0 -0.0074527567488486077 -0.0027512036434032966 0 -0.0072446241406909032 -0.0025553346808652976 0 -0.0072587603909968811 -0.0023125398006926131 0 -0.0072446241406909032 -0.0025553346808652976 0 -0.0070011287256555969 -0.0026087212835545163 0 -0.012184284794141596 -0.0048712538742668966 0 -0.012252799056656201 -0.005313295927550604 0 -0.011814349709245798 -0.0051855987966590899 0 -0.012252799056656201 -0.005313295927550604 0 -0.011872292067632802 -0.005683730575146667 0 -0.011814349709245798 -0.0051855987966590899 0 -0.0095236122693064338 -0.00401624126691173 0 -0.0097156828972675136 -0.0044987214242520213 0 -0.012252799056656201 -0.005313295927550604 0 -0.011726245753084131 -0.0059807594469201706 0 -0.011872292067632802 -0.005683730575146667 0 -0.0072446241406909032 -0.0025553346808652976 0 -0.0070011287256555969 -0.0026087212835545163 0 -0.0071599176842610385 -0.0028020104099383378 0 -0.0070011287256555969 -0.0026087212835545163 0 -0.0071599176842610385 -0.0028020104099383378 0 -0.0069380472042969224 -0.0030073958471216896 0 -0.0070011287256555969 -0.0026087212835545163 0 -0.0069380472042969224 -0.0030073958471216896 0 -0.0067450378718925483 -0.0029324268422067437 0 -0.0072306298840111201 -0.0030086247422381062 0 -0.0071599176842610385 -0.0028020104099383378 0 -0.0069380472042969224 -0.0030073958471216896 0 -0.0072306298840111201 -0.0030086247422381062 0 -0.0069380472042969224 -0.0030073958471216896 0 -0.0070338206994575037 -0.0033272374609806211 0 -0.011733036063953772 -0.0059729182459027884 0 -0.011018946840933146 -0.0069216704702600041 0 -0.011078680796965201 -0.0061295377824936393 0 -0.0069380472042969224 -0.0030073958471216896 0 -0.0067450378718925483 -0.0029324268422067437 0 -0.0066144785607622986 -0.0032653833133330212 0 -0.011733036063953772 -0.0059729182459027884 0 -0.011344494222269425 -0.0055556241574581146 0 -0.011872292067632802 -0.005683730575146667 0 -0.0097156828972675136 -0.0044987214242520213 0 -0.010477446235095221 -0.0051891752884970829 0 -0.0097156828972675136 -0.0044987214242520213 0 -0.0063912490990243901 -0.0033116982537498875 0 -0.011733036063953772 -0.0059729182459027884 0 -0.011344494222269425 -0.0055556241574581146 0 -0.011078680796965201 -0.0061295377824936393 0 -0.011344494222269425 -0.0055556241574581146 0 -0.011872292067632802 -0.005683730575146667 0 -0.011814349709245798 -0.0051855987966590899 0 -0.0113609124662295 -0.0049080981725110199 0 -0.011344494222269425 -0.0055556241574581146 0 -0.011814349709245798 -0.0051855987966590899 0 -0.00067869190281700977 -0.0026524532230443555 0 -0.00027388695397472944 -0.00223918900822553 0 -0.00089171968844464918 -0.0020808120903648341 0 -0.0063912490990243901 -0.0033116982537498875 0 -0.0065490608282817294 -0.0042450669475731081 0 -0.0069356797362757315 -0.003010934498030316 0 -0.0063912490990243901 -0.0033116982537498875 0 -0.0063692785020238252 -0.0034876489823995336 0 -0.0067245720144823466 -0.0032654065010738319 0 -0.0070338206994575037 -0.0033272374609806211 0 -0.0069380472042969224 -0.0030073958471216896 0 -0.0064371874569275822 -0.0033092995193886878 0 -0.0067245720144823466 -0.0032654065010738319 0 -0.0042419558274056583 -0.0033523426202284427 0 -0.0065490608282817294 -0.0042450669475731081 0 -0.0097156828972675136 -0.0044987214242520213 0 -0.0065490608282817294 -0.0042450669475731081 0 -0.0083412574015173085 -0.0030433780318078413 0 -0.0078162106778056403 -0.00428104694031076 0 -0.0070672369631629775 -0.0048407651873828787 0 -0.0061865326904018102 -0.0036345217740976665 0 -0.0064082232585578333 -0.0030771850050087444 0 -0.0055373285847324077 -0.0037601633047884852 0 -0.0042419558274056583 -0.0033523426202284427 0 -0.0028184405319990609 -0.0031519372316200765 0 -0.0042419558274056583 -0.0033523426202284427 0 -0.0063912490990243901 -0.0033116982537498875 0 -0.0063692785020238252 -0.0034876489823995336 0 -0.0064371874569275822 -0.0033092995193886878 0 -0.0067245720144823466 -0.0032654065010738319 0 -0.0069380472042969224 -0.0030073958471216896 0 -0.0067245720144823466 -0.0032654065010738319 0 -0.0070338206994575037 -0.0033272374609806211 0 -7.4214071413088704e-05 -0.002749641706240695 0 -0.00027388695397472944 -0.00223918900822553 0 0.00024467055864760604 -0.0024223235504005122 0 -0.00067869190281700977 -0.0026524532230443555 0 -7.4214071413088704e-05 -0.002749641706240695 0 -0.00027388695397472944 -0.00223918900822553 0 -0.00027388695397472944 -0.00223918900822553 0 0.00024467055864760604 -0.0024223235504005122 0 0.00022805444677137678 -0.0017787821473077494 0 -0.0028184405319990609 -0.0031519372316200765 0 -0.0064434913197305528 -0.0022901971473405177 0 0.00024467055864760604 -0.0024223235504005122 0 0.00053000718401856979 -0.0027092162190940328 0 0.00048383420320175088 -0.0028459452966822173 0 -0.0072306298840111201 -0.0030086247422381062 0 -0.0070338206994575037 -0.0033272374609806211 0 -0.0075462155159192737 -0.0031720421138827239 0 -7.4214071413088704e-05 -0.002749641706240695 0 0.00024467055864760604 -0.0024223235504005122 0 0.00048383420320175088 -0.0028459452966822173 0 -0.0059084503320912486 -0.0024026142490167603 0 -0.0064434913197305528 -0.0022901971473405177 0 -0.0059084503320912486 -0.0024026142490167603 0 -0.0066854964667687738 -0.0023195718321168892 0 -0.011193424256379311 -0.0020906247861621182 0 -0.011251155078567998 -0.0020707506422309998 0 -0.01117730060347618 -0.0020735397105412579 0 -0.011192432138439469 -0.0021329752998278449 0 -0.011193424256379311 -0.0020906247861621182 0 -0.011251155078567998 -0.0020707506422309998 0 -0.011179437714544263 -0.0021334092366343698 0 -0.011193424256379311 -0.0020906247861621182 0 -0.01117730060347618 -0.0020735397105412579 0 -0.0088551780742761842 -0.0019610596375816904 0 -0.0064434913197305528 -0.0022901971473405177 0 -0.011192432138439469 -0.0021329752998278449 0 -0.011251155078567998 -0.0020707506422309998 0 -0.01129012156200852 -0.0021357300077685971 0 -0.011251155078567998 -0.0020707506422309998 0 -0.01129012156200852 -0.0021357300077685971 0 -0.011341835602017764 -0.0020560552560414031 0 -0.011192432138439469 -0.0021329752998278449 0 -0.01129012156200852 -0.0021357300077685971 0 -0.011179001440813022 -0.0023499984254431038 0 -0.0059084503320912486 -0.0024026142490167603 0 -0.0012924036429212674 -0.0022694745089985959 0 -0.0039011285695584159 -0.002659114340119199 0 -0.0038273719992310837 -0.0023187387731850519 0 -0.0037415801176759887 -0.0022879542224518018 0 0.00024467055864760604 -0.0024223235504005122 0 0.00053000718401856979 -0.0027092162190940328 0 0.00062421061724342265 -0.0021439339965566005 0 -0.0059084503320912486 -0.0024026142490167603 0 -0.0079756331744706629 -0.0025577138067180184 0 -0.0079756331744706629 -0.0025577138067180184 0 -0.0043984113923430275 -0.0016178190101819277 0 -0.0012924036429212674 -0.0022694745089985959 0 -0.0016111918950346797 -0.0017370682456927819 0 -0.0038273719992310837 -0.0023187387731850519 0 -0.0037415801176759887 -0.0022879542224518018 0 -0.0037685150465078939 -0.0019725543221873068 0 -0.0037415801176759887 -0.0022879542224518018 0 -0.0037685150465078939 -0.0019725543221873068 0 -0.0036050697738078787 -0.0019114754995325858 0 -0.0037685150465078939 -0.0019725543221873068 0 -0.0036050697738078787 -0.0019114754995325858 0 -0.0037140109424198486 -0.0016398756185112455 0 0.00071502546865575482 -0.0015338546014376478 0 0.00022805444677137678 -0.0017787821473077494 0 0.00053104434914125643 -0.0012368762855818752 0 0.00022805444677137678 -0.0017787821473077494 0 0.0001410318378587229 -0.0011981294955493397 0 0.00053104434914125643 -0.0012368762855818752 0 0.00062421061724342265 -0.0021439339965566005 0 0.00071502546865575482 -0.0015338546014376478 0 0.00022805444677137678 -0.0017787821473077494 0 0.00024467055864760604 -0.0024223235504005122 0 0.00062421061724342265 -0.0021439339965566005 0 0.00022805444677137678 -0.0017787821473077494 0 -0.00027388695397472944 -0.00223918900822553 0 0.00022805444677137678 -0.0017787821473077494 0 -0.00040642065273635211 -0.0016417008330051632 0 0.00022805444677137678 -0.0017787821473077494 0 -0.00040642065273635211 -0.0016417008330051632 0 0.0001410318378587229 -0.0011981294955493397 0 0.0018266291995953142 -0.0028628631115068114 0 0.0012624539917597403 -0.002282179560587694 0 0.0012919571306317166 -0.0019153090035348695 0 0.00075112617321500188 -0.0022484120585260794 0 0.00066579001738631112 -0.0016171714967435924 0 0.0018266291995953142 -0.0028628631115068114 0 0.0012624539917597403 -0.002282179560587694 0 0.00269281210449365 -0.0033762582074836223 0 0.002581882814881187 -0.0028365042256466139 0 0.0027101685739330528 -0.003187863300713471 0 0.0037952817835241398 -0.0035521233591003531 0 0.00269281210449365 -0.0033762582074836223 0 0.0032640127965232447 -0.0036004002871795901 0 0.0018266291995953142 -0.0028628631115068114 0 0.0030523911651806905 -0.0034206547018184796 0 0.00269281210449365 -0.0033762582074836223 0 0.00075112617321500188 -0.0022484120585260794 0 0.00064303495485336717 -0.0029363812835559995 0 -0.00027388695397472944 -0.00223918900822553 0 -0.00040642065273635211 -0.0016417008330051632 0 -0.00089171968844464918 -0.0020808120903648341 0 -0.0025984567421305426 0.00044284865118307916 0 -0.0035850277414397184 0.00068042673531618395 0 -0.0015448400733290191 0.0004093194801648005 0 -0.00235596807896101 0.00070113427792754476 0 -0.0017660350948313953 -9.6310337927823763e-05 0 -0.0054721170546587284 0.0034670724720257595 0 -0.0059098003053713166 0.00085869851067446211 0 -0.0040303115689303897 0.0021022265958700972 0 -0.0034025660973853998 0.00037164146035105966 0 -0.0059098003053713166 0.00085869851067446211 0 -0.0040303115689303897 0.0021022265958700972 0 -0.0034965489939528592 0.0041768834091098217 0 -0.0040303115689303897 0.0021022265958700972 0 -0.0019718630836494159 0.0016335181473025194 0 -0.0034025660973853998 0.00037164146035105966 0 -0.0040303115689303897 0.0021022265958700972 0 -0.0019718630836494159 0.0016335181473025194 0 -0.011450956269745285 -0.0020133382042233426 0 -0.011588954960020353 -0.0019683572583717958 0 -0.011574385266131224 -0.0021272177458542614 0 -0.011450956269745285 -0.0020133382042233426 0 -0.011574385266131224 -0.0021272177458542614 0 -0.011363064294341063 -0.0021711545928370783 0 -0.011450956269745285 -0.0020133382042233426 0 -0.011341835602017764 -0.0020560552560414031 0 -0.011363064294341063 -0.0021711545928370783 0 -0.01129012156200852 -0.0021357300077685971 0 -0.011341835602017764 -0.0020560552560414031 0 -0.011363064294341063 -0.0021711545928370783 0 -0.011179001440813022 -0.0023499984254431038 0 -0.011363064294341063 -0.0021711545928370783 0 -0.011361256664257392 -0.0023583854544038454 0 -0.01129012156200852 -0.0021357300077685971 0 -0.011179001440813022 -0.0023499984254431038 0 -0.011363064294341063 -0.0021711545928370783 0 -0.0034025660973853998 0.00037164146035105966 0 -0.0019718630836494159 0.0016335181473025194 0 -0.0010998334607718898 0.00023893006707645855 0 -0.0025984567421305426 0.00044284865118307916 0 -0.0011942155554634866 0.00021191897572075206 0 -0.0019718630836494159 0.0016335181473025194 0 -0.0010998334607718898 0.00023893006707645855 0 -0.00065848579571434391 -0.00013844803746212688 0 -0.011574385266131224 -0.0021272177458542614 0 -0.011363064294341063 -0.0021711545928370783 0 -0.011361256664257392 -0.0023583854544038454 0 -0.0015448400733290191 0.0004093194801648005 0 -0.0010998334607718898 0.00023893006707645855 0 -0.0013229929753359024 2.0489228895144378e-05 0 -0.0057186904610904169 -0.00024824966916802321 0 -0.0063596777149486344 -0.0011496525820610419 0 -0.0010270414583522691 -0.0001901551467939223 0 -0.00065848579571434391 -0.00013844803746212688 0 -0.00077958063485923722 -0.00054313305246155442 0 -0.0010998334607718898 0.00023893006707645855 0 -0.0010270414583522691 -0.0001901551467939223 0 -0.0013229929753359024 2.0489228895144378e-05 0 -0.0010998334607718898 0.00023893006707645855 0 -0.0010270414583522691 -0.0001901551467939223 0 -0.00065848579571434391 -0.00013844803746212688 0 -0.0010270414583522691 -0.0001901551467939223 0 -0.00077958063485923722 -0.00054313305246155442 0 -0.0012537268936960518 -0.00039541053781730264 0 -0.0010270414583522691 -0.0001901551467939223 0 -0.0012537268936960518 -0.00039541053781730264 0 -0.0013229929753359024 2.0489228895144378e-05 0 -0.0063596777149486344 -0.0011496525820610419 0 -0.0043984113923430275 -0.0016178190101819277 0 -0.011179001440813022 -0.0023499984254431038 0 -0.011361256664257392 -0.0023583854544038454 0 -0.011148217415134993 -0.0025648659866869578 0 -0.00029069035575734689 -0.00068258919228805467 0 -0.00077958063485923722 -0.00054313305246155442 0 -0.00054532976097740609 -0.00080636071169822737 0 -0.00065848579571434391 -0.00013844803746212688 0 -0.00029069035575734689 -0.00068258919228805467 0 -0.00077958063485923722 -0.00054313305246155442 0 -0.00077958063485923722 -0.00054313305246155442 0 -0.00098938842405267525 -0.0011007333966956551 0 -0.00054532976097740609 -0.00080636071169822737 0 -0.00077958063485923722 -0.00054313305246155442 0 -0.0012537268936960518 -0.00039541053781730264 0 -0.00098938842405267525 -0.0011007333966956551 0 -0.0012537268936960518 -0.00039541053781730264 0 -0.0017660350948313953 -9.6310337927823763e-05 0 -0.0018503151448083421 -0.00070393994519734097 0 -0.0012537268936960518 -0.00039541053781730264 0 -0.0018503151448083421 -0.00070393994519734097 0 -0.00098938842405267525 -0.0011007333966956551 0 -0.0012537268936960518 -0.00039541053781730264 0 -0.0013229929753359024 2.0489228895144378e-05 0 -0.0017660350948313953 -9.6310337927823763e-05 0 -0.0015448400733290191 0.0004093194801648005 0 -0.0013229929753359024 2.0489228895144378e-05 0 -0.0017660350948313953 -9.6310337927823763e-05 0 -0.0027038588628655632 -0.00017277201127596713 0 -0.0017660350948313953 -9.6310337927823763e-05 0 -0.0018503151448083421 -0.00070393994519734097 0 -0.0027038588628655632 -0.00017277201127596713 0 -0.00235596807896101 0.00070113427792754476 0 -0.0017660350948313953 -9.6310337927823763e-05 0 -0.0011816184783931408 0.00022164706418055421 0 -0.0014548360011750047 -9.8043659498723749e-05 0 -0.0012604482254890577 0.00030960256898574737 0 -0.0007364781977958558 0.00037244239838038723 0 -0.0010546085011014245 -0.00013687252941294516 0 -0.0007364781977958558 0.00037244239838038723 0 -0.00063071299379658502 -0.00032545876657395523 0 -0.0010546085011014245 -0.00013687252941294516 0 -0.0006561120176030575 -0.00063935151401476524 0 -0.0010546085011014245 -0.00013687252941294516 0 -0.0010659300454123962 -0.00049779717177111449 0 -0.00063071299379658502 -0.00032545876657395523 0 -0.0006561120176030575 -0.00063935151401476524 0 -0.0010546085011014245 -0.00013687252941294516 0 -0.00063071299379658502 -0.00032545876657395523 0 -0.00028138109264232744 -0.00024442203373547188 0 -0.00029771684474360006 -0.00077870246345528775 0 -0.00063071299379658502 -0.00032545876657395523 0 -0.00029771684474360006 -0.00077870246345528775 0 -0.0006561120176030575 -0.00063935151401476524 0 -0.0007364781977958558 0.00037244239838038723 0 -0.00063071299379658502 -0.00032545876657395523 0 -0.00028138109264232744 -0.00024442203373547188 0 -0.0014548360011750047 -9.8043659498723749e-05 0 -0.0006339085293754111 -0.00067106971847173571 0 -0.00098938842405267525 -0.0011007333966956551 0 -0.00054532976097740609 -0.00080636071169822737 0 -0.00026508015246621078 -0.0010327849172569053 0 -0.00029069035575734689 -0.00068258919228805467 0 -0.00054532976097740609 -0.00080636071169822737 0 -0.00026508015246621078 -0.0010327849172569053 0 -0.0043984113923430275 -0.0016178190101819277 0 -0.00033030316356354254 -0.00037194355427307553 0 -0.00098938842405267525 -0.0011007333966956551 0 -0.00026508015246621078 -0.0010327849172569053 0 -0.00017280702384587222 -0.0010700626558825571 0 -0.00026508015246621078 -0.0010327849172569053 0 -0.00017280702384587222 -0.0010700626558825571 0 -9.5775221866116689e-05 -0.0011489167851628968 0 -0.00017280702384587222 -0.0010700626558825571 0 -5.363073218605556e-05 -0.001174251800121405 0 -9.5775221866116689e-05 -0.0011489167851628968 0 -0.0006339085293754111 -0.00067106971847173571 0 -0.00025407117023050095 -0.0010008228237752962 0 -0.00028138109264232744 -0.00024442203373547188 0 -0.00017280702384587222 -0.0010700626558825571 0 -0.00029771684474360006 -0.00077870246345528775 0 -0.00029771684474360006 -0.00077870246345528775 0 -0.00019376401949180712 -0.0010406165220633835 0 -0.00042045551877041234 -0.00083212203597842816 0 -0.00017280702384587222 -0.0010700626558825571 0 -0.00029771684474360006 -0.00077870246345528775 0 -0.00013859106046649951 -0.0010520900674507159 0 -0.00029771684474360006 -0.00077870246345528775 0 -0.00013859106046649951 -0.0010520900674507159 0 -0.00019376401949180712 -0.0010406165220633835 0 -0.00013859106046649951 -0.0010520900674507159 0 -4.8617581913428236e-05 -0.0011558279234883471 0 -0.00019376401949180712 -0.0010406165220633835 0 -0.00017280702384587222 -0.0010700626558825571 0 -5.363073218605556e-05 -0.001174251800121405 0 -0.00013859106046649951 -0.0010520900674507159 0 -5.363073218605556e-05 -0.001174251800121405 0 -0.00013859106046649951 -0.0010520900674507159 0 -4.8617581913428236e-05 -0.0011558279234883471 0 -4.8617581913428236e-05 -0.0011558279234883471 0 -0.00019376401949180712 -0.0010406165220633835 0 -6.2448915808155272e-05 -0.0011535476329099354 0 -0.00019376401949180712 -0.0010406165220633835 0 -0.00017753521668454857 -0.0011181607958062074 0 -6.2448915808155272e-05 -0.0011535476329099354 0 -0.00019376401949180712 -0.0010406165220633835 0 -0.00025839085761192494 -0.0010720041447625798 0 -0.00017753521668454857 -0.0011181607958062074 0 -0.00019376401949180712 -0.0010406165220633835 0 -0.00025839085761192494 -0.0010720041447625798 0 -0.00036170443189436328 -0.00097170944780858119 0 -0.00019376401949180712 -0.0010406165220633835 0 -0.00036170443189436328 -0.00097170944780858119 0 -0.00042045551877041234 -0.00083212203597842816 0 -0.00025839085761192494 -0.0010720041447625798 0 -0.00036170443189436328 -0.00097170944780858119 0 -0.00034674451384610104 -0.0010925854341707719 0 -0.00036170443189436328 -0.00097170944780858119 0 -0.00053989616209652402 -0.00091742474408558353 0 -0.00042045551877041234 -0.00083212203597842816 0 -0.00036170443189436328 -0.00097170944780858119 0 -0.00053989616209652402 -0.00091742474408558353 0 -0.00034674451384610104 -0.0010925854341707719 0 -0.00053989616209652402 -0.00091742474408558353 0 -0.0006561120176030575 -0.00063935151401476524 0 -0.00091839961723882274 -0.00074861248563021416 0 -0.00053989616209652402 -0.00091742474408558353 0 -0.00082427894082870022 -0.0009384427302562326 0 -0.00091839961723882274 -0.00074861248563021416 0 -0.0006561120176030575 -0.00063935151401476524 0 -0.0010659300454123962 -0.00049779717177111449 0 -0.00091839961723882274 -0.00074861248563021416 0 -0.00029771684474360006 -0.00077870246345528775 0 -0.0006561120176030575 -0.00063935151401476524 0 -0.00042045551877041234 -0.00083212203597842816 0 -0.00053989616209652402 -0.00091742474408558353 0 -0.0006561120176030575 -0.00063935151401476524 0 -0.00042045551877041234 -0.00083212203597842816 0 0.0039634583362569108 -0.0030019200938789488 0 0.0038167864680574712 -0.003257302903697881 0 0.0043281678283548343 -0.0030254577400408 0 0.0039634583362569108 -0.0030019200938789488 0 0.0037793192230422758 -0.0031547870704755595 0 0.0038602506748650796 -0.0030113761368403534 0 0.0039634583362569108 -0.0030019200938789488 0 0.0038167864680574712 -0.003257302903697881 0 0.0037793192230422758 -0.0031547870704755595 0 0.0038167864680574712 -0.003257302903697881 0 0.0037952817835241398 -0.0035521233591003531 0 0.0035266772536638106 -0.0034902514171843545 0 0.0038167864680574712 -0.003257302903697881 0 0.0037952817835241398 -0.0035521233591003531 0 0.0043281678283548343 -0.0030254577400408 0 0.0037952817835241398 -0.0035521233591003531 0 0.0035266772536638106 -0.0034902514171843545 0 0.0032640127965232447 -0.0036004002871795901 0 0.0012624539917597403 -0.002282179560587694 0 0.0012919571306317166 -0.0019153090035348695 0 0.00088192801293809388 -0.0012975265095890123 0 0.002581882814881187 -0.0028365042256466139 0 0.0026635244896905238 -0.0021259811644587499 0 0.0012919571306317166 -0.0019153090035348695 0 0.00088192801293809388 -0.0012975265095890123 0 0.00099088339353689591 -0.0012764860461136685 0 0.00088192801293809388 -0.0012975265095890123 0 0.00091571384500615269 -0.0010276027114435133 0 0.00099088339353689591 -0.0012764860461136685 0 0.00091571384500615269 -0.0010276027114435133 0 0.00099088339353689591 -0.0012764860461136685 0 0.00082048706280472329 -0.0010169698531199245 0 0.0001410318378587229 -0.0011981294955493397 0 0.00053104434914125643 -0.0012368762855818752 0 0.00082048706280472329 -0.0010169698531199245 0 0.00066579001738631112 -0.0016171714967435924 0 0.00079734635869947723 -0.0011293743232976374 0 0.0012919571306317166 -0.0019153090035348695 0 0.00099088339353689591 -0.0012764860461136685 0 0.00082048706280472329 -0.0010169698531199245 0 -0.0016111918950346797 -0.0017370682456927819 0 -0.00071249831714654437 -0.0013897080525398803 0 -0.0043984113923430275 -0.0016178190101819277 0 -0.00071249831714654437 -0.0013897080525398803 0 0.00053104434914125643 -0.0012368762855818752 0 0.0007143284119365532 -0.00097768902172548243 0 0.00082048706280472329 -0.0010169698531199245 0 0.00071502546865575482 -0.0015338546014376478 0 0.00053104434914125643 -0.0012368762855818752 0 0.0007143284119365532 -0.00097768902172548243 0 -0.00021209419930155878 -0.00070239343248218737 0 -0.00026508015246621078 -0.0010327849172569053 0 -2.9037755658489712e-06 -0.0011723313487479975 0 -0.00026508015246621078 -0.0010327849172569053 0 -2.9037755658489712e-06 -0.0011723313487479975 0 -9.5775221866116689e-05 -0.0011489167851628968 0 0.00015298330642029011 -0.0014112999682367477 0 0.00039875324154485254 -0.0011857439997732544 0 8.5646368884140749e-05 -0.0012743319533145383 0 0.00091571384500615269 -0.0010276027114435133 0 0.0007143284119365532 -0.00097768902172548243 0 0.00082048706280472329 -0.0010169698531199245 0 -2.9037755658489712e-06 -0.0011723313487479975 0 -9.5775221866116689e-05 -0.0011489167851628968 0 8.5646368884140749e-05 -0.0012743319533145383 0 0.00040008998006962231 -0.0009738636564728811 0 -0.00071249831714654437 -0.0013897080525398803 0 -0.00071249831714654437 -0.0013897080525398803 0 2.7857109429880689e-05 -0.0012344439109177295 0 -5.363073218605556e-05 -0.001174251800121405 0 -9.5775221866116689e-05 -0.0011489167851628968 0 8.5646368884140749e-05 -0.0012743319533145383 0 -5.363073218605556e-05 -0.001174251800121405 0 8.5646368884140749e-05 -0.0012743319533145383 0 5.8412952636993598e-05 -0.0012611707812403116 0 0.00015298330642029011 -0.0014112999682367477 0 8.5646368884140749e-05 -0.0012743319533145383 0 5.8412952636993598e-05 -0.0012611707812403116 0 -5.363073218605556e-05 -0.001174251800121405 0 -4.8617581913428236e-05 -0.0011558279234883471 0 5.8412952636993598e-05 -0.0012611707812403116 0 -4.8617581913428236e-05 -0.0011558279234883471 0 5.8412952636993598e-05 -0.0012611707812403116 0 1.4568756744803777e-05 -0.0012077785407387366 0 -4.8617581913428236e-05 -0.0011558279234883471 0 1.4568756744803777e-05 -0.0012077785407387366 0 -6.2448915808155272e-05 -0.0011535476329099354 0 1.4568756744803777e-05 -0.0012077785407387366 0 4.8469572283814257e-05 -0.0012885202256257724 0 -5.4674122065929307e-06 -0.0011722790061310634 0 0.0048026724491246698 -0.0027658187429001019 0 0.0045881957599178845 -0.0023525929065206209 0 0.0052526664044885126 -0.0020006190154761203 0 5.8412952636993598e-05 -0.0012611707812403116 0 1.4568756744803777e-05 -0.0012077785407387366 0 4.8469572283814257e-05 -0.0012885202256257724 0 0.0025030493359860248 -0.0018012407132012866 0 0.0027394023330185005 -0.0015227530903990287 0 0.00015298330642029011 -0.0014112999682367477 0 5.8412952636993598e-05 -0.0012611707812403116 0 4.8469572283814257e-05 -0.0012885202256257724 0 0.00088192801293809388 -0.0012975265095890123 0 0.00091571384500615269 -0.0010276027114435133 0 0.00082545086057152651 -0.00082725275318810477 0 0.00040008998006962231 -0.0009738636564728811 0 0.0025030493359860248 -0.0018012407132012866 0 0.0026635244896905238 -0.0021259811644587499 0 0.0025030493359860248 -0.0018012407132012866 0 0.0043281678283548343 -0.0030254577400408 0 0.0046535746370187517 -0.0026214597153441225 0 0.0042140942740736412 -0.0026966174727202966 0 0.0025030493359860248 -0.0018012407132012866 0 0.0046472239914704654 -0.0029379251189671335 0 0.0046535746370187517 -0.0026214597153441225 0 0.0045881957599178845 -0.0023525929065206209 0 0.0042140942740736412 -0.0026966174727202966 0 0.0045881957599178845 -0.0023525929065206209 0 0.0041814987406076764 -0.0023222928412602994 0 0.0042140942740736412 -0.0026966174727202966 0 0.0041814987406076764 -0.0023222928412602994 0 0.0042140942740736412 -0.0026966174727202966 0 0.0038091065862180589 -0.0025699118672680228 0 0.0039634583362569108 -0.0030019200938789488 0 0.0043281678283548343 -0.0030254577400408 0 0.0042140942740736412 -0.0026966174727202966 0 0.0042140942740736412 -0.0026966174727202966 0 0.0039335144526053915 -0.0028527511608836143 0 0.0038091065862180589 -0.0025699118672680228 0 0.0039634583362569108 -0.0030019200938789488 0 0.0042140942740736412 -0.0026966174727202966 0 0.0039335144526053915 -0.0028527511608836143 0 0.0039634583362569108 -0.0030019200938789488 0 0.0039335144526053915 -0.0028527511608836143 0 0.0038602506748650796 -0.0030113761368403534 0 0.006925254227467227 -0.0018294268570764362 0 0.0085672299668683415 -0.00044450449962173539 0 0.0069701656119791136 -0.00069605444967978743 0 0.0039409663074487953 -0.0018814084176511545 0 0.0046480234447353313 -0.0016507349979497728 0 0.0041857246499980277 -0.0011111555358875641 0 0.0054796015761753901 -0.0017891463922825074 0 0.0062458348992728034 -0.00074607794580697966 0 0.0039409663074487953 -0.0018814084176511545 0 0.0043418248093469152 -0.0020573713614676753 0 0.0046480234447353313 -0.0016507349979497728 0 0.0041814987406076764 -0.0023222928412602994 0 0.0039409663074487953 -0.0018814084176511545 0 0.0038091065862180589 -0.0025699118672680228 0 0.0041814987406076764 -0.0023222928412602994 0 0.0039409663074487953 -0.0018814084176511545 0 0.0043418248093469152 -0.0020573713614676753 0 0.0045881957599178845 -0.0023525929065206209 0 0.0043418248093469152 -0.0020573713614676753 0 0.0046480234447353313 -0.0016507349979497728 0 0.0045881957599178845 -0.0023525929065206209 0 0.0041814987406076764 -0.0023222928412602994 0 0.0043418248093469152 -0.0020573713614676753 0 0.0046480234447353313 -0.0016507349979497728 0 0.0051996570170154584 -0.0014303046408626144 0 0.0052526664044885126 -0.0020006190154761203 0 0.0046480234447353313 -0.0016507349979497728 0 0.0051996570170154584 -0.0014303046408626144 0 0.0049110656228728931 -0.00094585810036650292 0 0.0045881957599178845 -0.0023525929065206209 0 0.0046480234447353313 -0.0016507349979497728 0 0.0052526664044885126 -0.0020006190154761203 0 -5.4674122065929307e-06 -0.0011722790061310634 0 -6.2448915808155272e-05 -0.0011535476329099354 0 -8.2559914973619365e-05 -0.0011529167992164581 0 1.4568756744803777e-05 -0.0012077785407387366 0 -5.4674122065929307e-06 -0.0011722790061310634 0 -6.2448915808155272e-05 -0.0011535476329099354 0 0.0051996570170154584 -0.0014303046408626144 0 0.0052526664044885126 -0.0020006190154761203 0 0.0057145398020097176 -0.001239937682354339 0 -5.4674122065929307e-06 -0.0011722790061310634 0 -5.6554993421778434e-05 -0.0011728316445172053 0 -8.2559914973619365e-05 -0.0011529167992164581 0 0.0027394023330185005 -0.0015227530903990287 0 0.0019964107026470318 -0.0015853015559833027 0 0.0051996570170154584 -0.0014303046408626144 0 0.0057145398020097176 -0.001239937682354339 0 0.0056966767042679039 -0.00071327522038514251 0 0.0057145398020097176 -0.001239937682354339 0 0.0056966767042679039 -0.00071327522038514251 0 0.0061693532455332186 -0.00043312488514161198 0 0.0056966767042679039 -0.00071327522038514251 0 0.0053029463793148515 -0.00038578995062231653 0 0.0061693532455332186 -0.00043312488514161198 0 0.0098219064855295628 0.00031837219951713007 0 0.0088062670292639936 -1.6881468438417149e-05 0 0.0098219064855295628 0.00031837219951713007 0 0.0087206455154230245 0.00044896624623952131 0 0.0053029463793148515 -0.00038578995062231653 0 0.0049110656228728931 -0.00094585810036650292 0 0.0044681496499665713 -0.00033440514985430569 0 0.0056966767042679039 -0.00071327522038514251 0 0.0053029463793148515 -0.00038578995062231653 0 0.0049110656228728931 -0.00094585810036650292 0 0.0051996570170154584 -0.0014303046408626144 0 0.0056966767042679039 -0.00071327522038514251 0 0.0049110656228728931 -0.00094585810036650292 0 0.0046480234447353313 -0.0016507349979497728 0 0.0049110656228728931 -0.00094585810036650292 0 0.0041857246499980277 -0.0011111555358875641 0 0.0049110656228728931 -0.00094585810036650292 0 0.0044681496499665713 -0.00033440514985430569 0 0.0041857246499980277 -0.0011111555358875641 0 0.010251988037467567 0.0013149474043634675 0 0.0096591955387630695 0.001366142588251481 0 0.0085672299668683415 -0.00044450449962173539 0 0.0087206455154230245 0.00044896624623952131 0 0.0062458348992728034 -0.00074607794580697966 0 0.0096591955387630695 0.001366142588251481 0 0.0085672299668683415 -0.00044450449962173539 0 0.0074788154893600141 0.0004128147700389025 0 0.0087206455154230245 0.00044896624623952131 0 0.010094872467587567 0.00087974484897736672 0 0.011429355001059991 0.001125290184638799 0 0.0096591955387630695 0.001366142588251481 0 0.010617513667945166 0.0016895339710840316 0 0.0085672299668683415 -0.00044450449962173539 0 0.0069701656119791136 -0.00069605444967978743 0 0.0074788154893600141 0.0004128147700389025 0 -0.00028650925173648388 -0.0011140667925457514 0 -0.00034424678080272102 -0.001067240649604855 0 -0.0002330967201579345 -0.0011216385669881805 0 -0.00034424678080272102 -0.001067240649604855 0 -0.00012260552498533271 -0.0011249441287269459 0 -0.00032522974594849201 -0.0011430106338524279 0 -0.00028650925173648388 -0.0011140667925457514 0 -0.00034424678080272102 -0.001067240649604855 0 -0.00032522974594849201 -0.0011430106338524279 0 -0.00012260552498533271 -0.0011249441287269459 0 -0.00039478497669811385 -0.0011721214382346401 0 0.00080762909949510348 -0.0010557123561384136 0 6.9075751650250327e-05 -0.00094005342815108863 0 -0.00012260552498533271 -0.0011249441287269459 0 0.00023624380210035542 -0.0008706611695523187 0 -0.00012260552498533271 -0.0011249441287269459 0 0.00023624380210035542 -0.0008706611695523187 0 0.00080762909949510348 -0.0010557123561384136 0 -0.00028657348847239088 -0.0010049243682605431 0 -5.4835113440631176e-05 -0.0011474586404446783 0 -0.00012260552498533271 -0.0011249441287269459 0 -0.00039478497669811385 -0.0011721214382346401 0 -0.00032522974594849201 -0.0011430106338524279 0 -0.00082427894082870022 -0.0009384427302562326 0 -0.00039478497669811385 -0.0011721214382346401 0 -0.0010409740266642889 -0.001043377939623138 0 -0.00053989616209652402 -0.00091742474408558353 0 -0.00082427894082870022 -0.0009384427302562326 0 -0.00039478497669811385 -0.0011721214382346401 0 -0.00053989616209652402 -0.00091742474408558353 0 -0.00039478497669811385 -0.0011721214382346401 0 -0.00034674451384610104 -0.0010925854341707719 0 -0.00039478497669811385 -0.0011721214382346401 0 -0.00034674451384610104 -0.0010925854341707719 0 -0.00032522974594849201 -0.0011430106338524279 0 -0.00028650925173648388 -0.0011140667925457514 0 -0.00032522974594849201 -0.0011430106338524279 0 -0.00027664933563689579 -0.0011194356062277462 0 -0.00034674451384610104 -0.0010925854341707719 0 -0.00032522974594849201 -0.0011430106338524279 0 -0.00027664933563689579 -0.0011194356062277462 0 -0.00025839085761192494 -0.0010720041447625798 0 -0.00034674451384610104 -0.0010925854341707719 0 -0.00027664933563689579 -0.0011194356062277462 0 -0.00025839085761192494 -0.0010720041447625798 0 -0.00027664933563689579 -0.0011194356062277462 0 -0.00017753521668454857 -0.0011181607958062074 0 -0.00027664933563689579 -0.0011194356062277462 0 -0.00017753521668454857 -0.0011181607958062074 0 -0.00020280101432861039 -0.0011273147552786069 0 -0.00017753521668454857 -0.0011181607958062074 0 -6.2448915808155272e-05 -0.0011535476329099354 0 -8.2559914973619365e-05 -0.0011529167992164581 0 -0.00017753521668454857 -0.0011181607958062074 0 -8.2559914973619365e-05 -0.0011529167992164581 0 -0.00020280101432861039 -0.0011273147552786069 0 -5.6554993421778434e-05 -0.0011728316445172053 0 -8.2559914973619365e-05 -0.0011529167992164581 0 -0.00012528807103052915 -0.0011498489672883564 0 -8.2559914973619365e-05 -0.0011529167992164581 0 -0.00012528807103052915 -0.0011498489672883564 0 -0.00020280101432861039 -0.0011273147552786069 0 -0.00028650925173648388 -0.0011140667925457514 0 -0.00020280101432861039 -0.0011273147552786069 0 -0.0002330967201579345 -0.0011216385669881805 0 -0.00028650925173648388 -0.0011140667925457514 0 -0.00027664933563689579 -0.0011194356062277462 0 -0.00020280101432861039 -0.0011273147552786069 0 -0.00012528807103052915 -0.0011498489672883564 0 -0.00020280101432861039 -0.0011273147552786069 0 -0.0002330967201579345 -0.0011216385669881805 0 -0.00012528807103052915 -0.0011498489672883564 0 -0.0002330967201579345 -0.0011216385669881805 0 -0.0001182717537523371 -0.0011645763107714572 0 -0.00034424678080272102 -0.001067240649604855 0 -0.0002330967201579345 -0.0011216385669881805 0 -0.00027113720666499953 -0.0011565162268107089 0 -0.0002330967201579345 -0.0011216385669881805 0 -0.00027113720666499953 -0.0011565162268107089 0 -0.0001182717537523371 -0.0011645763107714572 0 -9.1469623123479086e-05 -0.0011661994468138994 0 -7.9159656793108716e-05 -0.0011628582004535441 0 -6.5133426380594827e-05 -0.001165961841544307 0 0.0013153264659189164 -0.00022692414982762994 0 -0.000443351710240174 -0.0013779199441074361 0 -9.1469623123479086e-05 -0.0011661994468138994 0 -7.9159656793108716e-05 -0.0011628582004535441 0 -0.0001182717537523371 -0.0011645763107714572 0 -5.6554993421778434e-05 -0.0011728316445172053 0 -9.1469623123479086e-05 -0.0011661994468138994 0 -0.0001182717537523371 -0.0011645763107714572 0 -5.6554993421778434e-05 -0.0011728316445172053 0 -0.00012528807103052915 -0.0011498489672883564 0 -0.0001182717537523371 -0.0011645763107714572 0 -5.6554993421778434e-05 -0.0011728316445172053 0 -9.1469623123479086e-05 -0.0011661994468138994 0 -3.06777066673454e-05 -0.0011688533319528936 0 0.0019964107026470318 -0.0015853015559833027 0 0.0088062670292639936 -1.6881468438417149e-05 0 -9.1469623123479086e-05 -0.0011661994468138994 0 -3.06777066673454e-05 -0.0011688533319528936 0 -6.5133426380594827e-05 -0.001165961841544307 0 -4.1558819050104023e-05 -0.0011688588289527396 0 -3.06777066673454e-05 -0.0011688533319528936 0 -6.5133426380594827e-05 -0.001165961841544307 0 0.011591794716905916 0.005242307094691822 0 0.011996742979613315 0.0048396827268469746 0 0.010898512483129612 0.0044575422149516876 0 0.0079331085236920753 0.0020861485357034524 0 0.004766153473460156 0.0015984103324320556 0 0.0079331085236920753 0.0020861485357034524 0 0.013536744519201277 0.0011147865344594923 0 0.013536744519201277 0.0011147865344594923 0 0.0088062670292639936 -1.6881468438417149e-05 0 0.0087339630384309346 0.0033901422797910697 0 0.010163112580251918 0.0019714016810742077 0 0.010803783075618738 0.0032484320478549308 0 0.0079331085236920753 0.0020861485357034524 0 0.0088062670292639936 -1.6881468438417149e-05 0 0.0045247473144044634 0.0016533394739630233 0 0.0043093026962853177 0.0016653299041600195 0 0.0036700653124907834 0.0010482911980454913 0 0.0043352488370605943 0.0021761597804171077 0 0.0045142042065518355 0.001651291637332892 0 0.0043093026962853177 0.0016653299041600195 0 0.0013153264659189164 -0.00022692414982762994 0 0.004766153473460156 0.0015984103324320556 0 0.0043352488370605943 0.0021761597804171077 0 0.0047251082869771699 0.0018000022179279246 0 0.0045142042065518355 0.001651291637332892 0 0.004766153473460156 0.0015984103324320556 0 0.006923472766592477 0.0027856230189947338 0 0.0066947917132633532 0.0023263151795744823 0 0.0064458485186480504 0.0025725561985364626 0 0.0061524689998215662 0.0023669511936395787 0 0.011591794716905916 0.005242307094691822 0 0.010436901981937106 0.0053426337752514085 0 0.010898512483129612 0.0044575422149516876 0 0.0079331085236920753 0.0020861485357034524 0 0.006923472766592477 0.0027856230189947338 0 0.010436901981937106 0.0053426337752514085 0 0.0097828526715363507 0.0042966307424556769 0 0.010898512483129612 0.0044575422149516876 0 0.006923472766592477 0.0027856230189947338 0 0.0054079702545881811 0.0026016416809673411 0 0.0043352488370605943 0.0021761597804171077 0 0.0043093026962853177 0.0016653299041600195 0 0.0035122288456718546 0.0016423813599724107 0 0.0043093026962853177 0.0016653299041600195 0 0.0035122288456718546 0.0016423813599724107 0 0.0036700653124907834 0.0010482911980454913 0 0.0013153264659189164 -0.00022692414982762994 0 0.0020243500259206288 0.00084775155843992451 0 -0.00013250066244496869 -0.00072833084441599233 0 0.00012056958274634363 -0.00029524862984914784 0 0.00011560300314861934 -0.00069698054513760437 0 6.9075751650250327e-05 -0.00094005342815108863 0 -0.00013250066244496869 -0.00072833084441599233 0 0.00011560300314861934 -0.00069698054513760437 0 6.9075751650250327e-05 -0.00094005342815108863 0 0.00011560300314861934 -0.00069698054513760437 0 0.00023624380210035542 -0.0008706611695523187 0 -0.00028657348847239088 -0.0010049243682605431 0 0.0013153264659189164 -0.00022692414982762994 0 0.00011560300314861934 -0.00069698054513760437 0 0.00023624380210035542 -0.0008706611695523187 0 0.00032522237187059363 -0.00054944081698871962 0 0.00023624380210035542 -0.0008706611695523187 0 0.00032522237187059363 -0.00054944081698871962 0 0.00070511569736013858 -0.00057987323030874545 0 0.00012056958274634363 -0.00029524862984914784 0 0.00059094035146813821 -0.00024570906781116477 0 0.00079647485541240045 0.00025070829007291045 0 0.00032522237187059363 -0.00054944081698871962 0 0.00059094035146813821 -0.00024570906781116477 0 0.00070511569736013858 -0.00057987323030874545 0 0.00012056958274634363 -0.00029524862984914784 0 0.00011560300314861934 -0.00069698054513760437 0 0.00032522237187059363 -0.00054944081698871962 0 0.00012056958274634363 -0.00029524862984914784 0 0.00032522237187059363 -0.00054944081698871962 0 0.00059094035146813821 -0.00024570906781116477 0 0.00059094035146813821 -0.00024570906781116477 0 0.0012973317761718808 -9.2111301886073268e-05 0 0.00070511569736013858 -0.00057987323030874545 0 0.00059094035146813821 -0.00024570906781116477 0 0.0012973317761718808 -9.2111301886073268e-05 0 0.00079647485541240045 0.00025070829007291045 0 0.0012973317761718808 -9.2111301886073268e-05 0 0.0011298785372350862 -0.00055759466804030863 0 0.00070511569736013858 -0.00057987323030874545 0 0.0012973317761718808 -9.2111301886073268e-05 0 0.0011298785372350862 -0.00055759466804030863 0 0.0017089423226741031 -0.00047856298552277529 0 0.0012973317761718808 -9.2111301886073268e-05 0 0.0017089423226741031 -0.00047856298552277529 0 0.0017859279274655743 0.00028693475527869329 0 -0.0012419906139594205 -0.0012046463653482035 0 -0.0014909414433809918 -0.0010332343054196868 0 -0.0014729515817854058 -0.0010931713465073306 0 0.0011298785372350862 -0.00055759466804030863 0 0.00080762909949510348 -0.0010557123561384136 0 0.0017089423226741031 -0.00047856298552277529 0 -0.00024323898689373254 -0.0010581137871639129 0 0.00044790551032212528 -0.0010480169436377256 0 0.00023624380210035542 -0.0008706611695523187 0 0.00070511569736013858 -0.00057987323030874545 0 0.00080762909949510348 -0.0010557123561384136 0 0.0011298785372350862 -0.00055759466804030863 0 0.00070511569736013858 -0.00057987323030874545 0 0.00080762909949510348 -0.0010557123561384136 0 -0.000319083572800718 -0.0011466162599618661 0 -0.00024323898689373254 -0.0010581137871639129 0 -0.0012419906139594205 -0.0012046463653482035 0 -0.0013459779533226671 -0.0010169728555686388 0 -0.0010409740266642889 -0.001043377939623138 0 -0.0012419906139594205 -0.0012046463653482035 0 -0.0014909414433809918 -0.0010332343054196868 0 -0.0013459779533226671 -0.0010169728555686388 0 -0.0015672603442932526 -0.00087247901173407357 0 -0.0013459779533226671 -0.0010169728555686388 0 -0.0012351582434059563 -0.00084574095737641555 0 -0.0014909414433809918 -0.0010332343054196868 0 -0.0015672603442932526 -0.00087247901173407357 0 -0.0013459779533226671 -0.0010169728555686388 0 -0.00039478497669811385 -0.0011721214382346401 0 -0.0012419906139594205 -0.0012046463653482035 0 -0.0010409740266642889 -0.001043377939623138 0 -0.0013459779533226671 -0.0010169728555686388 0 -0.0010409740266642889 -0.001043377939623138 0 -0.0012351582434059563 -0.00084574095737641555 0 -0.00082427894082870022 -0.0009384427302562326 0 -0.0010409740266642889 -0.001043377939623138 0 -0.0012351582434059563 -0.00084574095737641555 0 -0.0020772537665444961 -0.00045828055005675637 0 -0.0017193414702835971 -0.0007783540528112225 0 -0.0017014328099969728 -0.00020025978445353888 0 -0.0016654184507958814 -0.00085044842966438021 0 -0.0017311970705913781 -0.00068018699074369633 0 -0.0018760539791257871 -0.00034196636698396375 0 -0.0017311970705913781 -0.00068018699074369633 0 -0.0019155095987865957 -0.00056257188803760449 0 -0.0018760539791257871 -0.00034196636698396375 0 -0.0017014328099969728 -0.00020025978445353888 0 -0.0017311970705913781 -0.00068018699074369633 0 -0.0015672603442932526 -0.00087247901173407357 0 -0.0016654184507958814 -0.00085044842966438021 0 -0.0018320414446058365 -0.00072723306593882849 0 -0.0022466881078038402 -0.00085475459502721467 0 -0.0016654184507958814 -0.00085044842966438021 0 -0.0018320414446058365 -0.00072723306593882849 0 -0.0014909414433809918 -0.0010332343054196868 0 -0.0015672603442932526 -0.00087247901173407357 0 -0.0016654184507958814 -0.00085044842966438021 0 -0.0014909414433809918 -0.0010332343054196868 0 -0.0016756053303844218 -0.0008843883853411977 0 -0.001586354843564304 -0.0010143694668958677 0 -0.0014909414433809918 -0.0010332343054196868 0 -0.0016654184507958814 -0.00085044842966438021 0 -0.0016756053303844218 -0.0008843883853411977 0 -0.0016756053303844218 -0.0008843883853411977 0 -0.0019155095987865957 -0.00056257188803760449 0 -0.0018553232036889094 -0.00089462567050917533 0 -0.0016654184507958814 -0.00085044842966438021 0 -0.0016756053303844218 -0.0008843883853411977 0 -0.0017311970705913781 -0.00068018699074369633 0 -0.0016756053303844218 -0.0008843883853411977 0 -0.0017311970705913781 -0.00068018699074369633 0 -0.0019155095987865957 -0.00056257188803760449 0 -0.0016567237979208079 -0.0010330461533006113 0 -0.0017252149548153699 -0.0010567187656094477 0 -0.0018553232036889094 -0.00089462567050917533 0 -0.0016756053303844218 -0.0008843883853411977 0 -0.0016567237979208079 -0.0010330461533006113 0 -0.0018553232036889094 -0.00089462567050917533 0 -0.0016756053303844218 -0.0008843883853411977 0 -0.0016567237979208079 -0.0010330461533006113 0 -0.001586354843564304 -0.0010143694668958677 0 -0.0016567237979208079 -0.0010330461533006113 0 -0.001586354843564304 -0.0010143694668958677 0 -0.0015592973206328823 -0.0010862522125343267 0 -0.0014909414433809918 -0.0010332343054196868 0 -0.001586354843564304 -0.0010143694668958677 0 -0.0015592973206328823 -0.0010862522125343267 0 -0.0017725802799917233 -0.0010856237641488084 0 0.00044790551032212528 -0.0010480169436377256 0 -0.0016567237979208079 -0.0010330461533006113 0 -0.0015592973206328823 -0.0010862522125343267 0 -0.0016476681100674609 -0.0010802740618021949 0 0.00044790551032212528 -0.0010480169436377256 0 0.0025032526512392315 -0.0003718092993374954 0 0.0028712607825525072 -0.0015761881407499604 0 0.0031495038610858026 -0.0013398841384761871 0 0.0029356913433259595 -0.00117930190634806 0 0.00044790551032212528 -0.0010480169436377256 0 0.00070919165290363423 -0.0012626149435199753 0 -0.0016476681100674609 -0.0010802740618021949 0 -0.0017252149548153699 -0.0010567187656094477 0 -0.0016739934349875776 -0.0010456477501939716 0 -0.0016567237979208079 -0.0010330461533006113 0 -0.0016476681100674609 -0.0010802740618021949 0 -0.0017252149548153699 -0.0010567187656094477 0 -0.0019651113102766358 -0.00040303202646590813 0 -0.0015718410035517386 -0.00057006055557633564 0 -0.0018206070225346451 -0.00075042513836620108 0 0.0010570707324603181 -0.00090196936607148061 0 0.00082934951345651022 -0.0010099818375277686 0 0.00086178993559969197 -0.0015568205339996631 0 0.0010570707324603181 -0.00090196936607148061 0 0.00082934951345651022 -0.0010099818375277686 0 0.00075143220577632145 -0.00039674293759063301 0 -0.0019651113102766358 -0.00040303202646590813 0 -0.0015718410035517386 -0.00057006055557633564 0 -0.0014266506675859765 -1.5905430470627708e-05 0 -0.0015718410035517386 -0.00057006055557633564 0 -0.00082216585545242745 -0.00028653431329617098 0 -0.0014266506675859765 -1.5905430470627708e-05 0 -0.0015718410035517386 -0.00057006055557633564 0 -0.00082216585545242745 -0.00028653431329617098 0 -0.00095371924199192228 -0.00068969223455277802 0 -0.0026120202635440352 -0.0010060117659520596 0 -0.0020557440282986308 -0.00070506022101922948 0 -0.0027043304634565141 -0.00082285148842767882 0 -0.001538576857732285 -0.00074929220195237034 0 -0.0018409531688708782 -0.00079080447635677595 0 -0.0018409531688708782 -0.00079080447635677595 0 -0.0021271062606810446 -0.00077876200067975878 0 -0.0016480019161244331 -0.00079021579638170801 0 -0.0018206070225346451 -0.00075042513836620108 0 -0.0020557440282986308 -0.00070506022101922948 0 -0.0015718410035517386 -0.00057006055557633564 0 -0.0016480019161244331 -0.00079021579638170801 0 -0.0018206070225346451 -0.00075042513836620108 0 -0.0015718410035517386 -0.00057006055557633564 0 -0.0011926365881487766 -0.0013214684586090107 0 -0.00095371924199192228 -0.00068969223455277802 0 -0.0018409531688708782 -0.00079080447635677595 0 -0.0026542714828120383 -0.00060215465990527282 0 -0.00049519923376825116 -0.0010263017192612088 0 -0.0011502453515535927 -0.0010217327028241589 0 -0.0019336588022293402 -0.00087728013398500997 0 -0.0018206070225346451 -0.00075042513836620108 0 -0.0020557440282986308 -0.00070506022101922948 0 -0.00052735230243401753 -0.00060033376908125776 0 -0.0011502453515535927 -0.0010217327028241589 0 -0.0019651113102766358 -0.00040303202646590813 0 -0.0019336588022293402 -0.00087728013398500997 0 -0.0018206070225346451 -0.00075042513836620108 0 -0.0010545742151615918 -2.3302154665756658e-07 0 -0.0014297790620222558 -7.9924645670108216e-05 0 -0.0013918636804462411 -0.00027489485464580966 0 -0.0002070590722471636 -1.3320074243996769e-06 0 -0.0002670153952242342 -0.00062173263688153357 0 -0.00010879087429938152 -0.00018793278277442853 0 -0.0002124478404672907 -2.0614460551330688e-07 0 -0.00084528106963955413 -0.00038299800369344649 0 -0.0010545742151615918 -2.3302154665756658e-07 0 -0.00021733414465247776 1.9122651975102023e-07 0 -0.0014297790620222558 -7.9924645670108216e-05 0 -0.0002670153952242342 -0.00062173263688153357 0 -0.00082216585545242745 -0.00028653431329617098 0 -0.00010879087429938152 -0.00018793278277442853 0 -0.0002670153952242342 -0.00062173263688153357 0 -0.00082216585545242745 -0.00028653431329617098 0 -0.00095371924199192228 -0.00068969223455277802 0 -0.001914796105684677 -0.00044025707748657455 0 -0.0014297790620222558 -7.9924645670108216e-05 0 -0.0013918636804462411 -0.00027489485464580966 0 -0.0035520558328614726 -7.1501177852731327e-05 0 -0.0042099989555753423 -0.00033303546795045472 0 -0.0038255958537658026 -0.00057536984725904759 0 -0.0018409531688708782 -0.00079080447635677595 0 -0.00084528106963955413 -0.00038299800369344649 0 -0.0024475711101223509 -0.00028570810166359797 0 -0.0026542714828120383 -0.00060215465990527282 0 -0.0011926365881487766 -0.0013214684586090107 0 -0.0002670153952242342 -0.00062173263688153357 0 -0.00095371924199192228 -0.00068969223455277802 0 -0.001914796105684677 -0.00044025707748657455 0 -0.0013918636804462411 -0.00027489485464580966 0 -0.0018304572637976955 -0.00061892615221231773 0 -0.001063390118821859 1.7530060620837711e-06 0 -0.0035520558328614726 -7.1501177852731327e-05 0 -0.0034744596802962469 -1.5151115976554332e-06 0 -0.0010605377050555925 -5.4975689981969847e-08 0 -0.0024475711101223509 -0.00028570810166359797 0 -0.0035520558328614726 -7.1501177852731327e-05 0 -0.0034744596802962469 -1.5151115976554332e-06 0 -0.0042099989555753423 -0.00033303546795045472 0 -0.0034744596802962469 -1.5151115976554332e-06 0 -0.0042099989555753423 -0.00033303546795045472 0 -0.0048916964905029049 -0.00024091667448775664 0 -0.0034024861316904018 0.00045168158117643911 0 -0.0030894929686432421 -0.00021754038727847828 0 -0.0027881020247795285 -6.1056196118134285e-05 0 -0.0054775181491993896 0.00022278739478803937 0 -0.0026542714828120383 -0.00060215465990527282 0 -0.0042099989555753423 -0.00033303546795045472 0 -0.0047957509223305701 -0.00023366117749172016 0 -0.0038255958537658026 -0.00057536984725904759 0 -0.0042099989555753423 -0.00033303546795045472 0 -0.0047957509223305701 -0.00023366117749172016 0 -0.0048916964905029049 -0.00024091667448775664 0 -0.0034744596802962469 -1.5151115976554332e-06 0 -0.0048916964905029049 -0.00024091667448775664 0 -0.0058894991915355707 -2.3446508074027572e-07 0 -0.0047957509223305701 -0.00023366117749172016 0 -0.0048916964905029049 -0.00024091667448775664 0 -0.0061054572941211926 -7.8126640654458768e-05 0 -0.0048916964905029049 -0.00024091667448775664 0 -0.0058894991915355707 -2.3446508074027572e-07 0 -0.0061054572941211926 -7.8126640654458768e-05 0 -0.0011502453515535927 -0.0010217327028241589 0 -0.0021104355337022572 -0.00019797322521322459 0 -0.0019336588022293402 -0.00087728013398500997 0 -0.0020557440282986308 -0.00070506022101922948 0 -0.0019976873482399527 -0.00034144677769150833 0 -0.0018927397814748749 -0.00058808867138264822 0 -0.0011502453515535927 -0.0010217327028241589 0 -0.0019155095987865957 -0.00056257188803760449 0 -0.0020709742821993149 -0.00085094331998075538 0 -0.0020981094683996345 -0.00040099548683483744 0 -0.0021149743077558797 -0.00041746125184082282 0 -0.0020557440282986308 -0.00070506022101922948 0 -0.0019976873482399527 -0.00034144677769150833 0 -0.0022197042728207411 -0.00035803197252560587 0 -0.0026542714828120383 -0.00060215465990527282 0 -0.0021149743077558797 -0.00041746125184082282 0 -0.0030894929686432421 -0.00021754038727847828 0 -0.0027881020247795285 -6.1056196118134285e-05 0 -0.0021149743077558797 -0.00041746125184082282 0 -0.0020557440282986308 -0.00070506022101922948 0 -0.0027043304634565141 -0.00082285148842767882 0 -0.0021149743077558797 -0.00041746125184082282 0 -0.0027881020247795285 -6.1056196118134285e-05 0 -0.0025579426615156479 0.00016574194570097503 0 -0.0034024861316904018 0.00045168158117643911 0 -0.0027881020247795285 -6.1056196118134285e-05 0 -0.0025579426615156479 0.00016574194570097503 0 -0.0021104355337022572 -0.00019797322521322459 0 -0.0020555257545243604 -0.00026209032148346597 0 -0.0025579426615156479 0.00016574194570097503 0 -0.0019976873482399527 -0.00034144677769150833 0 -0.0021236932764511613 0.000371772962798282 0 -0.0018760539791257871 -0.00034196636698396375 0 -0.0017014328099969728 -0.00020025978445353888 0 -0.002116596786301805 0.00041828495861182956 0 -0.0018760539791257871 -0.00034196636698396375 0 -0.0020981094683996345 -0.00040099548683483744 0 -0.002116596786301805 0.00041828495861182956 0 -0.0021149743077558797 -0.00041746125184082282 0 -0.0025579426615156479 0.00016574194570097503 0 -0.0019976873482399527 -0.00034144677769150833 0 -0.0018760539791257871 -0.00034196636698396375 0 -0.0019155095987865957 -0.00056257188803760449 0 -0.0020981094683996345 -0.00040099548683483744 0 -0.0029427991347032822 -0.00065269465900886733 0 -0.0033977598212910792 -0.00029805644430461751 0 -0.0028788616334311308 -0.00034513292893833441 0 -0.0020772537665444961 -0.00045828055005675637 0 -0.0020555257545243604 -0.00026209032148346597 0 -0.0027808041467790147 -0.00063006532100712167 0 -0.0028788616334311308 -0.00034513292893833441 0 -0.0024401555427567235 -0.00043639376130767113 0 -0.0020555257545243604 -0.00026209032148346597 0 -0.0027001234668087054 -0.00041532784179481452 0 -0.0025579426615156479 0.00016574194570097503 0 -0.0021236932764511613 0.000371772962798282 0 -0.0026990890901169955 0.00081440630448142049 0 -0.0034024861316904018 0.00045168158117643911 0 -0.0025579426615156479 0.00016574194570097503 0 -0.0026990890901169955 0.00081440630448142049 0 -0.0020555257545243604 -0.00026209032148346597 0 -0.0071534821350603415 0.00037845547963524377 0 -0.0071534821350603415 0.00037845547963524377 0 -0.0088566792438322488 0.00031260202893890703 0 -0.0033977598212910792 -0.00029805644430461751 0 -0.0028788616334311308 -0.00034513292893833441 0 -0.0028287022898703454 7.4000272292731734e-05 0 -0.0028788616334311308 -0.00034513292893833441 0 -0.0028287022898703454 7.4000272292731734e-05 0 -0.0024318121404986333 -0.00017109351065055202 0 -0.0028788616334311308 -0.00034513292893833441 0 -0.0024401555427567235 -0.00043639376130767113 0 -0.0024318121404986333 -0.00017109351065055202 0 -0.0054775181491993896 0.00022278739478803937 0 -0.0077559589622468008 -7.864880144739678e-05 0 -0.0047957509223305701 -0.00023366117749172016 0 -0.0061054572941211926 -7.8126640654458768e-05 0 -0.0078708777650400331 1.2256895635668502e-05 0 -0.0058894991915355707 -2.3446508074027572e-07 0 -0.0061054572941211926 -7.8126640654458768e-05 0 -0.0083051625103290547 -2.2250331238357594e-07 0 -0.0061054572941211926 -7.8126640654458768e-05 0 -0.0078708777650400331 1.2256895635668502e-05 0 -0.0083051625103290547 -2.2250331238357594e-07 0 -0.0080374591043210486 0.00027228913935492999 0 -0.0081370237485366755 5.187768211151801e-05 0 -0.0080732558878637631 6.3279537213567158e-05 0 -0.0054775181491993896 0.00022278739478803937 0 -0.0071534821350603415 0.00037845547963524377 0 -0.0080374591043210486 0.00027228913935492999 0 -0.0080732558878637631 6.3279537213567158e-05 0 -0.0078708777650400331 1.2256895635668502e-05 0 -0.0071534821350603415 0.00037845547963524377 0 -0.011190146902214681 0.00084477649176375904 0 -0.0081370237485366755 5.187768211151801e-05 0 -0.0080732558878637631 6.3279537213567158e-05 0 -0.0081765579875547195 7.2711227739580194e-05 0 -0.0080732558878637631 6.3279537213567158e-05 0 -0.0078708777650400331 1.2256895635668502e-05 0 -0.0081765579875547195 7.2711227739580194e-05 0 -0.0078708777650400331 1.2256895635668502e-05 0 -0.0087766829156683667 -3.676034504043982e-06 0 -0.0081765579875547195 7.2711227739580194e-05 0 -0.0078708777650400331 1.2256895635668502e-05 0 -0.0087766829156683667 -3.676034504043982e-06 0 -0.0083051625103290547 -2.2250331238357594e-07 0 -0.010718765771985193 -3.7586718117294283e-07 0 -0.011190146902214681 0.00084477649176375904 0 -0.0087766829156683667 -3.676034504043982e-06 0 -0.010716726402206136 1.0307911910404482e-06 0 -0.0081765579875547195 7.2711227739580194e-05 0 -0.0087766829156683667 -3.676034504043982e-06 0 -0.0083051625103290547 -2.2250331238357594e-07 0 -0.010716726402206136 1.0307911910404482e-06 0 -0.010725425797277201 2.9956059369371607e-06 0 -0.012951939104195287 0.0012717828245736081 0 -0.012839420977478706 4.3624855555960138e-05 0 -0.012951939104195287 0.0012717828245736081 0 -0.012839420977478706 4.3624855555960138e-05 0 -0.0138525678017769 0.0004995584742300195 0 -0.013899139232118662 0.0017193519104081248 0 -0.012951939104195287 0.0012717828245736081 0 -0.0138525678017769 0.0004995584742300195 0 -0.013854858101974918 -8.339874773927408e-05 0 -0.012839420977478706 4.3624855555960138e-05 0 -0.0138525678017769 0.0004995584742300195 0 -0.013618000640254065 -2.1018975190164792e-06 0 -0.013854858101974918 -8.339874773927408e-05 0 -0.012839420977478706 4.3624855555960138e-05 0 -0.013618000640254065 -2.1018975190164792e-06 0 -0.010725425797277201 2.9956059369371607e-06 0 -0.012839420977478706 4.3624855555960138e-05 0 -0.013899139232118662 0.0017193519104081248 0 -0.014490813985447278 0.00056736775531326836 0 -0.0138525678017769 0.0004995584742300195 0 -0.014395193430043151 -0.00014614042211262695 0 -0.014490813985447278 0.00056736775531326836 0 -0.0138525678017769 0.0004995584742300195 0 -0.014395193430043151 -0.00014614042211262695 0 -0.013854858101974918 -8.339874773927408e-05 0 -0.0138525678017769 0.0004995584742300195 0 -0.0088566792438322488 0.00031260202893890703 0 -0.0084296459293185903 0.00016743529572587891 0 -0.014395193430043151 -0.00014614042211262695 0 -0.014490813985447278 0.00056736775531326836 0 -0.014509653756570979 -9.0422963453700293e-05 0 -0.0028287022898703454 7.4000272292731734e-05 0 -0.0024234034037261742 0.00037913938714346319 0 -0.0022700291727158943 9.2002058840308701e-05 0 -0.0024234034037261742 0.00037913938714346319 0 -0.0022700291727158943 9.2002058840308701e-05 0 -0.0020061321734718214 0.00035814723062755515 0 -0.0022700291727158943 9.2002058840308701e-05 0 -0.0020904169537606541 -0.00014364880167637951 0 -0.0024318121404986333 -0.00017109351065055202 0 -0.0028287022898703454 7.4000272292731734e-05 0 -0.0022700291727158943 9.2002058840308701e-05 0 -0.0024318121404986333 -0.00017109351065055202 0 -0.0018770726466563121 3.5271888627285818e-05 0 -0.0020904169537606541 -0.00014364880167637951 0 -0.0017963796162510772 -0.00027363179076951723 0 -0.0022700291727158943 9.2002058840308701e-05 0 -0.0018770726466563121 3.5271888627285818e-05 0 -0.0020904169537606541 -0.00014364880167637951 0 -0.0022700291727158943 9.2002058840308701e-05 0 -0.0018770726466563121 3.5271888627285818e-05 0 -0.0020061321734718214 0.00035814723062755515 0 -0.0018770726466563121 3.5271888627285818e-05 0 -0.0020061321734718214 0.00035814723062755515 0 -0.0015900339940513907 0.00026994369244622772 0 -0.0018770726466563121 3.5271888627285818e-05 0 -0.0015900339940513907 0.00026994369244622772 0 -0.0014280295830957248 -8.4777531764459877e-05 0 -0.0012604482254890577 0.00030960256898574737 0 -0.0015900339940513907 0.00026994369244622772 0 -0.0014280295830957248 -8.4777531764459877e-05 0 -0.0012604482254890577 0.00030960256898574737 0 -0.0010546085011014245 -0.00013687252941294516 0 -0.0014280295830957248 -8.4777531764459877e-05 0 -0.0014280295830957248 -8.4777531764459877e-05 0 -0.0014341182730736347 -0.00040642819471352435 0 -0.0010659300454123962 -0.00049779717177111449 0 -0.0010546085011014245 -0.00013687252941294516 0 -0.0014280295830957248 -8.4777531764459877e-05 0 -0.0010659300454123962 -0.00049779717177111449 0 -0.0014280295830957248 -8.4777531764459877e-05 0 -0.0014341182730736347 -0.00040642819471352435 0 -0.0017963796162510772 -0.00027363179076951723 0 -0.0018770726466563121 3.5271888627285818e-05 0 -0.0014280295830957248 -8.4777531764459877e-05 0 -0.0017963796162510772 -0.00027363179076951723 0 -0.0014341182730736347 -0.00040642819471352435 0 -0.001591989470926004 -0.0006122306721127762 0 -0.0017963796162510772 -0.00027363179076951723 0 -0.0014341182730736347 -0.00040642819471352435 0 -0.0012517254704221318 -0.00062370424637189 0 -0.001591989470926004 -0.0006122306721127762 0 -0.0014341182730736347 -0.00040642819471352435 0 -0.0010659300454123962 -0.00049779717177111449 0 -0.0012517254704221318 -0.00062370424637189 0 -0.0010659300454123962 -0.00049779717177111449 0 -0.0012517254704221318 -0.00062370424637189 0 -0.00091839961723882274 -0.00074861248563021416 0 -0.0012517254704221318 -0.00062370424637189 0 -0.00091839961723882274 -0.00074861248563021416 0 -0.0012351582434059563 -0.00084574095737641555 0 -0.00082427894082870022 -0.0009384427302562326 0 -0.00091839961723882274 -0.00074861248563021416 0 -0.0012351582434059563 -0.00084574095737641555 0 -0.0015672603442932526 -0.00087247901173407357 0 -0.0012351582434059563 -0.00084574095737641555 0 -0.001591989470926004 -0.0006122306721127762 0 -0.0012517254704221318 -0.00062370424637189 0 -0.0012351582434059563 -0.00084574095737641555 0 -0.001591989470926004 -0.0006122306721127762 0 -0.0015672603442932526 -0.00087247901173407357 0 -0.001591989470926004 -0.0006122306721127762 0 -0.0018320414446058365 -0.00072723306593882849 0 -0.001591989470926004 -0.0006122306721127762 0 -0.0018320414446058365 -0.00072723306593882849 0 -0.0020326704609222972 -0.00042640798598149893 0 -0.0022466881078038402 -0.00085475459502721467 0 -0.0027808041467790147 -0.00063006532100712167 0 -0.002192994981388603 -0.00063495630383067015 0 -0.0027808041467790147 -0.00063006532100712167 0 -0.002192994981388603 -0.00063495630383067015 0 -0.0024401555427567235 -0.00043639376130767113 0 -0.0018320414446058365 -0.00072723306593882849 0 -0.002192994981388603 -0.00063495630383067015 0 -0.0020326704609222972 -0.00042640798598149893 0 -0.0022466881078038402 -0.00085475459502721467 0 -0.0018320414446058365 -0.00072723306593882849 0 -0.002192994981388603 -0.00063495630383067015 0 -0.002192994981388603 -0.00063495630383067015 0 -0.0024401555427567235 -0.00043639376130767113 0 -0.0020326704609222972 -0.00042640798598149893 0 -0.0024401555427567235 -0.00043639376130767113 0 -0.0024318121404986333 -0.00017109351065055202 0 -0.0020326704609222972 -0.00042640798598149893 0 -0.0020904169537606541 -0.00014364880167637951 0 -0.0024318121404986333 -0.00017109351065055202 0 -0.0020326704609222972 -0.00042640798598149893 0 -0.0020904169537606541 -0.00014364880167637951 0 -0.0017963796162510772 -0.00027363179076951723 0 -0.0020326704609222972 -0.00042640798598149893 0 -0.001591989470926004 -0.0006122306721127762 0 -0.0017963796162510772 -0.00027363179076951723 0 -0.0020326704609222972 -0.00042640798598149893 0 -0.0036915233490257527 -0.0030829938190884186 0 -0.0036382216572515475 -0.0024755988552523527 0 -0.0026152034086731643 -0.0028963782790944852 0 -0.0036915233490257527 -0.0030829938190884186 0 -0.0026152034086731643 -0.0028963782790944852 0 -0.0029717667236054176 -0.0037437240451030415 0 -0.0036915233490257527 -0.0030829938190884186 0 -0.0049439908413757049 -0.0029535870466378179 0 -0.0036382216572515475 -0.0024755988552523527 0 -0.0036915233490257527 -0.0030829938190884186 0 -0.0049439908413757049 -0.0029535870466378179 0 -0.0043115371183482572 -0.0036362209056364143 0 -0.0047013110214272043 -0.0031683390121095985 0 -0.0037821909709899364 -0.0025371015209050851 0 -0.0045443750984642695 -0.0034048811472853573 0 -0.0036382216572515475 -0.0024755988552523527 0 -0.0044714315940554607 -0.0022289233612464055 0 -0.0036382216572515475 -0.0024755988552523527 0 -0.0032624717079297993 -0.0016399224082147583 0 -0.0044714315940554607 -0.0022289233612464055 0 -0.0036382216572515475 -0.0024755988552523527 0 -0.0026152034086731643 -0.0028963782790944852 0 -0.0022827320198053305 -0.0019437927048068929 0 -0.0015121787274767753 -0.0024265547529304394 0 -0.0026152034086731643 -0.0028963782790944852 0 -0.0022827320198053305 -0.0019437927048068929 0 -0.0015121787274767753 -0.0024265547529304394 0 -0.0015478094932026766 -0.0034782854176956205 0 -0.0026152034086731643 -0.0028963782790944852 0 -0.0015478094932026766 -0.0034782854176956205 0 -0.0026152034086731643 -0.0028963782790944852 0 -0.0029717667236054176 -0.0037437240451030415 0 -0.0015478094932026766 -0.0034782854176956205 0 -0.0029717667236054176 -0.0037437240451030415 0 -0.0021402708635763169 -0.0039773172316579482 0 -0.0021402708635763169 -0.0039773172316579482 0 -0.0018657743849495316 -0.0042900302085354123 0 -0.0028735540284332457 -0.0045956016854877156 0 -0.0029717667236054176 -0.0037437240451030415 0 -0.0021402708635763169 -0.0039773172316579482 0 -0.0028735540284332457 -0.0045956016854877156 0 -0.0029717667236054176 -0.0037437240451030415 0 -0.0038174166587058326 -0.0042713201190944412 0 -0.0028735540284332457 -0.0045956016854877156 0 -0.0036915233490257527 -0.0030829938190884186 0 -0.0029717667236054176 -0.0037437240451030415 0 -0.0043115371183482572 -0.0036362209056364143 0 -0.0029717667236054176 -0.0037437240451030415 0 -0.0038174166587058326 -0.0042713201190944412 0 -0.0043115371183482572 -0.0036362209056364143 0 -0.0049439908413757049 -0.0029535870466378179 0 -0.0043115371183482572 -0.0036362209056364143 0 -0.0052192787644122756 -0.0036286653815534265 0 -0.0043115371183482572 -0.0036362209056364143 0 -0.005518902903979982 -0.0042152563081488794 0 -0.0052192787644122756 -0.0036286653815534265 0 -0.0038174166587058326 -0.0042713201190944412 0 -0.005518902903979982 -0.0042152563081488794 0 -0.0039927737627406456 -0.0050302126877723365 0 -0.0038174166587058326 -0.0042713201190944412 0 -0.0043115371183482572 -0.0036362209056364143 0 -0.005518902903979982 -0.0042152563081488794 0 -0.0055464312662648835 -0.0041904367654632558 0 -0.0053376991690368024 -0.0044791778838060752 0 -0.005518902903979982 -0.0042152563081488794 0 -0.0060255811902438818 -0.0041313822101690005 0 -0.0059658476678966978 -0.0037141975262002299 0 -0.005518902903979982 -0.0042152563081488794 0 -0.0060255811902438818 -0.0041313822101690005 0 -0.0061699904555853743 -0.0041880984349830586 0 -0.0060255811902438818 -0.0041313822101690005 0 -0.0059658476678966978 -0.0037141975262002299 0 -0.0062305521134438553 -0.0041951084697584018 0 -0.0061386216799851978 -0.0041898462686788948 0 -0.0062305521134438553 -0.0041951084697584018 0 -0.00614903073309614 -0.0041798222861771052 0 -0.0061386216799851978 -0.0041898462686788948 0 -0.0060255811902438818 -0.0041313822101690005 0 -0.0061699904555853743 -0.0041880984349830586 0 -0.0061386216799851978 -0.0041898462686788948 0 -0.0060255811902438818 -0.0041313822101690005 0 -0.0062305521134438553 -0.0041951084697584018 0 -0.0046725246073654322 -0.0040442592954660272 0 -0.0051504147723255697 -0.0042547077874206989 0 -0.0058664410395495 -0.0038489964964786836 0 -0.0054061281407718252 -0.0040952355651744741 0 -0.0060499301201263995 -0.0046501501850209348 0 -0.0058204388428986743 -0.0039879591686423363 0 -0.0051504147723255697 -0.0042547077874206989 0 -0.0058664410395495 -0.0038489964964786836 0 -0.0054061281407718252 -0.0040952355651744741 0 -0.0053381540480030455 -0.0034588604224071295 0 -0.0049439908413757049 -0.0029535870466378179 0 -0.0059658476678966978 -0.0037141975262002299 0 -0.0052192787644122756 -0.0036286653815534265 0 -0.0047013110214272043 -0.0031683390121095985 0 -0.0058204388428986743 -0.0039879591686423363 0 -0.005518902903979982 -0.0042152563081488794 0 -0.0059658476678966978 -0.0037141975262002299 0 -0.0052192787644122756 -0.0036286653815534265 0 -0.0037749018080032812 -0.004093628591504566 0 -0.0039502229342740702 -0.0040326539419997445 0 -0.0039636739582666596 -0.0039109590110936723 0 -0.0037749018080032812 -0.004093628591504566 0 -0.0039502229342740702 -0.0040326539419997445 0 -0.0038201934332615156 -0.0041333571599649873 0 -0.0038201934332615156 -0.0041333571599649873 0 -0.0040218502962138195 -0.004065824728781503 0 -0.0038666400799817272 -0.0041244100313548243 0 -0.0039502229342740702 -0.0040326539419997445 0 -0.0038201934332615156 -0.0041333571599649873 0 -0.0040218502962138195 -0.004065824728781503 0 -0.004268984833458468 -0.0038535737986737954 0 -0.0051504147723255697 -0.0042547077874206989 0 -0.0035042129913311487 -0.0042104690641454508 0 -0.0038666400799817272 -0.0041244100313548243 0 -0.003641365957480791 -0.0041802607982828434 0 -0.0038201934332615156 -0.0041333571599649873 0 -0.0038666400799817272 -0.0041244100313548243 0 -0.003641365957480791 -0.0041802607982828434 0 -0.0038201934332615156 -0.0041333571599649873 0 -0.003641365957480791 -0.0041802607982828434 0 -0.0036303319990614548 -0.0041962377810902353 0 -0.0037749018080032812 -0.004093628591504566 0 -0.0038201934332615156 -0.0041333571599649873 0 -0.0036303319990614548 -0.0041962377810902353 0 -0.0036303319990614548 -0.0041962377810902353 0 -0.0034815936401883215 -0.0042528673906777779 0 -0.0035396424510532689 -0.0041959219567874037 0 -0.0037749018080032812 -0.004093628591504566 0 -0.0036303319990614548 -0.0041962377810902353 0 -0.0035396424510532689 -0.0041959219567874037 0 -0.003377250177685193 -0.004255244600066023 0 -0.0034815936401883215 -0.0042528673906777779 0 -0.0033574672757248837 -0.0043290975592090832 0 -0.003641365957480791 -0.0041802607982828434 0 -0.0036303319990614548 -0.0041962377810902353 0 -0.003377250177685193 -0.004255244600066023 0 -0.0036303319990614548 -0.0041962377810902353 0 -0.003377250177685193 -0.004255244600066023 0 -0.0034815936401883215 -0.0042528673906777779 0 -0.0035042129913311487 -0.0042104690641454508 0 -0.003641365957480791 -0.0041802607982828434 0 -0.0034566057126457867 -0.0040886501775701687 0 -0.003641365957480791 -0.0041802607982828434 0 -0.003377250177685193 -0.004255244600066023 0 -0.0034566057126457867 -0.0040886501775701687 0 -0.003377250177685193 -0.004255244600066023 0 -0.0034566057126457867 -0.0040886501775701687 0 -0.0034701560055931213 -0.0035834304880380677 0 -0.0033843715141671626 -0.0042413116357273442 0 -0.002716874202117265 -0.0037630414769769202 0 -0.003377250177685193 -0.004255244600066023 0 -0.0025376158171936964 -0.0042647874596683658 0 -0.0030105860526975065 -0.0041823314512022952 0 -0.003377250177685193 -0.004255244600066023 0 -0.0032077633126197554 -0.0042987066763689576 0 -0.0033574672757248837 -0.0043290975592090832 0 -0.003377250177685193 -0.004255244600066023 0 -0.0032077633126197554 -0.0042987066763689576 0 -0.0030105860526975065 -0.0041823314512022952 0 -0.0045443750984642695 -0.0034048811472853573 0 -0.0054061281407718252 -0.0040952355651744741 0 -0.0053381540480030455 -0.0034588604224071295 0 -0.0053381540480030455 -0.0034588604224071295 0 -0.0057169292093156533 -0.0029617516491804649 0 -0.0050550009851905485 -0.0029640490489887383 0 -0.0045443750984642695 -0.0034048811472853573 0 -0.0053381540480030455 -0.0034588604224071295 0 -0.0050550009851905485 -0.0029640490489887383 0 -0.0046725246073654322 -0.0040442592954660272 0 -0.0043786759274514258 -0.003193607131502085 0 -0.0058664410395495 -0.0038489964964786836 0 -0.0053381540480030455 -0.0034588604224071295 0 -0.0057169292093156533 -0.0029617516491804649 0 -0.0035042129913311487 -0.0042104690641454508 0 -0.0034566057126457867 -0.0040886501775701687 0 -0.0030244841434231237 -0.003849946637314635 0 -0.0034566057126457867 -0.0040886501775701687 0 -0.0034701560055931213 -0.0035834304880380677 0 -0.0030244841434231237 -0.003849946637314635 0 -0.0034701560055931213 -0.0035834304880380677 0 -0.0030244841434231237 -0.003849946637314635 0 -0.0026254112589284549 -0.0026192755181508511 0 -0.0043786759274514258 -0.003193607131502085 0 -0.0038517468434729101 -0.0032007635082557046 0 -0.0057169292093156533 -0.0029617516491804649 0 -0.0050550009851905485 -0.0029640490489887383 0 -0.0056662936911466731 -0.0019740607523851673 0 -0.0045443750984642695 -0.0034048811472853573 0 -0.0050550009851905485 -0.0029640490489887383 0 -0.0044714315940554607 -0.0022289233612464055 0 -0.0050550009851905485 -0.0029640490489887383 0 -0.0056662936911466731 -0.0019740607523851673 0 -0.0044714315940554607 -0.0022289233612464055 0 -0.0046544926993761599 -0.0016205919709350331 0 -0.0056662936911466731 -0.0019740607523851673 0 -0.0045808131782992386 -0.00092991145417779027 0 -0.0046544926993761599 -0.0016205919709350331 0 -0.0056662936911466731 -0.0019740607523851673 0 -0.0044714315940554607 -0.0022289233612464055 0 -0.0025376158171936964 -0.0042647874596683658 0 -0.0018733418236925297 -0.003688938347362137 0 -0.0026511291970709415 -0.0039715633295406552 0 -0.002716874202117265 -0.0037630414769769202 0 -0.0038517468434729101 -0.0032007635082557046 0 -0.0018733418236925297 -0.003688938347362137 0 -0.0026511291970709415 -0.0039715633295406552 0 -0.0024121254513484046 -0.00363937175221214 0 -0.0018733418236925297 -0.003688938347362137 0 -0.0021001518400167738 -0.0033368608933166035 0 -0.0016981921659521969 -0.0030561128388254077 0 -0.0018733418236925297 -0.003688938347362137 0 -0.0021001518400167738 -0.0033368608933166035 0 -0.0024121254513484046 -0.00363937175221214 0 -0.0038517468434729101 -0.0032007635082557046 0 -0.0041239708054301282 -0.0012453477798729492 0 -0.0038517468434729101 -0.0032007635082557046 0 -0.00078289334158036924 -0.0010436120180187117 0 -0.0045905815927515274 -0.003498532703200941 0 -0.0045997288870575775 -0.0017437455571540758 0 -0.0035806503164406691 -0.0021563689269842568 0 -0.0029363679017304729 -0.00058912337461901831 0 -0.003224695457949379 -0.00053960819904780679 0 -0.0030973127488188967 -0.00049767667117078644 0 -0.00078289334158036924 -0.0010436120180187117 0 -0.0041239708054301282 -0.0012453477798729492 0 -0.0029975423146415604 -0.004084562022722775 0 -0.0026511291970709415 -0.0039715633295406552 0 -0.0026766287425544193 -0.0037803902378009476 0 -0.0030105860526975065 -0.0041823314512022952 0 -0.0029975423146415604 -0.004084562022722775 0 -0.0026511291970709415 -0.0039715633295406552 0 -0.0032077633126197554 -0.0042987066763689576 0 -0.0030105860526975065 -0.0041823314512022952 0 -0.0029975423146415604 -0.004084562022722775 0 -0.0025376158171936964 -0.0042647874596683658 0 -0.0030105860526975065 -0.0041823314512022952 0 -0.0026511291970709415 -0.0039715633295406552 0 -0.0024121254513484046 -0.00363937175221214 0 -0.0026766287425544193 -0.0037803902378009476 0 -0.0024420758477951433 -0.0034339525761762444 0 -0.0021001518400167738 -0.0033368608933166035 0 -0.0024121254513484046 -0.00363937175221214 0 -0.0024420758477951433 -0.0034339525761762444 0 -0.0026511291970709415 -0.0039715633295406552 0 -0.0024121254513484046 -0.00363937175221214 0 -0.0026766287425544193 -0.0037803902378009476 0 -0.0029975423146415604 -0.004084562022722775 0 -0.0028468722607156681 -0.0037882946772429338 0 -0.0026766287425544193 -0.0037803902378009476 0 -0.0028468722607156681 -0.0037882946772429338 0 -0.0026766287425544193 -0.0037803902378009476 0 -0.0024420758477951433 -0.0034339525761762444 0 -0.0028468722607156681 -0.0037882946772429338 0 -0.0024420758477951433 -0.0034339525761762444 0 -0.0027613631208635633 -0.0033779172256705602 0 -0.0024420758477951433 -0.0034339525761762444 0 -0.0022912229299111631 -0.003025210746872317 0 -0.0027613631208635633 -0.0033779172256705602 0 -0.0024420758477951433 -0.0034339525761762444 0 -0.0022912229299111631 -0.003025210746872317 0 -0.0020717007665462463 -0.0031427956374705454 0 -0.0021001518400167738 -0.0033368608933166035 0 -0.0024420758477951433 -0.0034339525761762444 0 -0.0020717007665462463 -0.0031427956374705454 0 0.010937784323326333 -0.0025195746889980376 0 0.014549638200508695 -0.003413820160229356 0 0.009245334661800159 0.00055685081948000947 0 0.018661129105066378 -0.003595603470126575 0 0.023638887825188394 -0.0012141092656051116 0 0.032670506635769751 -0.0081053657486852507 0 0.014782478885518641 -0.0024590492260623668 0 0.0026461026500920332 -0.00074684766691751538 0 0.010937784323326333 -0.0025195746889980376 0 0.012486324846883924 -0.0044127599356494343 0 0.014549638200508695 -0.003413820160229356 0 0.021299377349064844 -0.001248261520439961 0 0.014782478885518641 -0.0024590492260623668 0 0.029815575119572963 -0.0027488093100694528 0 0.029570471825215931 -0.0016376926237646739 0 0.030224232971430978 -0.0013198088379587254 0 0.030772162102202762 -0.0018571954197663064 0 0.029815575119572963 -0.0027488093100694528 0 0.030224232971430978 -0.0013198088379587254 0 0.014782478885518641 -0.0024590492260623668 0 0.013444912335073 -0.0031054747479433873 0 0.014782478885518641 -0.0024590492260623668 0 0.031094324628268208 -0.0031533140966645105 0 -0.00078289334158036924 -0.0010436120180187117 0 0.00234604603977355 0.001048022421506581 0 -0.0029363679017304729 -0.00058912337461901831 0 -0.0031547975138334753 -0.00063805234664996693 0 -0.003224695457949379 -0.00053960819904780679 0 0.00572910703650455 0.00026040151919597419 0 0.0040434799786527951 0.004442319902355856 0 0.0025515906492486764 -0.0012205755972255787 0 -0.0021001518400167738 -0.0033368608933166035 0 -0.0016981921659521969 -0.0030561128388254077 0 -0.0020717007665462463 -0.0031427956374705454 0 -0.00078289334158036924 -0.0010436120180187117 0 0.0026461026500920332 -0.00074684766691751538 0 0.00572910703650455 0.00026040151919597419 0 0.0040434799786527951 0.004442319902355856 0 0.009245334661800159 0.00055685081948000947 0 0.019137703221053765 0.0006688721880324345 0 0.017122822466656015 0.0013194967956054928 0 0.016662719985721778 -0.00047273680394356577 0 0.00572910703650455 0.00026040151919597419 0 0.009245334661800159 0.00055685081948000947 0 0.007478079113857449 -0.0028064858405852278 0 0.010937784323326333 -0.0025195746889980376 0 0.009245334661800159 0.00055685081948000947 0 0.007478079113857449 -0.0028064858405852278 0 0.021299377349064844 -0.001248261520439961 0 0.012511275661067097 -0.00078567775300919203 0 0.010937784323326333 -0.0025195746889980376 0 0.012486324846883924 -0.0044127599356494343 0 0.007478079113857449 -0.0028064858405852278 0 0.017122822466656015 0.0013194967956054928 0 0.015120964615160611 0.0019303886159822137 0 0.015789149653439704 0.00028736809498180332 0 0.012511275661067097 -0.00078567775300919203 0 0.00234604603977355 0.001048022421506581 0 0.00572910703650455 0.00026040151919597419 0 0.007478079113857449 -0.0028064858405852278 0 0.0025515906492486764 -0.0012205755972255787 0 -0.0023478477404752173 0.0010228166590843927 0 -0.0018214958181693756 0.0011348193787876716 0 -0.0017072920152117546 0.00068046692616241706 0 -0.0023478477404752173 0.0010228166590843927 0 -0.0018214958181693756 0.0011348193787876716 0 -0.0019349532901992426 0.0015208191415831526 0 -0.0018214958181693756 0.0011348193787876716 0 -0.0016516709097870793 0.0014435826520407516 0 -0.0019349532901992426 0.0015208191415831526 0 -0.0018214958181693756 0.0011348193787876716 0 -0.0017072920152117546 0.00068046692616241706 0 -0.0014029755855773389 0.0010350056026522823 0 -0.0018214958181693756 0.0011348193787876716 0 -0.0014029755855773389 0.0010350056026522823 0 -0.0016516709097870793 0.0014435826520407516 0 -0.0031595238256228353 -0.00013172858865561439 0 -0.0034225361884063226 -0.00052520259081970631 0 -0.0032338711252520923 -0.00080121271903558253 0 -0.0031595238256228353 -0.00013172858865561439 0 -0.003224695457949379 -0.00053960819904780679 0 -0.0034225361884063226 -0.00052520259081970631 0 -0.0031547975138334753 -0.00063805234664996693 0 -0.0031595238256228353 -0.00013172858865561439 0 -0.003224695457949379 -0.00053960819904780679 0 0.00234604603977355 0.001048022421506581 0 -0.0035144869948799504 0.00025897423569381394 0 -0.003224695457949379 -0.00053960819904780679 0 -0.0030973127488188967 -0.00049767667117078644 0 -0.0034225361884063226 -0.00052520259081970631 0 -0.0041239708054301282 -0.0012453477798729492 0 -0.0033986710406394855 -0.00058287557033629594 0 -0.0046544926993761599 -0.0016205919709350331 0 -0.0045808131782992386 -0.00092991145417779027 0 -0.00383850966480398 -0.001207225454016154 0 -0.0041108090586584609 -0.00087804953025399164 0 -0.00383850966480398 -0.001207225454016154 0 -0.0034225361884063226 -0.00052520259081970631 0 -0.0041239708054301282 -0.0012453477798729492 0 -0.0040175258812921574 -0.001194408061096171 0 -0.00383850966480398 -0.001207225454016154 0 -0.0034225361884063226 -0.00052520259081970631 0 -0.0032338711252520923 -0.00080121271903558253 0 -0.0031595238256228353 -0.00013172858865561439 0 -0.0032338711252520923 -0.00080121271903558253 0 -0.0026378941166363815 -0.00090011539793870558 0 -0.0032338711252520923 -0.00080121271903558253 0 -0.0026378941166363815 -0.00090011539793870558 0 -0.0032624717079297993 -0.0016399224082147583 0 -0.00383850966480398 -0.001207225454016154 0 -0.0032338711252520923 -0.00080121271903558253 0 -0.0032624717079297993 -0.0016399224082147583 0 -0.0036382216572515475 -0.0024755988552523527 0 -0.0032624717079297993 -0.0016399224082147583 0 -0.0022827320198053305 -0.0019437927048068929 0 -0.0026378941166363815 -0.00090011539793870558 0 -0.0032624717079297993 -0.0016399224082147583 0 -0.0022827320198053305 -0.0019437927048068929 0 -0.00383850966480398 -0.001207225454016154 0 -0.0032624717079297993 -0.0016399224082147583 0 -0.0044714315940554607 -0.0022289233612464055 0 -0.0046544926993761599 -0.0016205919709350331 0 -0.00383850966480398 -0.001207225454016154 0 -0.0044714315940554607 -0.0022289233612464055 0 -0.00089406010948777195 -0.001501189221639799 0 -0.0022827320198053305 -0.0019437927048068929 0 -0.0012571981336782561 -7.1397904561927363e-05 0 -0.0026378941166363815 -0.00090011539793870558 0 -0.0022827320198053305 -0.0019437927048068929 0 -0.0012571981336782561 -7.1397904561927363e-05 0 -0.0015121787274767753 -0.0024265547529304394 0 -0.00089406010948777195 -0.001501189221639799 0 -0.0022827320198053305 -0.0019437927048068929 0 -0.00089406010948777195 -0.001501189221639799 0 -0.0012571981336782561 -7.1397904561927363e-05 0 2.8978380342145117e-05 -0.00090596613250888192 0 -0.0012571981336782561 -7.1397904561927363e-05 0 -0.00073429627869489036 0.00099757509098545518 0 2.9177805700220309e-05 0.00068522041268812201 0 -0.0035144869948799504 0.00025897423569381394 0 -0.00078339277631569949 -0.00012981536301126629 0 -0.0017072920152117546 0.00068046692616241706 0 -0.0012571981336782561 -7.1397904561927363e-05 0 -0.0014029755855773389 0.0010350056026522823 0 -0.0031595238256228353 -0.00013172858865561439 0 -0.0026378941166363815 -0.00090011539793870558 0 -0.0012571981336782561 -7.1397904561927363e-05 0 -0.0012571981336782561 -7.1397904561927363e-05 0 -0.0014029755855773389 0.0010350056026522823 0 -0.00073429627869489036 0.00099757509098545518 0 -0.0014029755855773389 0.0010350056026522823 0 -0.00073429627869489036 0.00099757509098545518 0 -0.00093905504652140126 0.0015074858873677739 0 -0.00073429627869489036 0.00099757509098545518 0 2.9177805700220309e-05 0.00068522041268812201 0 -8.5821448934757984e-05 0.0014632390229391684 0 0.00037846188118813973 0.0012033986608010218 0 2.9177805700220309e-05 0.00068522041268812201 0 -8.5821448934757984e-05 0.0014632390229391684 0 0.00061155462588951171 0.00086928698715324189 0 2.9177805700220309e-05 0.00068522041268812201 0 0.00091200363371172523 0.00050500582045472434 0 0.00037846188118813973 0.0012033986608010218 0 0.00061155462588951171 0.00086928698715324189 0 0.0010526643516817161 0.0011743289711287669 0 0.00037846188118813973 0.0012033986608010218 0 0.00061155462588951171 0.00086928698715324189 0 2.9177805700220309e-05 0.00068522041268812201 0 -0.0012571981336782561 -7.1397904561927363e-05 0 2.9177805700220309e-05 0.00068522041268812201 0 0.00023605933844850278 -1.2567202400000365e-05 0 2.9177805700220309e-05 0.00068522041268812201 0 0.00023605933844850278 -1.2567202400000365e-05 0 0.00091200363371172523 0.00050500582045472434 0 0.00023605933844850278 -1.2567202400000365e-05 0 0.00091200363371172523 0.00050500582045472434 0 0.0009874528264050891 -0.00033854055003024381 0 0.00091200363371172523 0.00050500582045472434 0 0.0016524773322881461 0.00020614699559225576 0 0.0009874528264050891 -0.00033854055003024381 0 0.00091200363371172523 0.00050500582045472434 0 0.0015133473714199854 0.00094824166001984212 0 0.0016524773322881461 0.00020614699559225576 0 0.00091200363371172523 0.00050500582045472434 0 0.0010526643516817161 0.0011743289711287669 0 0.0015133473714199854 0.00094824166001984212 0 0.00061155462588951171 0.00086928698715324189 0 0.00091200363371172523 0.00050500582045472434 0 0.0010526643516817161 0.0011743289711287669 0 0.0010526643516817161 0.0011743289711287669 0 0.0015133473714199854 0.00094824166001984212 0 0.0012516781284882029 0.0014850999512988541 0 0.0020634053945233449 0.00065057864810882276 0 0.0015133473714199854 0.00094824166001984212 0 0.0020740543864813401 0.0014535112968216371 0 0.0015133473714199854 0.00094824166001984212 0 0.0020740543864813401 0.0014535112968216371 0 0.0012516781284882029 0.0014850999512988541 0 0.0020634053945233449 0.00065057864810882276 0 0.0015133473714199854 0.00094824166001984212 0 0.0016524773322881461 0.00020614699559225576 0 0.0020634053945233449 0.00065057864810882276 0 0.0027571581844321701 0.00062562433059992067 0 0.0020740543864813401 0.0014535112968216371 0 0.0027571581844321701 0.00062562433059992067 0 0.0034753725436752828 0.0015850511356766597 0 0.0020740543864813401 0.0014535112968216371 0 0.0027571581844321701 0.00062562433059992067 0 0.0023913176421188264 -7.0116144126909088e-05 0 0.0035148679699823389 -0.00034501411075618839 0 0.0020634053945233449 0.00065057864810882276 0 0.0027571581844321701 0.00062562433059992067 0 0.0023913176421188264 -7.0116144126909088e-05 0 0.0023913176421188264 -7.0116144126909088e-05 0 0.0016524773322881461 0.00020614699559225576 0 0.0018140382976370465 -0.00069075087523558622 0 0.0020634053945233449 0.00065057864810882276 0 0.0023913176421188264 -7.0116144126909088e-05 0 0.0016524773322881461 0.00020614699559225576 0 0.0018140382976370465 -0.00069075087523558622 0 0.0011497989231579711 -0.0013070004208021241 0 0.0009874528264050891 -0.00033854055003024381 0 0.0016524773322881461 0.00020614699559225576 0 0.0018140382976370465 -0.00069075087523558622 0 0.0009874528264050891 -0.00033854055003024381 0 0.0023913176421188264 -7.0116144126909088e-05 0 0.0027042283757515492 -0.001033135574218748 0 0.0035148679699823389 -0.00034501411075618839 0 0.0023913176421188264 -7.0116144126909088e-05 0 0.0018140382976370465 -0.00069075087523558622 0 0.0027042283757515492 -0.001033135574218748 0 0.0018140382976370465 -0.00069075087523558622 0 0.0027042283757515492 -0.001033135574218748 0 0.0020144876932924635 -0.0016468946742136034 0 0.0027042283757515492 -0.001033135574218748 0 0.0028904867435853646 -0.00202842007034592 0 0.0020144876932924635 -0.0016468946742136034 0 0.0011497989231579711 -0.0013070004208021241 0 0.0020144876932924635 -0.0016468946742136034 0 0.0017559928764053442 -0.0024748553912733091 0 0.0018140382976370465 -0.00069075087523558622 0 0.0011497989231579711 -0.0013070004208021241 0 0.0020144876932924635 -0.0016468946742136034 0 0.0011497989231579711 -0.0013070004208021241 0 2.8978380342145117e-05 -0.00090596613250888192 0 -1.0898806885095746e-05 -0.0022291105394720173 0 -0.00089406010948777195 -0.001501189221639799 0 2.8978380342145117e-05 -0.00090596613250888192 0 -1.0898806885095746e-05 -0.0022291105394720173 0 -0.0012571981336782561 -7.1397904561927363e-05 0 0.00023605933844850278 -1.2567202400000365e-05 0 2.8978380342145117e-05 -0.00090596613250888192 0 0.0011497989231579711 -0.0013070004208021241 0 2.8978380342145117e-05 -0.00090596613250888192 0 0.0009874528264050891 -0.00033854055003024381 0 0.00023605933844850278 -1.2567202400000365e-05 0 2.8978380342145117e-05 -0.00090596613250888192 0 0.0009874528264050891 -0.00033854055003024381 0 0.0069701656119791136 -0.00069605444967978743 0 0.0074788154893600141 0.0004128147700389025 0 0.0060301756467355146 -0.00016345319153059218 0 0.0069701656119791136 -0.00069605444967978743 0 0.0060301756467355146 -0.00016345319153059218 0 0.0058460096020488198 -0.0012002561574464246 0 0.0074788154893600141 0.0004128147700389025 0 0.0058161835037059215 0.00097397114475577433 0 0.0060301756467355146 -0.00016345319153059218 0 0.0074788154893600141 0.0004128147700389025 0 0.0058161835037059215 0.00097397114475577433 0 0.0069571572697863827 0.0021289323675539049 0 0.0096591955387630695 0.001366142588251481 0 0.0074788154893600141 0.0004128147700389025 0 0.0069571572697863827 0.0021289323675539049 0 0.0058161835037059215 0.00097397114475577433 0 0.0069571572697863827 0.0021289323675539049 0 0.0049954620995353773 0.0019611137771618761 0 0.0058161835037059215 0.00097397114475577433 0 0.004118614163661426 0.00061757665456330622 0 0.0049954620995353773 0.0019611137771618761 0 0.0058161835037059215 0.00097397114475577433 0 0.0060301756467355146 -0.00016345319153059218 0 0.004118614163661426 0.00061757665456330622 0 0.0060301756467355146 -0.00016345319153059218 0 0.004118614163661426 0.00061757665456330622 0 0.0046085953004786941 -0.00062331144973122403 0 0.0041185120198599153 0.00057051826729137426 0 0.0036148673416762241 -0.00021614906454729661 0 0.004118614163661426 0.00061757665456330622 0 0.0035148679699823389 -0.00034501411075618839 0 0.0046085953004786941 -0.00062331144973122403 0 0.0041185120198599153 0.00057051826729137426 0 0.0065264420164488331 0.0014402368303120638 0 0.0043441530774146189 0.00062974174847217222 0 0.0051464525218276481 0.0016678831640458015 0 0.0034753725436752828 0.0015850511356766597 0 0.0043441530774146189 0.00062974174847217222 0 0.003507782261052206 0.00070303546764730745 0 0.0034753725436752828 0.0015850511356766597 0 0.0027571581844321701 0.00062562433059992067 0 0.003507782261052206 0.00070303546764730745 0 0.0034753725436752828 0.0015850511356766597 0 0.0027571581844321701 0.00062562433059992067 0 0.003507782261052206 0.00070303546764730745 0 0.0035148679699823389 -0.00034501411075618839 0 0.0043441530774146189 0.00062974174847217222 0 0.003507782261052206 0.00070303546764730745 0 0.0035148679699823389 -0.00034501411075618839 0 0.0027042283757515492 -0.001033135574218748 0 0.0035148679699823389 -0.00034501411075618839 0 0.0037894985054012496 -0.0015658453592522219 0 0.0028904867435853646 -0.00202842007034592 0 0.0037894985054012496 -0.0015658453592522219 0 0.0037514551147251655 -0.002752867477254371 0 0.0027042283757515492 -0.001033135574218748 0 0.0028904867435853646 -0.00202842007034592 0 0.0037894985054012496 -0.0015658453592522219 0 0.0037894985054012496 -0.0015658453592522219 0 0.0043911759019853022 -0.0022428957249876259 0 0.0048214828922830463 -0.0015873246948498137 0 0.0037894985054012496 -0.0015658453592522219 0 0.0043911759019853022 -0.0022428957249876259 0 0.0037514551147251655 -0.002752867477254371 0 0.0035148679699823389 -0.00034501411075618839 0 0.0037894985054012496 -0.0015658453592522219 0 0.0046085953004786941 -0.00062331144973122403 0 0.0037894985054012496 -0.0015658453592522219 0 0.0046085953004786941 -0.00062331144973122403 0 0.0048214828922830463 -0.0015873246948498137 0 0.0046085953004786941 -0.00062331144973122403 0 0.0048214828922830463 -0.0015873246948498137 0 0.0058460096020488198 -0.0012002561574464246 0 0.0060301756467355146 -0.00016345319153059218 0 0.0046085953004786941 -0.00062331144973122403 0 0.0058460096020488198 -0.0012002561574464246 0 0.0048214828922830463 -0.0015873246948498137 0 0.0052923218134244502 -0.0021379186552485164 0 0.0058460096020488198 -0.0012002561574464246 0 0.0043911759019853022 -0.0022428957249876259 0 0.0048214828922830463 -0.0015873246948498137 0 0.0052923218134244502 -0.0021379186552485164 0 0.006925254227467227 -0.0018294268570764362 0 0.0052923218134244502 -0.0021379186552485164 0 0.0058460096020488198 -0.0012002561574464246 0 0.0054796015761753901 -0.0017891463922825074 0 0.0046622624744600107 -0.0026051893029811484 0 0.006925254227467227 -0.0018294268570764362 0 0.0052923218134244502 -0.0021379186552485164 0 0.0055082587286769385 -0.0027963927194558885 0 0.006925254227467227 -0.0018294268570764362 0 0.0069701656119791136 -0.00069605444967978743 0 0.0058460096020488198 -0.0012002561574464246 0 0.0055082587286769385 -0.0027963927194558885 0 0.0042595378472768588 -0.0030429898117530067 0 0.0039692895793826755 -0.0030253596845144235 0 0.0039335144526053915 -0.0028527511608836143 0 0.0038091065862180589 -0.0025699118672680228 0 0.0039692895793826755 -0.0030253596845144235 0 0.0046622624744600107 -0.0026051893029811484 0 0.0041162798119299838 -0.0029440437510482209 0 0.0039335144526053915 -0.0028527511608836143 0 0.0039692895793826755 -0.0030253596845144235 0 0.0038602506748650796 -0.0030113761368403534 0 0.0052923218134244502 -0.0021379186552485164 0 0.0055082587286769385 -0.0027963927194558885 0 0.0045255173347899524 -0.002756989523276666 0 0.0043911759019853022 -0.0022428957249876259 0 0.0052923218134244502 -0.0021379186552485164 0 0.0045255173347899524 -0.002756989523276666 0 0.0055082587286769385 -0.0027963927194558885 0 0.0045255173347899524 -0.002756989523276666 0 0.0042595378472768588 -0.0030429898117530067 0 0.0045255173347899524 -0.002756989523276666 0 0.0042595378472768588 -0.0030429898117530067 0 0.0041668336369278976 -0.0031316223885739223 0 0.0041668336369278976 -0.0031316223885739223 0 0.0039458215160434072 -0.0034511983852795361 0 0.0039245988099847551 -0.0029184426612166507 0 0.0042595378472768588 -0.0030429898117530067 0 0.0041668336369278976 -0.0031316223885739223 0 0.0039245988099847551 -0.0029184426612166507 0 0.0042595378472768588 -0.0030429898117530067 0 0.0039245988099847551 -0.0029184426612166507 0 0.0039692895793826755 -0.0030253596845144235 0 0.0041668336369278976 -0.0031316223885739223 0 0.0037514551147251655 -0.002752867477254371 0 0.0039458215160434072 -0.0034511983852795361 0 0.0045255173347899524 -0.002756989523276666 0 0.0041668336369278976 -0.0031316223885739223 0 0.0037514551147251655 -0.002752867477254371 0 0.0043911759019853022 -0.0022428957249876259 0 0.0045255173347899524 -0.002756989523276666 0 0.0037514551147251655 -0.002752867477254371 0 0.0028904867435853646 -0.00202842007034592 0 0.0037514551147251655 -0.002752867477254371 0 0.0030165205011380039 -0.0029363733699835854 0 0.0037514551147251655 -0.002752867477254371 0 0.0030165205011380039 -0.0029363733699835854 0 0.0039458215160434072 -0.0034511983852795361 0 0.0030165205011380039 -0.0029363733699835854 0 0.0039458215160434072 -0.0034511983852795361 0 0.0024769994534000776 -0.0037604084135750308 0 0.00043341920854409778 -0.0036193906134920424 0 0.0013286446123964642 -0.0036912328559848494 0 0.0014302858078132212 -0.0023423944734161754 0 0.00043341920854409778 -0.0036193906134920424 0 0.0014302858078132212 -0.0023423944734161754 0 -0.00063212818307082101 -0.0027328246848143034 0 0.0026628255310710354 -0.0029292653440413296 0 0.00095815672930402032 -0.0032432945183592725 0 0.00043341920854409778 -0.0036193906134920424 0 -7.8995996728933274e-05 -0.0041155800645458086 0 0.00055402897141456123 -0.004464299571543439 0 0.00043341920854409778 -0.0036193906134920424 0 0.0011694434882241723 -0.0043709759562738952 0 0.00055402897141456123 -0.004464299571543439 0 0.00043341920854409778 -0.0036193906134920424 0 0.0013286446123964642 -0.0036912328559848494 0 0.0011694434882241723 -0.0043709759562738952 0 0.0021827359408083617 -0.0035773807051194535 0 0.0019564429079830599 -0.0045061378297491066 0 0.0011694434882241723 -0.0043709759562738952 0 0.0021827359408083617 -0.0035773807051194535 0 0.0028197698679414533 -0.0037525562819920831 0 0.0030723848390188024 -0.0044064099516213078 0 0.0023295993281464262 -0.003756010276609891 0 0.0018041520191732655 -0.0039544470027053115 0 0.0013286446123964642 -0.0036912328559848494 0 0.0021827359408083617 -0.0035773807051194535 0 0.0011694434882241723 -0.0043709759562738952 0 0.0021827359408083617 -0.0035773807051194535 0 0.0014302858078132212 -0.0023423944734161754 0 0.0026777891429703442 -0.0030232714621627344 0 0.0013286446123964642 -0.0036912328559848494 0 0.0021827359408083617 -0.0035773807051194535 0 0.0014302858078132212 -0.0023423944734161754 0 0.0014302858078132212 -0.0023423944734161754 0 0.0039245988099847551 -0.0029184426612166507 0 0.0026777891429703442 -0.0030232714621627344 0 0.0026628255310710354 -0.0029292653440413296 0 0.0038140139863094618 -0.0029116404968019239 0 0.0039245988099847551 -0.0029184426612166507 0 0.0035874472044220992 -0.0031826298474536253 0 0.003069933697630165 -0.003321645882065143 0 0.0039245988099847551 -0.0029184426612166507 0 0.0026777891429703442 -0.0030232714621627344 0 0.003069933697630165 -0.003321645882065143 0 0.0021827359408083617 -0.0035773807051194535 0 0.0026777891429703442 -0.0030232714621627344 0 0.003069933697630165 -0.003321645882065143 0 0.0021827359408083617 -0.0035773807051194535 0 0.003069933697630165 -0.003321645882065143 0 0.0028197698679414533 -0.0037525562819920831 0 0.003069933697630165 -0.003321645882065143 0 0.0028197698679414533 -0.0037525562819920831 0 0.0032685064460496673 -0.0034993093757957326 0 0.0028197698679414533 -0.0037525562819920831 0 0.00313063699720262 -0.0037224757969423457 0 0.0029589231062594045 -0.0039282718392300393 0 0.0028197698679414533 -0.0037525562819920831 0 0.00313063699720262 -0.0037224757969423457 0 0.0032685064460496673 -0.0034993093757957326 0 0.00313063699720262 -0.0037224757969423457 0 0.0032685064460496673 -0.0034993093757957326 0 0.0033143474557285795 -0.0036085215735808698 0 0.0035874472044220992 -0.0031826298474536253 0 0.003069933697630165 -0.003321645882065143 0 0.0032685064460496673 -0.0034993093757957326 0 0.0032685064460496673 -0.0034993093757957326 0 0.0035117867063149798 -0.0033562474335637623 0 0.0033143474557285795 -0.0036085215735808698 0 0.0035874472044220992 -0.0031826298474536253 0 0.0032685064460496673 -0.0034993093757957326 0 0.0035117867063149798 -0.0033562474335637623 0 0.0035117867063149798 -0.0033562474335637623 0 0.0033143474557285795 -0.0036085215735808698 0 0.0036181367427822286 -0.003334599160985793 0 0.0035117867063149798 -0.0033562474335637623 0 0.0036181367427822286 -0.003334599160985793 0 0.0037227584237076359 -0.003153739722518437 0 0.00313063699720262 -0.0037224757969423457 0 0.0033143474557285795 -0.0036085215735808698 0 0.0030678762471769436 -0.0037547675692973172 0 0.0033143474557285795 -0.0036085215735808698 0 0.0035266772536638106 -0.0034902514171843545 0 0.0032640127965232447 -0.0036004002871795901 0 0.0033143474557285795 -0.0036085215735808698 0 0.0035266772536638106 -0.0034902514171843545 0 0.0036181367427822286 -0.003334599160985793 0 0.0038167864680574712 -0.003257302903697881 0 0.0035266772536638106 -0.0034902514171843545 0 0.0036181367427822286 -0.003334599160985793 0 0.0038167864680574712 -0.003257302903697881 0 0.0036181367427822286 -0.003334599160985793 0 0.0037793192230422758 -0.0031547870704755595 0 0.0037793192230422758 -0.0031547870704755595 0 0.0037227584237076359 -0.003153739722518437 0 0.0038602506748650796 -0.0030113761368403534 0 0.0036181367427822286 -0.003334599160985793 0 0.0037793192230422758 -0.0031547870704755595 0 0.0037227584237076359 -0.003153739722518437 0 0.0035874472044220992 -0.0031826298474536253 0 0.0035117867063149798 -0.0033562474335637623 0 0.0037227584237076359 -0.003153739722518437 0 0.0035874472044220992 -0.0031826298474536253 0 0.0037227584237076359 -0.003153739722518437 0 0.0038327586095975794 -0.0030290315963358741 0 0.0039245988099847551 -0.0029184426612166507 0 0.0035874472044220992 -0.0031826298474536253 0 0.0038327586095975794 -0.0030290315963358741 0 0.0038327586095975794 -0.0030290315963358741 0 0.0039692895793826755 -0.0030253596845144235 0 0.0038602506748650796 -0.0030113761368403534 0 0.0039245988099847551 -0.0029184426612166507 0 0.0038327586095975794 -0.0030290315963358741 0 0.0039692895793826755 -0.0030253596845144235 0 0.0037227584237076359 -0.003153739722518437 0 0.0038327586095975794 -0.0030290315963358741 0 0.0038602506748650796 -0.0030113761368403534 0 -0.0015478094932026766 -0.0034782854176956205 0 0.00070113138376173671 -0.0037880547419228551 0 -1.0898806885095746e-05 -0.0022291105394720173 0 -0.0014731002579479264 -0.0034932778798080814 0 -0.00035455740256745184 -0.0035261005911085374 0 -0.0015121787274767753 -0.0024265547529304394 0 -0.0015478094932026766 -0.0034782854176956205 0 -1.0898806885095746e-05 -0.0022291105394720173 0 -0.0015121787274767753 -0.0024265547529304394 0 -0.00089406010948777195 -0.001501189221639799 0 -1.0898806885095746e-05 -0.0022291105394720173 0 0.0011497989231579711 -0.0013070004208021241 0 -1.0898806885095746e-05 -0.0022291105394720173 0 0.0017559928764053442 -0.0024748553912733091 0 0.00070113138376173671 -0.0037880547419228551 0 -1.0898806885095746e-05 -0.0022291105394720173 0 0.0017559928764053442 -0.0024748553912733091 0 0.0028904867435853646 -0.00202842007034592 0 0.0020144876932924635 -0.0016468946742136034 0 0.0017559928764053442 -0.0024748553912733091 0 0.0028904867435853646 -0.00202842007034592 0 0.0030165205011380039 -0.0029363733699835854 0 0.0017559928764053442 -0.0024748553912733091 0 0.0030165205011380039 -0.0029363733699835854 0 0.0017559928764053442 -0.0024748553912733091 0 0.0024769994534000776 -0.0037604084135750308 0 0.00070113138376173671 -0.0037880547419228551 0 0.0017559928764053442 -0.0024748553912733091 0 0.0024769994534000776 -0.0037604084135750308 0 -0.00035455740256745184 -0.0035261005911085374 0 0.00095815672930402032 -0.0032432945183592725 0 -0.0014251358507529571 -0.0033306305057081132 0 -0.00063212818307082101 -0.0027328246848143034 0 -0.0012074318079446939 -0.0036509003556305531 0 0.00043341920854409778 -0.0036193906134920424 0 -0.00063212818307082101 -0.0027328246848143034 0 -0.00076230411695450587 -0.0037491883214636986 0 -0.00063212818307082101 -0.0027328246848143034 0 -0.00076230411695450587 -0.0037491883214636986 0 -0.0012074318079446939 -0.0036509003556305531 0 0.00043341920854409778 -0.0036193906134920424 0 -7.8995996728933274e-05 -0.0041155800645458086 0 -0.00076230411695450587 -0.0037491883214636986 0 -0.00076230411695450587 -0.0037491883214636986 0 -0.0011544993431831844 -0.0041094569525663037 0 -0.0010801248315958649 -0.0042310642195082272 0 -7.8995996728933274e-05 -0.0041155800645458086 0 -0.00076230411695450587 -0.0037491883214636986 0 -0.0010801248315958649 -0.0042310642195082272 0 -0.0012074318079446939 -0.0036509003556305531 0 -0.0011544993431831844 -0.0041094569525663037 0 -0.0013081126942696166 -0.0041150286940680441 0 -0.00076230411695450587 -0.0037491883214636986 0 -0.0012074318079446939 -0.0036509003556305531 0 -0.0011544993431831844 -0.0041094569525663037 0 -0.0015665899069068027 -0.0038274537308248852 0 -0.0015050433325733859 -0.0043123904868244212 0 -0.0013081126942696166 -0.0041150286940680441 0 -0.0012074318079446939 -0.0036509003556305531 0 -0.0015665899069068027 -0.0038274537308248852 0 -0.0013081126942696166 -0.0041150286940680441 0 -0.0014251358507529571 -0.0033306305057081132 0 -0.0012074318079446939 -0.0036509003556305531 0 -0.0015665899069068027 -0.0038274537308248852 0 -0.0015478094932026766 -0.0034782854176956205 0 -0.0021402708635763169 -0.0039773172316579482 0 -0.0015665899069068027 -0.0038274537308248852 0 -0.0015478094932026766 -0.0034782854176956205 0 -0.0014251358507529571 -0.0033306305057081132 0 -0.0015665899069068027 -0.0038274537308248852 0 -0.0021402708635763169 -0.0039773172316579482 0 -0.0015665899069068027 -0.0038274537308248852 0 -0.0018657743849495316 -0.0042900302085354123 0 -0.0015665899069068027 -0.0038274537308248852 0 -0.0018657743849495316 -0.0042900302085354123 0 -0.0015050433325733859 -0.0043123904868244212 0 -0.0018657743849495316 -0.0042900302085354123 0 -0.0016094399248814115 -0.0046494617537301171 0 -0.0015050433325733859 -0.0043123904868244212 0 -0.0018657743849495316 -0.0042900302085354123 0 -0.0016094399248814115 -0.0046494617537301171 0 -0.0023569837244778523 -0.0049650571331771387 0 -0.0016094399248814115 -0.0046494617537301171 0 -0.0018465119031739238 -0.0054109094773096304 0 -0.0023569837244778523 -0.0049650571331771387 0 -0.003415157977818536 -0.0042815444843528668 0 -0.0042886212641396367 -0.0050770292816254298 0 -0.0016094399248814115 -0.0046494617537301171 0 -0.0013029588671170957 -0.0043335617939774355 0 -0.0010382908334353104 -0.0044809761887678852 0 -0.0016094399248814115 -0.0046494617537301171 0 -0.0010382908334353104 -0.0044809761887678852 0 -0.0018465119031739238 -0.0054109094773096304 0 -0.0016094399248814115 -0.0046494617537301171 0 -0.0013029588671170957 -0.0043335617939774355 0 -0.0015050433325733859 -0.0043123904868244212 0 -0.0013029588671170957 -0.0043335617939774355 0 -0.0015050433325733859 -0.0043123904868244212 0 -0.0013081126942696166 -0.0041150286940680441 0 -0.0013029588671170957 -0.0043335617939774355 0 -0.0013081126942696166 -0.0041150286940680441 0 -0.0011964214903889365 -0.0042049982195057128 0 -0.0011544993431831844 -0.0041094569525663037 0 -0.0013081126942696166 -0.0041150286940680441 0 -0.0011964214903889365 -0.0042049982195057128 0 -0.0011544993431831844 -0.0041094569525663037 0 -0.0011964214903889365 -0.0042049982195057128 0 -0.001300158178567955 -0.0040833244920332606 0 -0.0011964214903889365 -0.0042049982195057128 0 -0.001300158178567955 -0.0040833244920332606 0 -0.0010382908334353104 -0.0044809761887678852 0 -0.0013029588671170957 -0.0043335617939774355 0 -0.0011964214903889365 -0.0042049982195057128 0 -0.0010382908334353104 -0.0044809761887678852 0 -0.001300158178567955 -0.0040833244920332606 0 -0.0020012198145460429 -0.0035461532685586044 0 -0.0010382908334353104 -0.0044809761887678852 0 -7.8995996728933274e-05 -0.0041155800645458086 0 -0.0010801248315958649 -0.0042310642195082272 0 0.00021516677064713043 -0.004953115785816066 0 -0.0010801248315958649 -0.0042310642195082272 0 -0.0020012198145460429 -0.0035461532685586044 0 -0.0022942867647195971 -0.0035587270136604766 0 -0.0011671256471862969 -0.0041660311396461433 0 -0.00081340668497229744 -0.0043976193209537837 0 -0.0010801248315958649 -0.0042310642195082272 0 -0.001300158178567955 -0.0040833244920332606 0 -0.0020012198145460429 -0.0035461532685586044 0 -0.0011544993431831844 -0.0041094569525663037 0 -0.0010801248315958649 -0.0042310642195082272 0 -0.001300158178567955 -0.0040833244920332606 0 -0.0020012198145460429 -0.0035461532685586044 0 -0.002658348385288186 -0.0039844607920631655 0 -0.0022869779118053204 -0.0037996438237764625 0 -0.0020012198145460429 -0.0035461532685586044 0 -0.0036377965963830311 -0.0041062577871801963 0 -0.0056428583990543379 -0.0040203608905925612 0 -0.0021633812188710118 -0.0036336711256596405 0 -0.003415157977818536 -0.0042815444843528668 0 -0.002658348385288186 -0.0039844607920631655 0 -0.003078750875856252 -0.0043504402863720057 0 -0.0024395904473094661 -0.0042845029313198441 0 -0.0020012198145460429 -0.0035461532685586044 0 -0.002658348385288186 -0.0039844607920631655 0 -0.0036377965963830311 -0.0041062577871801963 0 -0.002658348385288186 -0.0039844607920631655 0 -0.0036377965963830311 -0.0041062577871801963 0 -0.003078750875856252 -0.0043504402863720057 0 -0.0036377965963830311 -0.0041062577871801963 0 -0.0036842860699456692 -0.0046496844520248172 0 -0.004383626311090235 -0.0043942130267733371 0 -0.0036377965963830311 -0.0041062577871801963 0 -0.0036842860699456692 -0.0046496844520248172 0 -0.003078750875856252 -0.0043504402863720057 0 -0.0036842860699456692 -0.0046496844520248172 0 -0.004383626311090235 -0.0043942130267733371 0 -0.004646927226011786 -0.0047565802356105639 0 -0.003078750875856252 -0.0043504402863720057 0 -0.0031924225937996382 -0.0047706906405845144 0 -0.0024395904473094661 -0.0042845029313198441 0 -0.0031924225937996382 -0.0047706906405845144 0 -0.0031248180066946558 -0.0052523684051831079 0 -0.0024395904473094661 -0.0042845029313198441 0 -0.0036842860699456692 -0.0046496844520248172 0 -0.003078750875856252 -0.0043504402863720057 0 -0.0031924225937996382 -0.0047706906405845144 0 -0.0036377965963830311 -0.0041062577871801963 0 -0.004383626311090235 -0.0043942130267733371 0 -0.0056428583990543379 -0.0040203608905925612 0 -0.004383626311090235 -0.0043942130267733371 0 -0.0056428583990543379 -0.0040203608905925612 0 -0.004646927226011786 -0.0047565802356105639 0 -0.0056428583990543379 -0.0040203608905925612 0 -0.0054897980758596334 -0.004919518148625567 0 -0.004646927226011786 -0.0047565802356105639 0 -0.0056428583990543379 -0.0040203608905925612 0 -0.0054897980758596334 -0.004919518148625567 0 -0.0062016740959876639 -0.0045409550006755822 0 -0.0054897980758596334 -0.004919518148625567 0 -0.005851188403354116 -0.0056344434368070561 0 -0.0062016740959876639 -0.0045409550006755822 0 -0.004646927226011786 -0.0047565802356105639 0 -0.0049448842784227138 -0.0052955634353455882 0 -0.0041560293321743994 -0.0051430368227572618 0 -0.0054897980758596334 -0.004919518148625567 0 -0.004646927226011786 -0.0047565802356105639 0 -0.0049448842784227138 -0.0052955634353455882 0 -0.0049448842784227138 -0.0052955634353455882 0 -0.0041560293321743994 -0.0051430368227572618 0 -0.0047955844274455758 -0.0059707437076085791 0 -0.0049448842784227138 -0.0052955634353455882 0 -0.005851188403354116 -0.0056344434368070561 0 -0.0047955844274455758 -0.0059707437076085791 0 -0.0054897980758596334 -0.004919518148625567 0 -0.0049448842784227138 -0.0052955634353455882 0 -0.005851188403354116 -0.0056344434368070561 0 -0.0079574456183946086 -0.0073675926302099563 0 -0.0079057270433361953 -0.0066676380952653928 0 -0.0073764330378680862 -0.0069378766297231425 0 -0.0031924225937996382 -0.0047706906405845144 0 -0.0033674382631706354 -0.0052261721365578608 0 -0.0036085138305674107 -0.0049475029609382876 0 -0.0031924225937996382 -0.0047706906405845144 0 -0.0033674382631706354 -0.0052261721365578608 0 -0.0031248180066946558 -0.0052523684051831079 0 -0.0051747302714342074 -0.0058890160960621708 0 -0.0054233702943999873 -0.0058779700164489244 0 -0.0036842860699456692 -0.0046496844520248172 0 -0.004646927226011786 -0.0047565802356105639 0 -0.0041560293321743994 -0.0051430368227572618 0 -0.0033674382631706354 -0.0052261721365578608 0 -0.0036085138305674107 -0.0049475029609382876 0 -0.0041560293321743994 -0.0051430368227572618 0 -0.0036842860699456692 -0.0046496844520248172 0 -0.0036085138305674107 -0.0049475029609382876 0 -0.0041560293321743994 -0.0051430368227572618 0 -0.0036842860699456692 -0.0046496844520248172 0 -0.0031924225937996382 -0.0047706906405845144 0 -0.0036085138305674107 -0.0049475029609382876 0 -0.0033674382631706354 -0.0052261721365578608 0 -0.0041560293321743994 -0.0051430368227572618 0 -0.0047955844274455758 -0.0059707437076085791 0 -0.0033674382631706354 -0.0052261721365578608 0 -0.0031705112353368828 -0.0052812597919097547 0 -0.0047955844274455758 -0.0059707437076085791 0 -0.0054233702943999873 -0.0058779700164489244 0 -0.0060974367913129955 -0.0064375907381883889 0 -0.0079057270433361953 -0.0066676380952653928 0 -0.0083585377783451029 -0.0061961087650178473 0 -0.0076404051375000507 -0.0060729755832976276 0 -0.0079574456183946086 -0.0073675926302099563 0 -0.0079057270433361953 -0.0066676380952653928 0 -0.0084006103682766151 -0.0067789838232466537 0 -0.0079057270433361953 -0.0066676380952653928 0 -0.0073764330378680862 -0.0069378766297231425 0 -0.0073411971768896295 -0.0063856200797150695 0 -0.0079057270433361953 -0.0066676380952653928 0 -0.0073411971768896295 -0.0063856200797150695 0 -0.0076404051375000507 -0.0060729755832976276 0 -0.005851188403354116 -0.0056344434368070561 0 -0.0047955844274455758 -0.0059707437076085791 0 -0.0065081802838667085 -0.0063492425052068492 0 -0.0060974367913129955 -0.0064375907381883889 0 -0.0063391652463370956 -0.0063632659824440531 0 -0.0073764330378680862 -0.0069378766297231425 0 -0.0073411971768896295 -0.0063856200797150695 0 -0.0065081802838667085 -0.0063492425052068492 0 -0.0073411971768896295 -0.0063856200797150695 0 -0.0065081802838667085 -0.0063492425052068492 0 -0.007098406411978943 -0.0059671195328078975 0 -0.005851188403354116 -0.0056344434368070561 0 -0.0065081802838667085 -0.0063492425052068492 0 -0.0066781719736041271 -0.0063776119701337659 0 -0.0070875283801349869 -0.0046180671264031961 0 -0.007008446782148345 -0.004650125116603487 0 -0.0062016740959876639 -0.0045409550006755822 0 -0.007008446782148345 -0.004650125116603487 0 -0.0070404626161201375 -0.0045596813645759115 0 -0.0070824128051636031 -0.0046198641803906239 0 -0.0070875283801349869 -0.0046180671264031961 0 -0.007008446782148345 -0.004650125116603487 0 -0.0071103857446827576 -0.0044628114157972089 0 -0.007008446782148345 -0.004650125116603487 0 -0.0070404626161201375 -0.0045596813645759115 0 -0.0071103857446827576 -0.0044628114157972089 0 -0.0068312138838094753 -0.0054211237734509265 0 -0.0062975481468364675 -0.0045615505764385351 0 -0.007008446782148345 -0.004650125116603487 0 -0.0070824128051636031 -0.0046198641803906239 0 -0.0062016740959876639 -0.0045409550006755822 0 -0.005851188403354116 -0.0056344434368070561 0 -0.0066781719736041271 -0.0063776119701337659 0 -0.0062016740959876639 -0.0045409550006755822 0 -0.0056428583990543379 -0.0040203608905925612 0 -0.0070824128051636031 -0.0046198641803906239 0 -0.0062016740959876639 -0.0045409550006755822 0 0.0030523911651806905 -0.0034206547018184796 0 0.0029989060489961708 -0.0035555975420874853 0 0.0030678762471769436 -0.0037547675692973172 0 0.0026530086975012569 -0.0035814704510456923 0 0.0030678762471769436 -0.0037547675692973172 0 0.0028612156017140907 -0.0037493497706917759 0 0.00064303495485336717 -0.0029363812835559995 0 0.0034894150826021869 -0.00410112918152574 0 0.0026530086975012569 -0.0035814704510456923 0 0.0028069479517970146 -0.0036357782775047875 0 0.0027562226914570592 -0.0035693861545817948 0 0.0026530086975012569 -0.0035814704510456923 0 0.0028612156017140907 -0.0037493497706917759 0 0.0028069479517970146 -0.0036357782775047875 0 0.0030523911651806905 -0.0034206547018184796 0 0.00269281210449365 -0.0033762582074836223 0 0.0029989060489961708 -0.0035555975420874853 0 0.0029989060489961708 -0.0035555975420874853 0 0.0032640127965232447 -0.0036004002871795901 0 0.0030678762471769436 -0.0037547675692973172 0 0.00269281210449365 -0.0033762582074836223 0 0.0029989060489961708 -0.0035555975420874853 0 0.0032640127965232447 -0.0036004002871795901 0 0.0033143474557285795 -0.0036085215735808698 0 0.0032640127965232447 -0.0036004002871795901 0 0.0030678762471769436 -0.0037547675692973172 0 0.0030678762471769436 -0.0037547675692973172 0 0.0029154327268911123 -0.0038676142643485558 0 0.0028612156017140907 -0.0037493497706917759 0 0.00313063699720262 -0.0037224757969423457 0 0.0030678762471769436 -0.0037547675692973172 0 0.0029589231062594045 -0.0039282718392300393 0 0.0030678762471769436 -0.0037547675692973172 0 0.0029589231062594045 -0.0039282718392300393 0 0.0029154327268911123 -0.0038676142643485558 0 0.0029589231062594045 -0.0039282718392300393 0 0.0029154327268911123 -0.0038676142643485558 0 0.0027419374340497712 -0.0040184029797933158 0 0.0028197698679414533 -0.0037525562819920831 0 0.0029589231062594045 -0.0039282718392300393 0 0.0030723848390188024 -0.0044064099516213078 0 0.0027788183428052561 -0.0037844300477285009 0 0.0018041520191732655 -0.0039544470027053115 0 0.0029154327268911123 -0.0038676142643485558 0 0.0028795927548630989 -0.0038501719169021075 0 0.0027419374340497712 -0.0040184029797933158 0 0.0028795927548630989 -0.0038501719169021075 0 0.0029535556385820324 -0.0037110280783014494 0 0.0027419374340497712 -0.0040184029797933158 0 0.0028795927548630989 -0.0038501719169021075 0 0.0028612156017140907 -0.0037493497706917759 0 0.0029535556385820324 -0.0037110280783014494 0 0.0028612156017140907 -0.0037493497706917759 0 0.0028069479517970146 -0.0036357782775047875 0 0.0029535556385820324 -0.0037110280783014494 0 0.0029154327268911123 -0.0038676142643485558 0 0.0028795927548630989 -0.0038501719169021075 0 0.0028612156017140907 -0.0037493497706917759 0 -0.0041362086621238216 -0.0054307967085582129 0 -0.0044754867260482015 -0.0051767312134288332 0 -0.0045728183410694246 -0.0057265308196694092 0 -0.0014539418370354466 -0.0048441103009275871 0 0.0018041520191732655 -0.0039544470027053115 0 -0.00019335949376221773 -0.0045145039839848706 0 -0.00070501780167486804 -0.0041474129469378004 0 -0.00024739597007260853 -0.0037633163467946577 0 -0.0014539418370354466 -0.0048441103009275871 0 -0.0015396629489239737 -0.004462209138714251 0 0.0019564429079830599 -0.0045061378297491066 0 0.0011694434882241723 -0.0043709759562738952 0 0.00095771770361237048 -0.0048766093088364812 0 -0.0015396629489239737 -0.004462209138714251 0 0.0018041520191732655 -0.0039544470027053115 0 0.0011700383897834223 -0.0054499437223904613 0 0.0019564429079830599 -0.0045061378297491066 0 0.00095771770361237048 -0.0048766093088364812 0 -0.0013639081653451723 -0.0039227815962261338 0 -0.0022942867647195971 -0.0035587270136604766 0 -0.0020973353966070858 -0.0038629848472505049 0 -0.0015396629489239737 -0.004462209138714251 0 -0.00081340668497229744 -0.0043976193209537837 0 0.0011700383897834223 -0.0054499437223904613 0 0.00095771770361237048 -0.0048766093088364812 0 0.00021516677064713043 -0.004953115785816066 0 0.0011694434882241723 -0.0043709759562738952 0 0.00095771770361237048 -0.0048766093088364812 0 0.00055402897141456123 -0.004464299571543439 0 0.00095771770361237048 -0.0048766093088364812 0 0.00055402897141456123 -0.004464299571543439 0 0.00021516677064713043 -0.004953115785816066 0 -7.8995996728933274e-05 -0.0041155800645458086 0 0.00055402897141456123 -0.004464299571543439 0 0.00021516677064713043 -0.004953115785816066 0 -0.0022942867647195971 -0.0035587270136604766 0 -0.0022869779118053204 -0.0037996438237764625 0 -0.0020973353966070858 -0.0038629848472505049 0 -0.0020012198145460429 -0.0035461532685586044 0 -0.0022942867647195971 -0.0035587270136604766 0 -0.0022869779118053204 -0.0037996438237764625 0 -0.0022869779118053204 -0.0037996438237764625 0 -0.0020973353966070858 -0.0038629848472505049 0 -0.0024395904473094661 -0.0042845029313198441 0 -0.0054233702943999873 -0.0058779700164489244 0 -0.0015396629489239737 -0.004462209138714251 0 -0.0031248180066946558 -0.0052523684051831079 0 -0.0013639081653451723 -0.0039227815962261338 0 -0.0024395904473094661 -0.0042845029313198441 0 -0.002658348385288186 -0.0039844607920631655 0 -0.0022869779118053204 -0.0037996438237764625 0 -0.0024395904473094661 -0.0042845029313198441 0 -0.0013639081653451723 -0.0039227815962261338 0 -0.0020973353966070858 -0.0038629848472505049 0 -0.0024395904473094661 -0.0042845029313198441 0 -0.0079574456183946086 -0.0073675926302099563 0 -0.0087425249291139557 -0.0071967925452310318 0 -0.0084006103682766151 -0.0067789838232466537 0 -0.0050377386872694678 -0.0056427059604697667 0 -0.0044754867260482015 -0.0051767312134288332 0 -0.0045728183410694246 -0.0057265308196694092 0 -0.0054233702943999873 -0.0058779700164489244 0 -0.0067989656301972422 -0.006455008818972467 0 -0.0087425249291139557 -0.0071967925452310318 0 -0.0084006103682766151 -0.0067789838232466537 0 -0.0090183177356188277 -0.0064742622180365018 0 -0.0084006103682766151 -0.0067789838232466537 0 -0.0090183177356188277 -0.0064742622180365018 0 -0.0083585377783451029 -0.0061961087650178473 0 -0.0079057270433361953 -0.0066676380952653928 0 -0.0084006103682766151 -0.0067789838232466537 0 -0.0083585377783451029 -0.0061961087650178473 0 -0.0090183177356188277 -0.0064742622180365018 0 -0.0095012653543924842 -0.0070443431207686353 0 -0.0096137827438423883 -0.0059880461950129948 0 -0.0087425249291139557 -0.0071967925452310318 0 -0.0090183177356188277 -0.0064742622180365018 0 -0.0095012653543924842 -0.0070443431207686353 0 -0.0041362086621238216 -0.0054307967085582129 0 -0.0045728183410694246 -0.0057265308196694092 0 -0.0041222131667520258 -0.0058066487267381091 0 -0.0067989656301972422 -0.006455008818972467 0 -0.0069635150991283609 -0.0064699325638657625 0 -0.0014539418370354466 -0.0048441103009275871 0 -0.0069635150991283609 -0.0064699325638657625 0 0.0028069479517970146 -0.0036357782775047875 0 0.0029535556385820324 -0.0037110280783014494 0 0.002800594452946508 -0.0035350368701967537 0 -0.0014539418370354466 -0.0048441103009275871 0 -0.002149112942033831 -0.0047121559588872873 0 -0.0040125144012796796 -0.0056652884557000854 0 -0.0041354416762600793 -0.0055824639552019828 0 -0.0040411550065364574 -0.0055538572136683718 0 -0.002149112942033831 -0.0047121559588872873 0 -0.007331632140302826 -0.0063008444946978295 0 -0.010120705310302094 -0.007069609412748608 0 -0.0098287259648276934 -0.0071298154615051642 0 -0.0099725796364805077 -0.0069272243190156178 0 -0.007331632140302826 -0.0063008444946978295 0 -0.0069635150991283609 -0.0064699325638657625 0 -0.0041354416762600793 -0.0055824639552019828 0 -0.0040952090040926523 -0.0055420195375509938 0 -0.0040411550065364574 -0.0055538572136683718 0 -0.0099725796364805077 -0.0069272243190156178 0 -0.010583071691241334 -0.0065458990648277465 0 -0.0099738720742384504 -0.0060568163052423301 0 -0.0098287259648276934 -0.0071298154615051642 0 -0.0099725796364805077 -0.0069272243190156178 0 -0.0099738720742384504 -0.0060568163052423301 0 -0.0069635150991283609 -0.0064699325638657625 0 -0.010089079526046589 -0.0061365877737400293 0 -0.007331632140302826 -0.0063008444946978295 0 -0.0086945707157926738 -0.0071239467269142362 0 -0.010138904257007477 -0.007081083173892732 0 -0.0099725796364805077 -0.0069272243190156178 0 -0.010583071691241334 -0.0065458990648277465 0 -0.007331632140302826 -0.0063008444946978295 0 -0.0065490608282817294 -0.0042450669475731081 0 -0.010138904257007477 -0.007081083173892732 0 -0.010583071691241334 -0.0065458990648277465 0 -0.011018946840933146 -0.0069216704702600041 0 -0.010583071691241334 -0.0065458990648277465 0 -0.011018946840933146 -0.0069216704702600041 0 -0.011078680796965201 -0.0061295377824936393 0 -0.003122460738854642 -0.002444185755853361 0 -0.002495637650652748 -0.0039189202932722652 0 -0.0026549005335766837 -0.0025300014462620478 0 -0.0051916561320817624 -0.0053793932789595131 0 -0.0048344221422052499 -0.0050543756008734602 0 -0.0059970597961420073 -0.0048219106129544845 0 -0.0042419558274056583 -0.0033523426202284427 0 0.00064303495485336717 -0.0029363812835559995 0 -0.002495637650652748 -0.0039189202932722652 0 -0.0026549005335766837 -0.0025300014462620478 0 -0.0019968583059645807 -0.0034630632064756683 0 -0.0024396533319400024 -0.0046485172703514778 0 -0.0048977939435129337 -0.0029954711400370492 0 -0.0032455600443638388 -0.0053798907707769301 0 -0.002149112942033831 -0.0047121559588872873 0 -0.0065490608282817294 -0.0042450669475731081 0 -0.0065490608282817294 -0.0042450669475731081 0 -0.0012507782003799636 -0.0037429502660103536 0 0.0028069479517970146 -0.0036357782775047875 0 0.002800594452946508 -0.0035350368701967537 0 0.0027562226914570592 -0.0035693861545817948 0 -0.002149112942033831 -0.0047121559588872873 0 -0.0012507782003799636 -0.0037429502660103536 0 0.00064303495485336717 -0.0029363812835559995 0 -0.0012507782003799636 -0.0037429502660103536 0 -0.010925777944886682 -0.0051717476872020383 0 -0.010675000442179644 -0.0057514072202887751 0 -0.010099303706991268 -0.004992589233688555 0 -0.0113609124662295 -0.0049080981725110199 0 -0.011344494222269425 -0.0055556241574581146 0 -0.010925777944886682 -0.0051717476872020383 0 -0.011344494222269425 -0.0055556241574581146 0 -0.010925777944886682 -0.0051717476872020383 0 -0.010675000442179644 -0.0057514072202887751 0 -0.011344494222269425 -0.0055556241574581146 0 -0.011078680796965201 -0.0061295377824936393 0 -0.010675000442179644 -0.0057514072202887751 0 -0.010583071691241334 -0.0065458990648277465 0 -0.011078680796965201 -0.0061295377824936393 0 -0.010675000442179644 -0.0057514072202887751 0 -0.010583071691241334 -0.0065458990648277465 0 -0.010675000442179644 -0.0057514072202887751 0 -0.0099738720742384504 -0.0060568163052423301 0 -0.010089079526046589 -0.0061365877737400293 0 -0.0099011203825673244 -0.0049382469345349757 0 -0.010675000442179644 -0.0057514072202887751 0 -0.0099738720742384504 -0.0060568163052423301 0 -0.010099303706991268 -0.004992589233688555 0 -0.0087898290371152092 -0.0055958756056105549 0 -0.0086937170612407539 -0.0046695490622937668 0 -0.0097237919411758029 -0.0049535255262078389 0 -0.0096137827438423883 -0.0059880461950129948 0 -0.0087898290371152092 -0.0055958756056105549 0 -0.0097237919411758029 -0.0049535255262078389 0 -0.0090183177356188277 -0.0064742622180365018 0 -0.0096137827438423883 -0.0059880461950129948 0 -0.0087898290371152092 -0.0055958756056105549 0 -0.0083585377783451029 -0.0061961087650178473 0 -0.0087898290371152092 -0.0055958756056105549 0 -0.0080345165826978572 -0.0057304315848916128 0 -0.0090183177356188277 -0.0064742622180365018 0 -0.0083585377783451029 -0.0061961087650178473 0 -0.0087898290371152092 -0.0055958756056105549 0 -0.0087898290371152092 -0.0055958756056105549 0 -0.0086937170612407539 -0.0046695490622937668 0 -0.0081155834571918044 -0.0052110377543430056 0 -0.0087898290371152092 -0.0055958756056105549 0 -0.0080345165826978572 -0.0057304315848916128 0 -0.0081155834571918044 -0.0052110377543430056 0 -0.0086937170612407539 -0.0046695490622937668 0 -0.0081155834571918044 -0.0052110377543430056 0 -0.0080812987028125068 -0.0047397325424521769 0 -0.0086937170612407539 -0.0046695490622937668 0 -0.0088022151856920906 -0.0039489472435411833 0 -0.0080449081397827513 -0.0042815499765574434 0 -0.0088022151856920906 -0.0039489472435411833 0 -0.0080449081397827513 -0.0042815499765574434 0 -0.0083710643730615878 -0.0036152755757331008 0 -0.0086937170612407539 -0.0046695490622937668 0 -0.0088022151856920906 -0.0039489472435411833 0 -0.0092542760219020779 -0.0041800013661007227 0 -0.0088022151856920906 -0.0039489472435411833 0 -0.0092542760219020779 -0.0041800013661007227 0 -0.0094257923832667505 -0.0035498434120046387 0 -0.0092542760219020779 -0.0041800013661007227 0 -0.0098716970115573146 -0.0039020262887069701 0 -0.0094257923832667505 -0.0035498434120046387 0 -0.0086937170612407539 -0.0046695490622937668 0 -0.0092542760219020779 -0.0041800013661007227 0 -0.0097237919411758029 -0.0049535255262078389 0 -0.0099011203825673244 -0.0049382469345349757 0 -0.0098612579456061559 -0.0039665341054956763 0 -0.010099303706991268 -0.004992589233688555 0 -0.010209000372829352 -0.003926664704251734 0 -0.010758151835520417 -0.0045907266768364713 0 -0.0092542760219020779 -0.0041800013661007227 0 -0.0097237919411758029 -0.0049535255262078389 0 -0.0098716970115573146 -0.0039020262887069701 0 -0.010209000372829352 -0.003926664704251734 0 -0.010901428282735937 -0.0039028018195717607 0 -0.010632477865581889 -0.0033902458393279024 0 -0.010209000372829352 -0.003926664704251734 0 -0.010901428282735937 -0.0039028018195717607 0 -0.010758151835520417 -0.0045907266768364713 0 -0.011512146462484728 -0.0042470276354244114 0 -0.010901428282735937 -0.0039028018195717607 0 -0.010758151835520417 -0.0045907266768364713 0 -0.0113609124662295 -0.0049080981725110199 0 -0.011512146462484728 -0.0042470276354244114 0 -0.010758151835520417 -0.0045907266768364713 0 -0.010925777944886682 -0.0051717476872020383 0 -0.010099303706991268 -0.004992589233688555 0 -0.010758151835520417 -0.0045907266768364713 0 -0.0113609124662295 -0.0049080981725110199 0 -0.010925777944886682 -0.0051717476872020383 0 -0.010758151835520417 -0.0045907266768364713 0 -0.0071921190607415458 -0.0050767375745738594 0 -0.0066982287802931154 -0.0052366077208462272 0 -0.0069446125261656017 -0.0057574460558803614 0 -0.0072281683009851405 -0.0042343491901889818 0 -0.0071399877855075032 -0.0042746345346119504 0 -0.0073041835451548992 -0.0042289469054390431 0 -0.0070404626161201375 -0.0045596813645759115 0 -0.0071399877855075032 -0.0042746345346119504 0 -0.0071103857446827576 -0.0044628114157972089 0 -0.0072281683009851405 -0.0042343491901889818 0 -0.0071399877855075032 -0.0042746345346119504 0 -0.0071103857446827576 -0.0044628114157972089 0 -0.0070875283801349869 -0.0046180671264031961 0 -0.0072281683009851405 -0.0042343491901889818 0 -0.0071103857446827576 -0.0044628114157972089 0 -0.0066781719736041271 -0.0063776119701337659 0 -0.0066982287802931154 -0.0052366077208462272 0 -0.0069446125261656017 -0.0057574460558803614 0 -0.0068312138838094753 -0.0054211237734509265 0 -0.0069988198372546049 -0.0047729107283444039 0 -0.0065081802838667085 -0.0063492425052068492 0 -0.0066781719736041271 -0.0063776119701337659 0 -0.0069446125261656017 -0.0057574460558803614 0 -0.0065081802838667085 -0.0063492425052068492 0 -0.0069446125261656017 -0.0057574460558803614 0 -0.007098406411978943 -0.0059671195328078975 0 -0.0073411971768896295 -0.0063856200797150695 0 -0.007098406411978943 -0.0059671195328078975 0 -0.0076404051375000507 -0.0060729755832976276 0 -0.007098406411978943 -0.0059671195328078975 0 -0.0076404051375000507 -0.0060729755832976276 0 -0.0073790839676448903 -0.0054816302151651274 0 -0.0069446125261656017 -0.0057574460558803614 0 -0.007098406411978943 -0.0059671195328078975 0 -0.0073790839676448903 -0.0054816302151651274 0 -0.0080345165826978572 -0.0057304315848916128 0 -0.0076404051375000507 -0.0060729755832976276 0 -0.0073790839676448903 -0.0054816302151651274 0 -0.0083585377783451029 -0.0061961087650178473 0 -0.0080345165826978572 -0.0057304315848916128 0 -0.0076404051375000507 -0.0060729755832976276 0 -0.0081155834571918044 -0.0052110377543430056 0 -0.0073790839676448903 -0.0054816302151651274 0 -0.0075785414502430055 -0.0047974227314759779 0 -0.0080345165826978572 -0.0057304315848916128 0 -0.0081155834571918044 -0.0052110377543430056 0 -0.0073790839676448903 -0.0054816302151651274 0 -0.0071921190607415458 -0.0050767375745738594 0 -0.0069446125261656017 -0.0057574460558803614 0 -0.0073790839676448903 -0.0054816302151651274 0 -0.0071921190607415458 -0.0050767375745738594 0 -0.0073790839676448903 -0.0054816302151651274 0 -0.0075785414502430055 -0.0047974227314759779 0 -0.0071921190607415458 -0.0050767375745738594 0 -0.0075785414502430055 -0.0047974227314759779 0 -0.0072242641516331498 -0.0046006580853868656 0 -0.0075785414502430055 -0.0047974227314759779 0 -0.0074926264371847177 -0.0044126095752419188 0 -0.0072242641516331498 -0.0046006580853868656 0 -0.0086937170612407539 -0.0046695490622937668 0 -0.0080812987028125068 -0.0047397325424521769 0 -0.0080449081397827513 -0.0042815499765574434 0 -0.0081155834571918044 -0.0052110377543430056 0 -0.0075785414502430055 -0.0047974227314759779 0 -0.0080812987028125068 -0.0047397325424521769 0 -0.0075785414502430055 -0.0047974227314759779 0 -0.0080812987028125068 -0.0047397325424521769 0 -0.0080449081397827513 -0.0042815499765574434 0 -0.0080449081397827513 -0.0042815499765574434 0 -0.0074926264371847177 -0.0044126095752419188 0 -0.0076786362456613159 -0.003974564353825611 0 -0.0075785414502430055 -0.0047974227314759779 0 -0.0080449081397827513 -0.0042815499765574434 0 -0.0074926264371847177 -0.0044126095752419188 0 -0.0074926264371847177 -0.0044126095752419188 0 -0.0071952921987607299 -0.0042767556307213893 0 -0.0076786362456613159 -0.003974564353825611 0 -0.0075073527879638974 -0.0042587482866253265 0 -0.0072242641516331498 -0.0046006580853868656 0 -0.0072884271856205642 -0.0043482750375234813 0 -0.0074926264371847177 -0.0044126095752419188 0 -0.0071952921987607299 -0.0042767556307213893 0 -0.0072242641516331498 -0.0046006580853868656 0 -0.0076787180061835729 -0.0042271038219606838 0 -0.0075073527879638974 -0.0042587482866253265 0 -0.0072242641516331498 -0.0046006580853868656 0 -0.0074656963848774415 -0.0041467367848029455 0 -0.0072724272271890676 -0.004558232767049226 0 -0.0071921190607415458 -0.0050767375745738594 0 -0.0066982287802931154 -0.0052366077208462272 0 -0.0072242641516331498 -0.0046006580853868656 0 -0.0066982287802931154 -0.0052366077208462272 0 -0.0072242641516331498 -0.0046006580853868656 0 -0.0072884271856205642 -0.0043482750375234813 0 -0.0072281683009851405 -0.0042343491901889818 0 -0.0073041835451548992 -0.0042289469054390431 0 -0.0072884271856205642 -0.0043482750375234813 0 -0.0069988198372546049 -0.0047729107283444039 0 -0.0072245831276609726 -0.0044062464657420352 0 -0.0073041835451548992 -0.0042289469054390431 0 -0.0072884271856205642 -0.0043482750375234813 0 -0.0074519238639965341 -0.004271044917240418 0 -0.0072884271856205642 -0.0043482750375234813 0 -0.0075131206238308341 -0.0042921675668437234 0 -0.007566784378898319 -0.0042637298401884127 0 -0.0072884271856205642 -0.0043482750375234813 0 -0.0075131206238308341 -0.0042921675668437234 0 -0.0074519238639965341 -0.004271044917240418 0 -0.0075073527879638974 -0.0042587482866253265 0 -0.0072884271856205642 -0.0043482750375234813 0 -0.007566784378898319 -0.0042637298401884127 0 -0.0075131206238308341 -0.0042921675668437234 0 -0.0074519238639965341 -0.004271044917240418 0 -0.0076004177473699211 -0.0042732558356013643 0 -0.0074519238639965341 -0.004271044917240418 0 -0.0075175918555359092 -0.0042180623227687231 0 -0.0076004177473699211 -0.0042732558356013643 0 -0.0075175918555359092 -0.0042180623227687231 0 -0.0075489491955911484 -0.004152767227429301 0 -0.0076392658719345603 -0.0042303680592503485 0 -0.0075175918555359092 -0.0042180623227687231 0 -0.0076004177473699211 -0.0042732558356013643 0 -0.0076392658719345603 -0.0042303680592503485 0 -0.0075175918555359092 -0.0042180623227687231 0 -0.0074485812788699967 -0.0041541870733061721 0 -0.0075489491955911484 -0.004152767227429301 0 -0.0075175918555359092 -0.0042180623227687231 0 -0.0074485812788699967 -0.0041541870733061721 0 -0.0073905346773498687 -0.0042056224885330118 0 -0.0074485812788699967 -0.0041541870733061721 0 -0.0073905346773498687 -0.0042056224885330118 0 -0.0073751904933288598 -0.0041632257141155874 0 -0.0073041835451548992 -0.0042289469054390431 0 -0.0074519238639965341 -0.004271044917240418 0 -0.0073905346773498687 -0.0042056224885330118 0 -0.0074519238639965341 -0.004271044917240418 0 -0.0075175918555359092 -0.0042180623227687231 0 -0.0073905346773498687 -0.0042056224885330118 0 -0.0075738973917277314 -0.0040676342736238333 0 -0.0075489491955911484 -0.004152767227429301 0 -0.0076700042832653619 -0.0041807725564145552 0 -0.0075738973917277314 -0.0040676342736238333 0 -0.0077260190113006642 -0.0041141067541244332 0 -0.0076700042832653619 -0.0041807725564145552 0 -0.0075489491955911484 -0.004152767227429301 0 -0.0076700042832653619 -0.0041807725564145552 0 -0.0076392658719345603 -0.0042303680592503485 0 -0.0075738973917277314 -0.0040676342736238333 0 -0.0075489491955911484 -0.004152767227429301 0 -0.0074615768047712541 -0.0040707510565594724 0 -0.0074485812788699967 -0.0041541870733061721 0 -0.0074615768047712541 -0.0040707510565594724 0 -0.0073908648796723259 -0.0040863065017692005 0 -0.0074485812788699967 -0.0041541870733061721 0 -0.0075489491955911484 -0.004152767227429301 0 -0.0074615768047712541 -0.0040707510565594724 0 -0.0075738973917277314 -0.0040676342736238333 0 -0.0074615768047712541 -0.0040707510565594724 0 -0.0074314791879471062 -0.0039663174680918487 0 -0.007344142908451738 -0.0040049290108811727 0 -0.0071643059519932361 -0.0039870868384001478 0 -0.0072846642543896393 -0.0039192718736802074 0 -0.007344142908451738 -0.0040049290108811727 0 -0.0072846642543896393 -0.0039192718736802074 0 -0.0074314791879471062 -0.0039663174680918487 0 -0.0074615768047712541 -0.0040707510565594724 0 -0.007344142908451738 -0.0040049290108811727 0 -0.0074314791879471062 -0.0039663174680918487 0 -0.007344142908451738 -0.0040049290108811727 0 -0.0073908648796723259 -0.0040863065017692005 0 -0.0073331514240859343 -0.004049602287622558 0 -0.0074615768047712541 -0.0040707510565594724 0 -0.007344142908451738 -0.0040049290108811727 0 -0.0073908648796723259 -0.0040863065017692005 0 -0.0073331514240859343 -0.004049602287622558 0 -0.0071643059519932361 -0.0039870868384001478 0 -0.0073547189201063094 -0.0041000059506500312 0 -0.0070921455814375676 -0.0039663953658095417 0 -0.0073007629031087767 -0.0040357119494458509 0 -0.007344142908451738 -0.0040049290108811727 0 -0.0073331514240859343 -0.004049602287622558 0 -0.0071643059519932361 -0.0039870868384001478 0 -0.0071643059519932361 -0.0039870868384001478 0 -0.0070174426082685037 -0.0038779392801530093 0 -0.0071303491033551962 -0.003889473874934555 0 -0.0071399877855075032 -0.0042746345346119504 0 -0.0073041835451548992 -0.0042289469054390431 0 -0.0072898536398375178 -0.0042155361854064374 0 -0.0071399877855075032 -0.0042746345346119504 0 -0.0072898536398375178 -0.0042155361854064374 0 -0.0073320450434478804 -0.0041557697288114965 0 -0.0073041835451548992 -0.0042289469054390431 0 -0.0073905346773498687 -0.0042056224885330118 0 -0.0072898536398375178 -0.0042155361854064374 0 -0.0073905346773498687 -0.0042056224885330118 0 -0.0072898536398375178 -0.0042155361854064374 0 -0.0073751904933288598 -0.0041632257141155874 0 -0.0073908648796723259 -0.0040863065017692005 0 -0.0073331514240859343 -0.004049602287622558 0 -0.0073320450434478804 -0.0041557697288114965 0 -0.0074485812788699967 -0.0041541870733061721 0 -0.0073908648796723259 -0.0040863065017692005 0 -0.0073751904933288598 -0.0041632257141155874 0 -0.0073908648796723259 -0.0040863065017692005 0 -0.0073751904933288598 -0.0041632257141155874 0 -0.0073320450434478804 -0.0041557697288114965 0 -0.0072898536398375178 -0.0042155361854064374 0 -0.0073751904933288598 -0.0041632257141155874 0 -0.0073320450434478804 -0.0041557697288114965 0 -0.0073331514240859343 -0.004049602287622558 0 -0.0073320450434478804 -0.0041557697288114965 0 -0.0073547189201063094 -0.0041000059506500312 0 -0.0073320450434478804 -0.0041557697288114965 0 -0.0072934080122679292 -0.0040348562390840909 0 -0.0073547189201063094 -0.0041000059506500312 0 -0.0071399877855075032 -0.0042746345346119504 0 -0.0073320450434478804 -0.0041557697288114965 0 -0.0072934080122679292 -0.0040348562390840909 0 -0.007629884581844131 -0.0040517688111076375 0 -0.0056720646853888135 -0.0046311819237606399 0 -0.0070404626161201375 -0.0045596813645759115 0 -0.0071399877855075032 -0.0042746345346119504 0 -0.0068366969141118545 -0.0046088915403758339 0 -0.0070404626161201375 -0.0045596813645759115 0 -0.0070824128051636031 -0.0046198641803906239 0 -0.0068366969141118545 -0.0046088915403758339 0 -0.0042886212641396367 -0.0050770292816254298 0 -0.0056720646853888135 -0.0046311819237606399 0 -0.0018465119031739238 -0.0054109094773096304 0 -0.0026917213794026701 -0.0054543340966388132 0 -0.0027105478678894649 -0.0059634175901349742 0 -0.0018465119031739238 -0.0054109094773096304 0 -0.0026917213794026701 -0.0054543340966388132 0 -0.0023569837244778523 -0.0049650571331771387 0 -0.0056720646853888135 -0.0046311819237606399 0 -0.0048915879498154435 -0.0047591507245442434 0 -0.0026917213794026701 -0.0054543340966388132 0 -0.0027105478678894649 -0.0059634175901349742 0 -0.0032311756092309094 -0.0054189076292411025 0 -0.0068350311898850305 -0.0039088781373936505 0 -0.0068776837352404639 -0.0039099434369777612 0 -0.0068464614051456114 -0.0038859819209570786 0 -0.0056720646853888135 -0.0046311819237606399 0 -0.0073007629031087767 -0.0040357119494458509 0 -0.0071643059519932361 -0.0039870868384001478 0 -0.0068776837352404639 -0.0039099434369777612 0 -0.0068715511290395976 -0.0038434197061267268 0 -0.0071643059519932361 -0.0039870868384001478 0 -0.0070174426082685037 -0.0038779392801530093 0 -0.0068715511290395976 -0.0038434197061267268 0 -0.0070174426082685037 -0.0038779392801530093 0 -0.0068715511290395976 -0.0038434197061267268 0 -0.0069174588797495063 -0.0038298582351965777 0 -0.0068715511290395976 -0.0038434197061267268 0 -0.0066299647367117813 -0.0038920295161701075 0 -0.0069174588797495063 -0.0038298582351965777 0 -0.0068715511290395976 -0.0038434197061267268 0 -0.0068464614051456114 -0.0038859819209570786 0 -0.0066299647367117813 -0.0038920295161701075 0 -0.0068776837352404639 -0.0039099434369777612 0 -0.0068715511290395976 -0.0038434197061267268 0 -0.0068464614051456114 -0.0038859819209570786 0 -0.0048915879498154435 -0.0047591507245442434 0 -0.0053376991690368024 -0.0044791778838060752 0 -0.0066299647367117813 -0.0038920295161701075 0 -0.0065767026919096938 -0.0040976381194109072 0 -0.0062468042380481575 -0.0041018824432530535 0 -0.0068464614051456114 -0.0038859819209570786 0 -0.0066299647367117813 -0.0038920295161701075 0 -0.0065767026919096938 -0.0040976381194109072 0 -0.005518902903979982 -0.0042152563081488794 0 -0.0065767026919096938 -0.0040976381194109072 0 -0.0062468042380481575 -0.0041018824432530535 0 -0.0032311756092309094 -0.0054189076292411025 0 -0.0039927737627406456 -0.0050302126877723365 0 -0.0028735540284332457 -0.0045956016854877156 0 -0.0038174166587058326 -0.0042713201190944412 0 -0.0039927737627406456 -0.0050302126877723365 0 -0.0028735540284332457 -0.0045956016854877156 0 -0.0018657743849495316 -0.0042900302085354123 0 -0.0028735540284332457 -0.0045956016854877156 0 -0.0023569837244778523 -0.0049650571331771387 0 -0.0026917213794026701 -0.0054543340966388132 0 -0.0032311756092309094 -0.0054189076292411025 0 -0.0023569837244778523 -0.0049650571331771387 0 -0.0032311756092309094 -0.0054189076292411025 0 -0.0028735540284332457 -0.0045956016854877156 0 -0.0023569837244778523 -0.0049650571331771387 0 -0.0058757907226061317 -0.0041177133818310809 0 -0.00614903073309614 -0.0041798222861771052 0 -0.0064353845004019748 -0.0038417177516815808 0 -0.0058757907226061317 -0.0041177133818310809 0 -0.0064353845004019748 -0.0038417177516815808 0 -0.005161621725402017 -0.002984589818631827 0 -0.0051396063568005489 -0.0038180132047239209 0 -0.0051171558440539326 -0.0029999503968274953 0 -0.0042686493517713449 -0.0037240820779784211 0 -0.0039636739582666596 -0.0039109590110936723 0 -0.0039516103729770984 -0.0035688001067443005 0 -0.0044236306506442984 -0.0037314166694498367 0 -0.0045217057563050134 -0.0034502617424666225 0 -0.005161621725402017 -0.002984589818631827 0 -0.0045217057563050134 -0.0034502617424666225 0 -0.0042686493517713449 -0.0037240820779784211 0 -0.0039516103729770984 -0.0035688001067443005 0 -0.0044236306506442984 -0.0037314166694498367 0 -0.0045217057563050134 -0.0034502617424666225 0 -0.0042686493517713449 -0.0037240820779784211 0 -0.0044236306506442984 -0.0037314166694498367 0 -0.0042686493517713449 -0.0037240820779784211 0 -0.0041319513318080368 -0.00389698237800222 0 -0.0042686493517713449 -0.0037240820779784211 0 -0.0039636739582666596 -0.0039109590110936723 0 -0.0041319513318080368 -0.00389698237800222 0 -0.0039502229342740702 -0.0040326539419997445 0 -0.0039636739582666596 -0.0039109590110936723 0 -0.0041319513318080368 -0.00389698237800222 0 -0.0040218502962138195 -0.004065824728781503 0 -0.0044236306506442984 -0.0037314166694498367 0 -0.0041319513318080368 -0.00389698237800222 0 -0.0039502229342740702 -0.0040326539419997445 0 -0.0040218502962138195 -0.004065824728781503 0 -0.0041319513318080368 -0.00389698237800222 0 -0.0062305521134438553 -0.0041951084697584018 0 -0.0058757907226061317 -0.0041177133818310809 0 -0.00614903073309614 -0.0041798222861771052 0 -0.0051504147723255697 -0.0042547077874206989 0 -0.0051396063568005489 -0.0038180132047239209 0 -0.0040218502962138195 -0.004065824728781503 0 -0.0040037040701180358 -0.0041494630538590847 0 -0.0044236306506442984 -0.0037314166694498367 0 -0.0061386216799851978 -0.0041898462686788948 0 -0.0061699904555853743 -0.0041880984349830586 0 -0.00614903073309614 -0.0041798222861771052 0 -0.0061699904555853743 -0.0041880984349830586 0 -0.00614903073309614 -0.0041798222861771052 0 -0.0063931182077968038 -0.0040047667437150625 0 -0.005518902903979982 -0.0042152563081488794 0 -0.0061699904555853743 -0.0041880984349830586 0 -0.0062468042380481575 -0.0041018824432530535 0 -0.0061699904555853743 -0.0041880984349830586 0 -0.0062468042380481575 -0.0041018824432530535 0 -0.0063931182077968038 -0.0040047667437150625 0 -0.0066299647367117813 -0.0038920295161701075 0 -0.0063931182077968038 -0.0040047667437150625 0 -0.0066437871320903178 -0.0038461951084686162 0 -0.0066299647367117813 -0.0038920295161701075 0 -0.0062468042380481575 -0.0041018824432530535 0 -0.0063931182077968038 -0.0040047667437150625 0 -0.00614903073309614 -0.0041798222861771052 0 -0.0063931182077968038 -0.0040047667437150625 0 -0.0064353845004019748 -0.0038417177516815808 0 -0.0063931182077968038 -0.0040047667437150625 0 -0.0064353845004019748 -0.0038417177516815808 0 -0.0066437871320903178 -0.0038461951084686162 0 -0.0064353845004019748 -0.0038417177516815808 0 -0.0068250476151335785 -0.0038072967679939418 0 -0.0071811839516057784 -0.0037712726874454673 0 -0.0068250476151335785 -0.0038072967679939418 0 -0.0066437871320903178 -0.0038461951084686162 0 -0.0069174588797495063 -0.0038298582351965777 0 -0.0064353845004019748 -0.0038417177516815808 0 -0.0068250476151335785 -0.0038072967679939418 0 -0.0066437871320903178 -0.0038461951084686162 0 -0.0066299647367117813 -0.0038920295161701075 0 -0.0066437871320903178 -0.0038461951084686162 0 -0.0069174588797495063 -0.0038298582351965777 0 -0.0069174588797495063 -0.0038298582351965777 0 -0.0071303491033551962 -0.003889473874934555 0 -0.0071841011233097374 -0.0038612355019608251 0 -0.0070174426082685037 -0.0038779392801530093 0 -0.0069174588797495063 -0.0038298582351965777 0 -0.0071303491033551962 -0.003889473874934555 0 -0.0068250476151335785 -0.0038072967679939418 0 -0.0069174588797495063 -0.0038298582351965777 0 -0.0070326870037493161 -0.0038073509924305858 0 -0.0069174588797495063 -0.0038298582351965777 0 -0.0070326870037493161 -0.0038073509924305858 0 -0.0071634229103737504 -0.0038306382854798164 0 -0.0069174588797495063 -0.0038298582351965777 0 -0.0071634229103737504 -0.0038306382854798164 0 -0.0071841011233097374 -0.0038612355019608251 0 -0.0068250476151335785 -0.0038072967679939418 0 -0.0070326870037493161 -0.0038073509924305858 0 -0.0071811839516057784 -0.0037712726874454673 0 -0.0070326870037493161 -0.0038073509924305858 0 -0.0071634229103737504 -0.0038306382854798164 0 -0.007219747568553341 -0.0038183139494824886 0 -0.007219747568553341 -0.0038183139494824886 0 -0.0071811839516057784 -0.0037712726874454673 0 -0.0073189543871854425 -0.0038074909959183853 0 -0.0071811839516057784 -0.0037712726874454673 0 -0.0073189543871854425 -0.0038074909959183853 0 -0.0074027189691138915 -0.0038059865412540736 0 -0.0055723848810818313 -0.0026879535039365083 0 -0.0053314588650218205 -0.0026803147083765905 0 -0.0054866281458362046 -0.0024266805750831942 0 -0.0055723848810818313 -0.0026879535039365083 0 -0.005161621725402017 -0.002984589818631827 0 -0.0053314588650218205 -0.0026803147083765905 0 -0.0070326870037493161 -0.0038073509924305858 0 -0.007219747568553341 -0.0038183139494824886 0 -0.0071811839516057784 -0.0037712726874454673 0 -0.0064785173973488392 -0.0038431271883189733 0 -0.0063938624403888766 -0.0032495872601568982 0 -0.0064353845004019748 -0.0038417177516815808 0 -0.0055723848810818313 -0.0026879535039365083 0 -0.005161621725402017 -0.002984589818631827 0 -0.0045217057563050134 -0.0034502617424666225 0 -0.005161621725402017 -0.002984589818631827 0 -0.0046878291011573014 -0.0027607031344593462 0 -0.0045217057563050134 -0.0034502617424666225 0 -0.0046878291011573014 -0.0027607031344593462 0 -0.0039516103729770984 -0.0035688001067443005 0 -0.0046878291011573014 -0.0027607031344593462 0 -0.0054866281458362046 -0.0024266805750831942 0 -0.0059578200066893209 -0.0020476908715170755 0 -0.0055723848810818313 -0.0026879535039365083 0 -0.0054866281458362046 -0.0024266805750831942 0 -0.0058433475302127613 -0.0020464472770498313 0 -0.005161621725402017 -0.002984589818631827 0 -0.0046878291011573014 -0.0027607031344593462 0 -0.0053314588650218205 -0.0026803147083765905 0 -0.0046878291011573014 -0.0027607031344593462 0 -0.0053314588650218205 -0.0026803147083765905 0 -0.0054866281458362046 -0.0024266805750831942 0 -0.006733201041632361 -0.00069711414378511184 0 -0.0066187471191708602 -0.0015674725326898491 0 -0.0059578200066893209 -0.0020476908715170755 0 -0.005711979882898564 -0.0017803570015173416 0 -0.0058828064241270182 -0.0020843002414260136 0 -0.0066187471191708602 -0.0015674725326898491 0 -0.0066190678236937991 -0.0019557063193535967 0 -0.0059578200066893209 -0.0020476908715170755 0 -0.0066187471191708602 -0.0015674725326898491 0 -0.0066190678236937991 -0.0019557063193535967 0 -0.0069254108174704862 -0.0018173169749125544 0 -0.0066190678236937991 -0.0019557063193535967 0 -0.0059578200066893209 -0.0020476908715170755 0 -0.0069551474441829301 -0.002317189154424595 0 -0.0054866281458362046 -0.0024266805750831942 0 -0.0059578200066893209 -0.0020476908715170755 0 -0.0058433475302127613 -0.0020464472770498313 0 -0.0075381783674214851 -0.0038074734753044169 0 -0.0074027189691138915 -0.0038059865412540736 0 -0.0074857256519660379 -0.0038060976936273817 0 -0.0075381783674214851 -0.0038074734753044169 0 -0.0074857256519660379 -0.0038060976936273817 0 -0.0075132985747917817 -0.0037979517828156542 0 -0.0063938624403888766 -0.0032495872601568982 0 -0.0067287963437010559 -0.0029178700325343671 0 -0.0071811839516057784 -0.0037712726874454673 0 -0.0075381783674214851 -0.0038074734753044169 0 -0.0074027189691138915 -0.0038059865412540736 0 -0.0073189543871854425 -0.0038074909959183853 0 -0.0074027189691138915 -0.0038059865412540736 0 -0.0074230620752270956 -0.0038134467678403753 0 -0.0073189543871854425 -0.0038074909959183853 0 -0.0073181836086201445 -0.0038189271125406775 0 -0.0074230620752270956 -0.0038134467678403753 0 -0.0073181836086201445 -0.0038189271125406775 0 -0.0074230620752270956 -0.0038134467678403753 0 -0.0073103773942589578 -0.0038330599384303623 0 -0.007219747568553341 -0.0038183139494824886 0 -0.0073181836086201445 -0.0038189271125406775 0 -0.0073103773942589578 -0.0038330599384303623 0 -0.007219747568553341 -0.0038183139494824886 0 -0.0073189543871854425 -0.0038074909959183853 0 -0.0073181836086201445 -0.0038189271125406775 0 -0.0074483306996044277 -0.0038179497139939848 0 -0.0074230620752270956 -0.0038134467678403753 0 -0.0073103773942589578 -0.0038330599384303623 0 -0.0074483306996044277 -0.0038179497139939848 0 -0.0074230620752270956 -0.0038134467678403753 0 -0.0075132985747917817 -0.0037979517828156542 0 -0.0074027189691138915 -0.0038059865412540736 0 -0.0074636270179871938 -0.0038073385408782935 0 -0.0074857256519660379 -0.0038060976936273817 0 -0.0074027189691138915 -0.0038059865412540736 0 -0.0074636270179871938 -0.0038073385408782935 0 -0.0074230620752270956 -0.0038134467678403753 0 -0.0074636270179871938 -0.0038073385408782935 0 -0.0074230620752270956 -0.0038134467678403753 0 -0.0075132985747917817 -0.0037979517828156542 0 -0.0074636270179871938 -0.0038073385408782935 0 -0.0074857256519660379 -0.0038060976936273817 0 -0.0075132985747917817 -0.0037979517828156542 0 -0.0074483306996044277 -0.0038179497139939848 0 -0.0075132985747917817 -0.0037979517828156542 0 -0.0075498430698170398 -0.0037856963807555272 0 -0.0075132985747917817 -0.0037979517828156542 0 -0.0075498430698170398 -0.0037856963807555272 0 -0.0076431296102968194 -0.003709992173395453 0 -0.0074483306996044277 -0.0038179497139939848 0 -0.0075498430698170398 -0.0037856963807555272 0 -0.0074861689621675736 -0.0038328379584345314 0 -0.0075498430698170398 -0.0037856963807555272 0 -0.0074861689621675736 -0.0038328379584345314 0 -0.0076377884556597655 -0.0037762594294046921 0 -0.0075498430698170398 -0.0037856963807555272 0 -0.0076431296102968194 -0.003709992173395453 0 -0.0076377884556597655 -0.0037762594294046921 0 -0.0067287963437010559 -0.0029178700325343671 0 -0.0075951689609046087 -0.0034121139038048192 0 -0.0059578200066893209 -0.0020476908715170755 0 -0.0069551474441829301 -0.002317189154424595 0 -0.0077485246957094776 -0.0034352909820885209 0 -0.0075381783674214851 -0.0038074734753044169 0 -0.0076431296102968194 -0.003709992173395453 0 -0.0077485246957094776 -0.0034352909820885209 0 -0.0059578200066893209 -0.0020476908715170755 0 -0.0058433475302127613 -0.0020464472770498313 0 -0.0077485246957094776 -0.0034352909820885209 0 -0.0075381783674214851 -0.0038074734753044169 0 -0.0075132985747917817 -0.0037979517828156542 0 -0.0076431296102968194 -0.003709992173395453 0 -0.0071643059519932361 -0.0039870868384001478 0 -0.0072846642543896393 -0.0039192718736802074 0 -0.0071303491033551962 -0.003889473874934555 0 -0.0072846642543896393 -0.0039192718736802074 0 -0.0071303491033551962 -0.003889473874934555 0 -0.0071841011233097374 -0.0038612355019608251 0 -0.0072846642543896393 -0.0039192718736802074 0 -0.0073332112203731573 -0.0038645531962044283 0 -0.0071841011233097374 -0.0038612355019608251 0 -0.0073332112203731573 -0.0038645531962044283 0 -0.0071841011233097374 -0.0038612355019608251 0 -0.0073103773942589578 -0.0038330599384303623 0 -0.0071634229103737504 -0.0038306382854798164 0 -0.007219747568553341 -0.0038183139494824886 0 -0.0073103773942589578 -0.0038330599384303623 0 -0.0071634229103737504 -0.0038306382854798164 0 -0.0071841011233097374 -0.0038612355019608251 0 -0.0073103773942589578 -0.0038330599384303623 0 -0.0074483306996044277 -0.0038179497139939848 0 -0.0073103773942589578 -0.0038330599384303623 0 -0.0073934068563870142 -0.003837476872191695 0 -0.0073332112203731573 -0.0038645531962044283 0 -0.0073103773942589578 -0.0038330599384303623 0 -0.0073934068563870142 -0.003837476872191695 0 -0.0073332112203731573 -0.0038645531962044283 0 -0.0073934068563870142 -0.003837476872191695 0 -0.0074861689621675736 -0.0038328379584345314 0 -0.0074483306996044277 -0.0038179497139939848 0 -0.0073934068563870142 -0.003837476872191695 0 -0.0074861689621675736 -0.0038328379584345314 0 -0.0074861689621675736 -0.0038328379584345314 0 -0.0076002426577525617 -0.0038591018752241915 0 -0.0076377884556597655 -0.0037762594294046921 0 -0.0074861689621675736 -0.0038328379584345314 0 -0.0074493755553076508 -0.0038954755671980969 0 -0.0076002426577525617 -0.0038591018752241915 0 -0.0073332112203731573 -0.0038645531962044283 0 -0.0074861689621675736 -0.0038328379584345314 0 -0.0074493755553076508 -0.0038954755671980969 0 -0.0072846642543896393 -0.0039192718736802074 0 -0.0073332112203731573 -0.0038645531962044283 0 -0.0074493755553076508 -0.0038954755671980969 0 -0.0072846642543896393 -0.0039192718736802074 0 -0.0074493755553076508 -0.0038954755671980969 0 -0.0074314791879471062 -0.0039663174680918487 0 -0.0075738973917277314 -0.0040676342736238333 0 -0.0074314791879471062 -0.0039663174680918487 0 -0.0076257961614216527 -0.0039537805586668693 0 -0.0074493755553076508 -0.0038954755671980969 0 -0.0074314791879471062 -0.0039663174680918487 0 -0.0076257961614216527 -0.0039537805586668693 0 -0.0076257961614216527 -0.0039537805586668693 0 -0.0076002426577525617 -0.0038591018752241915 0 -0.0077490043969028685 -0.0038400356078568563 0 -0.0074493755553076508 -0.0038954755671980969 0 -0.0076257961614216527 -0.0039537805586668693 0 -0.0076002426577525617 -0.0038591018752241915 0 -0.0076257961614216527 -0.0039537805586668693 0 -0.0077490043969028685 -0.0038400356078568563 0 -0.0078413284411220831 -0.0040096119615467465 0 -0.0075738973917277314 -0.0040676342736238333 0 -0.0076257961614216527 -0.0039537805586668693 0 -0.0077260190113006642 -0.0041141067541244332 0 -0.0076257961614216527 -0.0039537805586668693 0 -0.0078413284411220831 -0.0040096119615467465 0 -0.0077260190113006642 -0.0041141067541244332 0 -0.008046338449427589 -0.0038743253221400669 0 -0.0085095681646086795 -0.0039741190310783577 0 -0.0077485246957094776 -0.0034352909820885209 0 -0.0076431296102968194 -0.003709992173395453 0 -0.0077784527970313731 -0.00369358828727364 0 -0.0077485246957094776 -0.0034352909820885209 0 -0.0077784527970313731 -0.00369358828727364 0 -0.008046338449427589 -0.0038743253221400669 0 -0.0077485246957094776 -0.0034352909820885209 0 -0.0076431296102968194 -0.003709992173395453 0 -0.0076377884556597655 -0.0037762594294046921 0 -0.0077784527970313731 -0.00369358828727364 0 -0.0076002426577525617 -0.0038591018752241915 0 -0.0076377884556597655 -0.0037762594294046921 0 -0.0077490043969028685 -0.0038400356078568563 0 -0.0076377884556597655 -0.0037762594294046921 0 -0.0077490043969028685 -0.0038400356078568563 0 -0.0077784527970313731 -0.00369358828727364 0 -0.0077490043969028685 -0.0038400356078568563 0 -0.0077784527970313731 -0.00369358828727364 0 -0.008046338449427589 -0.0038743253221400669 0 -0.0077490043969028685 -0.0038400356078568563 0 -0.008046338449427589 -0.0038743253221400669 0 -0.0078413284411220831 -0.0040096119615467465 0 -0.008046338449427589 -0.0038743253221400669 0 -0.0085095681646086795 -0.0039741190310783577 0 -0.0083109976210276604 -0.0042026273885147477 0 -0.008046338449427589 -0.0038743253221400669 0 -0.0080190420108285608 -0.00417898359777871 0 -0.0078413284411220831 -0.0040096119615467465 0 -0.008046338449427589 -0.0038743253221400669 0 -0.0083109976210276604 -0.0042026273885147477 0 -0.0080190420108285608 -0.00417898359777871 0 -0.0083109976210276604 -0.0042026273885147477 0 -0.0081460119369111336 -0.0044439464033278597 0 -0.0080190420108285608 -0.00417898359777871 0 -0.0085095681646086795 -0.0039741190310783577 0 -0.0083109976210276604 -0.0042026273885147477 0 -0.0088556093544703302 -0.0044627224180891567 0 -0.0083109976210276604 -0.0042026273885147477 0 -0.0088556093544703302 -0.0044627224180891567 0 -0.0083513258138595056 -0.0045287622096730502 0 -0.0088556093544703302 -0.0044627224180891567 0 -0.0083513258138595056 -0.0045287622096730502 0 -0.0083023163594779618 -0.0047606116063995448 0 -0.0083109976210276604 -0.0042026273885147477 0 -0.0083513258138595056 -0.0045287622096730502 0 -0.0081460119369111336 -0.0044439464033278597 0 -0.0083513258138595056 -0.0045287622096730502 0 -0.0081807171276493187 -0.0046183648685830091 0 -0.0081460119369111336 -0.0044439464033278597 0 -0.0083513258138595056 -0.0045287622096730502 0 -0.0083023163594779618 -0.0047606116063995448 0 -0.0081807171276493187 -0.0046183648685830091 0 -0.0083023163594779618 -0.0047606116063995448 0 -0.0081807171276493187 -0.0046183648685830091 0 -0.0081880182995041195 -0.0046852056155053581 0 -0.0089495258905281736 -0.004398247259880029 0 -0.0084419528789494869 -0.004968147417489523 0 -0.0088556093544703302 -0.0044627224180891567 0 -0.0090591384661280715 -0.0050524424658961635 0 -0.0094450827972899359 -0.0049175710028336551 0 -0.0080785539565898495 -0.0045076176599650099 0 -0.008075640883058767 -0.004510764490759424 0 -0.0081525008523699281 -0.0046199436592966048 0 -0.008075640883058767 -0.004510764490759424 0 -0.0082233379117269568 -0.0045775677534694035 0 -0.0081525008523699281 -0.0046199436592966048 0 -0.0081807171276493187 -0.0046183648685830091 0 -0.0081880182995041195 -0.0046852056155053581 0 -0.0081525008523699281 -0.0046199436592966048 0 -0.0081807171276493187 -0.0046183648685830091 0 -0.0080785539565898495 -0.0045076176599650099 0 -0.0081525008523699281 -0.0046199436592966048 0 -0.0081807171276493187 -0.0046183648685830091 0 -0.0080785539565898495 -0.0045076176599650099 0 -0.0081460119369111336 -0.0044439464033278597 0 -0.0080785539565898495 -0.0045076176599650099 0 -0.0081460119369111336 -0.0044439464033278597 0 -0.0080094412915119335 -0.0043551854709440816 0 -0.0080785539565898495 -0.0045076176599650099 0 -0.0079640059614082426 -0.0043855628797207441 0 -0.0080094412915119335 -0.0043551854709440816 0 -0.0080785539565898495 -0.0045076176599650099 0 -0.0079640059614082426 -0.0043855628797207441 0 -0.008075640883058767 -0.004510764490759424 0 -0.0079640059614082426 -0.0043855628797207441 0 -0.007888578345838837 -0.0042389566660692088 0 -0.0080094412915119335 -0.0043551854709440816 0 -0.0079640059614082426 -0.0043855628797207441 0 -0.007888578345838837 -0.0042389566660692088 0 -0.0078223805735016787 -0.004265836612278303 0 -0.0081460119369111336 -0.0044439464033278597 0 -0.0080190420108285608 -0.00417898359777871 0 -0.0080094412915119335 -0.0043551854709440816 0 -0.007888578345838837 -0.0042389566660692088 0 -0.0080190420108285608 -0.00417898359777871 0 -0.0080094412915119335 -0.0043551854709440816 0 -0.007888578345838837 -0.0042389566660692088 0 -0.0080190420108285608 -0.00417898359777871 0 -0.0078413284411220831 -0.0040096119615467465 0 -0.007888578345838837 -0.0042389566660692088 0 -0.0077260190113006642 -0.0041141067541244332 0 -0.0078223805735016787 -0.004265836612278303 0 -0.007888578345838837 -0.0042389566660692088 0 -0.0078413284411220831 -0.0040096119615467465 0 -0.0077260190113006642 -0.0041141067541244332 0 -0.0076700042832653619 -0.0041807725564145552 0 -0.007780860313982855 -0.0042857512145397002 0 -0.0078223805735016787 -0.004265836612278303 0 -0.0077260190113006642 -0.0041141067541244332 0 -0.0076700042832653619 -0.0041807725564145552 0 -0.0078223805735016787 -0.004265836612278303 0 -0.0076700042832653619 -0.0041807725564145552 0 -0.007780860313982855 -0.0042857512145397002 0 -0.0076392658719345603 -0.0042303680592503485 0 -0.007780860313982855 -0.0042857512145397002 0 -0.0076392658719345603 -0.0042303680592503485 0 -0.0077304374290219904 -0.0042909199905548229 0 -0.007780860313982855 -0.0042857512145397002 0 -0.0079464956919001063 -0.004397651402341946 0 -0.0079143616297076662 -0.0043782215516036012 0 -0.007780860313982855 -0.0042857512145397002 0 -0.0077304374290219904 -0.0042909199905548229 0 -0.0079143616297076662 -0.0043782215516036012 0 -0.0079640059614082426 -0.0043855628797207441 0 -0.0078223805735016787 -0.004265836612278303 0 -0.0079464956919001063 -0.004397651402341946 0 -0.007780860313982855 -0.0042857512145397002 0 -0.0078223805735016787 -0.004265836612278303 0 -0.0079464956919001063 -0.004397651402341946 0 -0.0075131206238308341 -0.0042921675668437234 0 -0.0076004177473699211 -0.0042732558356013643 0 -0.0076620116682109144 -0.0042854458253368958 0 -0.0076004177473699211 -0.0042732558356013643 0 -0.0077117316886447761 -0.0042973936290901212 0 -0.0076620116682109144 -0.0042854458253368958 0 -0.0076004177473699211 -0.0042732558356013643 0 -0.0076392658719345603 -0.0042303680592503485 0 -0.0077304374290219904 -0.0042909199905548229 0 -0.0076004177473699211 -0.0042732558356013643 0 -0.0077117316886447761 -0.0042973936290901212 0 -0.0077304374290219904 -0.0042909199905548229 0 -0.0077304374290219904 -0.0042909199905548229 0 -0.00786885380257169 -0.0043564564830340137 0 -0.0079143616297076662 -0.0043782215516036012 0 -0.0077117316886447761 -0.0042973936290901212 0 -0.0077304374290219904 -0.0042909199905548229 0 -0.00786885380257169 -0.0043564564830340137 0 -0.0077117316886447761 -0.0042973936290901212 0 -0.00786885380257169 -0.0043564564830340137 0 -0.0078024884622393664 -0.0043229047953849027 0 -0.0077117316886447761 -0.0042973936290901212 0 -0.0078024884622393664 -0.0043229047953849027 0 -0.0076620116682109144 -0.0042854458253368958 0 -0.00786885380257169 -0.0043564564830340137 0 -0.0079261372956703664 -0.004370537102558622 0 -0.0080095941933676761 -0.0044175371654670567 0 -0.0079261372956703664 -0.004370537102558622 0 -0.0080095941933676761 -0.0044175371654670567 0 -0.0080386572508908891 -0.0044186141235000162 0 -0.0078024884622393664 -0.0043229047953849027 0 -0.0079261372956703664 -0.004370537102558622 0 -0.0078632507853069241 -0.0043366928944888125 0 -0.00786885380257169 -0.0043564564830340137 0 -0.0078024884622393664 -0.0043229047953849027 0 -0.0079261372956703664 -0.004370537102558622 0 -0.00786885380257169 -0.0043564564830340137 0 -0.0080095941933676761 -0.0044175371654670567 0 -0.0080449061382293803 -0.0044401062817713121 0 -0.00786885380257169 -0.0043564564830340137 0 -0.0080449061382293803 -0.0044401062817713121 0 -0.0079143616297076662 -0.0043782215516036012 0 -0.0080449061382293803 -0.0044401062817713121 0 -0.0081429654578233576 -0.004484636231627771 0 -0.0081790248873534789 -0.0044938567146042951 0 -0.0080095941933676761 -0.0044175371654670567 0 -0.0080449061382293803 -0.0044401062817713121 0 -0.0081429654578233576 -0.004484636231627771 0 -0.0081429654578233576 -0.004484636231627771 0 -0.0081413571313081277 -0.0044833969999037333 0 -0.0080386572508908891 -0.0044186141235000162 0 -0.0080095941933676761 -0.0044175371654670567 0 -0.0081429654578233576 -0.004484636231627771 0 -0.0080386572508908891 -0.0044186141235000162 0 -0.0079464956919001063 -0.004397651402341946 0 -0.0080987152235328253 -0.0044839502947849651 0 -0.008075640883058767 -0.004510764490759424 0 -0.0079640059614082426 -0.0043855628797207441 0 -0.0079464956919001063 -0.004397651402341946 0 -0.008075640883058767 -0.004510764490759424 0 -0.0080449061382293803 -0.0044401062817713121 0 -0.0079143616297076662 -0.0043782215516036012 0 -0.0080987152235328253 -0.0044839502947849651 0 -0.0079464956919001063 -0.004397651402341946 0 -0.0079143616297076662 -0.0043782215516036012 0 -0.0080987152235328253 -0.0044839502947849651 0 -0.0080987152235328253 -0.0044839502947849651 0 -0.0082838440672745317 -0.0045314019802091708 0 -0.0081790248873534789 -0.0044938567146042951 0 -0.0080449061382293803 -0.0044401062817713121 0 -0.0080987152235328253 -0.0044839502947849651 0 -0.0081790248873534789 -0.0044938567146042951 0 -0.0080987152235328253 -0.0044839502947849651 0 -0.0082233379117269568 -0.0045775677534694035 0 -0.0082838440672745317 -0.0045314019802091708 0 -0.0080987152235328253 -0.0044839502947849651 0 -0.008075640883058767 -0.004510764490759424 0 -0.0082233379117269568 -0.0045775677534694035 0 -0.0082233379117269568 -0.0045775677534694035 0 -0.0085623546565687242 -0.0045634105021101516 0 -0.0082383934462601661 -0.0046093845658728115 0 -0.0082233379117269568 -0.0045775677534694035 0 -0.0082838440672745317 -0.0045314019802091708 0 -0.0085623546565687242 -0.0045634105021101516 0 -0.0082838440672745317 -0.0045314019802091708 0 -0.0085623546565687242 -0.0045634105021101516 0 -0.0083082617872390387 -0.0045439066597889547 0 -0.0085623546565687242 -0.0045634105021101516 0 -0.0083082617872390387 -0.0045439066597889547 0 -0.0085097078309541024 -0.0047270243878693892 0 -0.0083829208857306783 -0.004568245293761518 0 -0.0093451323483367005 -0.0043585584483337245 0 -0.0085623546565687242 -0.0045634105021101516 0 -0.0082383934462601661 -0.0046093845658728115 0 -0.0082443057792330569 -0.0045591868875592767 0 -0.0085623546565687242 -0.0045634105021101516 0 -0.0082677126706854152 -0.0044389836818734887 0 -0.0082443057792330569 -0.0045591868875592767 0 -0.0081429654578233576 -0.004484636231627771 0 -0.0082444580458678456 -0.0045473287996443878 0 -0.0082189748005418919 -0.0045536080177506991 0 -0.0081429654578233576 -0.004484636231627771 0 -0.0083082617872390387 -0.0045439066597889547 0 -0.0082444580458678456 -0.0045473287996443878 0 -0.0081429654578233576 -0.004484636231627771 0 -0.0081413571313081277 -0.0044833969999037333 0 -0.0082189748005418919 -0.0045536080177506991 0 -0.0081429654578233576 -0.004484636231627771 0 -0.0081790248873534789 -0.0044938567146042951 0 -0.0083082617872390387 -0.0045439066597889547 0 -0.0082838440672745317 -0.0045314019802091708 0 -0.0081790248873534789 -0.0044938567146042951 0 -0.0083082617872390387 -0.0045439066597889547 0 -0.0083082617872390387 -0.0045439066597889547 0 -0.0083551427739045683 -0.0046358467206445188 0 -0.0082444580458678456 -0.0045473287996443878 0 -0.0083082617872390387 -0.0045439066597889547 0 -0.0083551427739045683 -0.0046358467206445188 0 -0.0085097078309541024 -0.0047270243878693892 0 -0.0082444580458678456 -0.0045473287996443878 0 -0.0083705741382414135 -0.0047528704247247512 0 -0.0083117970804789474 -0.0044871913994270849 0 -0.0083551427739045683 -0.0046358467206445188 0 -0.0082444580458678456 -0.0045473287996443878 0 -0.0083705741382414135 -0.0047528704247247512 0 -0.04671255393399306 -0.005301862723519981 0 -0.047222957962785361 -0.004651510442286697 0 -0.047480915781440688 -0.0049958657471163006 0 -0.0083705741382414135 -0.0047528704247247512 0 -0.0085097078309541024 -0.0047270243878693892 0 -0.0085632674913134754 -0.0051480427925136331 0 -0.0083551427739045683 -0.0046358467206445188 0 -0.0083705741382414135 -0.0047528704247247512 0 -0.0085097078309541024 -0.0047270243878693892 0 -0.033267243436022116 -0.0049071771963902786 0 -0.050119234255193441 -0.0039684512010664556 0 -0.026107583633553137 -0.0046384735689459465 0 -0.033267243436022116 -0.0049071771963902786 0 -0.04671255393399306 -0.005301862723519981 0 -0.045073085466420602 -0.0049613388737875042 0 -0.046539403699020668 -0.0046420437459897138 0 -0.045437819784709399 -0.0062999113475967101 0 -0.046539403699020668 -0.0046420437459897138 0 -0.044905525519176703 -0.004483420714064627 0 -0.04671255393399306 -0.005301862723519981 0 -0.046539403699020668 -0.0046420437459897138 0 -0.047222957962785361 -0.004651510442286697 0 -0.046539403699020668 -0.0046420437459897138 0 -0.047222957962785361 -0.004651510442286697 0 -0.047440067788191723 -0.0039016466851745559 0 -0.0085623546565687242 -0.0045634105021101516 0 -0.008703987949938161 -0.0047361659159322637 0 -0.0091733838046657527 -0.0047530371091065102 0 -0.0090078117687368252 -0.0049612193715960649 0 -0.0095626416079368712 -0.0051264824063405184 0 -0.010626799141477145 -0.0041854684482468636 0 -0.008703987949938161 -0.0047361659159322637 0 -0.0090078117687368252 -0.0049612193715960649 0 -0.0091733838046657527 -0.0047530371091065102 0 -0.0092420336594953093 -0.0049076734109460944 0 -0.0093451323483367005 -0.0043585584483337245 0 -0.0085097078309541024 -0.0047270243878693892 0 -0.0085632674913134754 -0.0051480427925136331 0 -0.0086947641040238076 -0.0048743492694647561 0 -0.0085623546565687242 -0.0045634105021101516 0 -0.0085097078309541024 -0.0047270243878693892 0 -0.008703987949938161 -0.0047361659159322637 0 -0.0085097078309541024 -0.0047270243878693892 0 -0.008703987949938161 -0.0047361659159322637 0 -0.0086947641040238076 -0.0048743492694647561 0 -0.008703987949938161 -0.0047361659159322637 0 -0.0086947641040238076 -0.0048743492694647561 0 -0.0090078117687368252 -0.0049612193715960649 0 -0.0085632674913134754 -0.0051480427925136331 0 -0.0090078117687368252 -0.0049612193715960649 0 -0.0095626416079368712 -0.0051264824063405184 0 -0.033267243436022116 -0.0049071771963902786 0 -0.023028307261794313 -0.0078790060704488057 0 -0.045565819760867557 -0.0061190537663181549 0 -0.042004417568909123 -0.007000956853689619 0 -0.038535150098456844 -0.0098085047218765247 0 -0.0085632674913134754 -0.0051480427925136331 0 -0.0086947641040238076 -0.0048743492694647561 0 -0.0090078117687368252 -0.0049612193715960649 0 -0.033267243436022116 -0.0049071771963902786 0 -0.045779952787526675 -0.0074627750813067032 0 -0.045565819760867557 -0.0061190537663181549 0 -0.042004417568909123 -0.007000956853689619 0 -0.04262822612488993 -0.0053980118641874788 0 -0.042317880255489056 -0.0068239891302027816 0 -0.033757775133812791 -0.0048634244505851455 0 -0.042004417568909123 -0.007000956853689619 0 -0.038535150098456844 -0.0098085047218765247 0 -0.03081315327822743 -0.003424315436271592 0 -0.01965862064496738 -0.0079103915764211878 0 -0.033757775133812791 -0.0048634244505851455 0 -0.038535150098456844 -0.0098085047218765247 0 -0.03129826944912939 -0.0095208180405614747 0 -0.03081315327822743 -0.003424315436271592 0 -0.038535150098456844 -0.0098085047218765247 0 -0.03129826944912939 -0.0095208180405614747 0 -0.027965609627226357 -0.013510019194009267 0 -0.03129826944912939 -0.0095208180405614747 0 -0.025820779885133496 -0.012329471703994061 0 -0.03081315327822743 -0.003424315436271592 0 -0.0095626416079368712 -0.0051264824063405184 0 -0.010626799141477145 -0.0041854684482468636 0 -0.011651264084453538 -0.0047732830506090652 0 -0.023028307261794313 -0.0078790060704488057 0 -0.01775975675765052 -0.0068974874069809037 0 -0.0093451323483367005 -0.0043585584483337245 0 -0.01775975675765052 -0.0068974874069809037 0 -0.03129826944912939 -0.0095208180405614747 0 -0.027965609627226357 -0.013510019194009267 0 -0.025820779885133496 -0.012329471703994061 0 -0.0093451323483367005 -0.0043585584483337245 0 -0.0096667549969769121 -0.0045839565752290772 0 -0.010691096461845689 -0.004798900587540407 0 -0.011094440750007496 -0.0050265106512371663 0 -0.01117650200984212 -0.0045836612195851506 0 -0.012546603317729613 -0.0048032962050420557 0 -0.012468931537747101 -0.0048214195427359989 0 -0.012405139506028964 -0.0050751704127915574 0 -0.01499025197750012 -0.0066237348678119144 0 -0.010201897131135836 -0.0048133316052911754 0 -0.012579325047120959 -0.0047533111861318778 0 -0.012468931537747101 -0.0048214195427359989 0 -0.012334258725901942 -0.0047636465806714726 0 -0.011330802459924603 -0.0049637969451759734 0 -0.011094440750007496 -0.0050265106512371663 0 -0.01117650200984212 -0.0045836612195851506 0 -0.01499025197750012 -0.0066237348678119144 0 -0.01775975675765052 -0.0068974874069809037 0 -0.01775975675765052 -0.0068974874069809037 0 -0.01965862064496738 -0.0079103915764211878 0 -0.01499025197750012 -0.0066237348678119144 0 -0.01965862064496738 -0.0079103915764211878 0 -0.016675316620073929 -0.0074647680915266102 0 -0.018055618281993549 -0.0070856178248824781 0 -0.017140616746505501 -0.0065695568365785788 0 -0.012548207252635182 -0.0048091827245740253 0 -0.012579325047120959 -0.0047533111861318778 0 -0.012468931537747101 -0.0048214195427359989 0 -0.01499025197750012 -0.0066237348678119144 0 -0.013616686304786303 -0.0063925311418632554 0 -0.025157706575068869 -0.010062394523899995 0 -0.024076188349669198 -0.0060425357663224551 0 -0.018891813885129349 -0.0071574657737718036 0 -0.01965862064496738 -0.0079103915764211878 0 -0.015359914889647984 -0.0057640966505198236 0 -0.025157706575068869 -0.010062394523899995 0 -0.024076188349669198 -0.0060425357663224551 0 -0.028312274401086576 -0.0040629441084527292 0 -0.012579325047120959 -0.0047533111861318778 0 -0.012306408248197689 -0.004676745070861515 0 -0.012334258725901942 -0.0047636465806714726 0 -0.012306408248197689 -0.004676745070861515 0 -0.012277937603480235 -0.0046910182076568283 0 -0.012334258725901942 -0.0047636465806714726 0 -0.012306408248197689 -0.004676745070861515 0 -0.012277937603480235 -0.0046910182076568283 0 -0.01274687419472964 -0.00451214634349178 0 -0.012277937603480235 -0.0046910182076568283 0 -0.012258814105965719 -0.0047126989573331463 0 -0.01274687419472964 -0.00451214634349178 0 -0.012258814105965719 -0.0047126989573331463 0 -0.012089365346350887 -0.0047755948668223398 0 -0.012040938205296019 -0.0047841874128935402 0 -0.012277937603480235 -0.0046910182076568283 0 -0.012258814105965719 -0.0047126989573331463 0 -0.012089365346350887 -0.0047755948668223398 0 -0.012277937603480235 -0.0046910182076568283 0 -0.012089365346350887 -0.0047755948668223398 0 -0.012163516442612423 -0.004822053177054776 0 -0.012163516442612423 -0.004822053177054776 0 -0.011916287224037448 -0.004872870827700211 0 -0.0120594761680093 -0.0049692169533765949 0 -0.012089365346350887 -0.0047755948668223398 0 -0.012163516442612423 -0.004822053177054776 0 -0.011916287224037448 -0.004872870827700211 0 -0.012089365346350887 -0.0047755948668223398 0 -0.011916287224037448 -0.004872870827700211 0 -0.011838445479422081 -0.0048421421413960605 0 -0.012468931537747101 -0.0048214195427359989 0 -0.012289922132981267 -0.004882604017951514 0 -0.012405139506028964 -0.0050751704127915574 0 -0.012468931537747101 -0.0048214195427359989 0 -0.012334258725901942 -0.0047636465806714726 0 -0.012289922132981267 -0.004882604017951514 0 -0.012277937603480235 -0.0046910182076568283 0 -0.012163516442612423 -0.004822053177054776 0 -0.012334258725901942 -0.0047636465806714726 0 -0.012163516442612423 -0.004822053177054776 0 -0.012334258725901942 -0.0047636465806714726 0 -0.012289922132981267 -0.004882604017951514 0 -0.012163516442612423 -0.004822053177054776 0 -0.012289922132981267 -0.004882604017951514 0 -0.0120594761680093 -0.0049692169533765949 0 -0.012405139506028964 -0.0050751704127915574 0 -0.0120594761680093 -0.0049692169533765949 0 -0.011836903960838573 -0.0053033266227982883 0 -0.012289922132981267 -0.004882604017951514 0 -0.012405139506028964 -0.0050751704127915574 0 -0.0120594761680093 -0.0049692169533765949 0 -0.010201897131135836 -0.0048133316052911754 0 -0.010633111749200733 -0.005287151315860961 0 -0.011916287224037448 -0.004872870827700211 0 -0.011707166014085004 -0.0049930694142611811 0 -0.011566739701672516 -0.0049258168759444831 0 -0.011916287224037448 -0.004872870827700211 0 -0.0120594761680093 -0.0049692169533765949 0 -0.011707166014085004 -0.0049930694142611811 0 -0.0120594761680093 -0.0049692169533765949 0 -0.011707166014085004 -0.0049930694142611811 0 -0.011836903960838573 -0.0053033266227982883 0 -0.011707166014085004 -0.0049930694142611811 0 -0.011836903960838573 -0.0053033266227982883 0 -0.011256623822390321 -0.0050354634468592731 0 -0.0090591384661280715 -0.0050524424658961635 0 -0.0092086806589582893 -0.0053161771811063661 0 -0.0094450827972899359 -0.0049175710028336551 0 -0.0084419528789494869 -0.004968147417489523 0 -0.010201897131135836 -0.0048133316052911754 0 -0.0083023163594779618 -0.0047606116063995448 0 -0.0081497402827750663 -0.0046849819947045691 0 -0.0081880182995041195 -0.0046852056155053581 0 -0.0090591384661280715 -0.0050524424658961635 0 -0.0090489277326655237 -0.0052454819429192398 0 -0.0092086806589582893 -0.0053161771811063661 0 -0.0081880182995041195 -0.0046852056155053581 0 -0.0081525008523699281 -0.0046199436592966048 0 -0.0081835063672961329 -0.0046387777583349827 0 -0.0081497402827750663 -0.0046849819947045691 0 -0.0081880182995041195 -0.0046852056155053581 0 -0.0081835063672961329 -0.0046387777583349827 0 -0.0082233379117269568 -0.0045775677534694035 0 -0.0081525008523699281 -0.0046199436592966048 0 -0.0082383934462601661 -0.0046093845658728115 0 -0.0081525008523699281 -0.0046199436592966048 0 -0.0082383934462601661 -0.0046093845658728115 0 -0.0081835063672961329 -0.0046387777583349827 0 -0.0082383934462601661 -0.0046093845658728115 0 -0.0082443057792330569 -0.0045591868875592767 0 -0.0081835063672961329 -0.0046387777583349827 0 -0.0082677126706854152 -0.0044389836818734887 0 -0.0082443057792330569 -0.0045591868875592767 0 -0.0081794365379913251 -0.0045624919294444113 0 -0.0082443057792330569 -0.0045591868875592767 0 -0.0081794365379913251 -0.0045624919294444113 0 -0.0081835063672961329 -0.0046387777583349827 0 -0.011330802459924603 -0.0049637969451759734 0 -0.011616806807123401 -0.0043658587468652617 0 -0.01117650200984212 -0.0045836612195851506 0 -0.010201897131135836 -0.0048133316052911754 0 -0.0096667549969769121 -0.0045839565752290772 0 -0.0081497402827750663 -0.0046849819947045691 0 -0.0081794365379913251 -0.0045624919294444113 0 -0.0081835063672961329 -0.0046387777583349827 0 -0.023018170457544979 0.00067338317713715146 0 -0.023108219348986318 0.0010926420908627422 0 -0.022608950996291059 0.001100323444162639 0 -0.024026891237049982 0.0010270207689887514 0 -0.023819947722159222 0.0009150834873498416 0 -0.02387523949566845 0.0011131198007334239 0 -0.023819947722159222 0.0009150834873498416 0 -0.023634527483741345 0.00091946004896410109 0 -0.02387523949566845 0.0011131198007334239 0 -0.024026891237049982 0.0010270207689887514 0 -0.023819947722159222 0.0009150834873498416 0 -0.023739649986540271 0.0005851974713986923 0 -0.023819947722159222 0.0009150834873498416 0 -0.023739649986540271 0.0005851974713986923 0 -0.023634527483741345 0.00091946004896410109 0 -0.024026891237049982 0.0010270207689887514 0 -0.023739649986540271 0.0005851974713986923 0 -0.023918246323786432 0.00028443485557898951 0 -0.023566392146361293 0.0012147582678081858 0 -0.019768927060757124 7.7182832642991455e-05 0 -0.023739649986540271 0.0005851974713986923 0 -0.023918246323786432 0.00028443485557898951 0 -0.023561729216250157 0.00015888879463007974 0 -0.019768927060757124 7.7182832642991455e-05 0 -0.016057402063738881 -0.0024617552558936556 0 -0.018095905068996436 -0.0013444666027236998 0 -0.017781719628922072 0.00045588069353356422 0 -0.016695470286837114 -0.00084587994285068545 0 -0.017781719628922072 0.00045588069353356422 0 -0.015450993226242321 -0.00027181829691395377 0 -0.016695470286837114 -0.00084587994285068545 0 -0.020047142615280684 0.00049202875508251348 0 -0.019768927060757124 7.7182832642991455e-05 0 -0.023018170457544979 0.00067338317713715146 0 -0.022608950996291059 0.001100323444162639 0 -0.022498035504065726 0.0004647776189539444 0 -0.011462267286226938 -0.0033427301623373275 0 -0.011504574404589204 -0.0024146340573989594 0 -0.010557632633016215 -0.0025943962945633829 0 -0.018095905068996436 -0.0013444666027236998 0 -0.016695470286837114 -0.00084587994285068545 0 -0.015550066905898417 -0.001699273181397601 0 -0.01430413768074279 -0.0020152779545843887 0 -0.012352616071102303 -0.0023714814446834918 0 -0.016695470286837114 -0.00084587994285068545 0 -0.015550066905898417 -0.001699273181397601 0 -0.015799918809569286 -0.0010485552799939675 0 -0.015450993226242321 -0.00027181829691395377 0 -0.016695470286837114 -0.00084587994285068545 0 -0.015799918809569286 -0.0010485552799939675 0 -0.011462267286226938 -0.0033427301623373275 0 -0.010901428282735937 -0.0039028018195717607 0 -0.010632477865581889 -0.0033902458393279024 0 -0.010749885010534838 -0.0032924826655242492 0 -0.012352616071102303 -0.0023714814446834918 0 -0.011462267286226938 -0.0033427301623373275 0 -0.010632477865581889 -0.0033902458393279024 0 -0.010375924255990666 -0.0028511420976886134 0 -0.010209000372829352 -0.003926664704251734 0 -0.010632477865581889 -0.0033902458393279024 0 -0.010288737356224768 -0.002873178844159358 0 -0.0098716970115573146 -0.0039020262887069701 0 -0.010016263628348886 -0.0028433244841426027 0 -0.0094257923832667505 -0.0035498434120046387 0 -0.0098612579456061559 -0.0039665341054956763 0 -0.011744283254499919 -0.0026922575568914275 0 -0.010016263628348886 -0.0028433244841426027 0 -0.0095201719558302388 -0.0029976235152544403 0 -0.0094257923832667505 -0.0035498434120046387 0 -0.011744283254499919 -0.0026922575568914275 0 -0.0092942164578241563 -0.0030171186808783034 0 -0.010123229476146009 -0.0029261549198676333 0 -0.010130619681231412 -0.0028415688764053901 0 -0.0095201719558302388 -0.0029976235152544403 0 -0.010632477865581889 -0.0033902458393279024 0 -0.010288737356224768 -0.002873178844159358 0 -0.010375924255990666 -0.0028511420976886134 0 -0.011744283254499919 -0.0026922575568914275 0 -0.012845026499565511 -0.0020088826183186433 0 -0.013052294208073634 -0.0026458260781919429 0 -0.012964019158435895 -0.0036368766810535975 0 -0.01180204697388495 -0.0028129018741604654 0 -0.012845026499565511 -0.0020088826183186433 0 -0.012352616071102303 -0.0023714814446834918 0 -0.011744283254499919 -0.0026922575568914275 0 -0.012352616071102303 -0.0023714814446834918 0 -0.019768927060757124 7.7182832642991455e-05 0 -0.012845026499565511 -0.0020088826183186433 0 -0.015450993226242321 -0.00027181829691395377 0 -0.01531983369940821 -0.0015364601156782655 0 -0.015799918809569286 -0.0010485552799939675 0 -0.01531983369940821 -0.0015364601156782655 0 -0.015550066905898417 -0.001699273181397601 0 -0.015799918809569286 -0.0010485552799939675 0 -0.016284067851335467 -0.00085024521814724302 0 -0.016246497171927551 -0.0011152940271791437 0 -0.016003631557536774 -0.00094659334488254388 0 -0.010130619681231412 -0.0028415688764053901 0 -0.0096210768833987909 -0.0025105157225087265 0 -0.0095201719558302388 -0.0029976235152544403 0 -0.012845026499565511 -0.0020088826183186433 0 -0.016057402063738881 -0.0024617552558936556 0 -0.0095201719558302388 -0.0029976235152544403 0 -0.0089853194283740084 -0.0034010733499824884 0 -0.0087628313905145153 -0.0028602468592971116 0 -0.016057402063738881 -0.0024617552558936556 0 -0.010665854207942927 -0.0043956386349525587 0 -0.0096210768833987909 -0.0025105157225087265 0 -0.0095201719558302388 -0.0029976235152544403 0 -0.0087628313905145153 -0.0028602468592971116 0 -0.0095201719558302388 -0.0029976235152544403 0 -0.0089853194283740084 -0.0034010733499824884 0 -0.0094257923832667505 -0.0035498434120046387 0 -0.0088022151856920906 -0.0039489472435411833 0 -0.0089853194283740084 -0.0034010733499824884 0 -0.0094257923832667505 -0.0035498434120046387 0 -0.0089853194283740084 -0.0034010733499824884 0 -0.0083710643730615878 -0.0036152755757331008 0 -0.0087628313905145153 -0.0028602468592971116 0 -0.0088022151856920906 -0.0039489472435411833 0 -0.0089853194283740084 -0.0034010733499824884 0 -0.0083710643730615878 -0.0036152755757331008 0 -0.010665854207942927 -0.0043956386349525587 0 -0.010176225973205916 -0.004634824057610374 0 -0.013894223585723555 -0.0054970189218916266 0 -0.013168622642689438 -0.0044273711217217388 0 -0.01205063186633785 -0.0060612133238517841 0 -0.0083710643730615878 -0.0036152755757331008 0 -0.0087628313905145153 -0.0028602468592971116 0 -0.0079803206907193246 -0.0032601595860521685 0 -0.013894223585723555 -0.0054970189218916266 0 -0.013168622642689438 -0.0044273711217217388 0 -0.014414713597828956 -0.0039945345095442446 0 -0.013168622642689438 -0.0044273711217217388 0 -0.014414713597828956 -0.0039945345095442446 0 -0.013097327779236884 -0.0030811044772602798 0 -0.018824133665414331 -0.0018021953221136252 0 -0.019647379919305173 -0.0033245565029293186 0 -0.015737693406962575 -0.0049118297752993876 0 -0.013894223585723555 -0.0054970189218916266 0 -0.014414713597828956 -0.0039945345095442446 0 -0.016057402063738881 -0.0024617552558936556 0 -0.018824133665414331 -0.0018021953221136252 0 -0.023739649986540271 0.0005851974713986923 0 -0.023561729216250157 0.00015888879463007974 0 -0.023469374569667623 0.00047134466383869496 0 -0.023561729216250157 0.00015888879463007974 0 -0.023469374569667623 0.00047134466383869496 0 -0.023169379071608983 0.00042884946456052744 0 -0.023739649986540271 0.0005851974713986923 0 -0.023469374569667623 0.00047134466383869496 0 -0.023407475885544576 0.00071190905818846776 0 -0.023469374569667623 0.00047134466383869496 0 -0.023169379071608983 0.00042884946456052744 0 -0.023407475885544576 0.00071190905818846776 0 -0.023407475885544576 0.00071190905818846776 0 -0.023311212285177699 0.0012079233697969958 0 -0.02351607705338123 0.0011825271178198596 0 -0.023407475885544576 0.00071190905818846776 0 -0.023153793459766835 0.00076119081577361383 0 -0.023311212285177699 0.0012079233697969958 0 -0.023169379071608983 0.00042884946456052744 0 -0.023407475885544576 0.00071190905818846776 0 -0.023153793459766835 0.00076119081577361383 0 -0.023739649986540271 0.0005851974713986923 0 -0.023407475885544576 0.00071190905818846776 0 -0.023634527483741345 0.00091946004896410109 0 -0.023634527483741345 0.00091946004896410109 0 -0.02350578582037793 0.0011833564243413906 0 -0.02387523949566845 0.0011131198007334239 0 -0.02359323540259467 0.00068356252369285598 0 -0.025715004666347015 0.0010607457342230355 0 -0.023407475885544576 0.00071190905818846776 0 -0.023634527483741345 0.00091946004896410109 0 -0.02350578582037793 0.0011833564243413906 0 -0.019647379919305173 -0.0033245565029293186 0 -0.030122161217488522 -0.00037626161926787528 0 -0.026293558101000789 -0.0043485451772989877 0 -0.026465627516123864 -0.0021927358214786428 0 -0.028478152672544242 -0.0024432388433263882 0 -0.022725454891210233 0.00070661746060709997 0 -0.023153793459766835 0.00076119081577361383 0 -0.023311212285177699 0.0012079233697969958 0 -0.023169379071608983 0.00042884946456052744 0 -0.022725454891210233 0.00070661746060709997 0 -0.023153793459766835 0.00076119081577361383 0 -0.015206521977736196 -0.0067325177435347558 0 -0.014893290365894579 -0.0057923972610366293 0 -0.014420031328579476 -0.0071754435963735123 0 -0.017986125666177775 -0.0043375245269597646 0 -0.011123207906194678 -0.0062813551887199682 0 -0.026293558101000789 -0.0043485451772989877 0 -0.024529802558563414 -0.0031084194992476036 0 -0.026465627516123864 -0.0021927358214786428 0 -0.0083010417556815923 -0.0044067935154412123 0 -0.0081053758320998783 -0.0043578441624645215 0 -0.0083096009734477012 -0.0044240836302422626 0 -0.016177865380465346 -0.0066279046831500491 0 -0.015206521977736196 -0.0067325177435347558 0 -0.014893290365894579 -0.0057923972610366293 0 -0.019647379919305173 -0.0033245565029293186 0 -0.017986125666177775 -0.0043375245269597646 0 -0.017986125666177775 -0.0043375245269597646 0 -0.017006366081591548 -0.0039773058907992612 0 -0.008031851942889804 -0.0043663328629703138 0 -0.0079833678016962648 -0.0043334253865453106 0 -0.0080948540164192968 -0.0043567141789436154 0 -0.0081053758320998783 -0.0043578441624645215 0 -0.0079833678016962648 -0.0043334253865453106 0 -0.0083096009734477012 -0.0044240836302422626 0 -0.0055820530571520557 -0.004964092745250716 0 -0.017006366081591548 -0.0039773058907992612 0 -0.0080747224934466059 -0.0044026230198531847 0 -0.008031851942889804 -0.0043663328629703138 0 -0.0080948540164192968 -0.0043567141789436154 0 -0.0080747224934466059 -0.0044026230198531847 0 -0.008031851942889804 -0.0043663328629703138 0 -0.0080766992253143328 -0.0044090121594606629 0 -0.011123207906194678 -0.0062813551887199682 0 -0.01056462058075131 -0.0056403978799217554 0 -0.014420031328579476 -0.0071754435963735123 0 -0.015047193951913515 -0.0076065693558413265 0 -0.013930813593929909 -0.008522914210250105 0 -0.0081053758320998783 -0.0043578441624645215 0 -0.0079833678016962648 -0.0043334253865453106 0 -0.0079249513253455243 -0.004326796239270618 0 -0.008031851942889804 -0.0043663328629703138 0 -0.0079833678016962648 -0.0043334253865453106 0 -0.0079651223714669438 -0.0043428677281362781 0 -0.0079833678016962648 -0.0043334253865453106 0 -0.0079087299401772067 -0.0043217565233874275 0 -0.0079651223714669438 -0.0043428677281362781 0 -0.0079833678016962648 -0.0043334253865453106 0 -0.0079087299401772067 -0.0043217565233874275 0 -0.0079249513253455243 -0.004326796239270618 0 -0.012962406776402658 -0.0063087509931627431 0 -0.01056462058075131 -0.0056403978799217554 0 -0.013168622642689438 -0.0044273711217217388 0 -0.011897981958526638 -0.004111511044668211 0 -0.01205063186633785 -0.0060612133238517841 0 -0.015206521977736196 -0.0067325177435347558 0 -0.014420031328579476 -0.0071754435963735123 0 -0.015047193951913515 -0.0076065693558413265 0 -0.019647379919305173 -0.0033245565029293186 0 -0.012962406776402658 -0.0063087509931627431 0 -0.013168622642689438 -0.0044273711217217388 0 -0.013097327779236884 -0.0030811044772602798 0 -0.011897981958526638 -0.004111511044668211 0 -0.016177865380465346 -0.0066279046831500491 0 -0.015206521977736196 -0.0067325177435347558 0 -0.015047193951913515 -0.0076065693558413265 0 -0.011897981958526638 -0.004111511044668211 0 -0.01205063186633785 -0.0060612133238517841 0 -0.010716613639413322 -0.0051359447570472833 0 -0.0080449081397827513 -0.0042815499765574434 0 -0.0083710643730615878 -0.0036152755757331008 0 -0.0076786362456613159 -0.003974564353825611 0 -0.0083710643730615878 -0.0036152755757331008 0 -0.0079803206907193246 -0.0032601595860521685 0 -0.0076786362456613159 -0.003974564353825611 0 -0.0079803206907193246 -0.0032601595860521685 0 -0.0076786362456613159 -0.003974564353825611 0 -0.0072777462700512009 -0.0037256531908225498 0 -0.010176225973205916 -0.004634824057610374 0 -0.0085885634500928315 -0.0048487368713506646 0 -0.0071952921987607299 -0.0042767556307213893 0 -0.0076786362456613159 -0.003974564353825611 0 -0.0072777462700512009 -0.0037256531908225498 0 -0.0074656963848774415 -0.0041467367848029455 0 -0.0085885634500928315 -0.0048487368713506646 0 -0.0085885634500928315 -0.0048487368713506646 0 -0.0083089952899334553 -0.0047939304852543619 0 -0.0085885634500928315 -0.0048487368713506646 0 -0.01056462058075131 -0.0056403978799217554 0 -0.01205063186633785 -0.0060612133238517841 0 -0.01021980715368017 -0.0066083005163625717 0 -0.010716613639413322 -0.0051359447570472833 0 -0.0078032389457821675 -0.0041683516596599645 0 -0.0078460495351574139 -0.0042871803368497684 0 -0.0078009339442186576 -0.0042302647479684954 0 -0.0078032389457821675 -0.0041683516596599645 0 -0.0078460495351574139 -0.0042871803368497684 0 -0.0078120133717986357 -0.0043455070096308796 0 -0.0079087299401772067 -0.0043217565233874275 0 -0.0078460495351574139 -0.0042871803368497684 0 -0.0079249513253455243 -0.004326796239270618 0 -0.0090134983500634314 -0.0054482845676994901 0 -0.01056462058075131 -0.0056403978799217554 0 -0.0079087299401772067 -0.0043217565233874275 0 -0.0078526430384132651 -0.0042923924526050653 0 -0.007910294104925256 -0.0043277886902735856 0 -0.0079087299401772067 -0.0043217565233874275 0 -0.0078460495351574139 -0.0042871803368497684 0 -0.0078526430384132651 -0.0042923924526050653 0 -0.0078526430384132651 -0.0042923924526050653 0 -0.0078504216496806129 -0.0043069956799897677 0 -0.0077802302360600465 -0.0042585783247467094 0 -0.0078526430384132651 -0.0042923924526050653 0 -0.0078504216496806129 -0.0043069956799897677 0 -0.007910294104925256 -0.0043277886902735856 0 -0.0078526430384132651 -0.0042923924526050653 0 -0.0077802302360600465 -0.0042585783247467094 0 -0.0078009339442186576 -0.0042302647479684954 0 -0.0077802302360600465 -0.0042585783247467094 0 -0.0078009339442186576 -0.0042302647479684954 0 -0.0077465027133750627 -0.0042072596913464494 0 -0.0078460495351574139 -0.0042871803368497684 0 -0.0078526430384132651 -0.0042923924526050653 0 -0.0078009339442186576 -0.0042302647479684954 0 -0.0076787180061835729 -0.0042271038219606838 0 -0.0077812008370475565 -0.0040966870706540207 0 -0.0077608452367528185 -0.0041518715789327894 0 -0.0078009339442186576 -0.0042302647479684954 0 -0.0077608452367528185 -0.0041518715789327894 0 -0.0077465027133750627 -0.0042072596913464494 0 -0.0078032389457821675 -0.0041683516596599645 0 -0.0078009339442186576 -0.0042302647479684954 0 -0.0077608452367528185 -0.0041518715789327894 0 -0.0077608452367528185 -0.0041518715789327894 0 -0.0077465027133750627 -0.0042072596913464494 0 -0.0076770941682177346 -0.0041976115822476576 0 -0.0077802302360600465 -0.0042585783247467094 0 -0.0077465027133750627 -0.0042072596913464494 0 -0.0076773985280452406 -0.0042242149584626725 0 -0.0077802302360600465 -0.0042585783247467094 0 -0.0076773985280452406 -0.0042242149584626725 0 -0.0076934952565522394 -0.0042628915930043622 0 -0.0077465027133750627 -0.0042072596913464494 0 -0.0076773985280452406 -0.0042242149584626725 0 -0.0076770941682177346 -0.0041976115822476576 0 -0.0075073527879638974 -0.0042587482866253265 0 -0.0076773985280452406 -0.0042242149584626725 0 -0.007566784378898319 -0.0042637298401884127 0 -0.0075073527879638974 -0.0042587482866253265 0 -0.0076773985280452406 -0.0042242149584626725 0 -0.0076770941682177346 -0.0041976115822476576 0 -0.0076787180061835729 -0.0042271038219606838 0 -0.0077608452367528185 -0.0041518715789327894 0 -0.0076770941682177346 -0.0041976115822476576 0 -0.0076787180061835729 -0.0042271038219606838 0 -0.0075073527879638974 -0.0042587482866253265 0 -0.0076770941682177346 -0.0041976115822476576 0 -0.0075131206238308341 -0.0042921675668437234 0 -0.007566784378898319 -0.0042637298401884127 0 -0.0076620116682109144 -0.0042854458253368958 0 -0.0076773985280452406 -0.0042242149584626725 0 -0.007566784378898319 -0.0042637298401884127 0 -0.0076934952565522394 -0.0042628915930043622 0 -0.007566784378898319 -0.0042637298401884127 0 -0.0076934952565522394 -0.0042628915930043622 0 -0.0076620116682109144 -0.0042854458253368958 0 -0.0076934952565522394 -0.0042628915930043622 0 -0.0076620116682109144 -0.0042854458253368958 0 -0.0077939180227099975 -0.0043011757739316193 0 -0.0078024884622393664 -0.0043229047953849027 0 -0.0076620116682109144 -0.0042854458253368958 0 -0.0077939180227099975 -0.0043011757739316193 0 -0.0077802302360600465 -0.0042585783247467094 0 -0.0076934952565522394 -0.0042628915930043622 0 -0.0077939180227099975 -0.0043011757739316193 0 -0.0078504216496806129 -0.0043069956799897677 0 -0.0077802302360600465 -0.0042585783247467094 0 -0.0077939180227099975 -0.0043011757739316193 0 -0.0078504216496806129 -0.0043069956799897677 0 -0.0077939180227099975 -0.0043011757739316193 0 -0.0079196142476088346 -0.0043479107435536232 0 -0.0078024884622393664 -0.0043229047953849027 0 -0.0077939180227099975 -0.0043011757739316193 0 -0.0078632507853069241 -0.0043366928944888125 0 -0.0077939180227099975 -0.0043011757739316193 0 -0.0078632507853069241 -0.0043366928944888125 0 -0.0079196142476088346 -0.0043479107435536232 0 -0.0079261372956703664 -0.004370537102558622 0 -0.0078632507853069241 -0.0043366928944888125 0 -0.0079196142476088346 -0.0043479107435536232 0 -0.0079261372956703664 -0.004370537102558622 0 -0.0079196142476088346 -0.0043479107435536232 0 -0.0080386572508908891 -0.0044186141235000162 0 -0.0079196142476088346 -0.0043479107435536232 0 -0.0080386572508908891 -0.0044186141235000162 0 -0.0080096090591554175 -0.0043838113682538454 0 -0.0079196142476088346 -0.0043479107435536232 0 -0.0079672905754173736 -0.0043556548101808777 0 -0.0080096090591554175 -0.0043838113682538454 0 -0.0079196142476088346 -0.0043479107435536232 0 -0.007910294104925256 -0.0043277886902735856 0 -0.0079672905754173736 -0.0043556548101808777 0 -0.0078504216496806129 -0.0043069956799897677 0 -0.0079196142476088346 -0.0043479107435536232 0 -0.007910294104925256 -0.0043277886902735856 0 -0.0079087299401772067 -0.0043217565233874275 0 -0.007910294104925256 -0.0043277886902735856 0 -0.0079651223714669438 -0.0043428677281362781 0 -0.007910294104925256 -0.0043277886902735856 0 -0.0079651223714669438 -0.0043428677281362781 0 -0.0079672905754173736 -0.0043556548101808777 0 -0.0079651223714669438 -0.0043428677281362781 0 -0.0079672905754173736 -0.0043556548101808777 0 -0.0080317885762106814 -0.0043809152383413579 0 -0.0079672905754173736 -0.0043556548101808777 0 -0.0080317885762106814 -0.0043809152383413579 0 -0.0080096090591554175 -0.0043838113682538454 0 -0.0080317885762106814 -0.0043809152383413579 0 -0.0081001187224524485 -0.0044374835022487841 0 -0.0080096090591554175 -0.0043838113682538454 0 -0.008031851942889804 -0.0043663328629703138 0 -0.0079651223714669438 -0.0043428677281362781 0 -0.0080317885762106814 -0.0043809152383413579 0 -0.0080317885762106814 -0.0043809152383413579 0 -0.0080766992253143328 -0.0044090121594606629 0 -0.0081363426512065899 -0.0044534301466402464 0 -0.008031851942889804 -0.0043663328629703138 0 -0.0080317885762106814 -0.0043809152383413579 0 -0.0080766992253143328 -0.0044090121594606629 0 -0.0081001187224524485 -0.0044374835022487841 0 -0.0081985559280860348 -0.0045120996574127383 0 -0.0081363426512065899 -0.0044534301466402464 0 -0.0080317885762106814 -0.0043809152383413579 0 -0.0081001187224524485 -0.0044374835022487841 0 -0.0081363426512065899 -0.0044534301466402464 0 -0.0081001187224524485 -0.0044374835022487841 0 -0.0081413571313081277 -0.0044833969999037333 0 -0.0081985559280860348 -0.0045120996574127383 0 -0.0081001187224524485 -0.0044374835022487841 0 -0.0081413571313081277 -0.0044833969999037333 0 -0.0080386572508908891 -0.0044186141235000162 0 -0.0081001187224524485 -0.0044374835022487841 0 -0.0080386572508908891 -0.0044186141235000162 0 -0.0080096090591554175 -0.0043838113682538454 0 -0.008321336323637421 -0.0046218538372610205 0 -0.0082189748005418919 -0.0045536080177506991 0 -0.0081985559280860348 -0.0045120996574127383 0 -0.0081413571313081277 -0.0044833969999037333 0 -0.0082189748005418919 -0.0045536080177506991 0 -0.0081985559280860348 -0.0045120996574127383 0 -0.008321336323637421 -0.0046218538372610205 0 -0.0081985559280860348 -0.0045120996574127383 0 -0.0081363426512065899 -0.0044534301466402464 0 -0.008321336323637421 -0.0046218538372610205 0 -0.0081363426512065899 -0.0044534301466402464 0 -0.0080961411664029481 -0.0044996026412676875 0 -0.002986649398640955 -0.0040059576602142844 0 -0.023435677022137474 -0.0048682505648375797 0 -0.0080766992253143328 -0.0044090121594606629 0 -0.0081363426512065899 -0.0044534301466402464 0 -0.0080961411664029481 -0.0044996026412676875 0 -0.048270526978274775 -0.0053941450566033786 0 -0.047593412639267259 -0.0054977310224632731 0 -0.048327246376930089 -0.0059457505281604464 0 -0.029210980794899689 -0.0054263198080585625 0 -0.023435677022137474 -0.0048682505648375797 0 -0.048270526978274775 -0.0053941450566033786 0 -0.047593412639267259 -0.0054977310224632731 0 -0.048082006037403043 -0.0049150199654517026 0 -0.008321336323637421 -0.0046218538372610205 0 -0.0083117970804789474 -0.0044871913994270849 0 -0.0091198321415566566 -0.0046341675805706885 0 -0.0082444580458678456 -0.0045473287996443878 0 -0.0082189748005418919 -0.0045536080177506991 0 -0.0083117970804789474 -0.0044871913994270849 0 -0.008321336323637421 -0.0046218538372610205 0 -0.0082189748005418919 -0.0045536080177506991 0 -0.0083117970804789474 -0.0044871913994270849 0 -0.047593412639267259 -0.0054977310224632731 0 -0.047480915781440688 -0.0049958657471163006 0 -0.048082006037403043 -0.0049150199654517026 0 -0.026107583633553137 -0.0046384735689459465 0 -0.029210980794899689 -0.0054263198080585625 0 -0.04671255393399306 -0.005301862723519981 0 -0.047593412639267259 -0.0054977310224632731 0 -0.047480915781440688 -0.0049958657471163006 0 -0.047480915781440688 -0.0049958657471163006 0 -0.047964958878510447 -0.004251489275374532 0 -0.048082006037403043 -0.0049150199654517026 0 -0.047222957962785361 -0.004651510442286697 0 -0.047480915781440688 -0.0049958657471163006 0 -0.047964958878510447 -0.004251489275374532 0 -0.047222957962785361 -0.004651510442286697 0 -0.047964958878510447 -0.004251489275374532 0 -0.047440067788191723 -0.0039016466851745559 0 -0.047964958878510447 -0.004251489275374532 0 -0.048566760297555613 -0.0042232597061598615 0 -0.048082006037403043 -0.0049150199654517026 0 -0.048566760297555613 -0.0042232597061598615 0 -0.048082006037403043 -0.0049150199654517026 0 -0.04867399009055616 -0.0049269929761986964 0 -0.048270526978274775 -0.0053941450566033786 0 -0.048082006037403043 -0.0049150199654517026 0 -0.04867399009055616 -0.0049269929761986964 0 -0.04867399009055616 -0.0049269929761986964 0 -0.049496561681254443 -0.0050302833268741484 0 -0.048736788209781841 -0.0054686644481432671 0 -0.048566760297555613 -0.0042232597061598615 0 -0.04867399009055616 -0.0049269929761986964 0 -0.049319117941522009 -0.0043841708480608027 0 -0.048566760297555613 -0.0042232597061598615 0 -0.049177798771755585 -0.0037407967997265599 0 -0.049319117941522009 -0.0043841708480608027 0 -0.049177798771755585 -0.0037407967997265599 0 -0.049319117941522009 -0.0043841708480608027 0 -0.04987989162930772 -0.004010853719661726 0 -0.050623978278628863 -0.0037932393238116861 0 -0.046281223371318077 -0.0040566282076365352 0 -0.049319117941522009 -0.0043841708480608027 0 -0.049496561681254443 -0.0050302833268741484 0 -0.04987989162930772 -0.004010853719661726 0 -0.04867399009055616 -0.0049269929761986964 0 -0.049319117941522009 -0.0043841708480608027 0 -0.049496561681254443 -0.0050302833268741484 0 -0.04441824135650236 -0.0035069515621183891 0 -0.046281223371318077 -0.0040566282076365352 0 -0.049496561681254443 -0.0050302833268741484 0 -0.048736788209781841 -0.0054686644481432671 0 -0.04894278056667152 -0.0060252730763466584 0 -0.04441824135650236 -0.0035069515621183891 0 -0.034814362367965514 -0.0021965304242430989 0 -0.048270526978274775 -0.0053941450566033786 0 -0.048736788209781841 -0.0054686644481432671 0 -0.048327246376930089 -0.0059457505281604464 0 -0.048270526978274775 -0.0053941450566033786 0 -0.04867399009055616 -0.0049269929761986964 0 -0.048736788209781841 -0.0054686644481432671 0 -0.048736788209781841 -0.0054686644481432671 0 -0.048327246376930089 -0.0059457505281604464 0 -0.04894278056667152 -0.0060252730763466584 0 -0.024694367885390076 -0.0025447740830712323 0 -0.025061310320932024 -0.0027538571216039124 0 -0.025143953244685754 -0.0025553879370881819 0 -0.023435677022137474 -0.0048682505648375797 0 -0.034814362367965514 -0.0021965304242430989 0 -0.0080747224934466059 -0.0044026230198531847 0 -0.0080766992253143328 -0.0044090121594606629 0 -0.0080961411664029481 -0.0044996026412676875 0 -0.0080747224934466059 -0.0044026230198531847 0 -0.0080961411664029481 -0.0044996026412676875 0 -0.0080948540164192968 -0.0043567141789436154 0 -0.023435677022137474 -0.0048682505648375797 0 -0.017006366081591548 -0.0039773058907992612 0 -0.024530444126881587 -0.0031086284241172374 0 -0.024168864879029528 -0.0028595628385556975 0 -0.024699694616883511 -0.0026305917862447328 0 -0.024168864879029528 -0.0028595628385556975 0 -0.024699694616883511 -0.0026305917862447328 0 -0.024478175543046803 -0.0019608380734978071 0 -0.024699694616883511 -0.0026305917862447328 0 -0.024478175543046803 -0.0019608380734978071 0 -0.026465627516123864 -0.0021927358214786428 0 -0.017986125666177775 -0.0043375245269597646 0 -0.01935240205847312 -0.0030387455836914526 0 -0.034814362367965514 -0.0021965304242430989 0 -0.032000735491395087 -0.0019872102187265769 0 -0.037823476115665389 -0.0020029461171701866 0 -0.037781335753854936 -0.0018889892184900845 0 -0.037702310215852623 -0.0018580081598175047 0 -0.017006366081591548 -0.0039773058907992612 0 -0.034814362367965514 -0.0021965304242430989 0 -0.024529802558563414 -0.0031084194992476036 0 -0.024699694616883511 -0.0026305917862447328 0 -0.026465627516123864 -0.0021927358214786428 0 -0.032000735491395087 -0.0019872102187265769 0 -0.030122161217488522 -0.00037626161926787528 0 -0.037702310215852623 -0.0018580081598175047 0 -0.037598703533947717 -0.001831529299092798 0 -0.037674018665380025 -0.0019177858786187604 0 -0.030122161217488522 -0.00037626161926787528 0 -0.025715004666347015 0.0010607457342230355 0 -0.030122161217488522 -0.00037626161926787528 0 -0.030387338831776453 -0.00024117674705776107 0 -0.023730121568214208 0.0011409341430643162 0 -0.023745715257366681 0.0012647089798758582 0 -0.023862445720950132 0.0011989784537172928 0 -0.025715004666347015 0.0010607457342230355 0 -0.030387338831776453 -0.00024117674705776107 0 -0.02855378807048272 3.4315902336097347e-05 0 -0.029191845801753904 -4.8127384796747168e-05 0 -0.029316185067792901 0.00071443767460814252 0 -0.037598703533947717 -0.001831529299092798 0 -0.037570440715934315 -0.0018662469714030971 0 -0.037674018665380025 -0.0019177858786187604 0 -0.037570440715934315 -0.0018662469714030971 0 -0.037674018665380025 -0.0019177858786187604 0 -0.037614290303740971 -0.0019717727281935941 0 -0.030387338831776453 -0.00024117674705776107 0 -0.035210357069793356 -0.0018724748023221185 0 -0.037674018665380025 -0.0019177858786187604 0 -0.03770120805662934 -0.0019864983561466926 0 -0.037614290303740971 -0.0019717727281935941 0 -0.037823476115665389 -0.0020029461171701866 0 -0.037674018665380025 -0.0019177858786187604 0 -0.03770120805662934 -0.0019864983561466926 0 -0.037823476115665389 -0.0020029461171701866 0 -0.037702310215852623 -0.0018580081598175047 0 -0.037674018665380025 -0.0019177858786187604 0 -0.037823476115665389 -0.0020029461171701866 0 -0.037866356013953134 -0.0021413033044971018 0 -0.037738916954651598 -0.0020652425200468685 0 -0.037823476115665389 -0.0020029461171701866 0 -0.037738916954651598 -0.0020652425200468685 0 -0.03770120805662934 -0.0019864983561466926 0 -0.046281223371318077 -0.0040566282076365352 0 -0.042492032811405088 -0.001721034175486687 0 -0.037866356013953134 -0.0021413033044971018 0 -0.037744745159054974 -0.0021167433835026736 0 -0.037738916954651598 -0.0020652425200468685 0 -0.049960065711776663 -0.0033866641597752327 0 -0.049925077015194969 -0.0034713433111211627 0 -0.050292842135809861 -0.0034372593062632554 0 -0.046856226592417539 -0.0035501159636208354 0 -0.046281223371318077 -0.0040566282076365352 0 -0.042492032811405088 -0.001721034175486687 0 -0.037167000306317595 -0.0010656637259205415 0 -0.037719924286461121 -0.0021058409517523691 0 -0.037738916954651598 -0.0020652425200468685 0 -0.037673157316989531 -0.0020533305967660063 0 -0.042492032811405088 -0.001721034175486687 0 -0.039519095259230481 -0.0029326645206797803 0 -0.037719924286461121 -0.0021058409517523691 0 -0.037673157316989531 -0.0020533305967660063 0 -0.037632086779345507 -0.002079037090144743 0 -0.037673157316989531 -0.0020533305967660063 0 -0.037680643383990568 -0.0020177392129299919 0 -0.037614290303740971 -0.0019717727281935941 0 -0.037673157316989531 -0.0020533305967660063 0 -0.037614290303740971 -0.0019717727281935941 0 -0.037632086779345507 -0.002079037090144743 0 -0.037738916954651598 -0.0020652425200468685 0 -0.037680643383990568 -0.0020177392129299919 0 -0.03770120805662934 -0.0019864983561466926 0 -0.037738916954651598 -0.0020652425200468685 0 -0.037673157316989531 -0.0020533305967660063 0 -0.037680643383990568 -0.0020177392129299919 0 -0.037680643383990568 -0.0020177392129299919 0 -0.03770120805662934 -0.0019864983561466926 0 -0.037614290303740971 -0.0019717727281935941 0 -0.032496562426827733 -0.0011642392635565599 0 -0.032463505501587483 -0.001206171569572061 0 -0.032405002329557411 -0.0011365736213633816 0 -0.032496562426827733 -0.0011642392635565599 0 -0.032463505501587483 -0.001206171569572061 0 -0.032518394201683981 -0.0012734864987862878 0 -0.032463505501587483 -0.001206171569572061 0 -0.032425558707014066 -0.0012458362811475691 0 -0.032405002329557411 -0.0011365736213633816 0 -0.035210357069793356 -0.0018724748023221185 0 -0.037167000306317595 -0.0010656637259205415 0 -0.037572445034003914 0.00012942626675445281 0 -0.036818024053097233 0.00011546553579079313 0 -0.036827818667978518 0.00025851624070816507 0 -0.037572445034003914 0.00012942626675445281 0 -0.036818024053097233 0.00011546553579079313 0 -0.036759693541502762 -0.00047499487253971064 0 -0.037167000306317595 -0.0010656637259205415 0 -0.033544002259340552 -0.00094973878434810382 0 -0.032463505501587483 -0.001206171569572061 0 -0.032518394201683981 -0.0012734864987862878 0 -0.032425558707014066 -0.0012458362811475691 0 -0.035988817006515079 0.00040152676949599733 0 -0.036351859147872492 8.2694206094193311e-05 0 -0.036826367884154346 0.00025864588194751486 0 -0.030220044172291363 0.00072423618469280365 0 -0.033544002259340552 -0.00094973878434810382 0 -0.036351859147872492 8.2694206094193311e-05 0 -0.036818024053097233 0.00011546553579079313 0 -0.036759693541502762 -0.00047499487253971064 0 -0.036351859147872492 8.2694206094193311e-05 0 -0.036818024053097233 0.00011546553579079313 0 -0.036826367884154346 0.00025864588194751486 0 -0.033846888908985483 -0.00056995479855543988 0 -0.033544002259340552 -0.00094973878434810382 0 -0.030220044172291363 0.00072423618469280365 0 -0.02539752911856297 0.00084253959235698237 0 -0.033544002259340552 -0.00094973878434810382 0 -0.02740206790136546 4.4886670137310976e-05 0 -0.029448453822535987 -0.00066308688288340475 0 -0.029638910976484537 -0.00094935713118723074 0 -0.029371498973322311 -0.0011821746176833888 0 -0.029816236929548365 -0.00071220641372739908 0 -0.029448453822535987 -0.00066308688288340475 0 -0.029638910976484537 -0.00094935713118723074 0 -0.02539752911856297 0.00084253959235698237 0 -0.02740206790136546 4.4886670137310976e-05 0 -0.023022424863939302 0.0019735383160516401 0 -0.023019615870584605 0.0017120775236432711 0 -0.022726025536494814 0.0016583609425142489 0 -0.025503410141575977 0.00085406813191752826 0 -0.025511065394260297 0.00086217444235936502 0 -0.025509555813430125 0.00086761494823724855 0 -0.02539752911856297 0.00084253959235698237 0 -0.024586560371256703 0.0012027631861120484 0 -0.023019615870584605 0.0017120775236432711 0 -0.022726025536494814 0.0016583609425142489 0 -0.023030100595972481 0.0014554234410552229 0 -0.02740206790136546 4.4886670137310976e-05 0 -0.024586560371256703 0.0012027631861120484 0 -0.030387338831776453 -0.00024117674705776107 0 -0.02740206790136546 4.4886670137310976e-05 0 -0.032479835560898528 -0.0010643430748571369 0 -0.032496562426827733 -0.0011642392635565599 0 -0.032405002329557411 -0.0011365736213633816 0 -0.023745715257366681 0.0012647089798758582 0 -0.024156671469978432 0.0015767456153819093 0 -0.024134190617695617 0.001465950372780647 0 -0.024586560371256703 0.0012027631861120484 0 -0.023841536418106435 0.0012308151498220132 0 -0.024026891237049982 0.0010270207689887514 0 -0.024077755436733069 0.001484142855731364 0 -0.023862445720950132 0.0011989784537172928 0 -0.023745715257366681 0.0012647089798758582 0 -0.024134190617695617 0.001465950372780647 0 -0.023862445720950132 0.0011989784537172928 0 -0.023566392146361293 0.0012147582678081858 0 -0.024586560371256703 0.0012027631861120484 0 -0.025715004666347015 0.0010607457342230355 0 -0.023505506465839283 0.0012290887566921941 0 -0.023730121568214208 0.0011409341430643162 0 -0.023862445720950132 0.0011989784537172928 0 -0.02387523949566845 0.0011131198007334239 0 -0.024026891237049982 0.0010270207689887514 0 -0.023862445720950132 0.0011989784537172928 0 -0.02387523949566845 0.0011131198007334239 0 -0.023108219348986318 0.0010926420908627422 0 -0.022608950996291059 0.001100323444162639 0 -0.023030100595972481 0.0014554234410552229 0 -0.022608950996291059 0.001100323444162639 0 -0.022726025536494814 0.0016583609425142489 0 -0.023030100595972481 0.0014554234410552229 0 -0.047772321784595444 -0.0015256202723136708 0 -0.047703755937526272 -0.0011040995473749057 0 -0.04522201568675694 -0.00068675065493522191 0 -0.044905701078315013 -0.00087563167186876947 0 -0.045166712892655177 -0.00089558700541447224 0 -0.04522201568675694 -0.00068675065493522191 0 -0.044905701078315013 -0.00087563167186876947 0 -0.045054459233240439 -0.00035066157854118533 0 -0.050553044208291438 -0.0022292227825447338 0 -0.050402733977822092 -0.0020089926674812246 0 -0.050550276367143356 -0.0019691181191838119 0 -0.050553044208291438 -0.0022292227825447338 0 -0.05038334795019387 -0.0023614524794068189 0 -0.050402733977822092 -0.0020089926674812246 0 -0.047772321784595444 -0.0015256202723136708 0 -0.047508281077904349 -0.002084894240852331 0 -0.044905701078315013 -0.00087563167186876947 0 -0.044965088205628043 -0.0010925097742402314 0 -0.04492359717336001 -0.0011144186245835798 0 -0.050553044208291438 -0.0022292227825447338 0 -0.050499457426201787 -0.0026707512119841913 0 -0.05038334795019387 -0.0023614524794068189 0 -0.045016533104180238 -0.0010162019955558179 0 -0.04507592812106035 -0.0010461893175051978 0 -0.045002059006553269 -0.0011159744529483507 0 -0.044905701078315013 -0.00087563167186876947 0 -0.045016533104180238 -0.0010162019955558179 0 -0.044965088205628043 -0.0010925097742402314 0 -0.044905701078315013 -0.00087563167186876947 0 -0.045016533104180238 -0.0010162019955558179 0 -0.045166712892655177 -0.00089558700541447224 0 -0.045016533104180238 -0.0010162019955558179 0 -0.045166712892655177 -0.00089558700541447224 0 -0.04507592812106035 -0.0010461893175051978 0 -0.045206893564079795 -0.0010279262488661492 0 -0.045166712892655177 -0.00089558700541447224 0 -0.04507592812106035 -0.0010461893175051978 0 -0.045206893564079795 -0.0010279262488661492 0 -0.04507592812106035 -0.0010461893175051978 0 -0.045014550664290463 -0.0011154720603512064 0 -0.04494603847980945 -0.0010549054332682922 0 -0.045002059006553269 -0.0011159744529483507 0 -0.044953481191427634 -0.0011682916452922314 0 -0.03622807710965472 -0.0013195896658429595 0 -0.036759693541502762 -0.00047499487253971064 0 -0.037388110680993687 -0.0012721353329037306 0 -0.04494603847980945 -0.0010549054332682922 0 -0.045014550664290463 -0.0011154720603512064 0 -0.045002059006553269 -0.0011159744529483507 0 -0.040788978994778471 -0.0011728026417092753 0 -0.042034606913177272 -0.0014939388498773673 0 -0.04507592812106035 -0.0010461893175051978 0 -0.045014550664290463 -0.0011154720603512064 0 -0.045002059006553269 -0.0011159744529483507 0 -0.045016533104180238 -0.0010162019955558179 0 -0.045002059006553269 -0.0011159744529483507 0 -0.044965088205628043 -0.0010925097742402314 0 -0.036207252603458293 -0.00055126282456448013 0 -0.03622807710965472 -0.0013195896658429595 0 -0.036759693541502762 -0.00047499487253971064 0 -0.036207252603458293 -0.00055126282456448013 0 -0.036351859147872492 8.2694206094193311e-05 0 -0.036759693541502762 -0.00047499487253971064 0 -0.042038672234007195 -0.0015984041314400358 0 -0.042173824094089887 -0.0010029572447495566 0 -0.042055831902960555 -0.0010110555806174971 0 -0.037572445034003914 0.00012942626675445281 0 -0.036759693541502762 -0.00047499487253971064 0 -0.037388110680993687 -0.0012721353329037306 0 -0.037167000306317595 -0.0010656637259205415 0 -0.042034606913177272 -0.0014939388498773673 0 -0.044905701078315013 -0.00087563167186876947 0 -0.04487443087417612 -0.0011898481292703128 0 -0.04492359717336001 -0.0011144186245835798 0 -0.042034606913177272 -0.0014939388498773673 0 -0.047508281077904349 -0.002084894240852331 0 -0.044917593617734029 -0.0011626335677100282 0 -0.04487443087417612 -0.0011898481292703128 0 -0.04492359717336001 -0.0011144186245835798 0 -0.045002059006553269 -0.0011159744529483507 0 -0.044953481191427634 -0.0011682916452922314 0 -0.044965088205628043 -0.0010925097742402314 0 -0.044953481191427634 -0.0011682916452922314 0 -0.044965088205628043 -0.0010925097742402314 0 -0.04492359717336001 -0.0011144186245835798 0 -0.042034606913177272 -0.0014939388498773673 0 -0.042894601600266348 -0.0010389262339053611 0 -0.050499457426201787 -0.0026707512119841913 0 -0.05015228925409275 -0.0027704061498988464 0 -0.05038334795019387 -0.0023614524794068189 0 -0.047508281077904349 -0.002084894240852331 0 -0.051285959156395583 -0.0027866064736152335 0 -0.050507828453160909 -0.0028060325477988648 0 -0.050205287488544553 -0.0031056969733542971 0 -0.05015228925409275 -0.0027704061498988464 0 -0.041785704396737379 -0.0015573661040888167 0 -0.042038672234007195 -0.0015984041314400358 0 -0.042055831902960555 -0.0010110555806174971 0 -0.050292842135809861 -0.0034372593062632554 0 -0.050507828453160909 -0.0028060325477988648 0 -0.050205287488544553 -0.0031056969733542971 0 -0.042492032811405088 -0.001721034175486687 0 -0.047508281077904349 -0.002084894240852331 0 -0.049981691139504611 -0.0030926120306457357 0 -0.05015228925409275 -0.0027704061498988464 0 -0.049764985544193979 -0.0029201264334404193 0 -0.049960065711776663 -0.0033866641597752327 0 -0.050292842135809861 -0.0034372593062632554 0 -0.050205287488544553 -0.0031056969733542971 0 -0.049960065711776663 -0.0033866641597752327 0 -0.049981691139504611 -0.0030926120306457357 0 -0.04979367127191961 -0.0033243924503091027 0 -0.049960065711776663 -0.0033866641597752327 0 -0.050205287488544553 -0.0031056969733542971 0 -0.049981691139504611 -0.0030926120306457357 0 -0.049960065711776663 -0.0033866641597752327 0 -0.04996539336308814 -0.0034839916261406589 0 -0.04979367127191961 -0.0033243924503091027 0 -0.050205287488544553 -0.0031056969733542971 0 -0.049981691139504611 -0.0030926120306457357 0 -0.05015228925409275 -0.0027704061498988464 0 -0.05015228925409275 -0.0027704061498988464 0 -0.049816218374819393 -0.0023273010094436298 0 -0.049764985544193979 -0.0029201264334404193 0 -0.050071178327329047 -0.002015265103470274 0 -0.049812340932332035 -0.0023089471578416707 0 -0.05015228925409275 -0.0027704061498988464 0 -0.05015332634254098 -0.0021535032215127636 0 -0.049816218374819393 -0.0023273010094436298 0 -0.05015228925409275 -0.0027704061498988464 0 -0.05038334795019387 -0.0023614524794068189 0 -0.05015332634254098 -0.0021535032215127636 0 -0.05038334795019387 -0.0023614524794068189 0 -0.05015332634254098 -0.0021535032215127636 0 -0.050402733977822092 -0.0020089926674812246 0 -0.050071178327329047 -0.002015265103470274 0 -0.050192993887953584 -0.0018312244216114979 0 -0.050007660868986691 -0.0018430459920742211 0 -0.049715174169039041 -0.0017953012942882481 0 -0.049895272535626548 -0.0015303015536570726 0 -0.049715174169039041 -0.0017953012942882481 0 -0.049474133922717919 -0.0017655269559575127 0 -0.049617136661339246 -0.0015766712287458282 0 -0.049474133922717919 -0.0017655269559575127 0 -0.049319124613636051 -0.0014138212783174025 0 -0.050018098624737994 -0.0009166399812158137 0 -0.0495216369857715 -0.001732382902838288 0 -0.049797276934616566 -0.001242218062952289 0 -0.049715174169039041 -0.0017953012942882481 0 -0.049474133922717919 -0.0017655269559575127 0 -0.049498400735567903 -0.0021158998830152378 0 -0.049474133922717919 -0.0017655269559575127 0 -0.049498400735567903 -0.0021158998830152378 0 -0.049244214190436779 -0.0020001097869329185 0 -0.049498400735567903 -0.0021158998830152378 0 -0.049090208023005323 -0.0025119977989631463 0 -0.049244214190436779 -0.0020001097869329185 0 -0.049715174169039041 -0.0017953012942882481 0 -0.049498400735567903 -0.0021158998830152378 0 -0.049816218374819393 -0.0023273010094436298 0 -0.050007660868986691 -0.0018430459920742211 0 -0.049715174169039041 -0.0017953012942882481 0 -0.049816218374819393 -0.0023273010094436298 0 -0.049816218374819393 -0.0023273010094436298 0 -0.049764985544193979 -0.0029201264334404193 0 -0.049391951946925444 -0.0027155696840738702 0 -0.049498400735567903 -0.0021158998830152378 0 -0.049816218374819393 -0.0023273010094436298 0 -0.049391951946925444 -0.0027155696840738702 0 -0.049177798771755585 -0.0037407967997265599 0 -0.049764985544193979 -0.0029201264334404193 0 -0.049391951946925444 -0.0027155696840738702 0 -0.049177798771755585 -0.0037407967997265599 0 -0.04996539336308814 -0.0034839916261406589 0 -0.04979367127191961 -0.0033243924503091027 0 -0.049981691139504611 -0.0030926120306457357 0 -0.049764985544193979 -0.0029201264334404193 0 -0.04979367127191961 -0.0033243924503091027 0 -0.049177798771755585 -0.0037407967997265599 0 -0.049764985544193979 -0.0029201264334404193 0 -0.04979367127191961 -0.0033243924503091027 0 -0.048566760297555613 -0.0042232597061598615 0 -0.049177798771755585 -0.0037407967997265599 0 -0.048725153001866889 -0.0031895298275478995 0 -0.049177798771755585 -0.0037407967997265599 0 -0.049391951946925444 -0.0027155696840738702 0 -0.048725153001866889 -0.0031895298275478995 0 -0.049391951946925444 -0.0027155696840738702 0 -0.049090208023005323 -0.0025119977989631463 0 -0.048725153001866889 -0.0031895298275478995 0 -0.049498400735567903 -0.0021158998830152378 0 -0.049391951946925444 -0.0027155696840738702 0 -0.049090208023005323 -0.0025119977989631463 0 -0.049090208023005323 -0.0025119977989631463 0 -0.04862507242823793 -0.0025150015610776403 0 -0.049244214190436779 -0.0020001097869329185 0 -0.04862507242823793 -0.0025150015610776403 0 -0.048725153001866889 -0.0031895298275478995 0 -0.048119861931812641 -0.0033467168016115723 0 -0.049090208023005323 -0.0025119977989631463 0 -0.04862507242823793 -0.0025150015610776403 0 -0.048725153001866889 -0.0031895298275478995 0 -0.047964958878510447 -0.004251489275374532 0 -0.048566760297555613 -0.0042232597061598615 0 -0.048725153001866889 -0.0031895298275478995 0 -0.047964958878510447 -0.004251489275374532 0 -0.048725153001866889 -0.0031895298275478995 0 -0.048119861931812641 -0.0033467168016115723 0 -0.047440067788191723 -0.0039016466851745559 0 -0.048119861931812641 -0.0033467168016115723 0 -0.047794002497799859 -0.0028047926198031354 0 -0.047964958878510447 -0.004251489275374532 0 -0.047440067788191723 -0.0039016466851745559 0 -0.048119861931812641 -0.0033467168016115723 0 -0.04862507242823793 -0.0025150015610776403 0 -0.047794002497799859 -0.0028047926198031354 0 -0.048414516465951733 -0.0017310248796216252 0 -0.04862507242823793 -0.0025150015610776403 0 -0.048119861931812641 -0.0033467168016115723 0 -0.047794002497799859 -0.0028047926198031354 0 -0.047794002497799859 -0.0028047926198031354 0 -0.048414516465951733 -0.0017310248796216252 0 -0.047717007559065751 -0.0017748051788065904 0 -0.048414516465951733 -0.0017310248796216252 0 -0.048285486671726205 -0.00036770680610072874 0 -0.047717007559065751 -0.0017748051788065904 0 -0.048414516465951733 -0.0017310248796216252 0 -0.049244214190436779 -0.0020001097869329185 0 -0.048702131119610276 -0.00083124814421272133 0 -0.04862507242823793 -0.0025150015610776403 0 -0.048414516465951733 -0.0017310248796216252 0 -0.049244214190436779 -0.0020001097869329185 0 -0.049244214190436779 -0.0020001097869329185 0 -0.049199776634087117 -0.00039285291956466482 0 -0.048702131119610276 -0.00083124814421272133 0 -0.049474133922717919 -0.0017655269559575127 0 -0.049244214190436779 -0.0020001097869329185 0 -0.049319124613636051 -0.0014138212783174025 0 -0.049286456811794346 -0.0018909618145248909 0 -0.04924945285012651 -0.00093937909113547499 0 -0.049199776634087117 -0.00039285291956466482 0 -0.048702131119610276 -0.00083124814421272133 0 -0.048834400172757975 -6.0330922135668809e-05 0 -0.048414516465951733 -0.0017310248796216252 0 -0.048702131119610276 -0.00083124814421272133 0 -0.048285486671726205 -0.00036770680610072874 0 -0.048702131119610276 -0.00083124814421272133 0 -0.048285486671726205 -0.00036770680610072874 0 -0.048834400172757975 -6.0330922135668809e-05 0 -0.048834400172757975 -6.0330922135668809e-05 0 -0.049076310481091283 0.00022015002396540197 0 -0.048938165516831653 0.00018541709500905418 0 -0.048367917427852132 -0.00030064338707941698 0 -0.048570356778693702 0.00057387807055545015 0 -0.048285486671726205 -0.00036770680610072874 0 -0.048834400172757975 -6.0330922135668809e-05 0 -0.048938165516831653 0.00018541709500905418 0 -0.049199776634087117 -0.00039285291956466482 0 -0.048834400172757975 -6.0330922135668809e-05 0 -0.049076310481091283 0.00022015002396540197 0 -0.04924945285012651 -0.00093937909113547499 0 -0.049289571432828444 -0.00023324801018377415 0 -0.049319124613636051 -0.0014138212783174025 0 -0.049614925178288714 -0.0009381223918309621 0 -0.04946180258622937 -0.0006393599244118531 0 -0.049614925178288714 -0.0009381223918309621 0 -0.049800703338478781 -0.00036369924259979007 0 -0.04946180258622937 -0.0006393599244118531 0 -0.049800703338478781 -0.00036369924259979007 0 -0.04946180258622937 -0.0006393599244118531 0 -0.049707151745363172 -0.00017728505582566609 0 -0.049076310481091283 0.00022015002396540197 0 -0.049225031534302612 0.00019524624975940293 0 -0.049364617906873971 0.00013871132712786835 0 -0.048938165516831653 0.00018541709500905418 0 -0.049225031534302612 0.00019524624975940293 0 -0.049554340314926754 0.00015287221323841358 0 -0.049076310481091283 0.00022015002396540197 0 -0.048938165516831653 0.00018541709500905418 0 -0.049225031534302612 0.00019524624975940293 0 -0.049289571432828444 -0.00023324801018377415 0 -0.049549548965881873 -1.1245465113879448e-05 0 -0.049364617906873971 0.00013871132712786835 0 -0.04974003894513742 6.0995995915925494e-05 0 -0.049554340314926754 0.00015287221323841358 0 -0.049225031534302612 0.00019524624975940293 0 -0.049364617906873971 0.00013871132712786835 0 -0.049554340314926754 0.00015287221323841358 0 -0.049707151745363172 -0.00017728505582566609 0 -0.049999571048063497 -3.7200082531707663e-08 0 -0.04987780578229805 -9.3617077519431258e-05 0 -0.049549548965881873 -1.1245465113879448e-05 0 -0.049999782300839603 2.4786942002901022e-08 0 -0.049364617906873971 0.00013871132712786835 0 -0.04974003894513742 6.0995995915925494e-05 0 -0.049999192884931959 -7.6889845690872847e-09 0 -0.04974003894513742 6.0995995915925494e-05 0 -0.049999192884931959 -7.6889845690872847e-09 0 -0.050000149083689029 -5.6841672692240374e-09 0 -0.049999571048063497 -3.7200082531707663e-08 0 -0.04987780578229805 -9.3617077519431258e-05 0 -0.049999886568643188 -6.0728312734571595e-08 0 -0.049800703338478781 -0.00036369924259979007 0 -0.049707151745363172 -0.00017728505582566609 0 -0.04987780578229805 -9.3617077519431258e-05 0 -0.049800703338478781 -0.00036369924259979007 0 -0.049986742697647281 -0.00011015667028221974 0 -0.050150555077319053 -0.00031017873128914332 0 -0.049800703338478781 -0.00036369924259979007 0 -0.04987780578229805 -9.3617077519431258e-05 0 -0.049986742697647281 -0.00011015667028221974 0 -0.04987780578229805 -9.3617077519431258e-05 0 -0.049986742697647281 -0.00011015667028221974 0 -0.049999886568643188 -6.0728312734571595e-08 0 -0.049986742697647281 -0.00011015667028221974 0 -0.049999886568643188 -6.0728312734571595e-08 0 -0.05003110594505325 -2.5946895923537478e-05 0 -0.049999886568643188 -6.0728312734571595e-08 0 -0.05003110594505325 -2.5946895923537478e-05 0 -0.050000285546286889 -1.9623115893784623e-08 0 -0.05003110594505325 -2.5946895923537478e-05 0 -0.0500500910589977 -2.4221875014044441e-05 0 -0.050150555077319053 -0.00031017873128914332 0 -0.04995240761518388 -0.00036589343823535409 0 -0.049877336422739921 -0.00042803829612995833 0 -0.05003110594505325 -2.5946895923537478e-05 0 -0.050050089181453719 -2.4554776097848563e-05 0 -0.050000285546286889 -1.9623115893784623e-08 0 -0.049877336422739921 -0.00042803829612995833 0 -0.049999995313821835 -1.340673893669277e-07 0 -0.049877336422739921 -0.00042803829612995833 0 -0.049931311184478411 -0.00090186138145012561 0 -0.049813501629181481 -0.0012488032748026281 0 -0.049733560085751007 -0.0013844179957991068 0 -0.049873188398866446 -0.001352972546483279 0 -0.049986742697647281 -0.00011015667028221974 0 -0.05003110594505325 -2.5946895923537478e-05 0 -0.050150555077319053 -0.00031017873128914332 0 -0.049733560085751007 -0.0013844179957991068 0 -0.049617136661339246 -0.0015766712287458282 0 -0.049895272535626548 -0.0015303015536570726 0 -0.049931311184478411 -0.00090186138145012561 0 -0.049797276934616566 -0.001242218062952289 0 -0.049800703338478781 -0.00036369924259979007 0 -0.050150555077319053 -0.00031017873128914332 0 -0.050018098624737994 -0.0009166399812158137 0 -0.049614925178288714 -0.0009381223918309621 0 -0.049800703338478781 -0.00036369924259979007 0 -0.050018098624737994 -0.0009166399812158137 0 -0.049319124613636051 -0.0014138212783174025 0 -0.049614925178288714 -0.0009381223918309621 0 -0.050018098624737994 -0.0009166399812158137 0 -0.049715174169039041 -0.0017953012942882481 0 -0.049617136661339246 -0.0015766712287458282 0 -0.049895272535626548 -0.0015303015536570726 0 -0.049895272535626548 -0.0015303015536570726 0 -0.050066114503519686 -0.0016191378257000926 0 -0.050029829448093241 -0.0014782496035289296 0 -0.050007660868986691 -0.0018430459920742211 0 -0.049895272535626548 -0.0015303015536570726 0 -0.050066114503519686 -0.0016191378257000926 0 -0.049895272535626548 -0.0015303015536570726 0 -0.04996723345752592 -0.0014055261441490595 0 -0.050029829448093241 -0.0014782496035289296 0 -0.049733560085751007 -0.0013844179957991068 0 -0.049895272535626548 -0.0015303015536570726 0 -0.049873188398866446 -0.001352972546483279 0 -0.049895272535626548 -0.0015303015536570726 0 -0.04996723345752592 -0.0014055261441490595 0 -0.049873188398866446 -0.001352972546483279 0 -0.049877336422739921 -0.00042803829612995833 0 -0.049974326472865635 -0.00066864300601617455 0 -0.04999823016721603 -5.9052547159641998e-06 0 -0.04999998604773935 -2.8646000492173471e-08 0 -0.049999931644858657 -2.6755011096714271e-06 0 -0.049813501629181481 -0.0012488032748026281 0 -0.049873188398866446 -0.001352972546483279 0 -0.049967425184110341 -0.0012886657076424267 0 -0.04999998604773935 -2.8646000492173471e-08 0 -0.049999998780535584 3.6663196972494075e-09 0 -0.049999931644858657 -2.6755011096714271e-06 0 -0.04996723345752592 -0.0014055261441490595 0 -0.049873188398866446 -0.001352972546483279 0 -0.049967425184110341 -0.0012886657076424267 0 -0.04996723345752592 -0.0014055261441490595 0 -0.049967425184110341 -0.0012886657076424267 0 -0.050032875795123173 -0.0013804937184597429 0 -0.049974326472865635 -0.00066864300601617455 0 -0.050065910275716156 -0.00067167836915305479 0 -0.049999998780535584 3.6663196972494075e-09 0 -0.050000036237695347 -5.4461375517265166e-09 0 -0.050007952391160466 -2.8394745126355843e-06 0 -0.049999998780535584 3.6663196972494075e-09 0 -0.049999931644858657 -2.6755011096714271e-06 0 -0.050007952391160466 -2.8394745126355843e-06 0 -0.049967425184110341 -0.0012886657076424267 0 -0.050032875795123173 -0.0013804937184597429 0 -0.050018060246890747 -0.0013365605477619487 0 -0.050014563093246062 -2.5970172108400558e-06 0 -0.050000036237695347 -5.4461375517265166e-09 0 -0.050007952391160466 -2.8394745126355843e-06 0 -0.049745983805176419 -0.000614988419185389 0 -0.050065910275716156 -0.00067167836915305479 0 -0.050047642784622592 -0.0013649008468622117 0 -0.050032875795123173 -0.0013804937184597429 0 -0.050018060246890747 -0.0013365605477619487 0 -0.050499523353220173 -0.0018846905006235173 0 -0.050511541368402801 -0.0019321623155707846 0 -0.050550276367143356 -0.0019691181191838119 0 -0.050047642784622592 -0.0013649008468622117 0 -0.050032875795123173 -0.0013804937184597429 0 -0.050075297523226148 -0.0014507341960915715 0 -0.048700362374120836 -0.00098290348146338352 0 -0.047703755937526272 -0.0011040995473749057 0 -0.048700362374120836 -0.00098290348146338352 0 -0.050497091894481989 -0.0016936556238127533 0 -0.050032875795123173 -0.0013804937184597429 0 -0.050075297523226148 -0.0014507341960915715 0 -0.050029829448093241 -0.0014782496035289296 0 -0.04996723345752592 -0.0014055261441490595 0 -0.050032875795123173 -0.0013804937184597429 0 -0.050029829448093241 -0.0014782496035289296 0 -0.050402733977822092 -0.0020089926674812246 0 -0.050511541368402801 -0.0019321623155707846 0 -0.050550276367143356 -0.0019691181191838119 0 -0.050066114503519686 -0.0016191378257000926 0 -0.050075297523226148 -0.0014507341960915715 0 -0.050029829448093241 -0.0014782496035289296 0 -0.050192993887953584 -0.0018312244216114979 0 -0.050497091894481989 -0.0016936556238127533 0 -0.035584056382817343 0.0014076335222507111 0 -0.038295604119130904 -0.0018170420443994735 0 -0.033420062772932232 -0.0021996774626113079 0 -0.035584056382817343 0.0014076335222507111 0 -0.038295604119130904 -0.0018170420443994735 0 -0.039716984476029865 -4.109705076887635e-05 0 -0.038295604119130904 -0.0018170420443994735 0 -0.040323134483645606 -0.0016692570191841555 0 -0.039716984476029865 -4.109705076887635e-05 0 -0.040323134483645606 -0.0016692570191841555 0 -0.039716984476029865 -4.109705076887635e-05 0 -0.042029046789530171 -0.00077343297491756899 0 -0.035584056382817343 0.0014076335222507111 0 -0.039716984476029865 -4.109705076887635e-05 0 -0.040714252490275459 0.001876755804524836 0 -0.039716984476029865 -4.109705076887635e-05 0 -0.040714252490275459 0.001876755804524836 0 -0.042029046789530171 -0.00077343297491756899 0 -0.042520994101095985 0.00061433497055421796 0 -0.045162412158695396 0.0010880784754916106 0 -0.049725926071488152 -5.1191649793248971e-05 0 -0.049855520546882366 0.00036836010397713921 0 -0.049752004207919837 0.00019193696269677112 0 -0.049725926071488152 -5.1191649793248971e-05 0 -0.049622540211168874 2.7323825199363572e-05 0 -0.049752004207919837 0.00019193696269677112 0 -0.049725926071488152 -5.1191649793248971e-05 0 -0.049622540211168874 2.7323825199363572e-05 0 -0.049485399847674978 -0.00015008006134703468 0 -0.049485399847674978 -0.00015008006134703468 0 -0.04951419518291391 7.9002914606005552e-06 0 -0.049390824115045091 -7.3237982398275959e-05 0 -0.049622540211168874 2.7323825199363572e-05 0 -0.049485399847674978 -0.00015008006134703468 0 -0.04951419518291391 7.9002914606005552e-06 0 -0.049485399847674978 -0.00015008006134703468 0 -0.049355091914862426 -0.00020073914929791346 0 -0.049390824115045091 -7.3237982398275959e-05 0 -0.049485399847674978 -0.00015008006134703468 0 -0.049364474915675423 -0.00031756508892585519 0 -0.049453300879689521 -0.00040721646229984582 0 -0.049355091914862426 -0.00020073914929791346 0 -0.049364474915675423 -0.00031756508892585519 0 -0.049247208552915006 -0.0003116306200788371 0 -0.049485399847674978 -0.00015008006134703468 0 -0.049355091914862426 -0.00020073914929791346 0 -0.049364474915675423 -0.00031756508892585519 0 -0.049364474915675423 -0.00031756508892585519 0 -0.049264317280070025 -0.0005065176869832028 0 -0.049247208552915006 -0.0003116306200788371 0 -0.049364474915675423 -0.00031756508892585519 0 -0.049453300879689521 -0.00040721646229984582 0 -0.049264317280070025 -0.0005065176869832028 0 -0.042520994101095985 0.00061433497055421796 0 -0.038801054885659152 -0.00035404044018891534 0 -0.035584056382817343 0.0014076335222507111 0 -0.028293776079070923 -0.00015910511580544676 0 -0.033420062772932232 -0.0021996774626113079 0 -0.049725926071488152 -5.1191649793248971e-05 0 -0.049485399847674978 -0.00015008006134703468 0 -0.049453300879689521 -0.00040721646229984582 0 -0.033420062772932232 -0.0021996774626113079 0 -0.029847194901675856 -0.0058077488107272498 0 -0.036439626124261416 -0.0046104199775110063 0 -0.028293776079070923 -0.00015910511580544676 0 -0.033420062772932232 -0.0021996774626113079 0 -0.029847194901675856 -0.0058077488107272498 0 -0.025274667571381373 -0.0034711673159253898 0 -0.034490869433807705 -0.0025627785625622979 0 -0.038801054885659152 -0.00035404044018891534 0 -0.033588174938740119 -0.001962705961142279 0 -0.049453300879689521 -0.00040721646229984582 0 -0.049264317280070025 -0.0005065176869832028 0 -0.049064129128464626 -0.00081067024530583304 0 -0.028293776079070923 -0.00015910511580544676 0 -0.02277474110594007 -0.0036182563096963574 0 -0.018794147786099499 -0.0031254249203924492 0 -0.028293776079070923 -0.00015910511580544676 0 -0.029847194901675856 -0.0058077488107272498 0 -0.025170488913127263 -0.00397396254382619 0 -0.029700804802730112 -0.0057527076172028983 0 -0.025170488913127263 -0.00397396254382619 0 -0.0214167889817077 -0.0064620799614856055 0 -0.028293776079070923 -0.00015910511580544676 0 -0.02277474110594007 -0.0036182563096963574 0 -0.025170488913127263 -0.00397396254382619 0 -0.025274667571381373 -0.0034711673159253898 0 -0.027106473346776273 -0.0045974255731590702 0 -0.02277474110594007 -0.0036182563096963574 0 -0.025170488913127263 -0.00397396254382619 0 -0.0214167889817077 -0.0064620799614856055 0 -0.015359914889647984 -0.0057640966505198236 0 -0.012968943805793613 -0.0045954061329386555 0 -0.017812850329804203 -0.0013063482647849222 0 -0.01274687419472964 -0.00451214634349178 0 -0.011989518836750741 -0.0036905886279536039 0 -0.018891813885129349 -0.0071574657737718036 0 -0.017812850329804203 -0.0013063482647849222 0 -0.01274687419472964 -0.00451214634349178 0 -0.025274667571381373 -0.0034711673159253898 0 -0.016664991114899472 -0.0049497267076082365 0 -0.018891813885129349 -0.0071574657737718036 0 -0.017812850329804203 -0.0013063482647849222 0 -0.023065848564886776 -0.0026333641344906469 0 -0.025274667571381373 -0.0034711673159253898 0 -0.025730885649940669 -0.0027478237062065554 0 -0.024076188349669198 -0.0060425357663224551 0 -0.023065848564886776 -0.0026333641344906469 0 -0.028312274401086576 -0.0040629441084527292 0 -0.024076188349669198 -0.0060425357663224551 0 -0.018891813885129349 -0.0071574657737718036 0 -0.023065848564886776 -0.0026333641344906469 0 -0.025372364242430553 -0.0017788098372678533 0 -0.030290672721732616 -0.0035336204337320016 0 -0.031807067199786494 -0.00061592526605963962 0 -0.030290672721732616 -0.0035336204337320016 0 -0.031807067199786494 -0.00061592526605963962 0 -0.035214197079760388 -0.005301376082855371 0 -0.025730885649940669 -0.0027478237062065554 0 -0.033757775133812791 -0.0048634244505851455 0 -0.038295604119130904 -0.0018170420443994735 0 -0.033420062772932232 -0.0021996774626113079 0 -0.036439626124261416 -0.0046104199775110063 0 -0.038295604119130904 -0.0018170420443994735 0 -0.036439626124261416 -0.0046104199775110063 0 -0.041082709087697317 -0.0033246510834630781 0 -0.034490869433807705 -0.0025627785625622979 0 -0.039832068437627773 -0.0016294143368734185 0 -0.040323134483645606 -0.0016692570191841555 0 -0.041193533528168326 -0.0029418118906665573 0 -0.041082709087697317 -0.0033246510834630781 0 -0.038295604119130904 -0.0018170420443994735 0 -0.040323134483645606 -0.0016692570191841555 0 -0.041082709087697317 -0.0033246510834630781 0 -0.031807067199786494 -0.00061592526605963962 0 -0.035214197079760388 -0.005301376082855371 0 -0.038244239649471386 0.00052682505201070843 0 -0.033757775133812791 -0.0048634244505851455 0 -0.039832068437627773 -0.0016294143368734185 0 -0.039365355815943748 -0.0053056473497701869 0 -0.041367804653043377 -0.00439831752783799 0 -0.040764107580524324 -0.0029024097637109893 0 -0.042004417568909123 -0.007000956853689619 0 -0.041367804653043377 -0.00439831752783799 0 -0.04262822612488993 -0.0053980118641874788 0 -0.042004417568909123 -0.007000956853689619 0 -0.039365355815943748 -0.0053056473497701869 0 -0.041367804653043377 -0.00439831752783799 0 -0.041367804653043377 -0.00439831752783799 0 -0.04262822612488993 -0.0053980118641874788 0 -0.042960197080921289 -0.0042561415727617917 0 -0.041367804653043377 -0.00439831752783799 0 -0.042960197080921289 -0.0042561415727617917 0 -0.042438945175056059 -0.0035233547300736147 0 -0.04262822612488993 -0.0053980118641874788 0 -0.044905525519176703 -0.004483420714064627 0 -0.042960197080921289 -0.0042561415727617917 0 -0.045437819784709399 -0.0062999113475967101 0 -0.04262822612488993 -0.0053980118641874788 0 -0.044905525519176703 -0.004483420714064627 0 -0.044905525519176703 -0.004483420714064627 0 -0.043762780526652161 -0.0034006079673602925 0 -0.045002249110851815 -0.0033906496204986836 0 -0.044905525519176703 -0.004483420714064627 0 -0.042960197080921289 -0.0042561415727617917 0 -0.043762780526652161 -0.0034006079673602925 0 -0.043762780526652161 -0.0034006079673602925 0 -0.043208838470619869 -0.0026371090896872046 0 -0.042438945175056059 -0.0035233547300736147 0 -0.042960197080921289 -0.0042561415727617917 0 -0.043762780526652161 -0.0034006079673602925 0 -0.042438945175056059 -0.0035233547300736147 0 -0.043762780526652161 -0.0034006079673602925 0 -0.04452801027276132 -0.0025151903429219452 0 -0.043208838470619869 -0.0026371090896872046 0 -0.043762780526652161 -0.0034006079673602925 0 -0.04452801027276132 -0.0025151903429219452 0 -0.045002249110851815 -0.0033906496204986836 0 -0.043208838470619869 -0.0026371090896872046 0 -0.042649900040248268 -0.0020769659736880387 0 -0.043797130224958007 -0.0015475208452892667 0 -0.04452801027276132 -0.0025151903429219452 0 -0.043208838470619869 -0.0026371090896872046 0 -0.043797130224958007 -0.0015475208452892667 0 -0.043208838470619869 -0.0026371090896872046 0 -0.042649900040248268 -0.0020769659736880387 0 -0.041964789173027629 -0.0027653964830330071 0 -0.042649900040248268 -0.0020769659736880387 0 -0.041964789173027629 -0.0027653964830330071 0 -0.041687102105195627 -0.0020729046640874916 0 -0.040323134483645606 -0.0016692570191841555 0 -0.041687102105195627 -0.0020729046640874916 0 -0.041193533528168326 -0.0029418118906665573 0 -0.041964789173027629 -0.0027653964830330071 0 -0.041193533528168326 -0.0029418118906665573 0 -0.041039352126798163 -0.0033023353173668346 0 -0.039856637572320212 -0.0017922746577148665 0 -0.039832068437627773 -0.0016294143368734185 0 -0.041964789173027629 -0.0027653964830330071 0 -0.041687102105195627 -0.0020729046640874916 0 -0.041193533528168326 -0.0029418118906665573 0 -0.041294054431470058 -0.0020543087392250864 0 -0.039832068437627773 -0.0016294143368734185 0 -0.041367804653043377 -0.00439831752783799 0 -0.040764107580524324 -0.0029024097637109893 0 -0.041645466571456714 -0.0033929717606132554 0 -0.041964789173027629 -0.0027653964830330071 0 -0.040764107580524324 -0.0029024097637109893 0 -0.041645466571456714 -0.0033929717606132554 0 -0.043208838470619869 -0.0026371090896872046 0 -0.041964789173027629 -0.0027653964830330071 0 -0.042438945175056059 -0.0035233547300736147 0 -0.041367804653043377 -0.00439831752783799 0 -0.041645466571456714 -0.0033929717606132554 0 -0.042438945175056059 -0.0035233547300736147 0 -0.041964789173027629 -0.0027653964830330071 0 -0.041645466571456714 -0.0033929717606132554 0 -0.042438945175056059 -0.0035233547300736147 0 -0.047440067788191723 -0.0039016466851745559 0 -0.047794002497799859 -0.0028047926198031354 0 -0.046905183091511093 -0.0035140989336548559 0 -0.046539403699020668 -0.0046420437459897138 0 -0.046905183091511093 -0.0035140989336548559 0 -0.046002435703802122 -0.0035879337396889375 0 -0.046539403699020668 -0.0046420437459897138 0 -0.047440067788191723 -0.0039016466851745559 0 -0.046905183091511093 -0.0035140989336548559 0 -0.046539403699020668 -0.0046420437459897138 0 -0.044905525519176703 -0.004483420714064627 0 -0.046002435703802122 -0.0035879337396889375 0 -0.044905525519176703 -0.004483420714064627 0 -0.046002435703802122 -0.0035879337396889375 0 -0.045002249110851815 -0.0033906496204986836 0 -0.04452801027276132 -0.0025151903429219452 0 -0.045002249110851815 -0.0033906496204986836 0 -0.045611739977216188 -0.0026847217844662772 0 -0.046002435703802122 -0.0035879337396889375 0 -0.045002249110851815 -0.0033906496204986836 0 -0.045611739977216188 -0.0026847217844662772 0 -0.04452801027276132 -0.0025151903429219452 0 -0.045611739977216188 -0.0026847217844662772 0 -0.045633954503604239 -0.0014205558097694956 0 -0.045611739977216188 -0.0026847217844662772 0 -0.046758030394625436 -0.0024745624030110915 0 -0.045633954503604239 -0.0014205558097694956 0 -0.046002435703802122 -0.0035879337396889375 0 -0.045611739977216188 -0.0026847217844662772 0 -0.046758030394625436 -0.0024745624030110915 0 -0.047794002497799859 -0.0028047926198031354 0 -0.046905183091511093 -0.0035140989336548559 0 -0.046758030394625436 -0.0024745624030110915 0 -0.047794002497799859 -0.0028047926198031354 0 -0.046758030394625436 -0.0024745624030110915 0 -0.047717007559065751 -0.0017748051788065904 0 -0.046905183091511093 -0.0035140989336548559 0 -0.046002435703802122 -0.0035879337396889375 0 -0.046758030394625436 -0.0024745624030110915 0 -0.048285486671726205 -0.00036770680610072874 0 -0.047131982813349571 -0.0011262714183426096 0 -0.047717007559065751 -0.0017748051788065904 0 -0.046758030394625436 -0.0024745624030110915 0 -0.047131982813349571 -0.0011262714183426096 0 -0.047717007559065751 -0.0017748051788065904 0 -0.046758030394625436 -0.0024745624030110915 0 -0.047131982813349571 -0.0011262714183426096 0 -0.045633954503604239 -0.0014205558097694956 0 -0.047131982813349571 -0.0011262714183426096 0 -0.045633954503604239 -0.0014205558097694956 0 -0.046843701341628588 0.00032493764998965294 0 -0.045633954503604239 -0.0014205558097694956 0 -0.046843701341628588 0.00032493764998965294 0 -0.044145812261367025 3.4526327552870252e-05 0 -0.048285486671726205 -0.00036770680610072874 0 -0.047131982813349571 -0.0011262714183426096 0 -0.046843701341628588 0.00032493764998965294 0 -0.048285486671726205 -0.00036770680610072874 0 -0.046843701341628588 0.00032493764998965294 0 -0.047757520275782145 0.00057711988651538483 0 -0.040323134483645606 -0.0016692570191841555 0 -0.041687102105195627 -0.0020729046640874916 0 -0.042029046789530171 -0.00077343297491756899 0 -0.042649900040248268 -0.0020769659736880387 0 -0.041687102105195627 -0.0020729046640874916 0 -0.042029046789530171 -0.00077343297491756899 0 -0.042649900040248268 -0.0020769659736880387 0 -0.042029046789530171 -0.00077343297491756899 0 -0.043797130224958007 -0.0015475208452892667 0 -0.04452801027276132 -0.0025151903429219452 0 -0.045633954503604239 -0.0014205558097694956 0 -0.043797130224958007 -0.0015475208452892667 0 -0.045633954503604239 -0.0014205558097694956 0 -0.043797130224958007 -0.0015475208452892667 0 -0.044145812261367025 3.4526327552870252e-05 0 -0.042029046789530171 -0.00077343297491756899 0 -0.043797130224958007 -0.0015475208452892667 0 -0.044145812261367025 3.4526327552870252e-05 0 -0.046843701341628588 0.00032493764998965294 0 -0.044145812261367025 3.4526327552870252e-05 0 -0.044432763206345621 0.0019131387673767893 0 -0.040714252490275459 0.001876755804524836 0 -0.044145812261367025 3.4526327552870252e-05 0 -0.044432763206345621 0.0019131387673767893 0 -0.040714252490275459 0.001876755804524836 0 -0.042029046789530171 -0.00077343297491756899 0 -0.044145812261367025 3.4526327552870252e-05 0 -0.049855520546882366 0.00036836010397713921 0 -0.049613180493731875 0.00095261947251116163 0 -0.049850857897181279 0.00052068845822979119 0 -0.045162412158695396 0.0010880784754916106 0 -0.046905050844053692 0.0013463637009400267 0 -0.046905050844053692 0.0013463637009400267 0 -0.047859528498705957 0.0013448307916879409 0 -0.049613180493731875 0.00095261947251116163 0 -0.049822740795515782 0.00031602228398042788 0 -0.049306037973202224 0.00051587100822754234 0 -0.049613180493731875 0.00095261947251116163 0 -0.048101645689534962 0.0013521170261025081 0 -0.049306037973202224 0.00051587100822754234 0 -0.049613180493731875 0.00095261947251116163 0 -0.049822740795515782 0.00031602228398042788 0 -0.049850857897181279 0.00052068845822979119 0 -0.048285486671726205 -0.00036770680610072874 0 -0.04818608141757133 0.0011462063920348931 0 -0.047757520275782145 0.00057711988651538483 0 -0.04818608141757133 0.0011462063920348931 0 -0.047757520275782145 0.00057711988651538483 0 -0.048101645689534962 0.0013521170261025081 0 -0.046843701341628588 0.00032493764998965294 0 -0.044432763206345621 0.0019131387673767893 0 -0.048101645689534962 0.0013521170261025081 0 -0.046843701341628588 0.00032493764998965294 0 -0.047757520275782145 0.00057711988651538483 0 -0.048101645689534962 0.0013521170261025081 0 -0.048101645689534962 0.0013521170261025081 0 -0.04866629012747499 0.00081959847715729138 0 -0.049306037973202224 0.00051587100822754234 0 -0.04818608141757133 0.0011462063920348931 0 -0.048624823177134534 0.00064281719462322212 0 -0.04866629012747499 0.00081959847715729138 0 -0.048570356778693702 0.00057387807055545015 0 -0.049122954997011199 0.00043843667433659129 0 -0.04818608141757133 0.0011462063920348931 0 -0.048101645689534962 0.0013521170261025081 0 -0.04866629012747499 0.00081959847715729138 0 -0.048624823177134534 0.00064281719462322212 0 -0.04866629012747499 0.00081959847715729138 0 -0.049353751443389555 0.00030603720527776587 0 -0.04866629012747499 0.00081959847715729138 0 -0.049353751443389555 0.00030603720527776587 0 -0.049306037973202224 0.00051587100822754234 0 -0.049353751443389555 0.00030603720527776587 0 -0.049997677088632439 1.9897709584095011e-07 0 -0.049999578304699178 1.3685820516051638e-08 0 -0.049353751443389555 0.00030603720527776587 0 -0.049306037973202224 0.00051587100822754234 0 -0.049999578304699178 1.3685820516051638e-08 0 -0.048624823177134534 0.00064281719462322212 0 -0.049353751443389555 0.00030603720527776587 0 -0.049997677088632439 1.9897709584095011e-07 0 -0.04974003894513742 6.0995995915925494e-05 0 -0.049554340314926754 0.00015287221323841358 0 -0.050000149083689029 -5.6841672692240374e-09 0 -0.049122954997011199 0.00043843667433659129 0 -0.049999589832977608 2.2024838543634179e-07 0 -0.049822740795515782 0.00031602228398042788 0 -0.049306037973202224 0.00051587100822754234 0 -0.049999578304699178 1.3685820516051638e-08 0 -0.049822740795515782 0.00031602228398042788 0 -0.049999578304699178 1.3685820516051638e-08 0 -0.049999917299146102 1.5936571875064802e-07 0 -0.049999917299146102 1.5936571875064802e-07 0 -0.049955342955621602 0.00015038738049118864 0 -0.049999882609023633 2.0407366100877547e-07 0 -0.049822740795515782 0.00031602228398042788 0 -0.049999917299146102 1.5936571875064802e-07 0 -0.049955342955621602 0.00015038738049118864 0 -0.049999882609023633 2.0407366100877547e-07 0 -0.049951365046271748 0.00012902553062144168 0 -0.049995169410240646 3.6941930594409716e-05 0 -0.049955342955621602 0.00015038738049118864 0 -0.049999882609023633 2.0407366100877547e-07 0 -0.049951365046271748 0.00012902553062144168 0 -0.049955342955621602 0.00015038738049118864 0 -0.049891833076734372 0.00023107903985828372 0 -0.049899111442745163 0.00032036119342328733 0 -0.049955342955621602 0.00015038738049118864 0 -0.049951365046271748 0.00012902553062144168 0 -0.049891833076734372 0.00023107903985828372 0 -0.049822740795515782 0.00031602228398042788 0 -0.049955342955621602 0.00015038738049118864 0 -0.049899111442745163 0.00032036119342328733 0 -0.049822740795515782 0.00031602228398042788 0 -0.049850857897181279 0.00052068845822979119 0 -0.049899111442745163 0.00032036119342328733 0 -0.049850857897181279 0.00052068845822979119 0 -0.049899111442745163 0.00032036119342328733 0 -0.049842049603503184 0.00036436600277274268 0 -0.049891833076734372 0.00023107903985828372 0 -0.049899111442745163 0.00032036119342328733 0 -0.049837969584061538 0.00027771703491076018 0 -0.049899111442745163 0.00032036119342328733 0 -0.049837969584061538 0.00027771703491076018 0 -0.049842049603503184 0.00036436600277274268 0 -0.049837969584061538 0.00027771703491076018 0 -0.049752004207919837 0.00019193696269677112 0 -0.049842049603503184 0.00036436600277274268 0 -0.049855520546882366 0.00036836010397713921 0 -0.049752004207919837 0.00019193696269677112 0 -0.049842049603503184 0.00036436600277274268 0 -0.049855520546882366 0.00036836010397713921 0 -0.049850857897181279 0.00052068845822979119 0 -0.049842049603503184 0.00036436600277274268 0 -0.049604600845872621 0.00011267252158601489 0 -0.049444006519295564 2.8335692775444066e-05 0 -0.04947623651020238 0.00011195814699266373 0 -0.049604600845872621 0.00011267252158601489 0 -0.049444006519295564 2.8335692775444066e-05 0 -0.04951419518291391 7.9002914606005552e-06 0 -0.049444006519295564 2.8335692775444066e-05 0 -0.04951419518291391 7.9002914606005552e-06 0 -0.049390824115045091 -7.3237982398275959e-05 0 -0.049622540211168874 2.7323825199363572e-05 0 -0.049604600845872621 0.00011267252158601489 0 -0.04951419518291391 7.9002914606005552e-06 0 -0.049752004207919837 0.00019193696269677112 0 -0.049604600845872621 0.00011267252158601489 0 -0.049748182029633992 0.00022052380679515206 0 -0.049622540211168874 2.7323825199363572e-05 0 -0.049752004207919837 0.00019193696269677112 0 -0.049604600845872621 0.00011267252158601489 0 -0.049837969584061538 0.00027771703491076018 0 -0.049752004207919837 0.00019193696269677112 0 -0.049748182029633992 0.00022052380679515206 0 -0.049891833076734372 0.00023107903985828372 0 -0.049837969584061538 0.00027771703491076018 0 -0.049748182029633992 0.00022052380679515206 0 -0.049748182029633992 0.00022052380679515206 0 -0.049598749803402349 0.00019446557650703862 0 -0.049731754361932966 0.00024234194165284004 0 -0.049598749803402349 0.00019446557650703862 0 -0.049731754361932966 0.00024234194165284004 0 -0.049490155810027102 0.00027784560750318776 0 -0.049604600845872621 0.00011267252158601489 0 -0.049748182029633992 0.00022052380679515206 0 -0.049598749803402349 0.00019446557650703862 0 -0.049598749803402349 0.00019446557650703862 0 -0.04947623651020238 0.00011195814699266373 0 -0.049484198558962626 0.00017389097441543655 0 -0.049604600845872621 0.00011267252158601489 0 -0.049598749803402349 0.00019446557650703862 0 -0.04947623651020238 0.00011195814699266373 0 -0.049880409008238834 0.00012066043930156699 0 -0.049725284990499621 0.00011241479175023633 0 -0.050000070299258952 1.299373373406956e-06 0 -0.049970891337751018 -9.3509207316542242e-06 0 -0.049974557369257301 -2.7889094261982148e-05 0 -0.049731754361932966 0.00024234194165284004 0 -0.049779592280456794 0.00027964227851313967 0 -0.049490155810027102 0.00027784560750318776 0 -0.049891833076734372 0.00023107903985828372 0 -0.049748182029633992 0.00022052380679515206 0 -0.049731754361932966 0.00024234194165284004 0 -0.049891833076734372 0.00023107903985828372 0 -0.049731754361932966 0.00024234194165284004 0 -0.049891835146550413 0.00019944595876886156 0 -0.049731754361932966 0.00024234194165284004 0 -0.049779592280456794 0.00027964227851313967 0 -0.049891835146550413 0.00019944595876886156 0 -0.049951365046271748 0.00012902553062144168 0 -0.049891833076734372 0.00023107903985828372 0 -0.049891835146550413 0.00019944595876886156 0 -0.049779592280456794 0.00027964227851313967 0 -0.049891835146550413 0.00019944595876886156 0 -0.049995169410240646 3.6941930594409716e-05 0 -0.049999882609023633 2.0407366100877547e-07 0 -0.049995169410240646 3.6941930594409716e-05 0 -0.050000054936013241 -6.4004613305340431e-09 0 -0.049880409008238834 0.00012066043930156699 0 -0.049953392681479025 5.25903763994317e-05 0 -0.050000070299258952 1.299373373406956e-06 0 -0.049995169410240646 3.6941930594409716e-05 0 -0.050000054936013241 -6.4004613305340431e-09 0 -0.049951365046271748 0.00012902553062144168 0 -0.049891835146550413 0.00019944595876886156 0 -0.049995169410240646 3.6941930594409716e-05 0 -0.050000070299258952 1.299373373406956e-06 0 -0.050000054936013241 -6.4004613305340431e-09 0 -0.049970891337751018 -9.3509207316542242e-06 0 -0.049999963645251062 -1.7345413398993659e-08 0 -0.050012384340790236 -1.4337908250774799e-05 0 -0.049999936084783314 -2.2205803684938815e-09 0 -0.050000063907774998 1.3428314197674892e-08 0 -0.049977853120711402 -1.3967494033202794e-05 0 -0.049999994101339679 -5.6879729867620057e-09 0 -0.050000047460845243 -2.3894830931546177e-09 0 -0.050002647431043747 -2.1490799392977837e-05 0 -0.049999936084783314 -2.2205803684938815e-09 0 -0.049957512346348119 -7.1721064910040736e-06 0 -0.049977853120711402 -1.3967494033202794e-05 0 -0.049999960591059843 -2.5989938020364684e-08 0 -0.05000097953460609 -8.8851326012617466e-06 0 -0.050000047460845243 -2.3894830931546177e-09 0 -0.050002647431043747 -2.1490799392977837e-05 0 -0.049970113768726114 -2.8015663366693172e-05 0 -0.05000097953460609 -8.8851326012617466e-06 0 -0.049798387090383589 -7.7689357064190506e-05 0 -0.050002647431043747 -2.1490799392977837e-05 0 -0.049970113768726114 -2.8015663366693172e-05 0 -0.049960420489970327 -7.2185654977726353e-05 0 -0.049970891337751018 -9.3509207316542242e-06 0 -0.049974557369257301 -2.7889094261982148e-05 0 -0.04992103647368306 -6.1832470036619355e-05 0 -0.049957512346348119 -7.1721064910040736e-06 0 -0.049977853120711402 -1.3967494033202794e-05 0 -0.049938729137209696 -7.3473891740747629e-05 0 -0.049999654808687344 2.5414909409494926e-08 0 -0.049925044059133727 -8.0164256800582386e-06 0 -0.049850527523447721 -2.8118703912767807e-06 0 -0.050000047460845243 -2.3894830931546177e-09 0 -0.049999654808687344 2.5414909409494926e-08 0 -0.049925044059133727 -8.0164256800582386e-06 0 -0.050000047460845243 -2.3894830931546177e-09 0 -0.049925044059133727 -8.0164256800582386e-06 0 -0.049970113768726114 -2.8015663366693172e-05 0 -0.049894975214637899 -2.9650928606304387e-06 0 -0.049798387090383589 -7.7689357064190506e-05 0 -0.049925044059133727 -8.0164256800582386e-06 0 -0.049970113768726114 -2.8015663366693172e-05 0 -0.049960420489970327 -7.2185654977726353e-05 0 -0.049925044059133727 -8.0164256800582386e-06 0 -0.049704817740796811 -6.5494107375150702e-05 0 -0.049622539893977663 -0.00010008016167034922 0 -0.049925044059133727 -8.0164256800582386e-06 0 -0.049704817740796811 -6.5494107375150702e-05 0 -0.049850527523447721 -2.8118703912767807e-06 0 -0.049704817740796811 -6.5494107375150702e-05 0 -0.049601314943279885 -3.7955139047314995e-05 0 -0.049850527523447721 -2.8118703912767807e-06 0 -0.049704817740796811 -6.5494107375150702e-05 0 -0.049572097595511191 -0.00012054553015219357 0 -0.049601314943279885 -3.7955139047314995e-05 0 -0.049704817740796811 -6.5494107375150702e-05 0 -0.049572097595511191 -0.00012054553015219357 0 -0.049550762025444464 -0.0001212985831369399 0 -0.049572097595511191 -0.00012054553015219357 0 -0.049470057091429868 -0.00017405062759644495 0 -0.049601314943279885 -3.7955139047314995e-05 0 -0.049572097595511191 -0.00012054553015219357 0 -0.049471598539000329 -0.00016498766142788134 0 -0.049470057091429868 -0.00017405062759644495 0 -0.049572097595511191 -0.00012054553015219357 0 -0.049550762025444464 -0.0001212985831369399 0 -0.049471598539000329 -0.00016498766142788134 0 -0.049704817740796811 -6.5494107375150702e-05 0 -0.049550762025444464 -0.0001212985831369399 0 -0.049622539893977663 -0.00010008016167034922 0 -0.049591352651303683 -0.00015759341658280331 0 -0.049798387090383589 -7.7689357064190506e-05 0 -0.049798387090383589 -7.7689357064190506e-05 0 -0.049393991512936365 -0.00014076078900301611 0 -0.049550762025444464 -0.0001212985831369399 0 -0.049597518244989695 -8.1358579633375398e-05 0 -0.04963292933373048 -0.00017030544577836492 0 -0.048961577464158489 -0.000348598806323497 0 -0.049073555062519522 -0.00024819165064847882 0 -0.049285037548402348 -0.00023867297948001358 0 -0.049393991512936365 -0.00014076078900301611 0 -0.049260142386828146 -0.00027259237452646198 0 -0.049481890463724705 -0.00017362386754802271 0 -0.04963292933373048 -0.00017030544577836492 0 -0.049285037548402348 -0.00023867297948001358 0 -0.048961577464158489 -0.000348598806323497 0 -0.048999652837640281 -0.00023950175554044199 0 -0.049073555062519522 -0.00024819165064847882 0 -0.049550762025444464 -0.0001212985831369399 0 -0.049481890463724705 -0.00017362386754802271 0 -0.04963292933373048 -0.00017030544577836492 0 -0.049550762025444464 -0.0001212985831369399 0 -0.049481890463724705 -0.00017362386754802271 0 -0.049471598539000329 -0.00016498766142788134 0 -0.048997452311153517 4.0289841576184453e-05 0 -0.049270304896024457 2.3555229113248947e-06 0 -0.049471598539000329 -0.00016498766142788134 0 -0.049285037548402348 -0.00023867297948001358 0 -0.049470057091429868 -0.00017405062759644495 0 -0.049481890463724705 -0.00017362386754802271 0 -0.049471598539000329 -0.00016498766142788134 0 -0.049285037548402348 -0.00023867297948001358 0 -0.050012384340790236 -1.4337908250774799e-05 0 -0.049625971728411836 1.389464513825118e-05 0 -0.049490155810027102 0.00027784560750318776 0 -0.049370406024556258 0.00011853728598121249 0 -0.049228731317608014 0.00011019918960573105 0 -0.049725284990499621 0.00011241479175023633 0 -0.049625971728411836 1.389464513825118e-05 0 -0.049370406024556258 0.00011853728598121249 0 -0.049228731317608014 0.00011019918960573105 0 -0.049276534496638241 7.6718305541226508e-06 0 -0.049370406024556258 0.00011853728598121249 0 -0.04947623651020238 0.00011195814699266373 0 -0.049484198558962626 0.00017389097441543655 0 -0.049370406024556258 0.00011853728598121249 0 -0.04947623651020238 0.00011195814699266373 0 -0.049375533383851269 4.138082825636522e-05 0 -0.049490155810027102 0.00027784560750318776 0 -0.049370406024556258 0.00011853728598121249 0 -0.049484198558962626 0.00017389097441543655 0 -0.049598749803402349 0.00019446557650703862 0 -0.049490155810027102 0.00027784560750318776 0 -0.049484198558962626 0.00017389097441543655 0 -0.049957512346348119 -7.1721064910040736e-06 0 -0.049888944454077253 -5.6520858031253938e-05 0 -0.049938729137209696 -7.3473891740747629e-05 0 -0.049888944454077253 -5.6520858031253938e-05 0 -0.049938729137209696 -7.3473891740747629e-05 0 -0.049905172522869801 -9.9195264011537284e-05 0 -0.049625971728411836 1.389464513825118e-05 0 -0.049393991512936365 -0.00014076078900301611 0 -0.049625971728411836 1.389464513825118e-05 0 -0.049320313234943347 -6.9243335494874504e-05 0 -0.049212211995424582 -4.3229699601949183e-05 0 -0.049189891545841066 -1.5091012499800897e-05 0 -0.049276534496638241 7.6718305541226508e-06 0 -0.048961577464158489 -0.000348598806323497 0 -0.048906723064629273 -0.00016653517622281362 0 -0.048999652837640281 -0.00023950175554044199 0 -0.049228731317608014 0.00011019918960573105 0 -0.049189891545841066 -1.5091012499800897e-05 0 -0.049276534496638241 7.6718305541226508e-06 0 -0.049241270971069583 0.00010193014011352793 0 -0.049189891545841066 -1.5091012499800897e-05 0 -0.049159000724915053 -3.5925593307788762e-05 0 -0.049212211995424582 -4.3229699601949183e-05 0 -0.049189891545841066 -1.5091012499800897e-05 0 -0.049159000724915053 -3.5925593307788762e-05 0 -0.049212211995424582 -4.3229699601949183e-05 0 -0.049159000724915053 -3.5925593307788762e-05 0 -0.049200056718001706 -0.00010632916357244093 0 -0.049212211995424582 -4.3229699601949183e-05 0 -0.049200056718001706 -0.00010632916357244093 0 -0.0492493149255748 -6.7547427989656121e-05 0 -0.049212211995424582 -4.3229699601949183e-05 0 -0.0492493149255748 -6.7547427989656121e-05 0 -0.049276534496638241 7.6718305541226508e-06 0 -0.0492493149255748 -6.7547427989656121e-05 0 -0.049313791107904896 -5.7591789523087741e-05 0 -0.049232183802762675 -0.00014385985120165189 0 -0.0492493149255748 -6.7547427989656121e-05 0 -0.049313791107904896 -5.7591789523087741e-05 0 -0.049276534496638241 7.6718305541226508e-06 0 -0.049313791107904896 -5.7591789523087741e-05 0 -0.049276534496638241 7.6718305541226508e-06 0 -0.049375533383851269 4.138082825636522e-05 0 -0.049370406024556258 0.00011853728598121249 0 -0.049276534496638241 7.6718305541226508e-06 0 -0.049375533383851269 4.138082825636522e-05 0 -0.049444006519295564 2.8335692775444066e-05 0 -0.04947623651020238 0.00011195814699266373 0 -0.049375533383851269 4.138082825636522e-05 0 -0.049444006519295564 2.8335692775444066e-05 0 -0.049313791107904896 -5.7591789523087741e-05 0 -0.049390824115045091 -7.3237982398275959e-05 0 -0.049444006519295564 2.8335692775444066e-05 0 -0.049313791107904896 -5.7591789523087741e-05 0 -0.049375533383851269 4.138082825636522e-05 0 -0.049313791107904896 -5.7591789523087741e-05 0 -0.049390824115045091 -7.3237982398275959e-05 0 -0.049286155741944025 -0.00016333583479174836 0 -0.049313791107904896 -5.7591789523087741e-05 0 -0.049232183802762675 -0.00014385985120165189 0 -0.049286155741944025 -0.00016333583479174836 0 -0.049232183802762675 -0.00014385985120165189 0 -0.049215826878247569 -0.0002371322340947906 0 -0.049286155741944025 -0.00016333583479174836 0 -0.049232183802762675 -0.00014385985120165189 0 -0.049215826878247569 -0.0002371322340947906 0 -0.049163916641324544 -0.00022572032995228956 0 -0.049355091914862426 -0.00020073914929791346 0 -0.049286155741944025 -0.00016333583479174836 0 -0.049247208552915006 -0.0003116306200788371 0 -0.049215826878247569 -0.0002371322340947906 0 -0.049286155741944025 -0.00016333583479174836 0 -0.049247208552915006 -0.0003116306200788371 0 -0.049355091914862426 -0.00020073914929791346 0 -0.049390824115045091 -7.3237982398275959e-05 0 -0.049286155741944025 -0.00016333583479174836 0 -0.049161369684346264 -0.00037695264799716629 0 -0.049163916641324544 -0.00022572032995228956 0 -0.049021892448893399 -0.0006605181451591047 0 -0.048938924640240529 -0.00021554989274773426 0 -0.049056425338431325 -0.00064164471765903964 0 -0.049215826878247569 -0.0002371322340947906 0 -0.049247208552915006 -0.0003116306200788371 0 -0.049161369684346264 -0.00037695264799716629 0 -0.049215826878247569 -0.0002371322340947906 0 -0.049161369684346264 -0.00037695264799716629 0 -0.049163916641324544 -0.00022572032995228956 0 -0.049161369684346264 -0.00037695264799716629 0 -0.049170964044758743 -0.00047381111818847797 0 -0.049021892448893399 -0.0006605181451591047 0 -0.049247208552915006 -0.0003116306200788371 0 -0.049161369684346264 -0.00037695264799716629 0 -0.049170964044758743 -0.00047381111818847797 0 -0.049264317280070025 -0.0005065176869832028 0 -0.049247208552915006 -0.0003116306200788371 0 -0.049170964044758743 -0.00047381111818847797 0 -0.048412166661032818 -0.00052316931016663053 0 -0.048701200899356666 -0.00039411031274454205 0 -0.048906723064629273 -0.00016653517622281362 0 -0.049373347875887832 -0.00049922844457314891 0 -0.048812211211902101 -0.00025257800206581626 0 -0.048701200899356666 -0.00039411031274454205 0 -0.048807240522445443 -0.00015646074316145751 0 -0.049021892448893399 -0.0006605181451591047 0 -0.049233788463001783 -0.00039079077573252202 0 -0.048906723064629273 -0.00016653517622281362 0 -0.049089380392344291 -0.00022420113446223067 0 -0.048701200899356666 -0.00039411031274454205 0 -0.048906723064629273 -0.00016653517622281362 0 -0.048807240522445443 -0.00015646074316145751 0 -0.048412166661032818 -0.00052316931016663053 0 -0.048701200899356666 -0.00039411031274454205 0 -0.048663842738327218 -0.00063858694786182691 0 -0.048961577464158489 -0.000348598806323497 0 -0.048906723064629273 -0.00016653517622281362 0 -0.048807240522445443 -0.00015646074316145751 0 -0.049159000724915053 -3.5925593307788762e-05 0 -0.049200056718001706 -0.00010632916357244093 0 -0.049163916641324544 -0.00022572032995228956 0 -0.049393991512936365 -0.00014076078900301611 0 -0.048938924640240529 -0.00021554989274773426 0 -0.049200056718001706 -0.00010632916357244093 0 -0.0492493149255748 -6.7547427989656121e-05 0 -0.049232183802762675 -0.00014385985120165189 0 -0.049200056718001706 -0.00010632916357244093 0 -0.049232183802762675 -0.00014385985120165189 0 -0.049163916641324544 -0.00022572032995228956 0 -0.048906723064629273 -0.00016653517622281362 0 -0.048999652837640281 -0.00023950175554044199 0 -0.049049924689454454 -0.00020949032214452455 0 -0.048999652837640281 -0.00023950175554044199 0 -0.049073555062519522 -0.00024819165064847882 0 -0.049049924689454454 -0.00020949032214452455 0 -0.049073555062519522 -0.00024819165064847882 0 -0.049124675488081609 -0.00021543055258651964 0 -0.049049924689454454 -0.00020949032214452455 0 -0.049073555062519522 -0.00024819165064847882 0 -0.049124675488081609 -0.00021543055258651964 0 -0.049285037548402348 -0.00023867297948001358 0 -0.049159130648900075 -0.00022343341993366527 0 -0.049124675488081609 -0.00021543055258651964 0 -0.049285037548402348 -0.00023867297948001358 0 -0.049159130648900075 -0.00022343341993366527 0 -0.049124675488081609 -0.00021543055258651964 0 -0.049089380392344291 -0.00022420113446223067 0 -0.048906723064629273 -0.00016653517622281362 0 -0.049089380392344291 -0.00022420113446223067 0 -0.049049924689454454 -0.00020949032214452455 0 -0.049124675488081609 -0.00021543055258651964 0 -0.049089380392344291 -0.00022420113446223067 0 -0.049049924689454454 -0.00020949032214452455 0 -0.049285037548402348 -0.00023867297948001358 0 -0.049184605818766214 -0.00022553591854850992 0 -0.049470057091429868 -0.00017405062759644495 0 -0.049159130648900075 -0.00022343341993366527 0 -0.049285037548402348 -0.00023867297948001358 0 -0.049184605818766214 -0.00022553591854850992 0 -0.049184605818766214 -0.00022553591854850992 0 -0.04909019696864482 -0.00033422796620634647 0 -0.048976080199176306 -0.00052479642768606593 0 -0.048968668521033258 0.00014931090918128513 0 -0.048903903499194087 7.728371493673263e-05 0 -0.049070213462714528 -0.00015723181381004604 0 -0.048997452311153517 4.0289841576184453e-05 0 -0.049677985420882552 -0.00074339822008178443 0 -0.048398334683093597 0.00041594604372127778 0 -0.049677985420882552 -0.00074339822008178443 0 -0.048075683663868704 0.00049022368069076441 0 -0.048598086513117436 -0.00040573346999766397 0 -0.048042293977185027 -7.0845227863952415e-05 0 -0.049159130648900075 -0.00022343341993366527 0 -0.049184605818766214 -0.00022553591854850992 0 -0.04909019696864482 -0.00033422796620634647 0 -0.049159130648900075 -0.00022343341993366527 0 -0.049089380392344291 -0.00022420113446223067 0 -0.04909019696864482 -0.00033422796620634647 0 -0.049233788463001783 -0.00039079077573252202 0 -0.049089380392344291 -0.00022420113446223067 0 -0.04909019696864482 -0.00033422796620634647 0 -0.049233788463001783 -0.00039079077573252202 0 -0.049094764623225415 -0.00067802839994026581 0 -0.049143396766584878 -0.00078655024028892169 0 -0.049677985420882552 -0.00074339822008178443 0 -0.034284066860026441 -0.0032067705082683825 0 -0.049094764623225415 -0.00067802839994026581 0 -0.048976080199176306 -0.00052479642768606593 0 -0.049090275112288834 -0.00097946852723845108 0 -0.048455522208915108 -0.00044277030586104877 0 -0.049110479419068778 -0.0014001712159356849 0 -0.04866762871616364 -0.0011066616818256483 0 -0.049233788463001783 -0.00039079077573252202 0 -0.049231291962510679 -0.00088197463816366199 0 -0.049143396766584878 -0.00078655024028892169 0 -0.04909019696864482 -0.00033422796620634647 0 -0.049094764623225415 -0.00067802839994026581 0 -0.048976080199176306 -0.00052479642768606593 0 -0.049233788463001783 -0.00039079077573252202 0 -0.04909019696864482 -0.00033422796620634647 0 -0.049094764623225415 -0.00067802839994026581 0 -0.048000476524496474 -0.00056283675655576101 0 -0.048598086513117436 -0.00040573346999766397 0 -0.048042293977185027 -7.0845227863952415e-05 0 -0.048598086513117436 -0.00040573346999766397 0 -0.048261694660144072 -0.00096534976206946916 0 -0.04866762871616364 -0.0011066616818256483 0 -0.049677985420882552 -0.00074339822008178443 0 -0.048843210786329812 -0.00077343365037967516 0 -0.048000476524496474 -0.00056283675655576101 0 -0.048261694660144072 -0.00096534976206946916 0 -0.047701615910370337 -0.0011593260469170124 0 -0.048000476524496474 -0.00056283675655576101 0 -0.048598086513117436 -0.00040573346999766397 0 -0.048261694660144072 -0.00096534976206946916 0 -0.016619802551236337 -0.0022400966005386999 0 -0.014237006346196098 -0.0040058839955216504 0 -0.012737924160783525 -0.0040737557370868734 0 -0.034284066860026441 -0.0032067705082683825 0 -0.030805149398170664 -0.0029921027857625557 0 -0.048240259178064342 -0.0014968127862118271 0 -0.049110479419068778 -0.0014001712159356849 0 -0.048014788624207785 -0.0024535577413860796 0 -0.048261694660144072 -0.00096534976206946916 0 -0.048240259178064342 -0.0014968127862118271 0 -0.047701615910370337 -0.0011593260469170124 0 -0.048240259178064342 -0.0014968127862118271 0 -0.047505678400611318 -0.0017178750923051282 0 -0.047701615910370337 -0.0011593260469170124 0 -0.048261694660144072 -0.00096534976206946916 0 -0.048240259178064342 -0.0014968127862118271 0 -0.04866762871616364 -0.0011066616818256483 0 -0.048240259178064342 -0.0014968127862118271 0 -0.047505678400611318 -0.0017178750923051282 0 -0.048014788624207785 -0.0024535577413860796 0 -0.048240259178064342 -0.0014968127862118271 0 -0.049110479419068778 -0.0014001712159356849 0 -0.04866762871616364 -0.0011066616818256483 0 -0.049094764623225415 -0.00067802839994026581 0 -0.049090275112288834 -0.00097946852723845108 0 -0.049143396766584878 -0.00078655024028892169 0 -0.049090275112288834 -0.00097946852723845108 0 -0.049231291962510679 -0.00088197463816366199 0 -0.049143396766584878 -0.00078655024028892169 0 -0.034284066860026441 -0.0032067705082683825 0 -0.040265054291456055 -0.00027888329001995131 0 -0.028740991692713592 -0.0012918557064799136 0 -0.033786862931423196 0.001342321825996451 0 -0.03340745890791573 -0.0017046268325766683 0 -0.040265054291456055 -0.00027888329001995131 0 -0.030282856463337414 -0.0041650606158989793 0 -0.02455373830317269 -0.0037214049740733634 0 -0.011495402183359931 -0.0053096252394200837 0 -0.016619802551236337 -0.0022400966005386999 0 -0.016912801272089061 -0.0026633021524070872 0 -0.014237006346196098 -0.0040058839955216504 0 -0.011363284415660318 -0.0051551688105579826 0 -0.011394353979606347 -0.0050904221912364059 0 -0.011502946850478974 -0.0051099175353328157 0 -0.011363284415660318 -0.0051551688105579826 0 -0.011320441706930383 -0.0051194822453216118 0 -0.011394353979606347 -0.0050904221912364059 0 -0.028740991692713592 -0.0012918557064799136 0 -0.030222642101329196 -0.0034886405176779343 0 -0.03340745890791573 -0.0017046268325766683 0 -0.034284066860026441 -0.0032067705082683825 0 -0.02455373830317269 -0.0037214049740733634 0 -0.024774413489634359 -0.0048366354229791592 0 -0.024320097699655076 -0.0050941560237611032 0 -0.024398044159221439 -0.0042960430376425482 0 -0.030282856463337414 -0.0041650606158989793 0 -0.019209011996563122 -0.0043181972629326914 0 -0.02455373830317269 -0.0037214049740733634 0 -0.030282856463337414 -0.0041650606158989793 0 -0.02455373830317269 -0.0037214049740733634 0 -0.019209011996563122 -0.0043181972629326914 0 -0.010798553675142179 -0.0048110136222911243 0 -0.013145631077954306 -0.005114796916952445 0 -0.018794147786099499 -0.0031254249203924492 0 -0.012074780923580941 -0.0052543492629512339 0 -0.013145631077954306 -0.005114796916952445 0 -0.012339617149147272 -0.0049331218492870291 0 -0.010798553675142179 -0.0048110136222911243 0 -0.012074780923580941 -0.0052543492629512339 0 -0.013145631077954306 -0.005114796916952445 0 -0.010798553675142179 -0.0048110136222911243 0 -0.011600403627782186 -0.0053077751871727962 0 -0.012074780923580941 -0.0052543492629512339 0 -0.030282856463337414 -0.0041650606158989793 0 -0.033588174938740119 -0.001962705961142279 0 -0.047200074916051354 -0.0019866423485238407 0 -0.049064129128464626 -0.00081067024530583304 0 -0.048489890338670252 -0.00097769598475110813 0 -0.047229883590210971 -0.0016849465058521951 0 -0.047200074916051354 -0.0019866423485238407 0 -0.048489890338670252 -0.00097769598475110813 0 -0.040265054291456055 -0.00027888329001995131 0 -0.050050529206301146 -8.0540450701976921e-06 0 -0.013145631077954306 -0.005114796916952445 0 -0.012339617149147272 -0.0049331218492870291 0 -0.012366284505119902 -0.0045736244495046749 0 -0.012339617149147272 -0.0049331218492870291 0 -0.012366284505119902 -0.0045736244495046749 0 -0.012168014014702555 -0.004721365654963108 0 -0.013782103413236726 -0.0051639285147030154 0 -0.016664991114899472 -0.0049497267076082365 0 -0.013145631077954306 -0.005114796916952445 0 -0.012366284505119902 -0.0045736244495046749 0 -0.011989518836750741 -0.0036905886279536039 0 -0.013145631077954306 -0.005114796916952445 0 -0.0214167889817077 -0.0064620799614856055 0 -0.019330118678701921 -0.0046992396811001563 0 -0.013145631077954306 -0.005114796916952445 0 -0.019330118678701921 -0.0046992396811001563 0 -0.018794147786099499 -0.0031254249203924492 0 -0.012366284505119902 -0.0045736244495046749 0 -0.012247302303931933 -0.0044668711621062189 0 -0.012168014014702555 -0.004721365654963108 0 -0.012366284505119902 -0.0045736244495046749 0 -0.012247302303931933 -0.0044668711621062189 0 -0.011989518836750741 -0.0036905886279536039 0 -0.01274687419472964 -0.00451214634349178 0 -0.012247302303931933 -0.0044668711621062189 0 -0.011989518836750741 -0.0036905886279536039 0 -0.01274687419472964 -0.00451214634349178 0 -0.012247302303931933 -0.0044668711621062189 0 -0.012293990764816659 -0.004654096344158567 0 -0.049064129128464626 -0.00081067024530583304 0 -0.048776515619546754 -0.00074516857426605782 0 -0.049021892448893399 -0.0006605181451591047 0 -0.049064129128464626 -0.00081067024530583304 0 -0.048776515619546754 -0.00074516857426605782 0 -0.048489890338670252 -0.00097769598475110813 0 -0.02277474110594007 -0.0036182563096963574 0 -0.019330118678701921 -0.0046992396811001563 0 -0.018794147786099499 -0.0031254249203924492 0 -0.02277474110594007 -0.0036182563096963574 0 -0.0214167889817077 -0.0064620799614856055 0 -0.019330118678701921 -0.0046992396811001563 0 -0.049264317280070025 -0.0005065176869832028 0 -0.049064129128464626 -0.00081067024530583304 0 -0.049123895547184035 -0.00060142432261449255 0 -0.049170964044758743 -0.00047381111818847797 0 -0.049123895547184035 -0.00060142432261449255 0 -0.049021892448893399 -0.0006605181451591047 0 -0.049264317280070025 -0.0005065176869832028 0 -0.049170964044758743 -0.00047381111818847797 0 -0.049123895547184035 -0.00060142432261449255 0 -0.048776515619546754 -0.00074516857426605782 0 -0.049021892448893399 -0.0006605181451591047 0 -0.048663842738327218 -0.00063858694786182691 0 -0.049064129128464626 -0.00081067024530583304 0 -0.049123895547184035 -0.00060142432261449255 0 -0.049021892448893399 -0.0006605181451591047 0 -0.048701200899356666 -0.00039411031274454205 0 -0.049021892448893399 -0.0006605181451591047 0 -0.048663842738327218 -0.00063858694786182691 0 -0.048412166661032818 -0.00052316931016663053 0 -0.048147687477242469 -0.0011193775434148203 0 -0.048489890338670252 -0.00097769598475110813 0 -0.049373347875887832 -0.00049922844457314891 0 -0.040265054291456055 -0.00027888329001995131 0 -0.048412166661032818 -0.00052316931016663053 0 -0.048663842738327218 -0.00063858694786182691 0 -0.048489890338670252 -0.00097769598475110813 0 -0.048776515619546754 -0.00074516857426605782 0 -0.048663842738327218 -0.00063858694786182691 0 -0.048489890338670252 -0.00097769598475110813 0 -0.043343579488992909 -8.9640888334765179e-05 0 -0.044505623526888541 -0.0012144575294150129 0 -0.044411495217115071 0.00069632575531744566 0 -0.043343579488992909 -8.9640888334765179e-05 0 -0.041905962741349168 -0.00016352552160662218 0 -0.042763530382469259 -0.0012476469106781653 0 -0.043343579488992909 -8.9640888334765179e-05 0 -0.041905962741349168 -0.00016352552160662218 0 -0.043098224952496933 0.0013404691548250251 0 -0.043343579488992909 -8.9640888334765179e-05 0 -0.044411495217115071 0.00069632575531744566 0 -0.043098224952496933 0.0013404691548250251 0 -0.042713762739293143 0.0012085506689201656 0 -0.040579800739608131 0.00017641231320168993 0 -0.043098224952496933 0.0013404691548250251 0 -0.041238325414127572 0.0011499444608590976 0 -0.040531916551507355 -8.7225280210437569e-05 0 -0.041905962741349168 -0.00016352552160662218 0 -0.043098224952496933 0.0013404691548250251 0 -0.039706239322644957 0.00023988753833463605 0 -0.041905962741349168 -0.00016352552160662218 0 -0.040729493065162874 -0.00062876871673246562 0 -0.039706239322644957 0.00023988753833463605 0 -0.041905962741349168 -0.00016352552160662218 0 -0.041759489248526412 -0.00097890934809859794 0 -0.040729493065162874 -0.00062876871673246562 0 -0.041905962741349168 -0.00016352552160662218 0 -0.041759489248526412 -0.00097890934809859794 0 -0.042763530382469259 -0.0012476469106781653 0 -0.040729493065162874 -0.00062876871673246562 0 -0.041172580974442805 -0.0018396525166359512 0 -0.038643127998169879 -0.00042164034247458063 0 -0.041759489248526412 -0.00097890934809859794 0 -0.041172580974442805 -0.0018396525166359512 0 -0.042763530382469259 -0.0012476469106781653 0 -0.041759489248526412 -0.00097890934809859794 0 -0.040729493065162874 -0.00062876871673246562 0 -0.041172580974442805 -0.0018396525166359512 0 -0.040243705069131094 -0.0016967629019825942 0 -0.03928456595091926 -0.0014674001946898586 0 -0.039889182024475965 -0.0022712485263262274 0 -0.041172580974442805 -0.0018396525166359512 0 -0.042763530382469259 -0.0012476469106781653 0 -0.043472928643008175 -0.002981054057041627 0 -0.041164829997917582 -0.0018874625166978591 0 -0.039115733831697079 -0.0032463184466186138 0 -0.043343579488992909 -8.9640888334765179e-05 0 -0.042763530382469259 -0.0012476469106781653 0 -0.044505623526888541 -0.0012144575294150129 0 -0.042763530382469259 -0.0012476469106781653 0 -0.044505623526888541 -0.0012144575294150129 0 -0.043472928643008175 -0.002981054057041627 0 -0.04509447204534793 -0.0022360496842604538 0 -0.044505623526888541 -0.0012144575294150129 0 -0.043472928643008175 -0.002981054057041627 0 -0.046393557211216907 -0.0021378269916256841 0 -0.044505623526888541 -0.0012144575294150129 0 -0.044411495217115071 0.00069632575531744566 0 -0.04509447204534793 -0.0022360496842604538 0 -0.046393557211216907 -0.0021378269916256841 0 -0.044505623526888541 -0.0012144575294150129 0 -0.046393557211216907 -0.0021378269916256841 0 -0.046875234849175031 -0.0010721190427654206 0 -0.046513866994318379 -0.00050377372668479502 0 -0.04655667500907603 -0.0021977592768911958 0 -0.045054266905330403 0.0002977650455406804 0 -0.046393557211216907 -0.0021378269916256841 0 -0.047505678400611318 -0.0017178750923051282 0 -0.048014788624207785 -0.0024535577413860796 0 -0.046393557211216907 -0.0021378269916256841 0 -0.047505678400611318 -0.0017178750923051282 0 -0.047190224430127957 -0.0013385366814683329 0 -0.046393557211216907 -0.0021378269916256841 0 -0.047190224430127957 -0.0013385366814683329 0 -0.046875234849175031 -0.0010721190427654206 0 -0.047505678400611318 -0.0017178750923051282 0 -0.047190224430127957 -0.0013385366814683329 0 -0.047701615910370337 -0.0011593260469170124 0 -0.047190224430127957 -0.0013385366814683329 0 -0.047701615910370337 -0.0011593260469170124 0 -0.047423710138948132 -0.00078937534724994151 0 -0.048000476524496474 -0.00056283675655576101 0 -0.047701615910370337 -0.0011593260469170124 0 -0.047423710138948132 -0.00078937534724994151 0 -0.047190224430127957 -0.0013385366814683329 0 -0.047423710138948132 -0.00078937534724994151 0 -0.046875234849175031 -0.0010721190427654206 0 -0.047423710138948132 -0.00078937534724994151 0 -0.046875234849175031 -0.0010721190427654206 0 -0.047151024092558919 -0.0005166023827752927 0 -0.047667930267076171 -0.00024674616325769924 0 -0.047151024092558919 -0.0005166023827752927 0 -0.04730824781750198 -2.4057271364990185e-05 0 -0.047423710138948132 -0.00078937534724994151 0 -0.047667930267076171 -0.00024674616325769924 0 -0.047151024092558919 -0.0005166023827752927 0 -0.048000476524496474 -0.00056283675655576101 0 -0.047423710138948132 -0.00078937534724994151 0 -0.047667930267076171 -0.00024674616325769924 0 -0.048000476524496474 -0.00056283675655576101 0 -0.047667930267076171 -0.00024674616325769924 0 -0.048042293977185027 -7.0845227863952415e-05 0 -0.046875234849175031 -0.0010721190427654206 0 -0.047151024092558919 -0.0005166023827752927 0 -0.046513866994318379 -0.00050377372668479502 0 -0.047151024092558919 -0.0005166023827752927 0 -0.046513866994318379 -0.00050377372668479502 0 -0.04730824781750198 -2.4057271364990185e-05 0 -0.046513866994318379 -0.00050377372668479502 0 -0.04730824781750198 -2.4057271364990185e-05 0 -0.046683002192122278 0.00084456566834476335 0 -0.04805739370741291 0.00066054458242942641 0 -0.048077133449472786 0.00072919442004218545 0 -0.04730824781750198 -2.4057271364990185e-05 0 -0.04810477362473501 0.00060305282977890149 0 -0.046683002192122278 0.00084456566834476335 0 -0.048075683663868704 0.00049022368069076441 0 -0.048042293977185027 -7.0845227863952415e-05 0 -0.047934647586106029 0.00024509180850928032 0 -0.047667930267076171 -0.00024674616325769924 0 -0.048042293977185027 -7.0845227863952415e-05 0 -0.047934647586106029 0.00024509180850928032 0 -0.047667930267076171 -0.00024674616325769924 0 -0.04730824781750198 -2.4057271364990185e-05 0 -0.047934647586106029 0.00024509180850928032 0 -0.04730824781750198 -2.4057271364990185e-05 0 -0.047934647586106029 0.00024509180850928032 0 -0.04810477362473501 0.00060305282977890149 0 -0.048075683663868704 0.00049022368069076441 0 -0.047934647586106029 0.00024509180850928032 0 -0.04810477362473501 0.00060305282977890149 0 -0.048398334683093597 0.00041594604372127778 0 -0.04876159046869892 0.00022385826365885442 0 -0.048968668521033258 0.00014931090918128513 0 -0.048903903499194087 7.728371493673263e-05 0 -0.048802983145140158 0.00026815869963461739 0 -0.048075683663868704 0.00049022368069076441 0 -0.04810477362473501 0.00060305282977890149 0 -0.048802983145140158 0.00026815869963461739 0 -0.04810477362473501 0.00060305282977890149 0 -0.048772681900816135 0.00041420256178556459 0 -0.048802983145140158 0.00026815869963461739 0 -0.048772681900816135 0.00041420256178556459 0 -0.049389728566827808 0.00020452849692790978 0 -0.048802983145140158 0.00026815869963461739 0 -0.049141330945103048 0.00068285173936698295 0 -0.048772681900816135 0.00041420256178556459 0 -0.049389728566827808 0.00020452849692790978 0 -0.04810477362473501 0.00060305282977890149 0 -0.049141330945103048 0.00068285173936698295 0 -0.048772681900816135 0.00041420256178556459 0 -0.049141330945103048 0.00068285173936698295 0 -0.0495557235891321 0.00061401475260428019 0 -0.049389728566827808 0.00020452849692790978 0 -0.048077133449472786 0.00072919442004218545 0 -0.046695769779963182 0.0013037269848748083 0 -0.044411495217115071 0.00069632575531744566 0 -0.04289700523035643 0.0031617675647467596 0 -0.043098224952496933 0.0013404691548250251 0 -0.046513866994318379 -0.00050377372668479502 0 -0.046683002192122278 0.00084456566834476335 0 -0.04576701387780744 0.00099186704898282171 0 -0.045054266905330403 0.0002977650455406804 0 -0.046695769779963182 0.0013037269848748083 0 -0.04289700523035643 0.0031617675647467596 0 -0.043098224952496933 0.0013404691548250251 0 -0.041313706446888657 0.0020543675951549584 0 -0.043098224952496933 0.0013404691548250251 0 -0.041238325414127572 0.0011499444608590976 0 -0.041313706446888657 0.0020543675951549584 0 -0.04289700523035643 0.0031617675647467596 0 -0.041313706446888657 0.0020543675951549584 0 -0.039797540202911069 0.0035647377515905551 0 -0.049334755693720353 0.00035003542780311667 0 -0.049531527059209456 0.0001250474642310273 0 -0.049612521516571848 0.000267369620970829 0 -0.046695769779963182 0.0013037269848748083 0 -0.044530554419516893 0.0019931619135521526 0 -0.046695769779963182 0.0013037269848748083 0 -0.050157255250173012 -0.00012610041157546945 0 -0.049389728566827808 0.00020452849692790978 0 -0.049827204841314428 3.0248323550691565e-05 0 -0.049745957670402144 -2.9246660977427049e-05 0 -0.0495557235891321 0.00061401475260428019 0 -0.049851500579245998 0.0001661818978751955 0 -0.049389728566827808 0.00020452849692790978 0 -0.049851500579245998 0.0001661818978751955 0 -0.049389728566827808 0.00020452849692790978 0 -0.049827204841314428 3.0248323550691565e-05 0 -0.049851500579245998 0.0001661818978751955 0 -0.049827204841314428 3.0248323550691565e-05 0 -0.04997074102066771 -2.2834637028487679e-08 0 -0.049389728566827808 0.00020452849692790978 0 -0.049316792482226889 9.5885187366647216e-05 0 -0.049745957670402144 -2.9246660977427049e-05 0 -0.048968668521033258 0.00014931090918128513 0 -0.048802983145140158 0.00026815869963461739 0 -0.048996813145447682 0.00022240113911419168 0 -0.048802983145140158 0.00026815869963461739 0 -0.048996813145447682 0.00022240113911419168 0 -0.049316792482226889 9.5885187366647216e-05 0 -0.049389728566827808 0.00020452849692790978 0 -0.048802983145140158 0.00026815869963461739 0 -0.049316792482226889 9.5885187366647216e-05 0 -0.048996813145447682 0.00022240113911419168 0 -0.049316792482226889 9.5885187366647216e-05 0 -0.049601314943279885 -3.7955139047314995e-05 0 -0.049270304896024457 2.3555229113248947e-06 0 -0.049520927104998391 -1.1125811064930037e-05 0 -0.049316792482226889 9.5885187366647216e-05 0 -0.049601314943279885 -3.7955139047314995e-05 0 -0.049745957670402144 -2.9246660977427049e-05 0 -0.049601314943279885 -3.7955139047314995e-05 0 -0.049999566230414835 -5.1628033823491577e-08 0 -0.049745957670402144 -2.9246660977427049e-05 0 -0.049601314943279885 -3.7955139047314995e-05 0 -0.049999566230414835 -5.1628033823491577e-08 0 -0.049850527523447721 -2.8118703912767807e-06 0 -0.049999654808687344 2.5414909409494926e-08 0 -0.049999566230414835 -5.1628033823491577e-08 0 -0.049850527523447721 -2.8118703912767807e-06 0 -0.049827204841314428 3.0248323550691565e-05 0 -0.049933188398974808 -1.7366634388554061e-05 0 -0.04997074102066771 -2.2834637028487679e-08 0 -0.049827204841314428 3.0248323550691565e-05 0 -0.049933188398974808 -1.7366634388554061e-05 0 -0.049745957670402144 -2.9246660977427049e-05 0 -0.049999566230414835 -5.1628033823491577e-08 0 -0.049745957670402144 -2.9246660977427049e-05 0 -0.049999823437828952 -5.630244450720491e-08 0 -0.049933188398974808 -1.7366634388554061e-05 0 -0.049745957670402144 -2.9246660977427049e-05 0 -0.049999823437828952 -5.630244450720491e-08 0 -0.049933188398974808 -1.7366634388554061e-05 0 -0.049999823437828952 -5.630244450720491e-08 0 -0.049999977076272552 -1.3398903370104722e-08 0 -0.049999977076272552 -1.3398903370104722e-08 0 -0.04997074102066771 -2.2834637028487679e-08 0 -0.050000018936815979 6.8449034229975633e-09 0 -0.049933188398974808 -1.7366634388554061e-05 0 -0.049999977076272552 -1.3398903370104722e-08 0 -0.04997074102066771 -2.2834637028487679e-08 0 -0.04973553512981032 3.2225609248661738e-05 0 -0.049870616001236816 3.7559777965702774e-05 0 -0.049802386176059255 8.9891161480852748e-05 0 -0.049870616001236816 3.7559777965702774e-05 0 -0.049999671517429442 -5.3405462574933939e-08 0 -0.049944190584569448 1.7554872342351497e-05 0 -0.04973553512981032 3.2225609248661738e-05 0 -0.049870616001236816 3.7559777965702774e-05 0 -0.049999671517429442 -5.3405462574933939e-08 0 -0.049766262413810103 0.00010497207363809794 0 -0.050009507971223201 -3.6703184448541365e-05 0 -0.049999671517429442 -5.3405462574933939e-08 0 -0.049999895757303771 5.1911183142451264e-08 0 -0.049944190584569448 1.7554872342351497e-05 0 -0.049999895757303771 5.1911183142451264e-08 0 -0.049944190584569448 1.7554872342351497e-05 0 -0.049908376300082269 6.0398115455069638e-05 0 -0.049999895757303771 5.1911183142451264e-08 0 -0.049908376300082269 6.0398115455069638e-05 0 -0.049999966484519279 -2.2789641054632522e-08 0 -0.049870616001236816 3.7559777965702774e-05 0 -0.049908376300082269 6.0398115455069638e-05 0 -0.049802386176059255 8.9891161480852748e-05 0 -0.049870616001236816 3.7559777965702774e-05 0 -0.049944190584569448 1.7554872342351497e-05 0 -0.049908376300082269 6.0398115455069638e-05 0 -0.049908376300082269 6.0398115455069638e-05 0 -0.049802386176059255 8.9891161480852748e-05 0 -0.049744483601669817 9.3196581996855975e-05 0 -0.049908376300082269 6.0398115455069638e-05 0 -0.049744483601669817 9.3196581996855975e-05 0 -0.04954297292959195 0.00017228093938747945 0 -0.049744483601669817 9.3196581996855975e-05 0 -0.049564693155919437 -3.2276944049246986e-05 0 -0.049730142500632853 0.00011963867257812164 0 -0.049802386176059255 8.9891161480852748e-05 0 -0.049744483601669817 9.3196581996855975e-05 0 -0.049730142500632853 0.00011963867257812164 0 -0.049802386176059255 8.9891161480852748e-05 0 -0.049703584826815965 0.00012723114700876885 0 -0.049730142500632853 0.00011963867257812164 0 -0.049703584826815965 0.00012723114700876885 0 -0.049612521516571848 0.000267369620970829 0 -0.049730142500632853 0.00011963867257812164 0 -0.049531527059209456 0.0001250474642310273 0 -0.049703584826815965 0.00012723114700876885 0 -0.049612521516571848 0.000267369620970829 0 -0.049531527059209456 0.0001250474642310273 0 -0.04973553512981032 3.2225609248661738e-05 0 -0.049703584826815965 0.00012723114700876885 0 -0.050157255250173012 -0.00012610041157546945 0 -0.049766262413810103 0.00010497207363809794 0 -0.04973553512981032 3.2225609248661738e-05 0 -0.049802386176059255 8.9891161480852748e-05 0 -0.049703584826815965 0.00012723114700876885 0 -0.049967980840803672 -1.7211010718266564e-05 0 -0.049906152251545911 -8.3280262696698408e-05 0 -0.049939932124516015 -2.4459610895874747e-05 0 -0.049967980840803672 -1.7211010718266564e-05 0 -0.04994607133404988 -5.1625458315026882e-05 0 -0.049906152251545911 -8.3280262696698408e-05 0 -0.049967980840803672 -1.7211010718266564e-05 0 -0.049939932124516015 -2.4459610895874747e-05 0 -0.04999995679841561 -5.1104352031831146e-08 0 -0.049967980840803672 -1.7211010718266564e-05 0 -0.0499999580408007 9.5556010366188439e-09 0 -0.04999995679841561 -5.1104352031831146e-08 0 -0.049967980840803672 -1.7211010718266564e-05 0 -0.0499999580408007 9.5556010366188439e-09 0 -0.049986144442426404 -4.87708324853376e-06 0 -0.049967980840803672 -1.7211010718266564e-05 0 -0.04994607133404988 -5.1625458315026882e-05 0 -0.049986144442426404 -4.87708324853376e-06 0 -0.049908376300082269 6.0398115455069638e-05 0 -0.049986144442426404 -4.87708324853376e-06 0 -0.049999966484519279 -2.2789641054632522e-08 0 -0.049908376300082269 6.0398115455069638e-05 0 -0.049986144442426404 -4.87708324853376e-06 0 -0.049975250581246064 -1.7623997253017152e-05 0 -0.04994607133404988 -5.1625458315026882e-05 0 -0.049986144442426404 -4.87708324853376e-06 0 -0.049944011451584669 -5.8424407369254589e-05 0 -0.0499999580408007 9.5556010366188439e-09 0 -0.049986144442426404 -4.87708324853376e-06 0 -0.049999966484519279 -2.2789641054632522e-08 0 -0.049371133528614018 -0.00013021765743008315 0 -0.051074537776852939 0.00030666102713650654 0 -0.049744483601669817 9.3196581996855975e-05 0 -0.04954297292959195 0.00017228093938747945 0 -0.049564693155919437 -3.2276944049246986e-05 0 -0.051074537776852939 0.00030666102713650654 0 -0.042752319102947418 0.00040131940956342703 0 -0.04954297292959195 0.00017228093938747945 0 -0.049564693155919437 -3.2276944049246986e-05 0 -0.049096114347853333 -2.4506119752167413e-05 0 -0.040884749213881043 0.0024295768611456059 0 -0.042752319102947418 0.00040131940956342703 0 -0.049975250581246064 -1.7623997253017152e-05 0 -0.049944011451584669 -5.8424407369254589e-05 0 -0.049905158906478911 -0.000121911621312847 0 -0.049986144442426404 -4.87708324853376e-06 0 -0.049975250581246064 -1.7623997253017152e-05 0 -0.049944011451584669 -5.8424407369254589e-05 0 -0.049944011451584669 -5.8424407369254589e-05 0 -0.049911885493996812 -9.9595570017480616e-05 0 -0.049905158906478911 -0.000121911621312847 0 -0.04994607133404988 -5.1625458315026882e-05 0 -0.049944011451584669 -5.8424407369254589e-05 0 -0.049911885493996812 -9.9595570017480616e-05 0 -0.049911885493996812 -9.9595570017480616e-05 0 -0.049905158906478911 -0.000121911621312847 0 -0.049859007293818876 -0.00016624121321995175 0 -0.042752319102947418 0.00040131940956342703 0 -0.045480288736384503 -0.0012698341434506854 0 -0.040472013036656769 -0.0020062345962284442 0 -0.039935349364749961 -0.0019708509332946119 0 -0.04012046264683982 -0.0022949521445996502 0 -0.039935349364749961 -0.0019708509332946119 0 -0.04012046264683982 -0.0022949521445996502 0 -0.039655496854007238 -0.0022351940591419225 0 -0.04994607133404988 -5.1625458315026882e-05 0 -0.049911885493996812 -9.9595570017480616e-05 0 -0.049906152251545911 -8.3280262696698408e-05 0 -0.049911885493996812 -9.9595570017480616e-05 0 -0.049859007293818876 -0.00016624121321995175 0 -0.049906152251545911 -8.3280262696698408e-05 0 -0.028683728489985291 0.0021938183480351187 0 -0.028986085076418488 0.0035530491414823722 0 -0.026509616839287643 0.0015117575519242104 0 -0.028061190834359772 0.0013686211838818234 0 -0.028247433659450705 0.00039115838311785299 0 -0.026509616839287643 0.0015117575519242104 0 -0.028061190834359772 0.0013686211838818234 0 -0.028683728489985291 0.0021938183480351187 0 -0.026509616839287643 0.0015117575519242104 0 -0.028774715781752346 0.0012620719936572923 0 -0.028683728489985291 0.0021938183480351187 0 -0.02971210126224488 0.0015827435703820139 0 -0.028061190834359772 0.0013686211838818234 0 -0.028774715781752346 0.0012620719936572923 0 -0.028247433659450705 0.00039115838311785299 0 -0.028061190834359772 0.0013686211838818234 0 -0.028774715781752346 0.0012620719936572923 0 -0.028683728489985291 0.0021938183480351187 0 -0.033017092808009615 0.0008834687918650001 0 -0.036093025782822384 -0.0022510362460838201 0 -0.033017092808009615 0.0008834687918650001 0 -0.024714846503375649 -0.0020627283621216766 0 -0.028683728489985291 0.0021938183480351187 0 -0.028986085076418488 0.0035530491414823722 0 -0.029838866572611734 0.0024653338429869737 0 -0.028986085076418488 0.0035530491414823722 0 -0.030786612909802252 0.0031444025905313713 0 -0.029838866572611734 0.0024653338429869737 0 -0.033017092808009615 0.0008834687918650001 0 -0.029253466946638999 0.0034186046933167634 0 -0.030706688435790878 0.0046036469260470831 0 -0.029403297965307461 0.0034653343343545688 0 -0.030786612909802252 0.0031444025905313713 0 -0.042752319102947418 0.00040131940956342703 0 -0.033017092808009615 0.0008834687918650001 0 -0.030786612909802252 0.0031444025905313713 0 -0.029838866572611734 0.0024653338429869737 0 -0.030977623503623142 0.0019096704717099307 0 -0.029838866572611734 0.0024653338429869737 0 -0.02971210126224488 0.0015827435703820139 0 -0.030977623503623142 0.0019096704717099307 0 -0.028683728489985291 0.0021938183480351187 0 -0.029838866572611734 0.0024653338429869737 0 -0.02971210126224488 0.0015827435703820139 0 -0.028774715781752346 0.0012620719936572923 0 -0.02971210126224488 0.0015827435703820139 0 -0.029456915595985865 0.00057509390946634744 0 -0.02971210126224488 0.0015827435703820139 0 -0.030485525582926137 0.00064698699872930889 0 -0.029456915595985865 0.00057509390946634744 0 -0.02971210126224488 0.0015827435703820139 0 -0.030977623503623142 0.0019096704717099307 0 -0.030485525582926137 0.00064698699872930889 0 -0.030977623503623142 0.0019096704717099307 0 -0.032269093451482787 0.0029192453597129912 0 -0.032575155308788718 0.0014381998045010422 0 -0.030977623503623142 0.0019096704717099307 0 -0.032575155308788718 0.0014381998045010422 0 -0.031476027566217368 0.00086410423729997457 0 -0.030977623503623142 0.0019096704717099307 0 -0.031476027566217368 0.00086410423729997457 0 -0.030485525582926137 0.00064698699872930889 0 -0.030786612909802252 0.0031444025905313713 0 -0.030977623503623142 0.0019096704717099307 0 -0.032269093451482787 0.0029192453597129912 0 -0.033571301480629763 0.0042562625310345959 0 -0.030706688435790878 0.0046036469260470831 0 -0.032269093451482787 0.0029192453597129912 0 -0.030706688435790878 0.0046036469260470831 0 -0.030786612909802252 0.0031444025905313713 0 -0.032269093451482787 0.0029192453597129912 0 -0.033571301480629763 0.0042562625310345959 0 -0.032269093451482787 0.0029192453597129912 0 -0.034453640624887795 0.0022688897781252986 0 -0.032575155308788718 0.0014381998045010422 0 -0.033737662608041015 0.0008301311221818984 0 -0.034453640624887795 0.0022688897781252986 0 -0.032269093451482787 0.0029192453597129912 0 -0.032575155308788718 0.0014381998045010422 0 -0.034453640624887795 0.0022688897781252986 0 -0.032575155308788718 0.0014381998045010422 0 -0.033737662608041015 0.0008301311221818984 0 -0.032356756905279394 0.0002463366947761182 0 -0.033737662608041015 0.0008301311221818984 0 -0.03349052538026865 -0.00042491287323306837 0 -0.032356756905279394 0.0002463366947761182 0 -0.03349052538026865 -0.00042491287323306837 0 -0.032182397368349547 -0.00099901220745373287 0 -0.032356756905279394 0.0002463366947761182 0 -0.015877879379131515 -0.0047654592774060735 0 -0.016146019720088708 -0.0051410147671714429 0 -0.015406496971395832 -0.0048083880944567768 0 -0.03349052538026865 -0.00042491287323306837 0 -0.032182397368349547 -0.00099901220745373287 0 -0.034392814990762029 -0.0012985883242341159 0 -0.024546908441824115 -0.0029943692180858469 0 -0.025445006642882295 -0.0030822985916772695 0 -0.015877879379131515 -0.0047654592774060735 0 -0.015406496971395832 -0.0048083880944567768 0 -0.015607904543076706 -0.0044801731920361063 0 -0.016146019720088708 -0.0051410147671714429 0 -0.016588442436799199 -0.0049809328432437591 0 -0.017164183796991611 -0.005368030452187574 0 -0.024546908441824115 -0.0029943692180858469 0 -0.020917146027688939 -0.0044344079831266014 0 -0.016146019720088708 -0.0051410147671714429 0 -0.016244466074440671 -0.0048257195764305691 0 -0.016588442436799199 -0.0049809328432437591 0 -0.015877879379131515 -0.0047654592774060735 0 -0.016146019720088708 -0.0051410147671714429 0 -0.016244466074440671 -0.0048257195764305691 0 -0.015877879379131515 -0.0047654592774060735 0 -0.016244466074440671 -0.0048257195764305691 0 -0.016071775484134288 -0.0045397406670003894 0 -0.016244466074440671 -0.0048257195764305691 0 -0.016588442436799199 -0.0049809328432437591 0 -0.0165561487185663 -0.0046223969397837248 0 -0.032182397368349547 -0.00099901220745373287 0 -0.031291642983962774 -1.3625944367308412e-05 0 -0.029916552657597621 -0.00069055177297035566 0 -0.032182397368349547 -0.00099901220745373287 0 -0.031291642983962774 -1.3625944367308412e-05 0 -0.032356756905279394 0.0002463366947761182 0 -0.031291642983962774 -1.3625944367308412e-05 0 -0.032356756905279394 0.0002463366947761182 0 -0.031476027566217368 0.00086410423729997457 0 -0.032575155308788718 0.0014381998045010422 0 -0.032356756905279394 0.0002463366947761182 0 -0.031476027566217368 0.00086410423729997457 0 -0.031291642983962774 -1.3625944367308412e-05 0 -0.031476027566217368 0.00086410423729997457 0 -0.030485525582926137 0.00064698699872930889 0 -0.029456915595985865 0.00057509390946634744 0 -0.029916552657597621 -0.00069055177297035566 0 -0.028247433659450705 0.00039115838311785299 0 -0.030485525582926137 0.00064698699872930889 0 -0.029456915595985865 0.00057509390946634744 0 -0.029916552657597621 -0.00069055177297035566 0 -0.020917146027688939 -0.0044344079831266014 0 -0.016723329268414425 -0.0048385357446696694 0 -0.031291642983962774 -1.3625944367308412e-05 0 -0.030485525582926137 0.00064698699872930889 0 -0.029916552657597621 -0.00069055177297035566 0 -0.01632240924389141 -0.0042966453108899579 0 -0.020917146027688939 -0.0044344079831266014 0 -0.016588442436799199 -0.0049809328432437591 0 -0.017019365062503247 -0.0052673161989979893 0 -0.017079832136893725 -0.0047192148563075607 0 -0.016588442436799199 -0.0049809328432437591 0 -0.017079832136893725 -0.0047192148563075607 0 -0.0165561487185663 -0.0046223969397837248 0 -0.017019365062503247 -0.0052673161989979893 0 -0.017079832136893725 -0.0047192148563075607 0 -0.017296356668949638 -0.005042726471446107 0 -0.017019365062503247 -0.0052673161989979893 0 -0.017296356668949638 -0.005042726471446107 0 -0.017456521361126374 -0.0053302805816298213 0 -0.017079832136893725 -0.0047192148563075607 0 -0.017296356668949638 -0.005042726471446107 0 -0.017653025257365923 -0.0048964354267625404 0 -0.017296356668949638 -0.005042726471446107 0 -0.017653025257365923 -0.0048964354267625404 0 -0.017456521361126374 -0.0053302805816298213 0 -0.017653025257365923 -0.0048964354267625404 0 -0.017721428404286393 -0.0053113585291943623 0 -0.017456521361126374 -0.0053302805816298213 0 -0.017186186272645603 -0.0052506403155327345 0 -0.017456521361126374 -0.0053302805816298213 0 -0.017561400739069193 -0.0055832514555146677 0 -0.020917146027688939 -0.0044344079831266014 0 -0.022847566385535752 -0.0025090701814109492 0 -0.017721428404286393 -0.0053113585291943623 0 -0.017456521361126374 -0.0053302805816298213 0 -0.017561400739069193 -0.0055832514555146677 0 -0.028774715781752346 0.0012620719936572923 0 -0.029456915595985865 0.00057509390946634744 0 -0.028247433659450705 0.00039115838311785299 0 -0.017721428404286393 -0.0053113585291943623 0 -0.017561400739069193 -0.0055832514555146677 0 -0.017930565316734117 -0.0055806006898499331 0 -0.038242853276421497 0.0011924351274612353 0 -0.039797540202911069 0.0035647377515905551 0 -0.036851208569972767 0.0021913992412069642 0 -0.041313706446888657 0.0020543675951549584 0 -0.039980358825713429 0.001300986127797826 0 -0.039797540202911069 0.0035647377515905551 0 -0.038242853276421497 0.0011924351274612353 0 -0.039980358825713429 0.001300986127797826 0 -0.039797540202911069 0.0035647377515905551 0 -0.041238325414127572 0.0011499444608590976 0 -0.041313706446888657 0.0020543675951549584 0 -0.039980358825713429 0.001300986127797826 0 -0.044530554419516893 0.0019931619135521526 0 -0.043355588256400408 0.0019547997791872908 0 -0.039797540202911069 0.0035647377515905551 0 -0.036603981152518159 0.0039249957139921854 0 -0.036851208569972767 0.0021913992412069642 0 -0.036603981152518159 0.0039249957139921854 0 -0.034453640624887795 0.0022688897781252986 0 -0.036851208569972767 0.0021913992412069642 0 -0.040884749213881043 0.0024295768611456059 0 -0.043355588256400408 0.0019547997791872908 0 -0.033571301480629763 0.0042562625310345959 0 -0.036603981152518159 0.0039249957139921854 0 -0.034453640624887795 0.0022688897781252986 0 -0.033737662608041015 0.0008301311221818984 0 -0.034453640624887795 0.0022688897781252986 0 -0.035830045270285521 0.00040064584942632342 0 -0.034453640624887795 0.0022688897781252986 0 -0.036851208569972767 0.0021913992412069642 0 -0.035830045270285521 0.00040064584942632342 0 -0.038242853276421497 0.0011924351274612353 0 -0.036851208569972767 0.0021913992412069642 0 -0.035830045270285521 0.00040064584942632342 0 -0.038242853276421497 0.0011924351274612353 0 -0.035830045270285521 0.00040064584942632342 0 -0.037770893493774535 1.1801973306715454e-05 0 -0.035830045270285521 0.00040064584942632342 0 -0.037847452963591044 -0.0013848062123916845 0 -0.037770893493774535 1.1801973306715454e-05 0 -0.036711219430728012 4.8028884045800704e-05 0 -0.035007795095548418 -0.0013566716527580889 0 -0.03349052538026865 -0.00042491287323306837 0 -0.035830045270285521 0.00040064584942632342 0 -0.034392814990762029 -0.0012985883242341159 0 -0.033737662608041015 0.0008301311221818984 0 -0.03349052538026865 -0.00042491287323306837 0 -0.035830045270285521 0.00040064584942632342 0 -0.015406496971395832 -0.0048083880944567768 0 -0.015157859600129031 -0.0046686184567542805 0 -0.015318212191603236 -0.0044810238448689463 0 -0.025445006642882295 -0.0030822985916772695 0 -0.022609896456528004 -0.0036732174884011393 0 -0.015406496971395832 -0.0048083880944567768 0 -0.015318212191603236 -0.0044810238448689463 0 -0.015607904543076706 -0.0044801731920361063 0 -0.035830045270285521 0.00040064584942632342 0 -0.034392814990762029 -0.0012985883242341159 0 -0.036448577825306708 -0.0015812562349707693 0 -0.022609896456528004 -0.0036732174884011393 0 -0.01253532588279449 -0.005352374455191022 0 -0.035830045270285521 0.00040064584942632342 0 -0.036448577825306708 -0.0015812562349707693 0 -0.037313592474869213 -0.0011717991778314948 0 -0.022609896456528004 -0.0036732174884011393 0 -0.035007795095548418 -0.0013566716527580889 0 -0.02642456756853663 -0.00304638184351737 0 -0.028866041308396234 -0.0034230526786380735 0 -0.027762619339872011 -0.0024250493256240354 0 -0.022609896456528004 -0.0036732174884011393 0 -0.026174562454452908 -0.002889808091311453 0 -0.014868478982283963 -0.0045264601449011444 0 -0.014657694146587961 -0.0043529553904079242 0 -0.014729655234805119 -0.0043140458997318028 0 -0.036315062028248121 -0.0011626256808822534 0 -0.038643127998169879 -0.00042164034247458063 0 -0.038318676348892959 -0.00144016043095766 0 -0.037455456656472826 -0.0020649725555546535 0 -0.036315062028248121 -0.0011626256808822534 0 -0.038318676348892959 -0.00144016043095766 0 -0.026174562454452908 -0.002889808091311453 0 -0.035007795095548418 -0.0013566716527580889 0 -0.037847452963591044 -0.0013848062123916845 0 -0.038887758006199646 0.00019040969868379891 0 -0.040531916551507355 -8.7225280210437569e-05 0 -0.037847452963591044 -0.0013848062123916845 0 -0.037770893493774535 1.1801973306715454e-05 0 -0.038887758006199646 0.00019040969868379891 0 -0.038242853276421497 0.0011924351274612353 0 -0.039980358825713429 0.001300986127797826 0 -0.038887758006199646 0.00019040969868379891 0 -0.038242853276421497 0.0011924351274612353 0 -0.037770893493774535 1.1801973306715454e-05 0 -0.038887758006199646 0.00019040969868379891 0 -0.041238325414127572 0.0011499444608590976 0 -0.039980358825713429 0.001300986127797826 0 -0.040531916551507355 -8.7225280210437569e-05 0 -0.039980358825713429 0.001300986127797826 0 -0.038887758006199646 0.00019040969868379891 0 -0.040531916551507355 -8.7225280210437569e-05 0 -0.040729493065162874 -0.00062876871673246562 0 -0.038643127998169879 -0.00042164034247458063 0 -0.039706239322644957 0.00023988753833463605 0 -0.036315062028248121 -0.0011626256808822534 0 -0.038643127998169879 -0.00042164034247458063 0 -0.039706239322644957 0.00023988753833463605 0 -0.035007795095548418 -0.0013566716527580889 0 -0.040579800739608131 0.00017641231320168993 0 -0.040243705069131094 -0.0016967629019825942 0 -0.038643127998169879 -0.00042164034247458063 0 -0.03928456595091926 -0.0014674001946898586 0 -0.037455456656472826 -0.0020649725555546535 0 -0.038318676348892959 -0.00144016043095766 0 -0.039889182024475965 -0.0022712485263262274 0 -0.041164829997917582 -0.0018874625166978591 0 -0.038629838282991644 -0.00046244106998438928 0 -0.026174562454452908 -0.002889808091311453 0 -0.033093953592287562 -0.0031726926061100909 0 -0.038643127998169879 -0.00042164034247458063 0 -0.038318676348892959 -0.00144016043095766 0 -0.03928456595091926 -0.0014674001946898586 0 -0.038318676348892959 -0.00144016043095766 0 -0.03928456595091926 -0.0014674001946898586 0 -0.039889182024475965 -0.0022712485263262274 0 -0.026174562454452908 -0.002889808091311453 0 -0.020261675709861739 -0.0043181556273907988 0 -0.025723096427036331 -0.0039400291174423825 0 -0.026067714256597135 -0.0042788740568359719 0 -0.026187306754644285 -0.0040215919888103588 0 -0.014657694146587961 -0.0043529553904079242 0 -0.014686848044969003 -0.0042143886570690714 0 -0.014573266868063487 -0.004182187326739392 0 -0.014131141117462798 -0.0040557311962284674 0 -0.014666886012345816 -0.0042261185537246695 0 -0.014686848044969003 -0.0042143886570690714 0 -0.01468783102827111 -0.0043092326584833508 0 -0.014573266868063487 -0.004182187326739392 0 -0.014135884361089082 -0.0040219610578582409 0 -0.014573266868063487 -0.004182187326739392 0 -0.014415022391839177 -0.0038436566874595454 0 -0.014573266868063487 -0.004182187326739392 0 -0.014869953878251029 -0.0041996711041073732 0 -0.014689572030902206 -0.0038330008450353247 0 -0.014573266868063487 -0.004182187326739392 0 -0.014689572030902206 -0.0038330008450353247 0 -0.014415022391839177 -0.0038436566874595454 0 -0.014573266868063487 -0.004182187326739392 0 -0.014729655234805119 -0.0043140458997318028 0 -0.014869953878251029 -0.0041996711041073732 0 -0.014657694146587961 -0.0043529553904079242 0 -0.014573266868063487 -0.004182187326739392 0 -0.014729655234805119 -0.0043140458997318028 0 -0.014868478982283963 -0.0045264601449011444 0 -0.014869953878251029 -0.0041996711041073732 0 -0.015318212191603236 -0.0044810238448689463 0 -0.014868478982283963 -0.0045264601449011444 0 -0.014729655234805119 -0.0043140458997318028 0 -0.014869953878251029 -0.0041996711041073732 0 -0.014869953878251029 -0.0041996711041073732 0 -0.015318212191603236 -0.0044810238448689463 0 -0.015189242743097395 -0.0040925835027175598 0 -0.015318212191603236 -0.0044810238448689463 0 -0.015189242743097395 -0.0040925835027175598 0 -0.015570606792662046 -0.0041531483709501471 0 -0.015189242743097395 -0.0040925835027175598 0 -0.014916483116906531 -0.0038628408218298956 0 -0.015338674428123639 -0.0037160869546134043 0 -0.014869953878251029 -0.0041996711041073732 0 -0.014916483116906531 -0.0038628408218298956 0 -0.014689572030902206 -0.0038330008450353247 0 -0.014869953878251029 -0.0041996711041073732 0 -0.015189242743097395 -0.0040925835027175598 0 -0.014916483116906531 -0.0038628408218298956 0 -0.014689572030902206 -0.0038330008450353247 0 -0.014801795829590783 -0.0035343043889913299 0 -0.014529176404581066 -0.0034481540320562601 0 -0.014916483116906531 -0.0038628408218298956 0 -0.014689572030902206 -0.0038330008450353247 0 -0.014801795829590783 -0.0035343043889913299 0 -0.014801795829590783 -0.0035343043889913299 0 -0.015338674428123639 -0.0037160869546134043 0 -0.015248911003214309 -0.0031411048426624958 0 -0.014916483116906531 -0.0038628408218298956 0 -0.014801795829590783 -0.0035343043889913299 0 -0.015338674428123639 -0.0037160869546134043 0 -0.014801795829590783 -0.0035343043889913299 0 -0.015248911003214309 -0.0031411048426624958 0 -0.014561946309839256 -0.0031448164732469862 0 -0.012913442064505416 -0.0039958829180152993 0 -0.013696046201421747 -0.0026542243976765251 0 -0.014561946309839256 -0.0031448164732469862 0 -0.014801795829590783 -0.0035343043889913299 0 -0.014529176404581066 -0.0034481540320562601 0 -0.014561946309839256 -0.0031448164732469862 0 -0.013864594342398159 -0.0036482866576285173 0 -0.014477637583741798 -0.0032171452434984074 0 -0.012913442064505416 -0.0039958829180152993 0 -0.012334851833585394 -0.0035282450203693032 0 -0.011848532553644989 -0.0043983828048649795 0 -0.012913442064505416 -0.0039958829180152993 0 -0.012334851833585394 -0.0035282450203693032 0 -0.012749392181729428 -0.002867328135696534 0 -0.011819096691353925 -0.0037069739385349404 0 -0.011848532553644989 -0.0043983828048649795 0 -0.011521136726216854 -0.0039633228368145734 0 -0.012334851833585394 -0.0035282450203693032 0 -0.011819096691353925 -0.0037069739385349404 0 -0.011848532553644989 -0.0043983828048649795 0 -0.012334851833585394 -0.0035282450203693032 0 -0.011819096691353925 -0.0037069739385349404 0 -0.011971692317965514 -0.0032350379217389092 0 -0.014135884361089082 -0.0040219610578582409 0 -0.014198368976119253 -0.0036839337654740213 0 -0.014415022391839177 -0.0038436566874595454 0 -0.013864594342398159 -0.0036482866576285173 0 -0.012429659038851688 -0.0041186042877902583 0 -0.014689572030902206 -0.0038330008450353247 0 -0.014529176404581066 -0.0034481540320562601 0 -0.014415022391839177 -0.0038436566874595454 0 -0.014529176404581066 -0.0034481540320562601 0 -0.014198368976119253 -0.0036839337654740213 0 -0.014415022391839177 -0.0038436566874595454 0 -0.017015837587598066 -0.0043987767702226331 0 -0.016502585905339904 -0.0035842443203602625 0 -0.017537753028294984 -0.0037557327611471274 0 -0.017079832136893725 -0.0047192148563075607 0 -0.017653025257365923 -0.0048964354267625404 0 -0.017653038895057576 -0.0044277897517095771 0 -0.017348029629189229 -0.0044057640202708557 0 -0.016433979057944637 -0.0042466056377377668 0 -0.017079832136893725 -0.0047192148563075607 0 -0.017653038895057576 -0.0044277897517095771 0 -0.01675284460295522 -0.0042116213334703178 0 -0.017079832136893725 -0.0047192148563075607 0 -0.01675284460295522 -0.0042116213334703178 0 -0.0165561487185663 -0.0046223969397837248 0 -0.016143993273002481 -0.0042663963375723646 0 -0.015843611999770239 -0.0038348370346622104 0 -0.016502585905339904 -0.0035842443203602625 0 -0.017015837587598066 -0.0043987767702226331 0 -0.016143993273002481 -0.0042663963375723646 0 -0.016502585905339904 -0.0035842443203602625 0 -0.016143993273002481 -0.0042663963375723646 0 -0.015843611999770239 -0.0038348370346622104 0 -0.015570606792662046 -0.0041531483709501471 0 -0.01675284460295522 -0.0042116213334703178 0 -0.0165561487185663 -0.0046223969397837248 0 -0.016071775484134288 -0.0045397406670003894 0 -0.016433979057944637 -0.0042466056377377668 0 -0.015628692241975307 -0.0041576018012152525 0 -0.01675284460295522 -0.0042116213334703178 0 -0.016071775484134288 -0.0045397406670003894 0 -0.015570606792662046 -0.0041531483709501471 0 -0.016244466074440671 -0.0048257195764305691 0 -0.0165561487185663 -0.0046223969397837248 0 -0.016071775484134288 -0.0045397406670003894 0 -0.016071775484134288 -0.0045397406670003894 0 -0.015607904543076706 -0.0044801731920361063 0 -0.015570606792662046 -0.0041531483709501471 0 -0.015877879379131515 -0.0047654592774060735 0 -0.016071775484134288 -0.0045397406670003894 0 -0.015607904543076706 -0.0044801731920361063 0 -0.015318212191603236 -0.0044810238448689463 0 -0.015607904543076706 -0.0044801731920361063 0 -0.015570606792662046 -0.0041531483709501471 0 -0.015189242743097395 -0.0040925835027175598 0 -0.015570606792662046 -0.0041531483709501471 0 -0.015338674428123639 -0.0037160869546134043 0 -0.015843611999770239 -0.0038348370346622104 0 -0.015570606792662046 -0.0041531483709501471 0 -0.015338674428123639 -0.0037160869546134043 0 -0.015338674428123639 -0.0037160869546134043 0 -0.015248911003214309 -0.0031411048426624958 0 -0.01585816633052007 -0.0032942822940376267 0 -0.015248911003214309 -0.0031411048426624958 0 -0.01585816633052007 -0.0032942822940376267 0 -0.016075269832401474 -0.0025589759989508402 0 -0.015843611999770239 -0.0038348370346622104 0 -0.015338674428123639 -0.0037160869546134043 0 -0.01585816633052007 -0.0032942822940376267 0 -0.015843611999770239 -0.0038348370346622104 0 -0.01585816633052007 -0.0032942822940376267 0 -0.016502585905339904 -0.0035842443203602625 0 -0.01585816633052007 -0.0032942822940376267 0 -0.016502585905339904 -0.0035842443203602625 0 -0.016362078202854888 -0.0030980149385599707 0 -0.01585816633052007 -0.0032942822940376267 0 -0.016362078202854888 -0.0030980149385599707 0 -0.016075269832401474 -0.0025589759989508402 0 -0.016362078202854888 -0.0030980149385599707 0 -0.016752310699398264 -0.0027551969181332328 0 -0.016075269832401474 -0.0025589759989508402 0 -0.016752310699398264 -0.0027551969181332328 0 -0.017122443969052426 -0.003195080807921814 0 -0.01735599334614055 -0.0027051839604115995 0 -0.016362078202854888 -0.0030980149385599707 0 -0.016752310699398264 -0.0027551969181332328 0 -0.017122443969052426 -0.003195080807921814 0 -0.016502585905339904 -0.0035842443203602625 0 -0.017122443969052426 -0.003195080807921814 0 -0.017537753028294984 -0.0037557327611471274 0 -0.016502585905339904 -0.0035842443203602625 0 -0.016362078202854888 -0.0030980149385599707 0 -0.017122443969052426 -0.003195080807921814 0 -0.016856991514880432 -0.0022114627593909568 0 -0.01635062257729987 -0.0018963625639081606 0 -0.016940486066299481 -0.0015970119245142396 0 -0.016752310699398264 -0.0027551969181332328 0 -0.016856991514880432 -0.0022114627593909568 0 -0.016075269832401474 -0.0025589759989508402 0 -0.016752310699398264 -0.0027551969181332328 0 -0.016856991514880432 -0.0022114627593909568 0 -0.01735599334614055 -0.0027051839604115995 0 -0.016856991514880432 -0.0022114627593909568 0 -0.01635062257729987 -0.0018963625639081606 0 -0.016075269832401474 -0.0025589759989508402 0 -0.01635062257729987 -0.0018963625639081606 0 -0.01580005128674683 -0.0017861356586432254 0 -0.016075269832401474 -0.0025589759989508402 0 -0.01580005128674683 -0.0017861356586432254 0 -0.016075269832401474 -0.0025589759989508402 0 -0.015242848876991708 -0.0023413887953339695 0 -0.015248911003214309 -0.0031411048426624958 0 -0.016075269832401474 -0.0025589759989508402 0 -0.015242848876991708 -0.0023413887953339695 0 -0.01580005128674683 -0.0017861356586432254 0 -0.015242848876991708 -0.0023413887953339695 0 -0.015039220655087155 -0.0014708585003324734 0 -0.01580005128674683 -0.0017861356586432254 0 -0.015039220655087155 -0.0014708585003324734 0 -0.015628234291726644 -0.0011772176862428917 0 -0.015039220655087155 -0.0014708585003324734 0 -0.015628234291726644 -0.0011772176862428917 0 -0.014833565643389283 -0.00065546957699781833 0 -0.01580005128674683 -0.0017861356586432254 0 -0.015628234291726644 -0.0011772176862428917 0 -0.016298701851751196 -0.0013366824728014469 0 -0.01635062257729987 -0.0018963625639081606 0 -0.01580005128674683 -0.0017861356586432254 0 -0.016298701851751196 -0.0013366824728014469 0 -0.015628234291726644 -0.0011772176862428917 0 -0.016298701851751196 -0.0013366824728014469 0 -0.016187190582748225 -0.00069641475807832095 0 -0.016298701851751196 -0.0013366824728014469 0 -0.016691973369735807 -0.0010129754287931084 0 -0.016940486066299481 -0.0015970119245142396 0 -0.016298701851751196 -0.0013366824728014469 0 -0.016691973369735807 -0.0010129754287931084 0 -0.016187190582748225 -0.00069641475807832095 0 -0.01635062257729987 -0.0018963625639081606 0 -0.016298701851751196 -0.0013366824728014469 0 -0.016940486066299481 -0.0015970119245142396 0 -0.012864537923497231 -0.0019817614536998423 0 -0.012201080232971962 -0.001557850785526429 0 -0.012037569202376204 -0.0011441315407608567 0 -0.012275346860338291 -0.0022209456414629142 0 -0.012864537923497231 -0.0019817614536998423 0 -0.012214528733399344 -0.0018709025793735789 0 -0.012275346860338291 -0.0022209456414629142 0 -0.012214528733399344 -0.0018709025793735789 0 -0.012003107822629592 -0.0019359784303487101 0 -0.012864537923497231 -0.0019817614536998423 0 -0.012201080232971962 -0.001557850785526429 0 -0.012214528733399344 -0.0018709025793735789 0 -0.012214528733399344 -0.0018709025793735789 0 -0.012030901108102874 -0.0016634003578667336 0 -0.012003107822629592 -0.0019359784303487101 0 -0.012201080232971962 -0.001557850785526429 0 -0.012214528733399344 -0.0018709025793735789 0 -0.012030901108102874 -0.0016634003578667336 0 -0.011529958729586502 -0.00452668878604483 0 -0.011347890614322688 -0.0042956802872189106 0 -0.01129119665870168 -0.004465301808415441 0 -0.011871596126500728 -0.0033381558224325663 0 -0.01097876102520449 -0.0026133899264343527 0 -0.011796131492463904 -0.0016656549565040493 0 -0.011881370237799357 -0.0022928534510900009 0 -0.011440588146066971 -0.001296506385303175 0 -0.011529958729586502 -0.00452668878604483 0 -0.011317895895274746 -0.0041702725560062628 0 -0.011347890614322688 -0.0042956802872189106 0 -0.012030901108102874 -0.0016634003578667336 0 -0.011796131492463904 -0.0016656549565040493 0 -0.012003107822629592 -0.0019359784303487101 0 -0.012275346860338291 -0.0022209456414629142 0 -0.012003107822629592 -0.0019359784303487101 0 -0.011881370237799357 -0.0022928534510900009 0 -0.011796131492463904 -0.0016656549565040493 0 -0.012003107822629592 -0.0019359784303487101 0 -0.011881370237799357 -0.0022928534510900009 0 -0.012312504704119395 -0.0027900622694270378 0 -0.011871596126500728 -0.0033381558224325663 0 -0.012085428099718333 -0.0026774796267890993 0 -0.012197036695917481 -0.0028202818808857424 0 -0.011971692317965514 -0.0032350379217389092 0 -0.012275346860338291 -0.0022209456414629142 0 -0.011972524723943062 -0.002470728896636572 0 -0.012197036695917481 -0.0028202818808857424 0 -0.012085428099718333 -0.0026774796267890993 0 -0.011971692317965514 -0.0032350379217389092 0 -0.011332988270296877 -0.0034252486106973882 0 -0.011819096691353925 -0.0037069739385349404 0 -0.011971692317965514 -0.0032350379217389092 0 -0.011332988270296877 -0.0034252486106973882 0 -0.011529958729586502 -0.00452668878604483 0 -0.01129119665870168 -0.004465301808415441 0 -0.011206071651516497 -0.0046792632410317982 0 -0.011871596126500728 -0.0033381558224325663 0 -0.011267971099086657 -0.0040739124990700629 0 -0.011871596126500728 -0.0033381558224325663 0 -0.011859436903144473 -0.0030677315479388043 0 -0.012334851833585394 -0.0035282450203693032 0 -0.012197036695917481 -0.0028202818808857424 0 -0.011971692317965514 -0.0032350379217389092 0 -0.012913442064505416 -0.0039958829180152993 0 -0.012749392181729428 -0.002867328135696534 0 -0.013696046201421747 -0.0026542243976765251 0 -0.012334851833585394 -0.0035282450203693032 0 -0.012197036695917481 -0.0028202818808857424 0 -0.012749392181729428 -0.002867328135696534 0 -0.012275346860338291 -0.0022209456414629142 0 -0.012197036695917481 -0.0028202818808857424 0 -0.012749392181729428 -0.002867328135696534 0 -0.012275346860338291 -0.0022209456414629142 0 -0.012864537923497231 -0.0019817614536998423 0 -0.012749392181729428 -0.002867328135696534 0 -0.012864537923497231 -0.0019817614536998423 0 -0.012749392181729428 -0.002867328135696534 0 -0.013696046201421747 -0.0026542243976765251 0 -0.013696046201421747 -0.0026542243976765251 0 -0.014561946309839256 -0.0031448164732469862 0 -0.014464843162659217 -0.0020277898276661829 0 -0.015248911003214309 -0.0031411048426624958 0 -0.015242848876991708 -0.0023413887953339695 0 -0.014561946309839256 -0.0031448164732469862 0 -0.015242848876991708 -0.0023413887953339695 0 -0.014561946309839256 -0.0031448164732469862 0 -0.014464843162659217 -0.0020277898276661829 0 -0.015242848876991708 -0.0023413887953339695 0 -0.015039220655087155 -0.0014708585003324734 0 -0.014464843162659217 -0.0020277898276661829 0 -0.012864537923497231 -0.0019817614536998423 0 -0.014464843162659217 -0.0020277898276661829 0 -0.014140312507725754 -0.0011690038391135636 0 -0.012864537923497231 -0.0019817614536998423 0 -0.013696046201421747 -0.0026542243976765251 0 -0.014464843162659217 -0.0020277898276661829 0 -0.012864537923497231 -0.0019817614536998423 0 -0.011883725716389999 -0.0010213474163689048 0 -0.012037569202376204 -0.0011441315407608567 0 -0.012787722330777147 -0.0019905435447630684 0 -0.012970291528150173 -0.0011902790009492728 0 -0.015039220655087155 -0.0014708585003324734 0 -0.014464843162659217 -0.0020277898276661829 0 -0.014140312507725754 -0.0011690038391135636 0 -0.015039220655087155 -0.0014708585003324734 0 -0.014140312507725754 -0.0011690038391135636 0 -0.014833565643389283 -0.00065546957699781833 0 -0.012970291528150173 -0.0011902790009492728 0 -0.012867662747718925 -0.00085789705605789383 0 -0.011883725716389999 -0.0010213474163689048 0 -0.012037569202376204 -0.0011441315407608567 0 -0.011526421656865885 -0.0011224264548924253 0 -0.011883725716389999 -0.0010213474163689048 0 -0.011526421656865885 -0.0011224264548924253 0 -0.01092978037610921 -0.00099473618485701877 0 -0.012037569202376204 -0.0011441315407608567 0 -0.011912023082884035 -0.0010857282535719152 0 -0.011526421656865885 -0.0011224264548924253 0 -0.012037569202376204 -0.0011441315407608567 0 -0.011960094918188573 -0.0013474966076939337 0 -0.011912023082884035 -0.0010857282535719152 0 -0.012201080232971962 -0.001557850785526429 0 -0.012037569202376204 -0.0011441315407608567 0 -0.011960094918188573 -0.0013474966076939337 0 -0.012201080232971962 -0.001557850785526429 0 -0.012030901108102874 -0.0016634003578667336 0 -0.011960094918188573 -0.0013474966076939337 0 -0.011960094918188573 -0.0013474966076939337 0 -0.011759718670873972 -0.0013182576785929422 0 -0.011912023082884035 -0.0010857282535719152 0 -0.011759718670873972 -0.0013182576785929422 0 -0.011912023082884035 -0.0010857282535719152 0 -0.011440588146066971 -0.001296506385303175 0 -0.011796131492463904 -0.0016656549565040493 0 -0.011759718670873972 -0.0013182576785929422 0 -0.011440588146066971 -0.001296506385303175 0 -0.011796131492463904 -0.0016656549565040493 0 -0.011960094918188573 -0.0013474966076939337 0 -0.011759718670873972 -0.0013182576785929422 0 -0.012030901108102874 -0.0016634003578667336 0 -0.011796131492463904 -0.0016656549565040493 0 -0.011960094918188573 -0.0013474966076939337 0 -0.010127216805475899 -0.0014593175630783035 0 -0.010031761709881647 -0.00156125085544035 0 -0.010027761534957078 -0.0014206181497258682 0 -0.011025110202219015 -0.0010983648272671414 0 -0.01097876102520449 -0.0026133899264343527 0 -0.0099593231860947984 -0.0014414526418453865 0 -0.010031761709881647 -0.00156125085544035 0 -0.010027761534957078 -0.0014206181497258682 0 -0.011183801096047092 -0.0039772315045388451 0 -0.011180867271601851 -0.0037190932339357442 0 -0.011332296348000844 -0.0041859196922542329 0 -0.01053593676208562 -0.0026100383320813258 0 -0.01097876102520449 -0.0026133899264343527 0 -0.010961601638781125 -0.0037056769177441673 0 -0.011004237060711989 -0.0038968563863092296 0 -0.010823182155245704 -0.0038499893034460064 0 -0.010961601638781125 -0.0037056769177441673 0 -0.011064261343714276 -0.0037759692959363016 0 -0.011004237060711989 -0.0038968563863092296 0 -0.011183801096047092 -0.0039772315045388451 0 -0.011102221984161397 -0.0038388811660479724 0 -0.011180867271601851 -0.0037190932339357442 0 -0.010961601638781125 -0.0037056769177441673 0 -0.011064261343714276 -0.0037759692959363016 0 -0.011180867271601851 -0.0037190932339357442 0 -0.011102221984161397 -0.0038388811660479724 0 -0.011064261343714276 -0.0037759692959363016 0 -0.011004237060711989 -0.0038968563863092296 0 -0.011102221984161397 -0.0038388811660479724 0 -0.011064261343714276 -0.0037759692959363016 0 -0.011180867271601851 -0.0037190932339357442 0 -0.011090214119806253 -0.0039691881292664051 0 -0.011004237060711989 -0.0038968563863092296 0 -0.011038390280891999 -0.0040866184038253258 0 -0.011183801096047092 -0.0039772315045388451 0 -0.011102221984161397 -0.0038388811660479724 0 -0.011090214119806253 -0.0039691881292664051 0 -0.011183801096047092 -0.0039772315045388451 0 -0.011090214119806253 -0.0039691881292664051 0 -0.011143740936047145 -0.0040376867475005645 0 -0.011102221984161397 -0.0038388811660479724 0 -0.011090214119806253 -0.0039691881292664051 0 -0.011004237060711989 -0.0038968563863092296 0 -0.010905225182181934 -0.0040261740110845807 0 -0.011004237060711989 -0.0038968563863092296 0 -0.011038390280891999 -0.0040866184038253258 0 -0.010905225182181934 -0.0040261740110845807 0 -0.011004237060711989 -0.0038968563863092296 0 -0.010823182155245704 -0.0038499893034460064 0 -0.010905225182181934 -0.0040261740110845807 0 -0.01088896202277973 -0.0041848710470116131 0 -0.011038390280891999 -0.0040866184038253258 0 -0.01088896202277973 -0.0041848710470116131 0 -0.011038390280891999 -0.0040866184038253258 0 -0.010999468175895409 -0.0042185436020728655 0 -0.011038390280891999 -0.0040866184038253258 0 -0.011103481696710335 -0.004213748495697953 0 -0.010999468175895409 -0.0042185436020728655 0 -0.011090214119806253 -0.0039691881292664051 0 -0.011038390280891999 -0.0040866184038253258 0 -0.011143740936047145 -0.0040376867475005645 0 -0.011038390280891999 -0.0040866184038253258 0 -0.011143740936047145 -0.0040376867475005645 0 -0.011151509862614895 -0.0041245642508701136 0 -0.011038390280891999 -0.0040866184038253258 0 -0.011151509862614895 -0.0041245642508701136 0 -0.011103481696710335 -0.004213748495697953 0 -0.011103481696710335 -0.004213748495697953 0 -0.011181199103133754 -0.0042980725404855088 0 -0.011058436446745801 -0.0043309075119557037 0 -0.011103481696710335 -0.004213748495697953 0 -0.010999468175895409 -0.0042185436020728655 0 -0.011058436446745801 -0.0043309075119557037 0 -0.010999468175895409 -0.0042185436020728655 0 -0.011058436446745801 -0.0043309075119557037 0 -0.010905511553896362 -0.0043344555804744134 0 -0.01088896202277973 -0.0041848710470116131 0 -0.010999468175895409 -0.0042185436020728655 0 -0.010905511553896362 -0.0043344555804744134 0 -0.011233419057307759 -0.0041111738644176244 0 -0.011260353921059358 -0.0041798100178624242 0 -0.011332296348000844 -0.0041859196922542329 0 -0.011183801096047092 -0.0039772315045388451 0 -0.011233419057307759 -0.0041111738644176244 0 -0.011332296348000844 -0.0041859196922542329 0 -0.011143740936047145 -0.0040376867475005645 0 -0.011151509862614895 -0.0041245642508701136 0 -0.011233419057307759 -0.0041111738644176244 0 -0.011183801096047092 -0.0039772315045388451 0 -0.011143740936047145 -0.0040376867475005645 0 -0.011233419057307759 -0.0041111738644176244 0 -0.011151509862614895 -0.0041245642508701136 0 -0.011233419057307759 -0.0041111738644176244 0 -0.01120413449066715 -0.0041922532083213844 0 -0.011233419057307759 -0.0041111738644176244 0 -0.011260353921059358 -0.0041798100178624242 0 -0.01120413449066715 -0.0041922532083213844 0 -0.011260353921059358 -0.0041798100178624242 0 -0.01120413449066715 -0.0041922532083213844 0 -0.011269225182974752 -0.0042264445460555482 0 -0.011103481696710335 -0.004213748495697953 0 -0.01120413449066715 -0.0041922532083213844 0 -0.011181199103133754 -0.0042980725404855088 0 -0.011151509862614895 -0.0041245642508701136 0 -0.011103481696710335 -0.004213748495697953 0 -0.01120413449066715 -0.0041922532083213844 0 -0.011269225182974752 -0.0042264445460555482 0 -0.011273583878383149 -0.0042895824442476674 0 -0.011181199103133754 -0.0042980725404855088 0 -0.01120413449066715 -0.0041922532083213844 0 -0.011269225182974752 -0.0042264445460555482 0 -0.011181199103133754 -0.0042980725404855088 0 -0.011302917856436688 -0.0042462482758435279 0 -0.011317895895274746 -0.0041702725560062628 0 -0.011347890614322688 -0.0042956802872189106 0 -0.011302917856436688 -0.0042462482758435279 0 -0.011269225182974752 -0.0042264445460555482 0 -0.011273583878383149 -0.0042895824442476674 0 -0.011302917856436688 -0.0042462482758435279 0 -0.011269225182974752 -0.0042264445460555482 0 -0.011317895895274746 -0.0041702725560062628 0 -0.011260353921059358 -0.0041798100178624242 0 -0.011269225182974752 -0.0042264445460555482 0 -0.011332296348000844 -0.0041859196922542329 0 -0.010803199778875873 -0.0031898972478651196 0 -0.01097876102520449 -0.0026133899264343527 0 -0.011302917856436688 -0.0042462482758435279 0 -0.011347890614322688 -0.0042956802872189106 0 -0.011273583878383149 -0.0042895824442476674 0 -0.011347890614322688 -0.0042956802872189106 0 -0.011245369775314406 -0.0043607137846579415 0 -0.01129119665870168 -0.004465301808415441 0 -0.011347890614322688 -0.0042956802872189106 0 -0.011273583878383149 -0.0042895824442476674 0 -0.011245369775314406 -0.0043607137846579415 0 -0.011245369775314406 -0.0043607137846579415 0 -0.01129119665870168 -0.004465301808415441 0 -0.011135474675023403 -0.0044552238225730482 0 -0.011245369775314406 -0.0043607137846579415 0 -0.011135474675023403 -0.0044552238225730482 0 -0.011181199103133754 -0.0042980725404855088 0 -0.011273583878383149 -0.0042895824442476674 0 -0.011245369775314406 -0.0043607137846579415 0 -0.011181199103133754 -0.0042980725404855088 0 -0.011135474675023403 -0.0044552238225730482 0 -0.011181199103133754 -0.0042980725404855088 0 -0.011058436446745801 -0.0043309075119557037 0 -0.011058436446745801 -0.0043309075119557037 0 -0.010905511553896362 -0.0043344555804744134 0 -0.010963478525845503 -0.0045415185061983736 0 -0.011135474675023403 -0.0044552238225730482 0 -0.011058436446745801 -0.0043309075119557037 0 -0.010963478525845503 -0.0045415185061983736 0 -0.011135474675023403 -0.0044552238225730482 0 -0.010963478525845503 -0.0045415185061983736 0 -0.011206071651516497 -0.0046792632410317982 0 -0.010963478525845503 -0.0045415185061983736 0 -0.011206071651516497 -0.0046792632410317982 0 -0.010885217762395583 -0.0047630743743830818 0 -0.01129119665870168 -0.004465301808415441 0 -0.011135474675023403 -0.0044552238225730482 0 -0.011206071651516497 -0.0046792632410317982 0 -0.010744826967115982 -0.0046971286603225476 0 -0.010805785088749265 -0.0046488359773811695 0 -0.010633013988514559 -0.004587283183058107 0 -0.010744826967115982 -0.0046971286603225476 0 -0.010633013988514559 -0.004587283183058107 0 -0.010640293972273607 -0.0047201097321007907 0 -0.010744826967115982 -0.0046971286603225476 0 -0.010640293972273607 -0.0047201097321007907 0 -0.010825891668155929 -0.0047391897601334557 0 -0.010744826967115982 -0.0046971286603225476 0 -0.010805785088749265 -0.0046488359773811695 0 -0.010827804609378764 -0.0047119266281688069 0 -0.010963478525845503 -0.0045415185061983736 0 -0.010805785088749265 -0.0046488359773811695 0 -0.010885217762395583 -0.0047630743743830818 0 -0.010805785088749265 -0.0046488359773811695 0 -0.01076529858123698 -0.0044714893415368061 0 -0.010633013988514559 -0.004587283183058107 0 -0.010905511553896362 -0.0043344555804744134 0 -0.010963478525845503 -0.0045415185061983736 0 -0.01076529858123698 -0.0044714893415368061 0 -0.010963478525845503 -0.0045415185061983736 0 -0.010805785088749265 -0.0046488359773811695 0 -0.01076529858123698 -0.0044714893415368061 0 -0.010905511553896362 -0.0043344555804744134 0 -0.01076529858123698 -0.0044714893415368061 0 -0.010736238364547646 -0.0042585670362025084 0 -0.01076529858123698 -0.0044714893415368061 0 -0.010552972830788243 -0.0043619742732883895 0 -0.010736238364547646 -0.0042585670362025084 0 -0.010633013988514559 -0.004587283183058107 0 -0.010552972830788243 -0.0043619742732883895 0 -0.010348871539105811 -0.0045279977052387049 0 -0.01076529858123698 -0.0044714893415368061 0 -0.010633013988514559 -0.004587283183058107 0 -0.010552972830788243 -0.0043619742732883895 0 -0.010552972830788243 -0.0043619742732883895 0 -0.010479616303331352 -0.0041107715494433416 0 -0.01020530425337283 -0.0042352175948925453 0 -0.010552972830788243 -0.0043619742732883895 0 -0.010479616303331352 -0.0041107715494433416 0 -0.010736238364547646 -0.0042585670362025084 0 -0.01088896202277973 -0.0041848710470116131 0 -0.010905511553896362 -0.0043344555804744134 0 -0.010736238364547646 -0.0042585670362025084 0 -0.010479616303331352 -0.0041107715494433416 0 -0.010736238364547646 -0.0042585670362025084 0 -0.010730216464953262 -0.0040538877433752094 0 -0.010905225182181934 -0.0040261740110845807 0 -0.01088896202277973 -0.0041848710470116131 0 -0.010730216464953262 -0.0040538877433752094 0 -0.01088896202277973 -0.0041848710470116131 0 -0.010736238364547646 -0.0042585670362025084 0 -0.010730216464953262 -0.0040538877433752094 0 -0.010905225182181934 -0.0040261740110845807 0 -0.010730216464953262 -0.0040538877433752094 0 -0.010823182155245704 -0.0038499893034460064 0 -0.010730216464953262 -0.0040538877433752094 0 -0.010516564039849458 -0.0038265087249998004 0 -0.010823182155245704 -0.0038499893034460064 0 -0.010479616303331352 -0.0041107715494433416 0 -0.010730216464953262 -0.0040538877433752094 0 -0.010516564039849458 -0.0038265087249998004 0 -0.010516564039849458 -0.0038265087249998004 0 -0.010823182155245704 -0.0038499893034460064 0 -0.010792381708520277 -0.0035397039095414178 0 -0.010961601638781125 -0.0037056769177441673 0 -0.010823182155245704 -0.0038499893034460064 0 -0.010792381708520277 -0.0035397039095414178 0 -0.010479616303331352 -0.0041107715494433416 0 -0.010099587981084185 -0.0038451697171087047 0 -0.01020530425337283 -0.0042352175948925453 0 -0.010516564039849458 -0.0038265087249998004 0 -0.010099587981084185 -0.0038451697171087047 0 -0.010277821573683187 -0.003494983961156052 0 -0.010479616303331352 -0.0041107715494433416 0 -0.010516564039849458 -0.0038265087249998004 0 -0.010099587981084185 -0.0038451697171087047 0 -0.010099587981084185 -0.0038451697171087047 0 -0.0097102931650695293 -0.0039913875171796748 0 -0.01020530425337283 -0.0042352175948925453 0 -0.010099587981084185 -0.0038451697171087047 0 -0.0097102931650695293 -0.0039913875171796748 0 -0.0094457020927523078 -0.0035126248476529199 0 -0.0097102931650695293 -0.0039913875171796748 0 -0.0092131098057082299 -0.0037757840153975547 0 -0.0093677596853147856 -0.0040659148510316552 0 -0.0097102931650695293 -0.0039913875171796748 0 -0.0092131098057082299 -0.0037757840153975547 0 -0.0094457020927523078 -0.0035126248476529199 0 -0.0097102931650695293 -0.0039913875171796748 0 -0.0098800266892802979 -0.0043831257014135799 0 -0.0093677596853147856 -0.0040659148510316552 0 -0.0097102931650695293 -0.0039913875171796748 0 -0.0098800266892802979 -0.0043831257014135799 0 -0.01020530425337283 -0.0042352175948925453 0 -0.0098800266892802979 -0.0043831257014135799 0 -0.01020530425337283 -0.0042352175948925453 0 -0.010348871539105811 -0.0045279977052387049 0 -0.010552972830788243 -0.0043619742732883895 0 -0.01020530425337283 -0.0042352175948925453 0 -0.010348871539105811 -0.0045279977052387049 0 -0.0085095681646086795 -0.0039741190310783577 0 -0.0087976183887530576 -0.0038126640237619346 0 -0.0092296934882059329 -0.0042449738050524986 0 -0.0087976183887530576 -0.0038126640237619346 0 -0.0093677596853147856 -0.0040659148510316552 0 -0.0092296934882059329 -0.0042449738050524986 0 -0.0092131098057082299 -0.0037757840153975547 0 -0.0087976183887530576 -0.0038126640237619346 0 -0.0093677596853147856 -0.0040659148510316552 0 -0.0098800266892802979 -0.0043831257014135799 0 -0.0093677596853147856 -0.0040659148510316552 0 -0.0092296934882059329 -0.0042449738050524986 0 -0.0085095681646086795 -0.0039741190310783577 0 -0.0088556093544703302 -0.0044627224180891567 0 -0.0092296934882059329 -0.0042449738050524986 0 -0.0088556093544703302 -0.0044627224180891567 0 -0.0098060955260292678 -0.0046403741202233817 0 -0.0094450827972899359 -0.0049175710028336551 0 -0.0088556093544703302 -0.0044627224180891567 0 -0.0092296934882059329 -0.0042449738050524986 0 -0.0098060955260292678 -0.0046403741202233817 0 -0.0098800266892802979 -0.0043831257014135799 0 -0.0092296934882059329 -0.0042449738050524986 0 -0.0098060955260292678 -0.0046403741202233817 0 -0.0098060955260292678 -0.0046403741202233817 0 -0.010420418584106025 -0.0047795178686479865 0 -0.010349097664214523 -0.005157533808949258 0 -0.0098060955260292678 -0.0046403741202233817 0 -0.0094450827972899359 -0.0049175710028336551 0 -0.010349097664214523 -0.005157533808949258 0 -0.010633013988514559 -0.004587283183058107 0 -0.010348871539105811 -0.0045279977052387049 0 -0.010640293972273607 -0.0047201097321007907 0 -0.0098800266892802979 -0.0043831257014135799 0 -0.010348871539105811 -0.0045279977052387049 0 -0.010420418584106025 -0.0047795178686479865 0 -0.0098800266892802979 -0.0043831257014135799 0 -0.0098060955260292678 -0.0046403741202233817 0 -0.010420418584106025 -0.0047795178686479865 0 -0.010420418584106025 -0.0047795178686479865 0 -0.010640293972273607 -0.0047201097321007907 0 -0.010739821110549509 -0.0048072485253359198 0 -0.010348871539105811 -0.0045279977052387049 0 -0.010420418584106025 -0.0047795178686479865 0 -0.010640293972273607 -0.0047201097321007907 0 -0.010640293972273607 -0.0047201097321007907 0 -0.010739821110549509 -0.0048072485253359198 0 -0.010825891668155929 -0.0047391897601334557 0 -0.010739821110549509 -0.0048072485253359198 0 -0.010819989549249972 -0.0049089046712186366 0 -0.010927738881479427 -0.0047685753205972074 0 -0.010739821110549509 -0.0048072485253359198 0 -0.010927738881479427 -0.0047685753205972074 0 -0.010825891668155929 -0.0047391897601334557 0 -0.010927738881479427 -0.0047685753205972074 0 -0.010825891668155929 -0.0047391897601334557 0 -0.010926246051666472 -0.0046911782223646543 0 -0.010420418584106025 -0.0047795178686479865 0 -0.010819989549249972 -0.0049089046712186366 0 -0.010349097664214523 -0.005157533808949258 0 -0.010420418584106025 -0.0047795178686479865 0 -0.010739821110549509 -0.0048072485253359198 0 -0.010819989549249972 -0.0049089046712186366 0 -0.010819989549249972 -0.0049089046712186366 0 -0.01115519580203737 -0.0047184807819807446 0 -0.011203743672402601 -0.0047468086543983471 0 -0.010819989549249972 -0.0049089046712186366 0 -0.01114459402692838 -0.0049836448341091261 0 -0.011452149549832834 -0.0049580355814572031 0 -0.011156212184806202 -0.0047819214621389796 0 -0.010329303125261808 -0.0051530878878757831 0 -0.010819989549249972 -0.0049089046712186366 0 -0.01115519580203737 -0.0047184807819807446 0 -0.010927738881479427 -0.0047685753205972074 0 -0.01115519580203737 -0.0047184807819807446 0 -0.010927738881479427 -0.0047685753205972074 0 -0.011001232150222955 -0.0047374870992168408 0 -0.010927738881479427 -0.0047685753205972074 0 -0.010926246051666472 -0.0046911782223646543 0 -0.011001232150222955 -0.0047374870992168408 0 -0.011836903960838573 -0.0053033266227982883 0 -0.010349097664214523 -0.005157533808949258 0 -0.011256623822390321 -0.0050354634468592731 0 -0.010633111749200733 -0.005287151315860961 0 -0.010402792061462714 -0.0051694612999323786 0 -0.0092086806589582893 -0.0053161771811063661 0 -0.0094450827972899359 -0.0049175710028336551 0 -0.010349097664214523 -0.005157533808949258 0 -0.010349097664214523 -0.005157533808949258 0 -0.01114459402692838 -0.0049836448341091261 0 -0.011256623822390321 -0.0050354634468592731 0 -0.010819989549249972 -0.0049089046712186366 0 -0.010349097664214523 -0.005157533808949258 0 -0.01114459402692838 -0.0049836448341091261 0 -0.01114459402692838 -0.0049836448341091261 0 -0.011566739701672516 -0.0049258168759444831 0 -0.011256623822390321 -0.0050354634468592731 0 -0.01114459402692838 -0.0049836448341091261 0 -0.011566739701672516 -0.0049258168759444831 0 -0.011612511577482944 -0.0048969193678183283 0 -0.011707166014085004 -0.0049930694142611811 0 -0.011566739701672516 -0.0049258168759444831 0 -0.011256623822390321 -0.0050354634468592731 0 -0.012089365346350887 -0.0047755948668223398 0 -0.012040938205296019 -0.0047841874128935402 0 -0.011838445479422081 -0.0048421421413960605 0 -0.012040938205296019 -0.0047841874128935402 0 -0.011838445479422081 -0.0048421421413960605 0 -0.011915384273757976 -0.0048255011381102206 0 -0.011916287224037448 -0.004872870827700211 0 -0.011566739701672516 -0.0049258168759444831 0 -0.011838445479422081 -0.0048421421413960605 0 -0.011566739701672516 -0.0049258168759444831 0 -0.011838445479422081 -0.0048421421413960605 0 -0.011612511577482944 -0.0048969193678183283 0 -0.011612511577482944 -0.0048969193678183283 0 -0.011915384273757976 -0.0048255011381102206 0 -0.011780597741729059 -0.0048920806867293869 0 -0.011838445479422081 -0.0048421421413960605 0 -0.011612511577482944 -0.0048969193678183283 0 -0.011915384273757976 -0.0048255011381102206 0 -0.011612511577482944 -0.0048969193678183283 0 -0.011780597741729059 -0.0048920806867293869 0 -0.011530554307630621 -0.0049345021016900907 0 -0.01114459402692838 -0.0049836448341091261 0 -0.011612511577482944 -0.0048969193678183283 0 -0.011530554307630621 -0.0049345021016900907 0 -0.01114459402692838 -0.0049836448341091261 0 -0.011530554307630621 -0.0049345021016900907 0 -0.011452149549832834 -0.0049580355814572031 0 -0.011530554307630621 -0.0049345021016900907 0 -0.01171675145898439 -0.0049750401443462572 0 -0.011452149549832834 -0.0049580355814572031 0 -0.011780597741729059 -0.0048920806867293869 0 -0.011530554307630621 -0.0049345021016900907 0 -0.01171675145898439 -0.0049750401443462572 0 -0.012020408516218543 -0.0050234878337752581 0 -0.01171675145898439 -0.0049750401443462572 0 -0.011941393222505071 -0.0050326134440039196 0 -0.01171675145898439 -0.0049750401443462572 0 -0.011941393222505071 -0.0050326134440039196 0 -0.012003967675888134 -0.004905731703398958 0 -0.012339617149147272 -0.0049331218492870291 0 -0.011941393222505071 -0.0050326134440039196 0 -0.012003967675888134 -0.004905731703398958 0 -0.019209011996563122 -0.0043181972629326914 0 -0.015225370077679632 -0.0031548549162159112 0 -0.011600403627782186 -0.0053077751871727962 0 -0.012074780923580941 -0.0052543492629512339 0 -0.011941393222505071 -0.0050326134440039196 0 -0.012074780923580941 -0.0052543492629512339 0 -0.012339617149147272 -0.0049331218492870291 0 -0.011941393222505071 -0.0050326134440039196 0 -0.012003967675888134 -0.004905731703398958 0 -0.011991820783559669 -0.0048241247223434524 0 -0.012168014014702555 -0.004721365654963108 0 -0.012339617149147272 -0.0049331218492870291 0 -0.012003967675888134 -0.004905731703398958 0 -0.012168014014702555 -0.004721365654963108 0 -0.011780597741729059 -0.0048920806867293869 0 -0.01171675145898439 -0.0049750401443462572 0 -0.012003967675888134 -0.004905731703398958 0 -0.011780597741729059 -0.0048920806867293869 0 -0.012003967675888134 -0.004905731703398958 0 -0.011991820783559669 -0.0048241247223434524 0 -0.012258814105965719 -0.0047126989573331463 0 -0.01274687419472964 -0.00451214634349178 0 -0.012293990764816659 -0.004654096344158567 0 -0.011915384273757976 -0.0048255011381102206 0 -0.011780597741729059 -0.0048920806867293869 0 -0.011991820783559669 -0.0048241247223434524 0 -0.011915384273757976 -0.0048255011381102206 0 -0.011991820783559669 -0.0048241247223434524 0 -0.012107795749584919 -0.0047554175368155847 0 -0.012168014014702555 -0.004721365654963108 0 -0.012293990764816659 -0.004654096344158567 0 -0.012107795749584919 -0.0047554175368155847 0 -0.011991820783559669 -0.0048241247223434524 0 -0.012168014014702555 -0.004721365654963108 0 -0.012107795749584919 -0.0047554175368155847 0 -0.012247302303931933 -0.0044668711621062189 0 -0.012168014014702555 -0.004721365654963108 0 -0.012293990764816659 -0.004654096344158567 0 -0.012258814105965719 -0.0047126989573331463 0 -0.012293990764816659 -0.004654096344158567 0 -0.012107795749584919 -0.0047554175368155847 0 -0.012258814105965719 -0.0047126989573331463 0 -0.012040938205296019 -0.0047841874128935402 0 -0.012107795749584919 -0.0047554175368155847 0 -0.012040938205296019 -0.0047841874128935402 0 -0.011915384273757976 -0.0048255011381102206 0 -0.012107795749584919 -0.0047554175368155847 0 -0.01115519580203737 -0.0047184807819807446 0 -0.011477812767233668 -0.004838029599509572 0 -0.011768769267796436 -0.0048495695867660756 0 -0.01115519580203737 -0.0047184807819807446 0 -0.011477812767233668 -0.004838029599509572 0 -0.011203743672402601 -0.0047468086543983471 0 -0.01115519580203737 -0.0047184807819807446 0 -0.011768769267796436 -0.0048495695867660756 0 -0.011851152257259441 -0.0049383443061404202 0 -0.011799762550314204 -0.0051237992304347954 0 -0.0096637789663657735 -0.0039367645976169999 0 -0.01115519580203737 -0.0047184807819807446 0 -0.011014296372608558 -0.0049728672835065973 0 -0.011001232150222955 -0.0047374870992168408 0 -0.011477812767233668 -0.004838029599509572 0 -0.011203743672402601 -0.0047468086543983471 0 -0.011370894052573841 -0.0049829800620986584 0 -0.011320441706930383 -0.0051194822453216118 0 -0.011203743672402601 -0.0047468086543983471 0 -0.011370894052573841 -0.0049829800620986584 0 -0.012020408516218543 -0.0050234878337752581 0 -0.01171675145898439 -0.0049750401443462572 0 -0.011452149549832834 -0.0049580355814572031 0 -0.019209011996563122 -0.0043181972629326914 0 -0.010329303125261808 -0.0051530878878757831 0 -0.011320441706930383 -0.0051194822453216118 0 -0.011370894052573841 -0.0049829800620986584 0 -0.011394353979606347 -0.0050904221912364059 0 -0.011370894052573841 -0.0049829800620986584 0 -0.011394353979606347 -0.0050904221912364059 0 -0.011502946850478974 -0.0051099175353328157 0 -0.011477812767233668 -0.004838029599509572 0 -0.011370894052573841 -0.0049829800620986584 0 -0.011502946850478974 -0.0051099175353328157 0 -0.011477812767233668 -0.004838029599509572 0 -0.011502946850478974 -0.0051099175353328157 0 -0.012081072994857478 -0.0047643766460303818 0 -0.011477812767233668 -0.004838029599509572 0 -0.011768769267796436 -0.0048495695867660756 0 -0.012081072994857478 -0.0047643766460303818 0 -0.014237006346196098 -0.0040058839955216504 0 -0.012737924160783525 -0.0040737557370868734 0 -0.012081072994857478 -0.0047643766460303818 0 -0.011495402183359931 -0.0053096252394200837 0 -0.012676442427585309 -0.0045104416308327372 0 -0.030805149398170664 -0.0029921027857625557 0 -0.024997054275609148 -0.0047382684338112407 0 -0.012737924160783525 -0.0040737557370868734 0 -0.012081072994857478 -0.0047643766460303818 0 -0.011079642424848496 -0.0050333570085814129 0 -0.046393557211216907 -0.0021378269916256841 0 -0.048014788624207785 -0.0024535577413860796 0 -0.045641308279407641 -0.0031320040376781513 0 -0.048014788624207785 -0.0024535577413860796 0 -0.045741424988235274 -0.0040551002761365753 0 -0.045641308279407641 -0.0031320040376781513 0 -0.012081072994857478 -0.0047643766460303818 0 -0.011851152257259441 -0.0049383443061404202 0 -0.011079642424848496 -0.0050333570085814129 0 -0.011014296372608558 -0.0049728672835065973 0 -0.011647389012912195 -0.0054545890609702299 0 -0.011349203934567072 -0.0047784248946593074 0 -0.011768769267796436 -0.0048495695867660756 0 -0.012081072994857478 -0.0047643766460303818 0 -0.011851152257259441 -0.0049383443061404202 0 -0.0096637789663657735 -0.0039367645976169999 0 -0.024997054275609148 -0.0047382684338112407 0 -0.011014296372608558 -0.0049728672835065973 0 -0.011349203934567072 -0.0047784248946593074 0 -0.011082901474627645 -0.0047384076135076822 0 -0.012141316203738406 -0.0049077324936302154 0 -0.011647389012912195 -0.0054545890609702299 0 -0.011349203934567072 -0.0047784248946593074 0 -0.04509447204534793 -0.0022360496842604538 0 -0.045641308279407641 -0.0031320040376781513 0 -0.043472928643008175 -0.002981054057041627 0 -0.045741424988235274 -0.0040551002761365753 0 -0.045641308279407641 -0.0031320040376781513 0 -0.043344065328884553 -0.00283647161635316 0 -0.046720777405948599 -0.0033728019894532445 0 -0.039115733831697079 -0.0032463184466186138 0 -0.024997054275609148 -0.0047382684338112407 0 -0.039115733831697079 -0.0032463184466186138 0 -0.04509447204534793 -0.0022360496842604538 0 -0.046393557211216907 -0.0021378269916256841 0 -0.045641308279407641 -0.0031320040376781513 0 -0.026655098031220858 -0.0041036655269353281 0 -0.026349151393356186 -0.0042463613878930507 0 -0.026383685534291303 -0.0046233119553235171 0 -0.026655098031220858 -0.0041036655269353281 0 -0.026187306754644285 -0.0040215919888103588 0 -0.026349151393356186 -0.0042463613878930507 0 -0.040243705069131094 -0.0016967629019825942 0 -0.041546384567226417 -0.0025081795268061509 0 -0.039889182024475965 -0.0022712485263262274 0 -0.039115733831697079 -0.0032463184466186138 0 -0.033093953592287562 -0.0031726926061100909 0 -0.026067714256597135 -0.0042788740568359719 0 -0.026187306754644285 -0.0040215919888103588 0 -0.026349151393356186 -0.0042463613878930507 0 -0.026067714256597135 -0.0042788740568359719 0 -0.026349151393356186 -0.0042463613878930507 0 -0.026383685534291303 -0.0046233119553235171 0 -0.014686848044969003 -0.0042143886570690714 0 -0.01468783102827111 -0.0043092326584833508 0 -0.01496530371324711 -0.004385454360281372 0 -0.014135884361089082 -0.0040219610578582409 0 -0.014198368976119253 -0.0036839337654740213 0 -0.013809348692693785 -0.0039129984759258283 0 -0.020261675709861739 -0.0043181556273907988 0 -0.015830758256795526 -0.0048934284249038812 0 -0.014131141117462798 -0.0040557311962284674 0 -0.015830758256795526 -0.0048934284249038812 0 -0.024997054275609148 -0.0047382684338112407 0 -0.015830758256795526 -0.0048934284249038812 0 -0.012141316203738406 -0.0049077324936302154 0 -0.012908133450183965 -0.004893373133831474 0 -0.011923240851292484 -0.0045609922154355486 0 -0.027001902760979923 -0.0043329327982908512 0 -0.026655098031220858 -0.0041036655269353281 0 -0.026383685534291303 -0.0046233119553235171 0 -0.012141316203738406 -0.0049077324936302154 0 -0.011647389012912195 -0.0054545890609702299 0 -0.012908133450183965 -0.004893373133831474 0 -0.0111396038229829 -0.0044236995403925637 0 -0.011005037849806287 -0.0042793045916295555 0 -0.010836374761586503 -0.0044521847025614505 0 -0.011204693452088984 -0.0046209395346987186 0 -0.0111396038229829 -0.0044236995403925637 0 -0.010836374761586503 -0.0044521847025614505 0 -0.015830758256795526 -0.0048934284249038812 0 -0.010664743925653064 -0.00436043488069168 0 -0.011005037849806287 -0.0042793045916295555 0 -0.010873777478054346 -0.0040889061356995642 0 -0.010836374761586503 -0.0044521847025614505 0 -0.011204693452088984 -0.0046209395346987186 0 -0.011214002713961779 -0.0045161530616781133 0 -0.0111396038229829 -0.0044236995403925637 0 -0.0111396038229829 -0.0044236995403925637 0 -0.011005037849806287 -0.0042793045916295555 0 -0.011188736321895574 -0.0040944918403206017 0 -0.011848532553644989 -0.0043983828048649795 0 -0.011204693452088984 -0.0046209395346987186 0 -0.01130712514788302 -0.0044802822658287266 0 -0.012429659038851688 -0.0041186042877902583 0 -0.015830758256795526 -0.0048934284249038812 0 -0.011848532553644989 -0.0043983828048649795 0 -0.01130712514788302 -0.0044802822658287266 0 -0.01138600472415823 -0.0042588308635855788 0 -0.0111396038229829 -0.0044236995403925637 0 -0.01130712514788302 -0.0044802822658287266 0 -0.01138600472415823 -0.0042588308635855788 0 -0.011204693452088984 -0.0046209395346987186 0 -0.01130712514788302 -0.0044802822658287266 0 -0.011232902491632519 -0.0045631297293250604 0 -0.011204693452088984 -0.0046209395346987186 0 -0.011214002713961779 -0.0045161530616781133 0 -0.011232902491632519 -0.0045631297293250604 0 -0.011214002713961779 -0.0045161530616781133 0 -0.01130712514788302 -0.0044802822658287266 0 -0.011232902491632519 -0.0045631297293250604 0 -0.011214002713961779 -0.0045161530616781133 0 -0.0111396038229829 -0.0044236995403925637 0 -0.01130712514788302 -0.0044802822658287266 0 -0.0111396038229829 -0.0044236995403925637 0 -0.01138600472415823 -0.0042588308635855788 0 -0.011188736321895574 -0.0040944918403206017 0 -0.011848532553644989 -0.0043983828048649795 0 -0.01138600472415823 -0.0042588308635855788 0 -0.011521136726216854 -0.0039633228368145734 0 -0.011332988270296877 -0.0034252486106973882 0 -0.011521136726216854 -0.0039633228368145734 0 -0.011188736321895574 -0.0040944918403206017 0 -0.01138600472415823 -0.0042588308635855788 0 -0.011521136726216854 -0.0039633228368145734 0 -0.011188736321895574 -0.0040944918403206017 0 -0.011819096691353925 -0.0037069739385349404 0 -0.011332988270296877 -0.0034252486106973882 0 -0.011521136726216854 -0.0039633228368145734 0 -0.011267971099086657 -0.0040739124990700629 0 -0.010923328420940442 -0.0044031911691556425 0 -0.011332988270296877 -0.0034252486106973882 0 -0.011188736321895574 -0.0040944918403206017 0 -0.010873777478054346 -0.0040889061356995642 0 -0.011005037849806287 -0.0042793045916295555 0 -0.011188736321895574 -0.0040944918403206017 0 -0.010873777478054346 -0.0040889061356995642 0 -0.010923328420940442 -0.0044031911691556425 0 -0.010884795417383526 -0.0045489626862448146 0 -0.010885217762395583 -0.0047630743743830818 0 -0.010827804609378764 -0.0047119266281688069 0 -0.010871599526812506 -0.0045896422496180013 0 -0.010805785088749265 -0.0046488359773811695 0 -0.010885217762395583 -0.0047630743743830818 0 -0.010827804609378764 -0.0047119266281688069 0 -0.010744826967115982 -0.0046971286603225476 0 -0.010827804609378764 -0.0047119266281688069 0 -0.010825891668155929 -0.0047391897601334557 0 -0.010825891668155929 -0.0047391897601334557 0 -0.010884393277154779 -0.0046800337562611276 0 -0.010926246051666472 -0.0046911782223646543 0 -0.010827804609378764 -0.0047119266281688069 0 -0.010884393277154779 -0.0046800337562611276 0 -0.010871599526812506 -0.0045896422496180013 0 -0.010827804609378764 -0.0047119266281688069 0 -0.010825891668155929 -0.0047391897601334557 0 -0.010884393277154779 -0.0046800337562611276 0 -0.010871599526812506 -0.0045896422496180013 0 -0.010946792421114937 -0.00459074760479796 0 -0.010836374761586503 -0.0044521847025614505 0 -0.010884393277154779 -0.0046800337562611276 0 -0.010871599526812506 -0.0045896422496180013 0 -0.010946792421114937 -0.00459074760479796 0 -0.010926246051666472 -0.0046911782223646543 0 -0.010946792421114937 -0.00459074760479796 0 -0.011001232150222955 -0.0047374870992168408 0 -0.010884393277154779 -0.0046800337562611276 0 -0.010926246051666472 -0.0046911782223646543 0 -0.010946792421114937 -0.00459074760479796 0 -0.011014296372608558 -0.0049728672835065973 0 -0.011001232150222955 -0.0047374870992168408 0 -0.011082901474627645 -0.0047384076135076822 0 -0.010946792421114937 -0.00459074760479796 0 -0.011001232150222955 -0.0047374870992168408 0 -0.011082901474627645 -0.0047384076135076822 0 -0.010946792421114937 -0.00459074760479796 0 -0.011349203934567072 -0.0047784248946593074 0 -0.011082901474627645 -0.0047384076135076822 0 -0.012141316203738406 -0.0049077324936302154 0 -0.011349203934567072 -0.0047784248946593074 0 -0.011923240851292484 -0.0045609922154355486 0 -0.010946792421114937 -0.00459074760479796 0 -0.011349203934567072 -0.0047784248946593074 0 -0.011923240851292484 -0.0045609922154355486 0 -0.01127626925364339 -0.0046317551098561558 0 -0.010664743925653064 -0.00436043488069168 0 -0.010873777478054346 -0.0040889061356995642 0 -0.010871599526812506 -0.0045896422496180013 0 -0.010836374761586503 -0.0044521847025614505 0 -0.038381191068251885 0.00038396998826749107 0 -0.038700962098760332 0.00086668130611939254 0 -0.039008194451117362 -4.0163939843664409e-05 0 -0.040287139170991977 1.2694377278001148e-06 0 -0.038028660477756736 3.0128571440086478e-07 0 -0.038381191068251885 0.00038396998826749107 0 -0.040287139170991977 1.2694377278001148e-06 0 -0.038381191068251885 0.00038396998826749107 0 -0.039008194451117362 -4.0163939843664409e-05 0 -0.038028660477756736 3.0128571440086478e-07 0 -0.038381191068251885 0.00038396998826749107 0 -0.037396127442883897 0.00026198580404752746 0 -0.038381191068251885 0.00038396998826749107 0 -0.038064760952169659 0.00016472830246869327 0 -0.037396127442883897 0.00026198580404752746 0 -0.038381191068251885 0.00038396998826749107 0 -0.038064760952169659 0.00016472830246869327 0 -0.038700962098760332 0.00086668130611939254 0 -0.04022924179988447 -8.3409416411761965e-05 0 -0.038700962098760332 0.00086668130611939254 0 -0.041053319445229393 0.00053690136959346868 0 -0.038064760952169659 0.00016472830246869327 0 -0.04022924179988447 -8.3409416411761965e-05 0 -0.038700962098760332 0.00086668130611939254 0 -0.038090833724780525 0.00011954279245919062 0 -0.03913891445660158 9.2590120403280519e-05 0 -0.042322546162305061 0.00062988742105806763 0 -0.041674555355408635 0.00051689771872171452 0 -0.041053319445229393 0.00053690136959346868 0 -0.042322546162305061 0.00062988742105806763 0 -0.041720781398821717 0.0003275746974487071 0 -0.041674555355408635 0.00051689771872171452 0 -0.040593253483646147 0.00066583229520604992 0 -0.041073734790515258 0.0005199391935943584 0 -0.040593253483646147 0.00066583229520604992 0 -0.041045423491408287 0.00016324322444846243 0 -0.042322546162305061 0.00062988742105806763 0 -0.042503490192407248 0.00016512469303630106 0 -0.043103844921053958 0.00015128055969281488 0 -0.042322546162305061 0.00062988742105806763 0 -0.042503490192407248 0.00016512469303630106 0 -0.041720781398821717 0.0003275746974487071 0 -0.042503490192407248 0.00016512469303630106 0 -0.042500900888497825 -0.00012170057382506803 0 -0.041785503041614713 -3.9874274960202821e-06 0 -0.042503490192407248 0.00016512469303630106 0 -0.042500900888497825 -0.00012170057382506803 0 -0.043427145140090051 7.8222809013683584e-05 0 -0.042503490192407248 0.00016512469303630106 0 -0.043103844921053958 0.00015128055969281488 0 -0.043427145140090051 7.8222809013683584e-05 0 -0.043103844921053958 0.00015128055969281488 0 -0.042550493794127446 2.4754688650926093e-07 0 -0.043427145140090051 7.8222809013683584e-05 0 -0.041045423491408287 0.00016324322444846243 0 -0.042544462018822754 6.9708309399737626e-08 0 -0.040287139170991977 1.2694377278001148e-06 0 -0.039008194451117362 -4.0163939843664409e-05 0 -0.042540873426074835 -2.313854389810622e-06 0 -0.042550493794127446 2.4754688650926093e-07 0 -0.044875286890198603 8.7987656783325813e-07 0 -0.043427145140090051 7.8222809013683584e-05 0 -0.044875286890198603 8.7987656783325813e-07 0 -0.043427145140090051 7.8222809013683584e-05 0 -0.044089514141076765 -0.00050284554465411632 0 -0.046782119276080572 -0.00058559760755330312 0 -0.047207203898777049 -5.2094014887221677e-08 0 -0.044875286890198603 8.7987656783325813e-07 0 -0.044089514141076765 -0.00050284554465411632 0 -0.047204014004128811 -2.3546991293403359e-06 0 -0.049996036496787487 1.1830052707914811e-06 0 -0.049317391025797637 0.00017676887868183354 0 -0.050000760195914887 -1.0877729419766439e-07 0 -0.049476664700251118 -0.00070990951827590992 0 -0.047214659153960802 -2.1201976732851659e-06 0 -0.049317391025797637 0.00017676887868183354 0 -0.049283504600064892 0.0001013990733425396 0 -0.049863048211476073 -7.0537989058874764e-05 0 -0.049476664700251118 -0.00070990951827590992 0 -0.049317391025797637 0.00017676887868183354 0 -0.049748393139673823 -0.00027685858187744596 0 -0.047214659153960802 -2.1201976732851659e-06 0 -0.049996036496787487 1.1830052707914811e-06 0 -0.049317391025797637 0.00017676887868183354 0 -0.049317391025797637 0.00017676887868183354 0 -0.050000760195914887 -1.0877729419766439e-07 0 -0.049785791643850504 -9.3136053792386517e-05 0 -0.050000029742324398 9.278026286337773e-07 0 -0.049438304924537421 -0.00093884233147331023 0 -0.050000760195914887 -1.0877729419766439e-07 0 -0.049785791643850504 -9.3136053792386517e-05 0 -0.049996542401857962 -7.3366547390915136e-05 0 -0.049476664700251118 -0.00070990951827590992 0 -0.049748393139673823 -0.00027685858187744596 0 -0.049834380581791418 -0.00049946462668461005 0 -0.049748393139673823 -0.00027685858187744596 0 -0.049834380581791418 -0.00049946462668461005 0 -0.049949816459722747 -0.00042601797256505513 0 -0.049863048211476073 -7.0537989058874764e-05 0 -0.049438304924537421 -0.00093884233147331023 0 -0.045948157870585787 -0.00019007995498022853 0 -0.044365228326166538 -0.0016811355217636963 0 -0.049834380581791418 -0.00049946462668461005 0 -0.049755590196205374 -0.00071080825859689591 0 -0.049984373527749787 -0.00051604282081184566 0 -0.049476664700251118 -0.00070990951827590992 0 -0.049834380581791418 -0.00049946462668461005 0 -0.049755590196205374 -0.00071080825859689591 0 -0.046782119276080572 -0.00058559760755330312 0 -0.045948157870585787 -0.00019007995498022853 0 -0.043427145140090051 7.8222809013683584e-05 0 -0.044089514141076765 -0.00050284554465411632 0 -0.042714745180130187 -0.00045294736155668708 0 -0.042500900888497825 -0.00012170057382506803 0 -0.043427145140090051 7.8222809013683584e-05 0 -0.042714745180130187 -0.00045294736155668708 0 -0.042500900888497825 -0.00012170057382506803 0 -0.042714745180130187 -0.00045294736155668708 0 -0.042116681030899356 -0.00035387784750375234 0 -0.042664763921597348 -0.00058358356491933206 0 -0.042116681030899356 -0.00035387784750375234 0 -0.041832196710642193 -0.0010511077305757348 0 -0.045948157870585787 -0.00019007995498022853 0 -0.041311095745759953 3.7466631815063467e-05 0 -0.042116681030899356 -0.00035387784750375234 0 -0.041472265176776622 -0.00032939245315833959 0 -0.041832196710642193 -0.0010511077305757348 0 -0.042116681030899356 -0.00035387784750375234 0 -0.041472265176776622 -0.00032939245315833959 0 -0.041785503041614713 -3.9874274960202821e-06 0 -0.039782099987937795 -0.0038733714243814952 0 -0.039282761208153633 -0.0041615632162662992 0 -0.038970080040858314 -0.0036044438584007248 0 -0.039934424225354086 -0.0017023192248937038 0 -0.044365228326166538 -0.0016811355217636963 0 -0.039295494299546978 -0.0030771057150050436 0 -0.039782099987937795 -0.0038733714243814952 0 -0.038970080040858314 -0.0036044438584007248 0 -0.049438304924537421 -0.00093884233147331023 0 -0.044538258281554548 -0.0019465290151283946 0 -0.049985926656062996 -7.912153174774492e-05 0 -0.049969766435460534 -4.9979058403957299e-05 0 -0.049992080338722988 -3.6956654544987665e-05 0 -0.046751000796758695 -0.0011455025899532025 0 -0.047534054697259708 -0.002665750942088031 0 -0.044837932798337823 -0.0022398430248425816 0 -0.049834380581791418 -0.00049946462668461005 0 -0.049984373527749787 -0.00051604282081184566 0 -0.049949816459722747 -0.00042601797256505513 0 -0.044365228326166538 -0.0016811355217636963 0 -0.049438304924537421 -0.00093884233147331023 0 -0.044365228326166538 -0.0016811355217636963 0 -0.044538258281554548 -0.0019465290151283946 0 -0.049969766435460534 -4.9979058403957299e-05 0 -0.049985749112705875 -2.910902013292609e-05 0 -0.049992080338722988 -3.6956654544987665e-05 0 -0.049985749112705875 -2.910902013292609e-05 0 -0.049999982227678312 -9.9829274907884332e-09 0 -0.049994083846373709 -1.2158910322941527e-05 0 -0.049985749112705875 -2.910902013292609e-05 0 -0.049999982227678312 -9.9829274907884332e-09 0 -0.049992080338722988 -3.6956654544987665e-05 0 -0.049999996690698628 -1.333291674974847e-07 0 -0.049985926656062996 -7.912153174774492e-05 0 -0.049992080338722988 -3.6956654544987665e-05 0 -0.049999996690698628 -1.333291674974847e-07 0 -0.049999982227678312 -9.9829274907884332e-09 0 -0.049992080338722988 -3.6956654544987665e-05 0 -0.05000121401258132 -4.1560669610054386e-06 0 -0.049999991844834397 -1.5270381236833386e-08 0 -0.049994083846373709 -1.2158910322941527e-05 0 -0.05000121401258132 -4.1560669610054386e-06 0 -0.049999991844834397 -1.5270381236833386e-08 0 -0.050000009255414882 3.7637110129950839e-09 0 -0.04992525085893669 3.1050655828164564e-05 0 -0.048472044647481283 5.3966373795093312e-05 0 -0.049999982227678312 -9.9829274907884332e-09 0 -0.049999991844834397 -1.5270381236833386e-08 0 -0.049994083846373709 -1.2158910322941527e-05 0 -0.05000121401258132 -4.1560669610054386e-06 0 -0.049994083846373709 -1.2158910322941527e-05 0 -0.04999109365077338 -2.1933013091699899e-05 0 -0.049985749112705875 -2.910902013292609e-05 0 -0.049994083846373709 -1.2158910322941527e-05 0 -0.049987357234780441 -2.279199476546513e-05 0 -0.049267673987851701 -0.00017878539155630964 0 -0.048472044647481283 5.3966373795093312e-05 0 -0.044538258281554548 -0.0019465290151283946 0 -0.042357811892484679 -0.0028405183490697247 0 -0.044557979569012578 -0.0013734900640454035 0 -0.045194644110377886 -0.0009968253156330219 0 -0.045291940281012522 -0.0014822969439333522 0 -0.044538258281554548 -0.0019465290151283946 0 -0.048472044647481283 5.3966373795093312e-05 0 -0.049969766435460534 -4.9979058403957299e-05 0 -0.049985749112705875 -2.910902013292609e-05 0 -0.049987357234780441 -2.279199476546513e-05 0 -0.049338410323607015 -0.0002227164827468612 0 -0.049455670611816327 -0.00034654709562676318 0 -0.049441428675665831 -0.00027885800288394774 0 -0.048472044647481283 5.3966373795093312e-05 0 -0.042357811892484679 -0.0028405183490697247 0 -0.049455670611816327 -0.00034654709562676318 0 -0.049405796855553741 -0.00034382379112308457 0 -0.049282082427069482 -0.00029462505189008865 0 -0.049441428675665831 -0.00027885800288394774 0 -0.049525548931096827 -0.00023282883170311374 0 -0.049405796855553741 -0.00034382379112308457 0 -0.049455670611816327 -0.00034654709562676318 0 -0.049441428675665831 -0.00027885800288394774 0 -0.049405796855553741 -0.00034382379112308457 0 -0.049566407608976432 -5.7287898711181296e-05 0 -0.049338410323607015 -0.0002227164827468612 0 -0.049441428675665831 -0.00027885800288394774 0 -0.049566407608976432 -5.7287898711181296e-05 0 -0.049441428675665831 -0.00027885800288394774 0 -0.049525548931096827 -0.00023282883170311374 0 -0.049525548931096827 -0.00023282883170311374 0 -0.049405796855553741 -0.00034382379112308457 0 -0.049678906727667241 -0.00019248027743802476 0 -0.049566407608976432 -5.7287898711181296e-05 0 -0.049525548931096827 -0.00023282883170311374 0 -0.049678906727667241 -0.00019248027743802476 0 -0.038179084182712014 -0.0040698383809957593 0 -0.037507872075820757 -0.0035990142090560019 0 -0.037315800732187945 -0.0038361049105671845 0 -0.038179084182712014 -0.0040698383809957593 0 -0.037997011067986142 -0.0032141936764932062 0 -0.037507872075820757 -0.0035990142090560019 0 -0.042357811892484679 -0.0028405183490697247 0 -0.037555350505159742 -0.0033310362113624418 0 -0.042357811892484679 -0.0028405183490697247 0 -0.043646497281045693 -0.0020158373269980757 0 -0.039282761208153633 -0.0041615632162662992 0 -0.038564682468811326 -0.0040467099525311728 0 -0.038970080040858314 -0.0036044438584007248 0 -0.038564682468811326 -0.0040467099525311728 0 -0.038970080040858314 -0.0036044438584007248 0 -0.038240488500139627 -0.0030926992862378819 0 -0.039295494299546978 -0.0030771057150050436 0 -0.038970080040858314 -0.0036044438584007248 0 -0.038240488500139627 -0.0030926992862378819 0 -0.037997011067986142 -0.0032141936764932062 0 -0.037416416352013593 -0.0032065985088537332 0 -0.037507872075820757 -0.0035990142090560019 0 -0.038240488500139627 -0.0030926992862378819 0 -0.037810795070329535 -0.00211154233092762 0 -0.038812585917221608 -0.0022968496192676811 0 -0.037555350505159742 -0.0033310362113624418 0 -0.037978633115845359 -0.0020830384406301146 0 -0.037997011067986142 -0.0032141936764932062 0 -0.037413096096672371 -0.002631556819508564 0 -0.037416416352013593 -0.0032065985088537332 0 -0.037997011067986142 -0.0032141936764932062 0 -0.037810795070329535 -0.00211154233092762 0 -0.037413096096672371 -0.002631556819508564 0 -0.037810795070329535 -0.00211154233092762 0 -0.038812585917221608 -0.0022968496192676811 0 -0.038033418539303379 -0.001581719646932662 0 -0.040166935020822643 -0.0010897827948182285 0 -0.039366443949685082 -0.00035824148337886875 0 -0.039295494299546978 -0.0030771057150050436 0 -0.038240488500139627 -0.0030926992862378819 0 -0.038812585917221608 -0.0022968496192676811 0 -0.041472265176776622 -0.00032939245315833959 0 -0.041257630603580196 0.00022996773070024077 0 -0.041785503041614713 -3.9874274960202821e-06 0 -0.039934424225354086 -0.0017023192248937038 0 -0.040166935020822643 -0.0010897827948182285 0 -0.042500900888497825 -0.00012170057382506803 0 -0.042116681030899356 -0.00035387784750375234 0 -0.041785503041614713 -3.9874274960202821e-06 0 -0.042503490192407248 0.00016512469303630106 0 -0.041785503041614713 -3.9874274960202821e-06 0 -0.041720781398821717 0.0003275746974487071 0 -0.041257630603580196 0.00022996773070024077 0 -0.041785503041614713 -3.9874274960202821e-06 0 -0.041720781398821717 0.0003275746974487071 0 -0.041257630603580196 0.00022996773070024077 0 -0.041720781398821717 0.0003275746974487071 0 -0.041399632933852883 0.0005114800897310811 0 -0.041399632933852883 0.0005114800897310811 0 -0.041532168963279589 0.00038621018208804972 0 -0.041271384508745998 0.00047254385815525564 0 -0.041399632933852883 0.0005114800897310811 0 -0.041674555355408635 0.00051689771872171452 0 -0.041053319445229393 0.00053690136959346868 0 -0.041720781398821717 0.0003275746974487071 0 -0.041399632933852883 0.0005114800897310811 0 -0.041674555355408635 0.00051689771872171452 0 -0.03913891445660158 9.2590120403280519e-05 0 -0.038934315183122153 0.00018838770851586071 0 -0.04022924179988447 -8.3409416411761965e-05 0 -0.041053319445229393 0.00053690136959346868 0 -0.041532168963279589 0.00038621018208804972 0 -0.041399632933852883 0.0005114800897310811 0 -0.041053319445229393 0.00053690136959346868 0 -0.041532168963279589 0.00038621018208804972 0 -0.038994037857383396 5.5080631175367534e-05 0 -0.038158014544948521 9.5426106333890675e-06 0 -0.038381198504604606 -0.00041881640251379803 0 -0.037156490602275716 -0.00044769222953973463 0 -0.036085339610972531 -0.00035295211444716536 0 -0.036615900712462221 -9.9433266079548295e-05 0 -0.038934315183122153 0.00018838770851586071 0 -0.039366443949685082 -0.00035824148337886875 0 -0.038934315183122153 0.00018838770851586071 0 -0.037250039153135774 -0.00018261255001303161 0 -0.038205149035716708 -0.00019066731567993604 0 -0.037916547598085326 -0.00014054857639489747 0 -0.037659128332382698 -0.00060814834491411721 0 -0.038204056666706274 -0.00017025980626815673 0 -0.037493220881411216 0.00039093743027762207 0 -0.037916547598085326 -0.00014054857639489747 0 -0.037250039153135774 -0.00018261255001303161 0 -0.037426700214515898 -0.00017396114380370756 0 -0.037493220881411216 0.00039093743027762207 0 -0.037916547598085326 -0.00014054857639489747 0 -0.037219027966332363 -0.00019936778396980554 0 -0.037659128332382698 -0.00060814834491411721 0 -0.037852303774232265 -0.0010925894063707772 0 -0.037003118457880881 -0.0010146691729321742 0 -0.038205149035716708 -0.00019066731567993604 0 -0.037659128332382698 -0.00060814834491411721 0 -0.037852303774232265 -0.0010925894063707772 0 -0.037916547598085326 -0.00014054857639489747 0 -0.037659128332382698 -0.00060814834491411721 0 -0.037219027966332363 -0.00019936778396980554 0 -0.037250039153135774 -0.00018261255001303161 0 -0.039366443949685082 -0.00035824148337886875 0 -0.038205149035716708 -0.00019066731567993604 0 -0.037852303774232265 -0.0010925894063707772 0 -0.038401996719350628 -0.0014076626799855302 0 -0.037852303774232265 -0.0010925894063707772 0 -0.038033418539303379 -0.001581719646932662 0 -0.038401996719350628 -0.0014076626799855302 0 -0.037852303774232265 -0.0010925894063707772 0 -0.037666984818716338 -0.0014473206873216705 0 -0.037003118457880881 -0.0010146691729321742 0 -0.037852303774232265 -0.0010925894063707772 0 -0.037666984818716338 -0.0014473206873216705 0 -0.038033418539303379 -0.001581719646932662 0 -0.037810795070329535 -0.00211154233092762 0 -0.037666984818716338 -0.0014473206873216705 0 -0.038033418539303379 -0.001581719646932662 0 -0.037810795070329535 -0.00211154233092762 0 -0.037666984818716338 -0.0014473206873216705 0 -0.037303684687366549 -0.0015684954946973972 0 -0.038185680825846648 -0.0013615284563177532 0 -0.039366443949685082 -0.00035824148337886875 0 -0.038812585917221608 -0.0022968496192676811 0 -0.038033418539303379 -0.001581719646932662 0 -0.038345864406655973 -0.0013347700045582792 0 -0.041257630603580196 0.00022996773070024077 0 -0.041399632933852883 0.0005114800897310811 0 -0.041271384508745998 0.00047254385815525564 0 -0.032994122216874616 -0.003614027909852476 0 -0.034191993536413813 -0.0010546318158105043 0 -0.032549597823103613 -0.0014771403249790012 0 -0.031935337411475764 -0.00088368674704286578 0 -0.032549597823103613 -0.0014771403249790012 0 -0.031364842428106374 -0.0023767233818304317 0 -0.032994122216874616 -0.003614027909852476 0 -0.032549597823103613 -0.0014771403249790012 0 -0.031364842428106374 -0.0023767233818304317 0 -0.036574747945202823 -0.0016536189989739571 0 -0.037303684687366549 -0.0015684954946973972 0 -0.037003118457880881 -0.0010146691729321742 0 -0.032994122216874616 -0.003614027909852476 0 -0.037003118457880881 -0.0010146691729321742 0 -0.034191993536413813 -0.0010546318158105043 0 -0.036574747945202823 -0.0016536189989739571 0 -0.037303684687366549 -0.0015684954946973972 0 -0.037276992504778818 -0.001993765193521175 0 -0.034687001109834303 -0.0026621433875587317 0 -0.03694389150164009 -0.0010790797143033647 0 -0.037666984818716338 -0.0014473206873216705 0 -0.037303684687366549 -0.0015684954946973972 0 -0.037003118457880881 -0.0010146691729321742 0 -0.037003118457880881 -0.0010146691729321742 0 -0.035486005903393028 -7.4638055726033894e-05 0 -0.034191993536413813 -0.0010546318158105043 0 -0.037003118457880881 -0.0010146691729321742 0 -0.036587463697053763 -0.0001826840205302666 0 -0.035486005903393028 -7.4638055726033894e-05 0 -0.037659128332382698 -0.00060814834491411721 0 -0.037003118457880881 -0.0010146691729321742 0 -0.037219027966332363 -0.00019936778396980554 0 -0.037003118457880881 -0.0010146691729321742 0 -0.037219027966332363 -0.00019936778396980554 0 -0.036587463697053763 -0.0001826840205302666 0 -0.037219027966332363 -0.00019936778396980554 0 -0.036587463697053763 -0.0001826840205302666 0 -0.03655107912962495 0.00055126427095074436 0 -0.037493220881411216 0.00039093743027762207 0 -0.037219027966332363 -0.00019936778396980554 0 -0.03655107912962495 0.00055126427095074436 0 -0.036587463697053763 -0.0001826840205302666 0 -0.03655107912962495 0.00055126427095074436 0 -0.035486005903393028 -7.4638055726033894e-05 0 -0.035486005903393028 -7.4638055726033894e-05 0 -0.033817312000083796 -0.00013634003591667064 0 -0.034954812192085599 0.0012990039145644749 0 -0.03655107912962495 0.00055126427095074436 0 -0.035486005903393028 -7.4638055726033894e-05 0 -0.034954812192085599 0.0012990039145644749 0 -0.033817312000083796 -0.00013634003591667064 0 -0.031411915995560452 -0.00010009201209523001 0 -0.034954812192085599 0.0012990039145644749 0 -0.031411915995560452 -0.00010009201209523001 0 -0.030936588697912142 -8.4389372773229556e-05 0 -0.030383478066256964 0.0001998339940569948 0 -0.031463277197830146 1.1880713427061459e-06 0 -0.032624604313638235 0.00066681718740985543 0 -0.035486005903393028 -7.4638055726033894e-05 0 -0.033817312000083796 -0.00013634003591667064 0 -0.034191993536413813 -0.0010546318158105043 0 -0.034191993536413813 -0.0010546318158105043 0 -0.032549597823103613 -0.0014771403249790012 0 -0.032839544759520944 -0.00065903054331345728 0 -0.033817312000083796 -0.00013634003591667064 0 -0.034191993536413813 -0.0010546318158105043 0 -0.032839544759520944 -0.00065903054331345728 0 -0.033817312000083796 -0.00013634003591667064 0 -0.032839544759520944 -0.00065903054331345728 0 -0.031411915995560452 -0.00010009201209523001 0 -0.031935337411475764 -0.00088368674704286578 0 -0.032549597823103613 -0.0014771403249790012 0 -0.032839544759520944 -0.00065903054331345728 0 -0.031935337411475764 -0.00088368674704286578 0 -0.032839544759520944 -0.00065903054331345728 0 -0.031411915995560452 -0.00010009201209523001 0 -0.031935337411475764 -0.00088368674704286578 0 -0.031411915995560452 -0.00010009201209523001 0 -0.031464894780335158 -0.00017058344026857415 0 -0.031411915995560452 -0.00010009201209523001 0 -0.031464894780335158 -0.00017058344026857415 0 -0.030936588697912142 -8.4389372773229556e-05 0 -0.020823654943034706 -0.0049416061561674066 0 -0.02124086941768057 -0.0050456672887528239 0 -0.02104899499735146 -0.0045950488820810558 0 -0.020823654943034706 -0.0049416061561674066 0 -0.020622007531863214 -0.0046902830509256924 0 -0.02104899499735146 -0.0045950488820810558 0 -0.020823654943034706 -0.0049416061561674066 0 -0.02124086941768057 -0.0050456672887528239 0 -0.020662160965054535 -0.0053154063584443193 0 -0.031935337411475764 -0.00088368674704286578 0 -0.031464894780335158 -0.00017058344026857415 0 -0.031364842428106374 -0.0023767233818304317 0 -0.020823654943034706 -0.0049416061561674066 0 -0.020496250348218996 -0.0050318922081487652 0 -0.020622007531863214 -0.0046902830509256924 0 -0.02007337504210141 -0.004903337045405274 0 -0.020496250348218996 -0.0050318922081487652 0 -0.020622007531863214 -0.0046902830509256924 0 -0.020496250348218996 -0.0050318922081487652 0 -0.020232774399899768 -0.0052850361799951584 0 -0.020662160965054535 -0.0053154063584443193 0 -0.020823654943034706 -0.0049416061561674066 0 -0.020496250348218996 -0.0050318922081487652 0 -0.020662160965054535 -0.0053154063584443193 0 -0.02007337504210141 -0.004903337045405274 0 -0.020496250348218996 -0.0050318922081487652 0 -0.020232774399899768 -0.0052850361799951584 0 -0.020662160965054535 -0.0053154063584443193 0 -0.020328060213953506 -0.0055968942306254344 0 -0.020556221590330253 -0.0059080753123589586 0 -0.020232774399899768 -0.0052850361799951584 0 -0.020328060213953506 -0.0055968942306254344 0 -0.020012506717473087 -0.0055797596134426978 0 -0.020232774399899768 -0.0052850361799951584 0 -0.020662160965054535 -0.0053154063584443193 0 -0.020328060213953506 -0.0055968942306254344 0 -0.020328060213953506 -0.0055968942306254344 0 -0.020122840424955418 -0.0058638156647908809 0 -0.020556221590330253 -0.0059080753123589586 0 -0.020328060213953506 -0.0055968942306254344 0 -0.020122840424955418 -0.0058638156647908809 0 -0.020012506717473087 -0.0055797596134426978 0 -0.031464894780335158 -0.00017058344026857415 0 -0.031364842428106374 -0.0023767233818304317 0 -0.02851883345399497 -0.0044773111314815603 0 -0.031364842428106374 -0.0023767233818304317 0 -0.030510225272216172 -0.0039459907568150012 0 -0.02851883345399497 -0.0044773111314815603 0 -0.02124086941768057 -0.0050456672887528239 0 -0.020662160965054535 -0.0053154063584443193 0 -0.020556221590330253 -0.0059080753123589586 0 -0.026206172264078519 -0.0025927899388590199 0 -0.023870210936698565 -0.0056086324513698379 0 -0.032994122216874616 -0.003614027909852476 0 -0.031364842428106374 -0.0023767233818304317 0 -0.030510225272216172 -0.0039459907568150012 0 -0.036574747945202823 -0.0016536189989739571 0 -0.03578044712333691 -0.0021947290543087418 0 -0.036198989439079392 -0.0022844285956193349 0 -0.032994122216874616 -0.003614027909852476 0 -0.030510225272216172 -0.0039459907568150012 0 -0.029328314754321145 -0.0059792295974494302 0 -0.034687001109834303 -0.0026621433875587317 0 -0.033185596631438441 -0.0038406872257004112 0 -0.030510225272216172 -0.0039459907568150012 0 -0.029328314754321145 -0.0059792295974494302 0 -0.02851883345399497 -0.0044773111314815603 0 -0.03578044712333691 -0.0021947290543087418 0 -0.036198989439079392 -0.0022844285956193349 0 -0.035783399220008484 -0.0025952939347590248 0 -0.020556221590330253 -0.0059080753123589586 0 -0.019999980143946171 -0.006702597736208126 0 -0.019969914106346222 -0.0061587935417376843 0 -0.020122840424955418 -0.0058638156647908809 0 -0.020556221590330253 -0.0059080753123589586 0 -0.019969914106346222 -0.0061587935417376843 0 -0.029328314754321145 -0.0059792295974494302 0 -0.02851883345399497 -0.0044773111314815603 0 -0.026022209479971834 -0.0082330905092651216 0 -0.023870210936698565 -0.0056086324513698379 0 -0.027102699467480736 -0.0060697663916761783 0 -0.03578044712333691 -0.0021947290543087418 0 -0.035783399220008484 -0.0025952939347590248 0 -0.034831346031014426 -0.0028022957302014906 0 -0.033185596631438441 -0.0038406872257004112 0 -0.027102699467480736 -0.0060697663916761783 0 -0.035701316773431593 -0.00299431050532865 0 -0.035160330321346037 -0.0032092460391393561 0 -0.034831346031014426 -0.0028022957302014906 0 -0.035783399220008484 -0.0025952939347590248 0 -0.035701316773431593 -0.00299431050532865 0 -0.034831346031014426 -0.0028022957302014906 0 -0.036198989439079392 -0.0022844285956193349 0 -0.036221660503353174 -0.0026640150192356817 0 -0.035783399220008484 -0.0025952939347590248 0 -0.036221660503353174 -0.0026640150192356817 0 -0.035783399220008484 -0.0025952939347590248 0 -0.035701316773431593 -0.00299431050532865 0 -0.036221660503353174 -0.0026640150192356817 0 -0.035701316773431593 -0.00299431050532865 0 -0.036208457221855811 -0.003196871997029868 0 -0.036221660503353174 -0.0026640150192356817 0 -0.036873785247547836 -0.0029102369164667723 0 -0.036208457221855811 -0.003196871997029868 0 -0.036873785247547836 -0.0029102369164667723 0 -0.036605815731408191 -0.0023509448029539926 0 -0.037007525750073079 -0.0022601345089495232 0 -0.036198989439079392 -0.0022844285956193349 0 -0.036221660503353174 -0.0026640150192356817 0 -0.036605815731408191 -0.0023509448029539926 0 -0.036221660503353174 -0.0026640150192356817 0 -0.036873785247547836 -0.0029102369164667723 0 -0.036605815731408191 -0.0023509448029539926 0 -0.036574747945202823 -0.0016536189989739571 0 -0.036198989439079392 -0.0022844285956193349 0 -0.036605815731408191 -0.0023509448029539926 0 -0.036574747945202823 -0.0016536189989739571 0 -0.036605815731408191 -0.0023509448029539926 0 -0.037007525750073079 -0.0022601345089495232 0 -0.036574747945202823 -0.0016536189989739571 0 -0.037276992504778818 -0.001993765193521175 0 -0.037007525750073079 -0.0022601345089495232 0 -0.037810795070329535 -0.00211154233092762 0 -0.037303684687366549 -0.0015684954946973972 0 -0.037276992504778818 -0.001993765193521175 0 -0.037276992504778818 -0.001993765193521175 0 -0.037007525750073079 -0.0022601345089495232 0 -0.037413096096672371 -0.002631556819508564 0 -0.037810795070329535 -0.00211154233092762 0 -0.037276992504778818 -0.001993765193521175 0 -0.037413096096672371 -0.002631556819508564 0 -0.036873785247547836 -0.0029102369164667723 0 -0.037007525750073079 -0.0022601345089495232 0 -0.037413096096672371 -0.002631556819508564 0 -0.036873785247547836 -0.0029102369164667723 0 -0.037413096096672371 -0.002631556819508564 0 -0.037416416352013593 -0.0032065985088537332 0 -0.036873785247547836 -0.0029102369164667723 0 -0.037416416352013593 -0.0032065985088537332 0 -0.037195774206522182 -0.0034602092924364849 0 -0.037416416352013593 -0.0032065985088537332 0 -0.037195774206522182 -0.0034602092924364849 0 -0.037507872075820757 -0.0035990142090560019 0 -0.036873785247547836 -0.0029102369164667723 0 -0.036740696989054682 -0.0034466394049570588 0 -0.036208457221855811 -0.003196871997029868 0 -0.036873785247547836 -0.0029102369164667723 0 -0.037195774206522182 -0.0034602092924364849 0 -0.036740696989054682 -0.0034466394049570588 0 -0.037195774206522182 -0.0034602092924364849 0 -0.036740696989054682 -0.0034466394049570588 0 -0.037377467139889382 -0.00382934595398157 0 -0.043646497281045693 -0.0020158373269980757 0 -0.04355446027097995 -0.001929779565370526 0 -0.036740696989054682 -0.0034466394049570588 0 -0.037377467139889382 -0.00382934595398157 0 -0.03602509408657522 -0.0037803712972884233 0 -0.037377467139889382 -0.00382934595398157 0 -0.038100530445572253 -0.0035268754075491108 0 -0.038558415458821674 -0.0039038750334952884 0 -0.037377467139889382 -0.00382934595398157 0 -0.037315800732187945 -0.0038361049105671845 0 -0.038100530445572253 -0.0035268754075491108 0 -0.049282082427069482 -0.00029462505189008865 0 -0.049216041444457473 -0.00032018516488702494 0 -0.049137617632501747 -0.00033313110105163225 0 -0.037356806510764881 -0.0038383316500985778 0 -0.037263813005725059 -0.0038018044003761322 0 -0.049216041444457473 -0.00032018516488702494 0 -0.049192322407010276 -0.00032474505271206169 0 -0.049137617632501747 -0.00033313110105163225 0 -0.049181269973624514 -0.0003197264957919047 0 -0.049192322407010276 -0.00032474505271206169 0 -0.049137617632501747 -0.00033313110105163225 0 -0.037507872075820757 -0.0035990142090560019 0 -0.037377467139889382 -0.00382934595398157 0 -0.037315800732187945 -0.0038361049105671845 0 -0.037195774206522182 -0.0034602092924364849 0 -0.037507872075820757 -0.0035990142090560019 0 -0.037377467139889382 -0.00382934595398157 0 -0.049424823663825085 -0.00033582540847430672 0 -0.04958034278238569 -0.00025094187314670746 0 -0.049405796855553741 -0.00034382379112308457 0 -0.049678906727667241 -0.00019248027743802476 0 -0.050002146910520816 -0.00018388740281335045 0 -0.049405796855553741 -0.00034382379112308457 0 -0.049282082427069482 -0.00029462505189008865 0 -0.04916534331981405 -0.00033563906776892745 0 -0.049678906727667241 -0.00019248027743802476 0 -0.050002146910520816 -0.00018388740281335045 0 -0.049886153591089777 -0.00011324593818778969 0 -0.050002146910520816 -0.00018388740281335045 0 -0.049965982580308363 -0.00011889125374976646 0 -0.049886153591089777 -0.00011324593818778969 0 -0.049282082427069482 -0.00029462505189008865 0 -0.049216041444457473 -0.00032018516488702494 0 -0.049198877605338247 -0.00033042102501826221 0 -0.049282082427069482 -0.00029462505189008865 0 -0.049198877605338247 -0.00033042102501826221 0 -0.04916534331981405 -0.00033563906776892745 0 -0.04916534331981405 -0.00033563906776892745 0 -0.049211726679475938 -0.00034246883822350099 0 -0.049568186933215616 -0.00012315640295432599 0 -0.04958034278238569 -0.00025094187314670746 0 -0.049792031698844039 -8.0689418953718586e-05 0 -0.049216041444457473 -0.00032018516488702494 0 -0.049198877605338247 -0.00033042102501826221 0 -0.049192322407010276 -0.00032474505271206169 0 -0.049198877605338247 -0.00033042102501826221 0 -0.049192322407010276 -0.00032474505271206169 0 -0.049211726679475938 -0.00034246883822350099 0 -0.049181269973624514 -0.0003197264957919047 0 -0.049192322407010276 -0.00032474505271206169 0 -0.049196631417883413 -0.00031859261510517695 0 -0.049192322407010276 -0.00032474505271206169 0 -0.049196631417883413 -0.00031859261510517695 0 -0.049211726679475938 -0.00034246883822350099 0 -0.049196631417883413 -0.00031859261510517695 0 -0.049211445380826981 -0.00028791008859304382 0 -0.049195615709685336 -0.00030474272581799803 0 -0.049181269973624514 -0.0003197264957919047 0 -0.049196631417883413 -0.00031859261510517695 0 -0.049195615709685336 -0.00030474272581799803 0 -0.049196631417883413 -0.00031859261510517695 0 -0.049211726679475938 -0.00034246883822350099 0 -0.049211445380826981 -0.00028791008859304382 0 -0.049198877605338247 -0.00033042102501826221 0 -0.04916534331981405 -0.00033563906776892745 0 -0.049211726679475938 -0.00034246883822350099 0 -0.050002146910520816 -0.00018388740281335045 0 -0.049965982580308363 -0.00011889125374976646 0 -0.049992525700686824 -0.00010443668659277577 0 -0.050002146910520816 -0.00018388740281335045 0 -0.049992525700686824 -0.00010443668659277577 0 -0.050004455660710601 -6.2929839670762072e-05 0 -0.0499889723584689 -5.2270038958104069e-05 0 -0.049999367732532572 1.7774050541116994e-07 0 -0.050000230861924802 -1.0950662076526265e-07 0 -0.049992525700686824 -0.00010443668659277577 0 -0.0499889723584689 -5.2270038958104069e-05 0 -0.050004455660710601 -6.2929839670762072e-05 0 -0.049965982580308363 -0.00011889125374976646 0 -0.049992525700686824 -0.00010443668659277577 0 -0.0499889723584689 -5.2270038958104069e-05 0 -0.050002146910520816 -0.00018388740281335045 0 -0.050004455660710601 -6.2929839670762072e-05 0 -0.050013917243637809 -1.3506585260836906e-05 0 -0.0499889723584689 -5.2270038958104069e-05 0 -0.050004455660710601 -6.2929839670762072e-05 0 -0.050000230861924802 -1.0950662076526265e-07 0 -0.0499889723584689 -5.2270038958104069e-05 0 -0.049999367732532572 1.7774050541116994e-07 0 -0.049886153591089777 -0.00011324593818778969 0 -0.049566407608976432 -5.7287898711181296e-05 0 -0.049678906727667241 -0.00019248027743802476 0 -0.049886153591089777 -0.00011324593818778969 0 -0.049566407608976432 -5.7287898711181296e-05 0 -0.049999367732532572 1.7774050541116994e-07 0 -0.049886153591089777 -0.00011324593818778969 0 -0.04992525085893669 3.1050655828164564e-05 0 -0.049999773402287583 -7.6275473328408274e-08 0 -0.049965982580308363 -0.00011889125374976646 0 -0.0499889723584689 -5.2270038958104069e-05 0 -0.049886153591089777 -0.00011324593818778969 0 -0.049792031698844039 -8.0689418953718586e-05 0 -0.049983125864075245 -3.3215569694796204e-07 0 -0.050013917243637809 -1.3506585260836906e-05 0 -0.049999901050559389 2.5054037796783785e-08 0 -0.049997307227617763 5.9310154841668366e-07 0 -0.049804246163217811 -8.9265852691563618e-05 0 -0.049626650442400493 -0.00019304769005945333 0 -0.050006100561659682 -3.7931210427148803e-05 0 -0.049804246163217811 -8.9265852691563618e-05 0 -0.049568186933215616 -0.00012315640295432599 0 -0.049997307227617763 5.9310154841668366e-07 0 -0.050000230861924802 -1.0950662076526265e-07 0 -0.050013917243637809 -1.3506585260836906e-05 0 -0.049999901050559389 2.5054037796783785e-08 0 -0.049446932111797209 -0.00010987506011331577 0 -0.049236382136499217 -0.00017331661594753562 0 -0.049594212175365353 1.5664477679339924e-06 0 -0.049440901645306318 -0.00018539332061153919 0 -0.04979056255167507 -3.0049358807282961e-05 0 -0.049804246163217811 -8.9265852691563618e-05 0 -0.049568186933215616 -0.00012315640295432599 0 -0.049626650442400493 -0.00019304769005945333 0 -0.049446932111797209 -0.00010987506011331577 0 -0.049236382136499217 -0.00017331661594753562 0 -0.049336705982871355 -0.00016593331697440337 0 -0.049446932111797209 -0.00010987506011331577 0 -0.049336705982871355 -0.00016593331697440337 0 -0.04938434778273082 -0.0001727726269362062 0 -0.050004455660710601 -6.2929839670762072e-05 0 -0.050000230861924802 -1.0950662076526265e-07 0 -0.050013917243637809 -1.3506585260836906e-05 0 -0.049236382136499217 -0.00017331661594753562 0 -0.049225557908006694 -0.00025200615843544568 0 -0.049211445380826981 -0.00028791008859304382 0 -0.049236382136499217 -0.00017331661594753562 0 -0.049243590318562055 -0.00022296038745533083 0 -0.049279604505561916 -0.00021736927939817322 0 -0.049236382136499217 -0.00017331661594753562 0 -0.049225557908006694 -0.00025200615843544568 0 -0.049243590318562055 -0.00022296038745533083 0 -0.049226985850863471 -0.00031864313332756537 0 -0.049440901645306318 -0.00018539332061153919 0 -0.049211726679475938 -0.00034246883822350099 0 -0.049568186933215616 -0.00012315640295432599 0 -0.049626650442400493 -0.00019304769005945333 0 -0.049211726679475938 -0.00034246883822350099 0 -0.049236382136499217 -0.00017331661594753562 0 -0.049211445380826981 -0.00028791008859304382 0 -0.049225557908006694 -0.00025200615843544568 0 -0.049247554106432591 -0.0002581161963889591 0 -0.049243590318562055 -0.00022296038745533083 0 -0.049247554106432591 -0.0002581161963889591 0 -0.049243590318562055 -0.00022296038745533083 0 -0.049279604505561916 -0.00021736927939817322 0 -0.049225557908006694 -0.00025200615843544568 0 -0.049211445380826981 -0.00028791008859304382 0 -0.049208363339013454 -0.00028529714559162367 0 -0.049195615709685336 -0.00030474272581799803 0 -0.049208363339013454 -0.00028529714559162367 0 -0.049187925999183264 -0.00031386634522152286 0 -0.049211445380826981 -0.00028791008859304382 0 -0.049195615709685336 -0.00030474272581799803 0 -0.049208363339013454 -0.00028529714559162367 0 -0.049225557908006694 -0.00025200615843544568 0 -0.049208363339013454 -0.00028529714559162367 0 -0.049219022619772693 -0.00029813498907995507 0 -0.049208363339013454 -0.00028529714559162367 0 -0.049187925999183264 -0.00031386634522152286 0 -0.049219022619772693 -0.00029813498907995507 0 -0.049187925999183264 -0.00031386634522152286 0 -0.049219022619772693 -0.00029813498907995507 0 -0.049194867303594639 -0.00032505596173322115 0 -0.049181269973624514 -0.0003197264957919047 0 -0.049195615709685336 -0.00030474272581799803 0 -0.049187925999183264 -0.00031386634522152286 0 -0.049247554106432591 -0.0002581161963889591 0 -0.04926778845433212 -0.00031366871015326954 0 -0.049299181300174723 -0.00026708466990440935 0 -0.049247554106432591 -0.0002581161963889591 0 -0.049219022619772693 -0.00029813498907995507 0 -0.04926778845433212 -0.00031366871015326954 0 -0.049225557908006694 -0.00025200615843544568 0 -0.049247554106432591 -0.0002581161963889591 0 -0.049219022619772693 -0.00029813498907995507 0 -0.049219022619772693 -0.00029813498907995507 0 -0.04926778845433212 -0.00031366871015326954 0 -0.049241006643858852 -0.00035450763715374984 0 -0.04926778845433212 -0.00031366871015326954 0 -0.049326072083515027 -0.0003140655035932174 0 -0.0493109107543847 -0.00036093928397552122 0 -0.04926778845433212 -0.00031366871015326954 0 -0.049326072083515027 -0.0003140655035932174 0 -0.049299181300174723 -0.00026708466990440935 0 -0.049326072083515027 -0.0003140655035932174 0 -0.049299181300174723 -0.00026708466990440935 0 -0.049382243350798015 -0.00027329967497150486 0 -0.049299181300174723 -0.00026708466990440935 0 -0.049342351352106087 -0.00021768214085330528 0 -0.049382243350798015 -0.00027329967497150486 0 -0.049299181300174723 -0.00026708466990440935 0 -0.049342351352106087 -0.00021768214085330528 0 -0.049279604505561916 -0.00021736927939817322 0 -0.049247554106432591 -0.0002581161963889591 0 -0.049299181300174723 -0.00026708466990440935 0 -0.049279604505561916 -0.00021736927939817322 0 -0.049342351352106087 -0.00021768214085330528 0 -0.049336705982871355 -0.00016593331697440337 0 -0.04938434778273082 -0.0001727726269362062 0 -0.049342351352106087 -0.00021768214085330528 0 -0.049336705982871355 -0.00016593331697440337 0 -0.049279604505561916 -0.00021736927939817322 0 -0.049236382136499217 -0.00017331661594753562 0 -0.049336705982871355 -0.00016593331697440337 0 -0.049279604505561916 -0.00021736927939817322 0 -0.049446932111797209 -0.00010987506011331577 0 -0.049415006928556757 -0.00019215567214100632 0 -0.049507149512789859 -0.0001726059434248792 0 -0.049446932111797209 -0.00010987506011331577 0 -0.04938434778273082 -0.0001727726269362062 0 -0.049415006928556757 -0.00019215567214100632 0 -0.049342351352106087 -0.00021768214085330528 0 -0.04938434778273082 -0.0001727726269362062 0 -0.049415006928556757 -0.00019215567214100632 0 -0.049415006928556757 -0.00019215567214100632 0 -0.049467411606844092 -0.00024359661832974348 0 -0.049382243350798015 -0.00027329967497150486 0 -0.049342351352106087 -0.00021768214085330528 0 -0.049415006928556757 -0.00019215567214100632 0 -0.049382243350798015 -0.00027329967497150486 0 -0.049415006928556757 -0.00019215567214100632 0 -0.049467411606844092 -0.00024359661832974348 0 -0.049507149512789859 -0.0001726059434248792 0 -0.049467411606844092 -0.00024359661832974348 0 -0.049382243350798015 -0.00027329967497150486 0 -0.049472908050854608 -0.00032113196151328208 0 -0.049382243350798015 -0.00027329967497150486 0 -0.049380422015946508 -0.00035468093497120138 0 -0.049472908050854608 -0.00032113196151328208 0 -0.049326072083515027 -0.0003140655035932174 0 -0.049382243350798015 -0.00027329967497150486 0 -0.049380422015946508 -0.00035468093497120138 0 -0.049380422015946508 -0.00035468093497120138 0 -0.049350497561824393 -0.00046500531988055769 0 -0.049489610407819587 -0.0004104846396261857 0 -0.039672240836846839 -0.003449496662814011 0 -0.038558415458821674 -0.0039038750334952884 0 -0.039923625338168241 -0.0039336200201781999 0 -0.049380422015946508 -0.00035468093497120138 0 -0.049489610407819587 -0.0004104846396261857 0 -0.049472908050854608 -0.00032113196151328208 0 -0.0493109107543847 -0.00036093928397552122 0 -0.049350497561824393 -0.00046500531988055769 0 -0.049241006643858852 -0.00035450763715374984 0 -0.049326072083515027 -0.0003140655035932174 0 -0.049380422015946508 -0.00035468093497120138 0 -0.0493109107543847 -0.00036093928397552122 0 -0.049380422015946508 -0.00035468093497120138 0 -0.0493109107543847 -0.00036093928397552122 0 -0.049350497561824393 -0.00046500531988055769 0 -0.049350497561824393 -0.00046500531988055769 0 -0.049137617632501747 -0.00033313110105163225 0 -0.049241006643858852 -0.00035450763715374984 0 -0.039672240836846839 -0.003449496662814011 0 -0.038100530445572253 -0.0035268754075491108 0 -0.038558415458821674 -0.0039038750334952884 0 -0.044702062550238689 -0.0020637546830679474 0 -0.04355446027097995 -0.001929779565370526 0 -0.049137617632501747 -0.00033313110105163225 0 -0.049194867303594639 -0.00032505596173322115 0 -0.049241006643858852 -0.00035450763715374984 0 -0.049181269973624514 -0.0003197264957919047 0 -0.049187925999183264 -0.00031386634522152286 0 -0.049137617632501747 -0.00033313110105163225 0 -0.049187925999183264 -0.00031386634522152286 0 -0.049137617632501747 -0.00033313110105163225 0 -0.049194867303594639 -0.00032505596173322115 0 -0.049219022619772693 -0.00029813498907995507 0 -0.049194867303594639 -0.00032505596173322115 0 -0.049241006643858852 -0.00035450763715374984 0 -0.04926778845433212 -0.00031366871015326954 0 -0.0493109107543847 -0.00036093928397552122 0 -0.049241006643858852 -0.00035450763715374984 0 -0.036740696989054682 -0.0034466394049570588 0 -0.03602509408657522 -0.0037803712972884233 0 -0.036208457221855811 -0.003196871997029868 0 -0.03602509408657522 -0.0037803712972884233 0 -0.036208457221855811 -0.003196871997029868 0 -0.035585553972173625 -0.0033504005850218104 0 -0.035701316773431593 -0.00299431050532865 0 -0.036208457221855811 -0.003196871997029868 0 -0.035585553972173625 -0.0033504005850218104 0 -0.038558415458821674 -0.0039038750334952884 0 -0.039923625338168241 -0.0039336200201781999 0 -0.040315637999986935 -0.0041715640824428104 0 -0.037263813005725059 -0.0038018044003761322 0 -0.037662604102544989 -0.0041167465381578908 0 -0.03602509408657522 -0.0037803712972884233 0 -0.035585553972173625 -0.0033504005850218104 0 -0.034839196311283085 -0.0035671059560556822 0 -0.035585553972173625 -0.0033504005850218104 0 -0.035160330321346037 -0.0032092460391393561 0 -0.034839196311283085 -0.0035671059560556822 0 -0.039308658163845482 -0.004601956352554489 0 -0.037662604102544989 -0.0041167465381578908 0 -0.035701316773431593 -0.00299431050532865 0 -0.035585553972173625 -0.0033504005850218104 0 -0.035160330321346037 -0.0032092460391393561 0 -0.041229072857715578 -0.0043449619615206492 0 -0.040405601892154731 -0.0042156903293108566 0 -0.041746040382642631 -0.003566549224998506 0 -0.034825058214860774 -0.0032249981104996695 0 -0.034468990829799748 -0.0033282208514829954 0 -0.034831346031014426 -0.0028022957302014906 0 -0.039923625338168241 -0.0039336200201781999 0 -0.040405601892154731 -0.0042156903293108566 0 -0.041746040382642631 -0.003566549224998506 0 -0.035160330321346037 -0.0032092460391393561 0 -0.034825058214860774 -0.0032249981104996695 0 -0.034839196311283085 -0.0035671059560556822 0 -0.034825058214860774 -0.0032249981104996695 0 -0.034468990829799748 -0.0033282208514829954 0 -0.034839196311283085 -0.0035671059560556822 0 -0.032639478279836813 -0.0036473743870444756 0 -0.037662604102544989 -0.0041167465381578908 0 -0.034500552639502566 -0.0028706221616065114 0 -0.033872794092567368 -0.0037990241104750326 0 -0.036848976313176129 -0.0044670049657690274 0 -0.02569200515558339 -0.0040434561312544847 0 -0.032639478279836813 -0.0036473743870444756 0 -0.030980383511610868 -0.0016937700265913565 0 -0.030983407951821067 -0.0016958341030202269 0 -0.030987034052629817 -0.0016888083926474868 0 -0.032639478279836813 -0.0036473743870444756 0 -0.035930528992925322 -0.0030599058751378258 0 -0.035930528992925322 -0.0030599058751378258 0 -0.045090146836059462 -0.0012165483091403095 0 -0.035930528992925322 -0.0030599058751378258 0 -0.037662604102544989 -0.0041167465381578908 0 -0.038558095383178573 -0.0021655119670738179 0 -0.038747582242266113 -0.0019063571682433672 0 -0.039146335911283602 -0.0022038248814511057 0 -0.035930528992925322 -0.0030599058751378258 0 -0.034705487748174696 -0.001772646864522045 0 -0.030980383511610868 -0.0016937700265913565 0 -0.030987034052629817 -0.0016888083926474868 0 -0.031038843764896538 -0.0016613956793749595 0 -0.045090146836059462 -0.0012165483091403095 0 -0.044234864129517271 -0.0010301774832519343 0 -0.045090146836059462 -0.0012165483091403095 0 -0.050518944961814548 0.00026641003245564404 0 -0.049733512580728431 -0.00052419556422715467 0 -0.049732722532072927 -0.0003652100644170929 0 -0.049960616468048204 -0.00019088856685997628 0 -0.044702062550238689 -0.0020637546830679474 0 -0.045090146836059462 -0.0012165483091403095 0 -0.049350497561824393 -0.00046500531988055769 0 -0.049733512580728431 -0.00052419556422715467 0 -0.049489610407819587 -0.0004104846396261857 0 -0.049733512580728431 -0.00052419556422715467 0 -0.049583459364019526 -0.00038098283733516971 0 -0.049489610407819587 -0.0004104846396261857 0 -0.039672240836846839 -0.003449496662814011 0 -0.039923625338168241 -0.0039336200201781999 0 -0.041746040382642631 -0.003566549224998506 0 -0.049733512580728431 -0.00052419556422715467 0 -0.049732722532072927 -0.0003652100644170929 0 -0.049583459364019526 -0.00038098283733516971 0 -0.049732722532072927 -0.0003652100644170929 0 -0.049583459364019526 -0.00038098283733516971 0 -0.049711087946023066 -0.00028315257917961557 0 -0.049583459364019526 -0.00038098283733516971 0 -0.049489610407819587 -0.0004104846396261857 0 -0.049472908050854608 -0.00032113196151328208 0 -0.049583459364019526 -0.00038098283733516971 0 -0.049472908050854608 -0.00032113196151328208 0 -0.049575900983595503 -0.00024843264177716498 0 -0.049467411606844092 -0.00024359661832974348 0 -0.049472908050854608 -0.00032113196151328208 0 -0.049575900983595503 -0.00024843264177716498 0 -0.049467411606844092 -0.00024359661832974348 0 -0.049575900983595503 -0.00024843264177716498 0 -0.049507149512789859 -0.0001726059434248792 0 -0.049575900983595503 -0.00024843264177716498 0 -0.049606243534521421 -0.00015212957036366307 0 -0.049507149512789859 -0.0001726059434248792 0 -0.049606243534521421 -0.00015212957036366307 0 -0.049507149512789859 -0.0001726059434248792 0 -0.049560767080408526 -0.00010752761020373631 0 -0.049575900983595503 -0.00024843264177716498 0 -0.049606243534521421 -0.00015212957036366307 0 -0.049727306647473581 -0.00017612525519324028 0 -0.049606243534521421 -0.00015212957036366307 0 -0.049727306647473581 -0.00017612525519324028 0 -0.04965742768334775 -9.8999355608594497e-05 0 -0.049575900983595503 -0.00024843264177716498 0 -0.049727306647473581 -0.00017612525519324028 0 -0.049711087946023066 -0.00028315257917961557 0 -0.049583459364019526 -0.00038098283733516971 0 -0.049575900983595503 -0.00024843264177716498 0 -0.049711087946023066 -0.00028315257917961557 0 -0.049727306647473581 -0.00017612525519324028 0 -0.049711087946023066 -0.00028315257917961557 0 -0.049960616468048204 -0.00019088856685997628 0 -0.049732722532072927 -0.0003652100644170929 0 -0.049711087946023066 -0.00028315257917961557 0 -0.049960616468048204 -0.00019088856685997628 0 -0.049727306647473581 -0.00017612525519324028 0 -0.049816114534863412 -7.5283670543647304e-05 0 -0.049960616468048204 -0.00019088856685997628 0 -0.049999933566109031 1.1697187461621011e-09 0 -0.04979056255167507 -3.0049358807282961e-05 0 -0.049999620115799726 1.4798221334126429e-07 0 -0.049816114534863412 -7.5283670543647304e-05 0 -0.049960616468048204 -0.00019088856685997628 0 -0.049999620115799726 1.4798221334126429e-07 0 -0.049816114534863412 -7.5283670543647304e-05 0 -0.049594212175365353 1.5664477679339924e-06 0 -0.050000075094239975 -1.7006054063553955e-08 0 -0.049999901050559389 2.5054037796783785e-08 0 -0.049997307227617763 5.9310154841668366e-07 0 -0.050000075094239975 -1.7006054063553955e-08 0 -0.049997307227617763 5.9310154841668366e-07 0 -0.050006100561659682 -3.7931210427148803e-05 0 -0.049804246163217811 -8.9265852691563618e-05 0 -0.049997307227617763 5.9310154841668366e-07 0 -0.050006100561659682 -3.7931210427148803e-05 0 -0.049446932111797209 -0.00010987506011331577 0 -0.049594212175365353 1.5664477679339924e-06 0 -0.049560767080408526 -0.00010752761020373631 0 -0.049594212175365353 1.5664477679339924e-06 0 -0.049560767080408526 -0.00010752761020373631 0 -0.04965742768334775 -9.8999355608594497e-05 0 -0.049446932111797209 -0.00010987506011331577 0 -0.049507149512789859 -0.0001726059434248792 0 -0.049560767080408526 -0.00010752761020373631 0 -0.049606243534521421 -0.00015212957036366307 0 -0.049560767080408526 -0.00010752761020373631 0 -0.04965742768334775 -9.8999355608594497e-05 0 -0.049816114534863412 -7.5283670543647304e-05 0 -0.049594212175365353 1.5664477679339924e-06 0 -0.04965742768334775 -9.8999355608594497e-05 0 -0.049727306647473581 -0.00017612525519324028 0 -0.049816114534863412 -7.5283670543647304e-05 0 -0.04965742768334775 -9.8999355608594497e-05 0 -0.049939932124516015 -2.4459610895874747e-05 0 -0.049984908951885405 -1.2951564895005835e-06 0 -0.04985374806825886 -6.5534136795701109e-05 0 -0.049939932124516015 -2.4459610895874747e-05 0 -0.04999995679841561 -5.1104352031831146e-08 0 -0.049984908951885405 -1.2951564895005835e-06 0 -0.049730171425475561 -0.00022479616806820311 0 -0.050518944961814548 0.00026641003245564404 0 -0.049999620115799726 1.4798221334126429e-07 0 -0.04999995679841561 -5.1104352031831146e-08 0 -0.049984908951885405 -1.2951564895005835e-06 0 -0.049999620115799726 1.4798221334126429e-07 0 -0.049984908951885405 -1.2951564895005835e-06 0 -0.049960616468048204 -0.00019088856685997628 0 -0.049984908951885405 -1.2951564895005835e-06 0 -0.049692507224314134 -6.2544119859271599e-05 0 -0.04985374806825886 -6.5534136795701109e-05 0 -0.049906152251545911 -8.3280262696698408e-05 0 -0.049939932124516015 -2.4459610895874747e-05 0 -0.04985374806825886 -6.5534136795701109e-05 0 -0.049859007293818876 -0.00016624121321995175 0 -0.049906152251545911 -8.3280262696698408e-05 0 -0.049741081741079322 -0.00024218593975115874 0 -0.049906152251545911 -8.3280262696698408e-05 0 -0.04985374806825886 -6.5534136795701109e-05 0 -0.049741081741079322 -0.00024218593975115874 0 -0.049448863573606471 -0.00027818275750010575 0 -0.049692507224314134 -6.2544119859271599e-05 0 -0.049741081741079322 -0.00024218593975115874 0 -0.049692507224314134 -6.2544119859271599e-05 0 -0.04985374806825886 -6.5534136795701109e-05 0 -0.049741081741079322 -0.00024218593975115874 0 -0.038747582242266113 -0.0019063571682433672 0 -0.039390223296301929 -0.0019367778395594111 0 -0.039146335911283602 -0.0022038248814511057 0 -0.039390223296301929 -0.0019367778395594111 0 -0.039146335911283602 -0.0022038248814511057 0 -0.039655496854007238 -0.0022351940591419225 0 -0.034705487748174696 -0.001772646864522045 0 -0.036093025782822384 -0.0022510362460838201 0 -0.045480288736384503 -0.0012698341434506854 0 -0.044234864129517271 -0.0010301774832519343 0 -0.039935349364749961 -0.0019708509332946119 0 -0.039390223296301929 -0.0019367778395594111 0 -0.039655496854007238 -0.0022351940591419225 0 -0.031188618945897004 -0.0016352743825718452 0 -0.031140530460563098 -0.001826072106656883 0 -0.031011380792025291 -0.0017264769286177023 0 -0.031398488820089152 -0.0016451387034208274 0 -0.031188618945897004 -0.0016352743825718452 0 -0.031140530460563098 -0.001826072106656883 0 -0.022847566385535752 -0.0025090701814109492 0 -0.024714846503375649 -0.0020627283621216766 0 -0.024714846503375649 -0.0020627283621216766 0 -0.020806677787461095 -0.0049221638221632518 0 -0.018086688711095613 -0.0059883513606931935 0 -0.018225249558600769 -0.0058842550958121565 0 -0.018116033871684204 -0.0057559694558425266 0 -0.018086688711095613 -0.0059883513606931935 0 -0.017930565316734117 -0.0055806006898499331 0 -0.018116033871684204 -0.0057559694558425266 0 -0.024714846503375649 -0.0020627283621216766 0 -0.024939370115572543 -0.0043720127572090166 0 -0.018093973460153932 -0.0059971799344627754 0 -0.018225249558600769 -0.0058842550958121565 0 -0.018807172478355682 -0.0065281992275225678 0 -0.018671832394271635 -0.0059518486769986672 0 -0.018807172478355682 -0.0065281992275225678 0 -0.019122468102204356 -0.0060121222725805648 0 -0.018225249558600769 -0.0058842550958121565 0 -0.018671832394271635 -0.0059518486769986672 0 -0.018807172478355682 -0.0065281992275225678 0 -0.018671832394271635 -0.0059518486769986672 0 -0.019122468102204356 -0.0060121222725805648 0 -0.018817074845631179 -0.005670286498059421 0 -0.018225249558600769 -0.0058842550958121565 0 -0.018671832394271635 -0.0059518486769986672 0 -0.018484411923864321 -0.005717067509244016 0 -0.031038843764896538 -0.0016613956793749595 0 -0.031188618945897004 -0.0016352743825718452 0 -0.031011380792025291 -0.0017264769286177023 0 -0.030980383511610868 -0.0016937700265913565 0 -0.031038843764896538 -0.0016613956793749595 0 -0.031011380792025291 -0.0017264769286177023 0 -0.019565658497529857 -0.007009959914273136 0 -0.018807172478355682 -0.0065281992275225678 0 -0.019519288099689468 -0.0064022585638704816 0 -0.02569200515558339 -0.0040434561312544847 0 -0.024939370115572543 -0.0043720127572090166 0 -0.019999980143946171 -0.006702597736208126 0 -0.019519288099689468 -0.0064022585638704816 0 -0.019969914106346222 -0.0061587935417376843 0 -0.019565658497529857 -0.007009959914273136 0 -0.019999980143946171 -0.006702597736208126 0 -0.019519288099689468 -0.0064022585638704816 0 -0.032639478279836813 -0.0036473743870444756 0 -0.027102699467480736 -0.0060697663916761783 0 -0.035160330321346037 -0.0032092460391393561 0 -0.034825058214860774 -0.0032249981104996695 0 -0.034831346031014426 -0.0028022957302014906 0 -0.029935334816369088 -0.0041647921225825574 0 -0.029071038538369041 -0.0035735558632303543 0 -0.02753648905663094 -0.0058477085133135801 0 -0.02569200515558339 -0.0040434561312544847 0 -0.027102699467480736 -0.0060697663916761783 0 -0.019519288099689468 -0.0064022585638704816 0 -0.019969914106346222 -0.0061587935417376843 0 -0.019652496073461159 -0.0059114331989292149 0 -0.020122840424955418 -0.0058638156647908809 0 -0.019969914106346222 -0.0061587935417376843 0 -0.019652496073461159 -0.0059114331989292149 0 -0.018807172478355682 -0.0065281992275225678 0 -0.019519288099689468 -0.0064022585638704816 0 -0.019122468102204356 -0.0060121222725805648 0 -0.019519288099689468 -0.0064022585638704816 0 -0.019652496073461159 -0.0059114331989292149 0 -0.019122468102204356 -0.0060121222725805648 0 -0.019652496073461159 -0.0059114331989292149 0 -0.019122468102204356 -0.0060121222725805648 0 -0.019266681744033617 -0.0056609861479182538 0 -0.019266681744033617 -0.0056609861479182538 0 -0.019027330855872233 -0.0054037946481874273 0 -0.018817074845631179 -0.005670286498059421 0 -0.019122468102204356 -0.0060121222725805648 0 -0.019266681744033617 -0.0056609861479182538 0 -0.018817074845631179 -0.005670286498059421 0 -0.019266681744033617 -0.0056609861479182538 0 -0.019569297920361401 -0.005500117126456627 0 -0.019305060292272431 -0.0052259516488177274 0 -0.019266681744033617 -0.0056609861479182538 0 -0.019027330855872233 -0.0054037946481874273 0 -0.019305060292272431 -0.0052259516488177274 0 -0.019027330855872233 -0.0054037946481874273 0 -0.018748126304366196 -0.0050644002553738273 0 -0.018729781639093349 -0.005380995117589482 0 -0.019027330855872233 -0.0054037946481874273 0 -0.018817074845631179 -0.005670286498059421 0 -0.018729781639093349 -0.005380995117589482 0 -0.020122840424955418 -0.0058638156647908809 0 -0.019652496073461159 -0.0059114331989292149 0 -0.020012506717473087 -0.0055797596134426978 0 -0.019652496073461159 -0.0059114331989292149 0 -0.019569297920361401 -0.005500117126456627 0 -0.020012506717473087 -0.0055797596134426978 0 -0.019652496073461159 -0.0059114331989292149 0 -0.019266681744033617 -0.0056609861479182538 0 -0.019569297920361401 -0.005500117126456627 0 -0.019569297920361401 -0.005500117126456627 0 -0.019748945676497733 -0.0052234342211865872 0 -0.019305060292272431 -0.0052259516488177274 0 -0.019569297920361401 -0.005500117126456627 0 -0.020012506717473087 -0.0055797596134426978 0 -0.019748945676497733 -0.0052234342211865872 0 -0.020232774399899768 -0.0052850361799951584 0 -0.020012506717473087 -0.0055797596134426978 0 -0.019748945676497733 -0.0052234342211865872 0 -0.02007337504210141 -0.004903337045405274 0 -0.019748945676497733 -0.0052234342211865872 0 -0.019306065288621669 -0.004833166816217367 0 -0.02007337504210141 -0.004903337045405274 0 -0.019306065288621669 -0.004833166816217367 0 -0.019769523651176676 -0.0044576447638766904 0 -0.02007337504210141 -0.004903337045405274 0 -0.020232774399899768 -0.0052850361799951584 0 -0.019748945676497733 -0.0052234342211865872 0 -0.019748945676497733 -0.0052234342211865872 0 -0.019305060292272431 -0.0052259516488177274 0 -0.019306065288621669 -0.004833166816217367 0 -0.019306065288621669 -0.004833166816217367 0 -0.018748126304366196 -0.0050644002553738273 0 -0.018292690025609838 -0.0045078365836184985 0 -0.019027330855872233 -0.0054037946481874273 0 -0.019305060292272431 -0.0052259516488177274 0 -0.018748126304366196 -0.0050644002553738273 0 -0.019305060292272431 -0.0052259516488177274 0 -0.019306065288621669 -0.004833166816217367 0 -0.018748126304366196 -0.0050644002553738273 0 -0.018420825239559811 -0.0051959411613623418 0 -0.018029335043313655 -0.0051691760111224009 0 -0.018292690025609838 -0.0045078365836184985 0 -0.018748126304366196 -0.0050644002553738273 0 -0.018420825239559811 -0.0051959411613623418 0 -0.018292690025609838 -0.0045078365836184985 0 -0.018748126304366196 -0.0050644002553738273 0 -0.018420825239559811 -0.0051959411613623418 0 -0.018729781639093349 -0.005380995117589482 0 -0.017653025257365923 -0.0048964354267625404 0 -0.018029335043313655 -0.0051691760111224009 0 -0.018292690025609838 -0.0045078365836184985 0 -0.017653025257365923 -0.0048964354267625404 0 -0.017721428404286393 -0.0053113585291943623 0 -0.018029335043313655 -0.0051691760111224009 0 -0.017561400739069193 -0.0055832514555146677 0 -0.018086688711095613 -0.0059883513606931935 0 -0.017930565316734117 -0.0055806006898499331 0 -0.018029335043313655 -0.0051691760111224009 0 -0.017930565316734117 -0.0055806006898499331 0 -0.018221963765485662 -0.005573539193253119 0 -0.018420825239559811 -0.0051959411613623418 0 -0.018029335043313655 -0.0051691760111224009 0 -0.018221963765485662 -0.005573539193253119 0 -0.017721428404286393 -0.0053113585291943623 0 -0.018029335043313655 -0.0051691760111224009 0 -0.017930565316734117 -0.0055806006898499331 0 -0.018225249558600769 -0.0058842550958121565 0 -0.018221963765485662 -0.005573539193253119 0 -0.018116033871684204 -0.0057559694558425266 0 -0.017930565316734117 -0.0055806006898499331 0 -0.018221963765485662 -0.005573539193253119 0 -0.018116033871684204 -0.0057559694558425266 0 -0.018225249558600769 -0.0058842550958121565 0 -0.018221963765485662 -0.005573539193253119 0 -0.018484411923864321 -0.005717067509244016 0 -0.018221963765485662 -0.005573539193253119 0 -0.018484411923864321 -0.005717067509244016 0 -0.018500971983605775 -0.0055061708530490605 0 -0.018671832394271635 -0.0059518486769986672 0 -0.018484411923864321 -0.005717067509244016 0 -0.018817074845631179 -0.005670286498059421 0 -0.018484411923864321 -0.005717067509244016 0 -0.018817074845631179 -0.005670286498059421 0 -0.018500971983605775 -0.0055061708530490605 0 -0.018817074845631179 -0.005670286498059421 0 -0.018729781639093349 -0.005380995117589482 0 -0.018500971983605775 -0.0055061708530490605 0 -0.018420825239559811 -0.0051959411613623418 0 -0.018729781639093349 -0.005380995117589482 0 -0.018500971983605775 -0.0055061708530490605 0 -0.018420825239559811 -0.0051959411613623418 0 -0.018221963765485662 -0.005573539193253119 0 -0.018500971983605775 -0.0055061708530490605 0 -0.018496767274461774 -0.0037661713540832319 0 -0.017537753028294984 -0.0037557327611471274 0 -0.017927557585496797 -0.0031194236140665993 0 -0.018496767274461774 -0.0037661713540832319 0 -0.017537753028294984 -0.0037557327611471274 0 -0.018292690025609838 -0.0045078365836184985 0 -0.017348029629189229 -0.0044057640202708557 0 -0.018236301560642165 -0.0045032280303110425 0 -0.017653025257365923 -0.0048964354267625404 0 -0.017653038895057576 -0.0044277897517095771 0 -0.018292690025609838 -0.0045078365836184985 0 -0.017015837587598066 -0.0043987767702226331 0 -0.017537753028294984 -0.0037557327611471274 0 -0.018292690025609838 -0.0045078365836184985 0 -0.019306065288621669 -0.004833166816217367 0 -0.018292690025609838 -0.0045078365836184985 0 -0.019307134993859817 -0.0040793776443362991 0 -0.019306065288621669 -0.004833166816217367 0 -0.019769523651176676 -0.0044576447638766904 0 -0.019307134993859817 -0.0040793776443362991 0 -0.019769523651176676 -0.0044576447638766904 0 -0.019932702401961048 -0.0040543738593619566 0 -0.020236342921291114 -0.0043916008964032015 0 -0.019769523651176676 -0.0044576447638766904 0 -0.019932702401961048 -0.0040543738593619566 0 -0.019307134993859817 -0.0040793776443362991 0 -0.019932702401961048 -0.0040543738593619566 0 -0.019307134993859817 -0.0040793776443362991 0 -0.019993401304446972 -0.0032684421600378253 0 -0.018496767274461774 -0.0037661713540832319 0 -0.019307134993859817 -0.0040793776443362991 0 -0.019306746252618554 -0.0027301074833211911 0 -0.018496767274461774 -0.0037661713540832319 0 -0.018292690025609838 -0.0045078365836184985 0 -0.019307134993859817 -0.0040793776443362991 0 -0.018870900832842156 -0.0028222812709548478 0 -0.017927159786244894 -0.0031043212906597022 0 -0.018496767274461774 -0.0037661713540832319 0 -0.019306746252618554 -0.0027301074833211911 0 -0.017927557585496797 -0.0031194236140665993 0 -0.019306746252618554 -0.0027301074833211911 0 -0.020464245995813278 -0.0024629445451013494 0 -0.019993401304446972 -0.0032684421600378253 0 -0.019307134993859817 -0.0040793776443362991 0 -0.019306746252618554 -0.0027301074833211911 0 -0.019993401304446972 -0.0032684421600378253 0 -0.018870900832842156 -0.0028222812709548478 0 -0.019202072645267132 -0.00276350280726217 0 -0.018246793671762247 -0.002944229905195645 0 -0.018058859812257348 -0.0024043926713274706 0 -0.01847269221300895 -0.0025077714878160057 0 -0.018246793671762247 -0.002944229905195645 0 -0.01847269221300895 -0.0025077714878160057 0 -0.018827836880246761 -0.0028174420151222276 0 -0.018246793671762247 -0.002944229905195645 0 -0.01784500980792229 -0.0027183618947594387 0 -0.017927557585496797 -0.0031194236140665993 0 -0.018246793671762247 -0.002944229905195645 0 -0.01784500980792229 -0.0027183618947594387 0 -0.018058859812257348 -0.0024043926713274706 0 -0.01784500980792229 -0.0027183618947594387 0 -0.017927557585496797 -0.0031194236140665993 0 -0.01735599334614055 -0.0027051839604115995 0 -0.017122443969052426 -0.003195080807921814 0 -0.017537753028294984 -0.0037557327611471274 0 -0.017927557585496797 -0.0031194236140665993 0 -0.017122443969052426 -0.003195080807921814 0 -0.017927557585496797 -0.0031194236140665993 0 -0.01735599334614055 -0.0027051839604115995 0 -0.016856991514880432 -0.0022114627593909568 0 -0.01735599334614055 -0.0027051839604115995 0 -0.017442759929879682 -0.0022042575691811712 0 -0.01784500980792229 -0.0027183618947594387 0 -0.017442759929879682 -0.0022042575691811712 0 -0.018058859812257348 -0.0024043926713274706 0 -0.01784500980792229 -0.0027183618947594387 0 -0.01735599334614055 -0.0027051839604115995 0 -0.017442759929879682 -0.0022042575691811712 0 -0.017442759929879682 -0.0022042575691811712 0 -0.017486758610593487 -0.0017089339677032751 0 -0.017950569105386976 -0.0018789790912993667 0 -0.017442759929879682 -0.0022042575691811712 0 -0.016940486066299481 -0.0015970119245142396 0 -0.017486758610593487 -0.0017089339677032751 0 -0.016856991514880432 -0.0022114627593909568 0 -0.017442759929879682 -0.0022042575691811712 0 -0.016940486066299481 -0.0015970119245142396 0 -0.016940486066299481 -0.0015970119245142396 0 -0.017486758610593487 -0.0017089339677032751 0 -0.017280101482372429 -0.0012524381089085769 0 -0.017486758610593487 -0.0017089339677032751 0 -0.017280101482372429 -0.0012524381089085769 0 -0.017836521256458251 -0.0013769826988637723 0 -0.017280101482372429 -0.0012524381089085769 0 -0.017836521256458251 -0.0013769826988637723 0 -0.01758145539259506 -0.00096748590089374505 0 -0.017280101482372429 -0.0012524381089085769 0 -0.017047917429650391 -0.00074966825753373999 0 -0.01758145539259506 -0.00096748590089374505 0 -0.016691973369735807 -0.0010129754287931084 0 -0.017280101482372429 -0.0012524381089085769 0 -0.017047917429650391 -0.00074966825753373999 0 -0.016691973369735807 -0.0010129754287931084 0 -0.016940486066299481 -0.0015970119245142396 0 -0.017280101482372429 -0.0012524381089085769 0 -0.018182470018537084 -0.0010047556195104585 0 -0.018329105920178574 -0.0015130207186264287 0 -0.018706018194544888 -0.0011449963489924783 0 -0.018182470018537084 -0.0010047556195104585 0 -0.017836521256458251 -0.0013769826988637723 0 -0.018329105920178574 -0.0015130207186264287 0 -0.018182470018537084 -0.0010047556195104585 0 -0.017836521256458251 -0.0013769826988637723 0 -0.01758145539259506 -0.00096748590089374505 0 -0.017486758610593487 -0.0017089339677032751 0 -0.017836521256458251 -0.0013769826988637723 0 -0.017950569105386976 -0.0018789790912993667 0 -0.017836521256458251 -0.0013769826988637723 0 -0.018329105920178574 -0.0015130207186264287 0 -0.017950569105386976 -0.0018789790912993667 0 -0.018329105920178574 -0.0015130207186264287 0 -0.018478743842171044 -0.002025342087099462 0 -0.017950569105386976 -0.0018789790912993667 0 -0.017442759929879682 -0.0022042575691811712 0 -0.017950569105386976 -0.0018789790912993667 0 -0.018058859812257348 -0.0024043926713274706 0 -0.018478743842171044 -0.002025342087099462 0 -0.017950569105386976 -0.0018789790912993667 0 -0.018058859812257348 -0.0024043926713274706 0 -0.018478743842171044 -0.002025342087099462 0 -0.018058859812257348 -0.0024043926713274706 0 -0.01847269221300895 -0.0025077714878160057 0 -0.01847269221300895 -0.0025077714878160057 0 -0.018897641697467403 -0.0023238730989214415 0 -0.018827836880246761 -0.0028174420151222276 0 -0.018478743842171044 -0.002025342087099462 0 -0.01847269221300895 -0.0025077714878160057 0 -0.018897641697467403 -0.0023238730989214415 0 -0.018897641697467403 -0.0023238730989214415 0 -0.019368660362135512 -0.0021342244951109719 0 -0.019493709433610749 -0.0026822198243483101 0 -0.019154174079392714 -0.0014907159465883044 0 -0.019044804855158796 -0.0022194156233620419 0 -0.018897641697467403 -0.0023238730989214415 0 -0.018795302141723359 -0.0016974928847861691 0 -0.019368660362135512 -0.0021342244951109719 0 -0.018795302141723359 -0.0016974928847861691 0 -0.019228593730411473 -0.0015596441997881511 0 -0.019368660362135512 -0.0021342244951109719 0 -0.018478743842171044 -0.002025342087099462 0 -0.018897641697467403 -0.0023238730989214415 0 -0.018795302141723359 -0.0016974928847861691 0 -0.018329105920178574 -0.0015130207186264287 0 -0.018478743842171044 -0.002025342087099462 0 -0.018795302141723359 -0.0016974928847861691 0 -0.018329105920178574 -0.0015130207186264287 0 -0.018795302141723359 -0.0016974928847861691 0 -0.018706018194544888 -0.0011449963489924783 0 -0.018795302141723359 -0.0016974928847861691 0 -0.019228593730411473 -0.0015596441997881511 0 -0.018706018194544888 -0.0011449963489924783 0 -0.019154174079392714 -0.0014907159465883044 0 -0.019044636536075649 -0.0010209129267980698 0 -0.019228593730411473 -0.0015596441997881511 0 -0.019033728358911334 -0.00096531344307570089 0 -0.018706018194544888 -0.0011449963489924783 0 -0.019483958862610697 -0.0012754776293304078 0 -0.019966054411283043 -0.0015080228730705309 0 -0.020002476764613 -0.00095035874570050048 0 -0.019483958862610697 -0.0012754776293304078 0 -0.020002476764613 -0.00095035874570050048 0 -0.019412949186090746 -0.00086479137127056904 0 -0.019033728358911334 -0.00096531344307570089 0 -0.019483958862610697 -0.0012754776293304078 0 -0.019412949186090746 -0.00086479137127056904 0 -0.019061004177385214 -0.001447424900028351 0 -0.019033728358911334 -0.00096531344307570089 0 -0.019483958862610697 -0.0012754776293304078 0 -0.019061004177385214 -0.001447424900028351 0 -0.019483958862610697 -0.0012754776293304078 0 -0.019389065067363726 -0.0017026697402788209 0 -0.019483958862610697 -0.0012754776293304078 0 -0.019966054411283043 -0.0015080228730705309 0 -0.019389065067363726 -0.0017026697402788209 0 -0.019966054411283043 -0.0015080228730705309 0 -0.019691088571663913 -0.0021419698292680063 0 -0.020303633337623053 -0.0020986368770574632 0 -0.019966054411283043 -0.0015080228730705309 0 -0.019691088571663913 -0.0021419698292680063 0 -0.019389065067363726 -0.0017026697402788209 0 -0.019691088571663913 -0.0021419698292680063 0 -0.019389065067363726 -0.0017026697402788209 0 -0.019123154731853113 -0.0021015069783273145 0 -0.019061004177385214 -0.001447424900028351 0 -0.019389065067363726 -0.0017026697402788209 0 -0.019123154731853113 -0.0021015069783273145 0 -0.019044804855158796 -0.0022194156233620419 0 -0.022537837844777069 -0.0018470051157334876 0 -0.019691088571663913 -0.0021419698292680063 0 -0.019123154731853113 -0.0021015069783273145 0 -0.019272895791223609 -0.0028048091732454615 0 -0.025177926143385817 -0.0021806677577488149 0 -0.022537837844777069 -0.0018470051157334876 0 -0.019691088571663913 -0.0021419698292680063 0 -0.020125077398795335 -0.0026738303052846911 0 -0.020303633337623053 -0.0020986368770574632 0 -0.019691088571663913 -0.0021419698292680063 0 -0.020125077398795335 -0.0026738303052846911 0 -0.019272895791223609 -0.0028048091732454615 0 -0.029502845799975579 -0.0016760256616284647 0 -0.029829734128232425 -0.00090550233652769035 0 -0.029305387554339712 -0.00085131236744518551 0 -0.029502845799975579 -0.0016760256616284647 0 -0.029829734128232425 -0.00090550233652769035 0 -0.030287901596342461 -0.0014071435425206523 0 -0.029829734128232425 -0.00090550233652769035 0 -0.029726981377360077 -0.00045335690404312777 0 -0.030092901508092271 -0.00046264416997972372 0 -0.029829734128232425 -0.00090550233652769035 0 -0.03021961664871434 -0.00070027330191274237 0 -0.030092901508092271 -0.00046264416997972372 0 -0.029829734128232425 -0.00090550233652769035 0 -0.029726981377360077 -0.00045335690404312777 0 -0.029305387554339712 -0.00085131236744518551 0 -0.021762479272797942 -0.0031845536243856444 0 -0.020946594930554948 -0.0032435022534227512 0 -0.021408666614853179 -0.0037339527200814259 0 -0.029829734128232425 -0.00090550233652769035 0 -0.03021961664871434 -0.00070027330191274237 0 -0.030287901596342461 -0.0014071435425206523 0 -0.021762479272797942 -0.0031845536243856444 0 -0.021582695732148868 -0.0022305433781501347 0 -0.020946594930554948 -0.0032435022534227512 0 -0.026176680140851841 -0.0020095322293812081 0 -0.022537837844777069 -0.0018470051157334876 0 -0.021582695732148868 -0.0022305433781501347 0 -0.020464245995813278 -0.0024629445451013494 0 -0.020946594930554948 -0.0032435022534227512 0 -0.018897641697467403 -0.0023238730989214415 0 -0.019493709433610749 -0.0026822198243483101 0 -0.018827836880246761 -0.0028174420151222276 0 -0.022537837844777069 -0.0018470051157334876 0 -0.019202072645267132 -0.00276350280726217 0 -0.020464245995813278 -0.0024629445451013494 0 -0.019993401304446972 -0.0032684421600378253 0 -0.020946594930554948 -0.0032435022534227512 0 -0.020946594930554948 -0.0032435022534227512 0 -0.020969666824121307 -0.0039079491756971755 0 -0.020426774494505549 -0.0038496196714867099 0 -0.020946594930554948 -0.0032435022534227512 0 -0.020969666824121307 -0.0039079491756971755 0 -0.021408666614853179 -0.0037339527200814259 0 -0.020969666824121307 -0.0039079491756971755 0 -0.020426774494505549 -0.0038496196714867099 0 -0.02070276965493659 -0.0042928496912698049 0 -0.021214941116806593 -0.0040403221547430437 0 -0.021385682883997746 -0.0042421933818689722 0 -0.021408666614853179 -0.0037339527200814259 0 -0.020969666824121307 -0.0039079491756971755 0 -0.021214941116806593 -0.0040403221547430437 0 -0.021408666614853179 -0.0037339527200814259 0 -0.019993401304446972 -0.0032684421600378253 0 -0.020946594930554948 -0.0032435022534227512 0 -0.020426774494505549 -0.0038496196714867099 0 -0.019932702401961048 -0.0040543738593619566 0 -0.019993401304446972 -0.0032684421600378253 0 -0.020426774494505549 -0.0038496196714867099 0 -0.019932702401961048 -0.0040543738593619566 0 -0.020426774494505549 -0.0038496196714867099 0 -0.020236342921291114 -0.0043916008964032015 0 -0.020426774494505549 -0.0038496196714867099 0 -0.020236342921291114 -0.0043916008964032015 0 -0.02070276965493659 -0.0042928496912698049 0 -0.020236342921291114 -0.0043916008964032015 0 -0.020622007531863214 -0.0046902830509256924 0 -0.02070276965493659 -0.0042928496912698049 0 -0.02007337504210141 -0.004903337045405274 0 -0.019769523651176676 -0.0044576447638766904 0 -0.020236342921291114 -0.0043916008964032015 0 -0.02007337504210141 -0.004903337045405274 0 -0.020236342921291114 -0.0043916008964032015 0 -0.020622007531863214 -0.0046902830509256924 0 -0.02124086941768057 -0.0050456672887528239 0 -0.02104899499735146 -0.0045950488820810558 0 -0.021385682883997746 -0.0042421933818689722 0 -0.020969666824121307 -0.0039079491756971755 0 -0.021214941116806593 -0.0040403221547430437 0 -0.021096002317522209 -0.0042768435135612211 0 -0.021096002317522209 -0.0042768435135612211 0 -0.02104899499735146 -0.0045950488820810558 0 -0.021385682883997746 -0.0042421933818689722 0 -0.021214941116806593 -0.0040403221547430437 0 -0.021096002317522209 -0.0042768435135612211 0 -0.021385682883997746 -0.0042421933818689722 0 -0.021096002317522209 -0.0042768435135612211 0 -0.02070276965493659 -0.0042928496912698049 0 -0.020866968440365251 -0.0044642424607053552 0 -0.020969666824121307 -0.0039079491756971755 0 -0.021096002317522209 -0.0042768435135612211 0 -0.02070276965493659 -0.0042928496912698049 0 -0.020622007531863214 -0.0046902830509256924 0 -0.02070276965493659 -0.0042928496912698049 0 -0.020866968440365251 -0.0044642424607053552 0 -0.021096002317522209 -0.0042768435135612211 0 -0.020866968440365251 -0.0044642424607053552 0 -0.02104899499735146 -0.0045950488820810558 0 -0.020622007531863214 -0.0046902830509256924 0 -0.020866968440365251 -0.0044642424607053552 0 -0.02104899499735146 -0.0045950488820810558 0 -0.026206172264078519 -0.0025927899388590199 0 -0.027511297442300048 -0.0019033279236699513 0 -0.02124086941768057 -0.0050456672887528239 0 -0.021385682883997746 -0.0042421933818689722 0 -0.021945598028812859 -0.0040978579255564439 0 -0.031464894780335158 -0.00017058344026857415 0 -0.030936588697912142 -8.4389372773229556e-05 0 -0.030394812127859043 -6.9061936659172067e-05 0 -0.030936588697912142 -8.4389372773229556e-05 0 -0.030394812127859043 -6.9061936659172067e-05 0 -0.030409476750282927 -5.072309894863233e-05 0 -0.03032541363404603 -8.2436915183462889e-05 0 -0.030409476750282927 -5.072309894863233e-05 0 -0.030277494212949344 -8.2197538841623921e-05 0 -0.027511297442300048 -0.0019033279236699513 0 -0.027715289777891481 -0.0014653181533067913 0 -0.03032541363404603 -8.2436915183462889e-05 0 -0.030277494212949344 -8.2197538841623921e-05 0 -0.030195096678815533 -0.00017121444309053103 0 -0.030409476750282927 -5.072309894863233e-05 0 -0.030561512147089426 1.3010411993372194e-05 0 -0.030370606509586666 2.425090503789444e-05 0 -0.030936588697912142 -8.4389372773229556e-05 0 -0.030409476750282927 -5.072309894863233e-05 0 -0.030561512147089426 1.3010411993372194e-05 0 -0.030936588697912142 -8.4389372773229556e-05 0 -0.030561512147089426 1.3010411993372194e-05 0 -0.030383478066256964 0.0001998339940569948 0 -0.030561512147089426 1.3010411993372194e-05 0 -0.030383478066256964 0.0001998339940569948 0 -0.030370606509586666 2.425090503789444e-05 0 -0.03655107912962495 0.00055126427095074436 0 -0.034954812192085599 0.0012990039145644749 0 -0.037469930708337248 0.0019262465687015435 0 -0.032624604313638235 0.00066681718740985543 0 -0.033531060144494106 0.00035643787363094664 0 -0.030383478066256964 0.0001998339940569948 0 -0.030370606509586666 2.425090503789444e-05 0 -0.030124683185236263 3.8727524810391065e-05 0 -0.030383478066256964 0.0001998339940569948 0 -0.030124683185236263 3.8727524810391065e-05 0 -0.029683252175823363 0.00016301508957150215 0 -0.037493220881411216 0.00039093743027762207 0 -0.03655107912962495 0.00055126427095074436 0 -0.037469930708337248 0.0019262465687015435 0 -0.029882182436481403 2.2026194231447344e-05 0 -0.030124683185236263 3.8727524810391065e-05 0 -0.029683252175823363 0.00016301508957150215 0 -0.029882182436481403 2.2026194231447344e-05 0 -0.029728940403286497 6.0392423865287718e-05 0 -0.029683252175823363 0.00016301508957150215 0 -0.029882182436481403 2.2026194231447344e-05 0 -0.030124683185236263 3.8727524810391065e-05 0 -0.030052059343246815 -3.3173044820603069e-05 0 -0.029882182436481403 2.2026194231447344e-05 0 -0.030052059343246815 -3.3173044820603069e-05 0 -0.029820423940681153 -0.00013362021798562492 0 -0.029882182436481403 2.2026194231447344e-05 0 -0.029728940403286497 6.0392423865287718e-05 0 -0.029820423940681153 -0.00013362021798562492 0 -0.030409476750282927 -5.072309894863233e-05 0 -0.030370606509586666 2.425090503789444e-05 0 -0.030275895036474966 -2.6686634982040278e-05 0 -0.030370606509586666 2.425090503789444e-05 0 -0.030275895036474966 -2.6686634982040278e-05 0 -0.030124683185236263 3.8727524810391065e-05 0 -0.030275895036474966 -2.6686634982040278e-05 0 -0.030124683185236263 3.8727524810391065e-05 0 -0.030154671066562607 -2.878289954463102e-05 0 -0.030124683185236263 3.8727524810391065e-05 0 -0.030154671066562607 -2.878289954463102e-05 0 -0.030052059343246815 -3.3173044820603069e-05 0 -0.030154671066562607 -2.878289954463102e-05 0 -0.030052059343246815 -3.3173044820603069e-05 0 -0.030169469808753017 -8.8003922065332362e-05 0 -0.030052059343246815 -3.3173044820603069e-05 0 -0.030169469808753017 -8.8003922065332362e-05 0 -0.030017904081812808 -0.00021296241497472854 0 -0.030275895036474966 -2.6686634982040278e-05 0 -0.030154671066562607 -2.878289954463102e-05 0 -0.030169469808753017 -8.8003922065332362e-05 0 -0.030275895036474966 -2.6686634982040278e-05 0 -0.030169469808753017 -8.8003922065332362e-05 0 -0.030277494212949344 -8.2197538841623921e-05 0 -0.030409476750282927 -5.072309894863233e-05 0 -0.030275895036474966 -2.6686634982040278e-05 0 -0.030277494212949344 -8.2197538841623921e-05 0 -0.030169469808753017 -8.8003922065332362e-05 0 -0.030277494212949344 -8.2197538841623921e-05 0 -0.030195096678815533 -0.00017121444309053103 0 -0.030169469808753017 -8.8003922065332362e-05 0 -0.030195096678815533 -0.00017121444309053103 0 -0.030017904081812808 -0.00021296241497472854 0 -0.030195096678815533 -0.00017121444309053103 0 -0.030017904081812808 -0.00021296241497472854 0 -0.030092901508092271 -0.00046264416997972372 0 -0.029820423940681153 -0.00013362021798562492 0 -0.029726981377360077 -0.00045335690404312777 0 -0.02947829547675037 -0.0001866427828087114 0 -0.029728940403286497 6.0392423865287718e-05 0 -0.029820423940681153 -0.00013362021798562492 0 -0.02947829547675037 -0.0001866427828087114 0 -0.030017904081812808 -0.00021296241497472854 0 -0.029820423940681153 -0.00013362021798562492 0 -0.029726981377360077 -0.00045335690404312777 0 -0.030052059343246815 -3.3173044820603069e-05 0 -0.030017904081812808 -0.00021296241497472854 0 -0.029820423940681153 -0.00013362021798562492 0 -0.030017904081812808 -0.00021296241497472854 0 -0.029726981377360077 -0.00045335690404312777 0 -0.030092901508092271 -0.00046264416997972372 0 -0.026176680140851841 -0.0020095322293812081 0 -0.027511297442300048 -0.0019033279236699513 0 -0.021762479272797942 -0.0031845536243856444 0 -0.021945598028812859 -0.0040978579255564439 0 -0.021408666614853179 -0.0037339527200814259 0 -0.03021961664871434 -0.00070027330191274237 0 -0.030252763262972538 -9.264133359503866e-05 0 -0.030092901508092271 -0.00046264416997972372 0 -0.021385682883997746 -0.0042421933818689722 0 -0.021945598028812859 -0.0040978579255564439 0 -0.021408666614853179 -0.0037339527200814259 0 -0.030252763262972538 -9.264133359503866e-05 0 -0.030195096678815533 -0.00017121444309053103 0 -0.030092901508092271 -0.00046264416997972372 0 -0.027511297442300048 -0.0019033279236699513 0 -0.028289933524574831 -0.0010245282498080352 0 -0.028693268067819942 -4.4561576795911478e-05 0 -0.027796058065177192 -0.00038336560421871926 0 -0.028613847833663088 -0.00060705000195729027 0 -0.028693268067819942 -4.4561576795911478e-05 0 -0.02947829547675037 -0.0001866427828087114 0 -0.028613847833663088 -0.00060705000195729027 0 -0.028693268067819942 -4.4561576795911478e-05 0 -0.02947829547675037 -0.0001866427828087114 0 -0.029651944046093295 0.00020947998887267799 0 -0.029726981377360077 -0.00045335690404312777 0 -0.02947829547675037 -0.0001866427828087114 0 -0.029305387554339712 -0.00085131236744518551 0 -0.032494963852949518 3.8384021294059659e-05 0 -0.033531060144494106 0.00035643787363094664 0 -0.036085339610972531 -0.00035295211444716536 0 -0.035797016490218846 0.00018316754800143641 0 -0.036615900712462221 -9.9433266079548295e-05 0 -0.029728940403286497 6.0392423865287718e-05 0 -0.02947829547675037 -0.0001866427828087114 0 -0.029651944046093295 0.00020947998887267799 0 -0.032780995747098252 0.00072346059047994021 0 -0.033531060144494106 0.00035643787363094664 0 -0.037250039153135774 -0.00018261255001303161 0 -0.033531060144494106 0.00035643787363094664 0 -0.038204056666706274 -0.00017025980626815673 0 -0.037493220881411216 0.00039093743027762207 0 -0.037469930708337248 0.0019262465687015435 0 -0.036675345207121825 0.00027634378095703788 0 -0.035797016490218846 0.00018316754800143641 0 -0.036615900712462221 -9.9433266079548295e-05 0 -0.036675345207121825 0.00027634378095703788 0 -0.036615900712462221 -9.9433266079548295e-05 0 -0.037222782221429281 -5.7127036188537014e-06 0 -0.037156490602275716 -0.00044769222953973463 0 -0.037222782221429281 -5.7127036188537014e-06 0 -0.037561395611145861 -0.00013166689471388223 0 -0.037156490602275716 -0.00044769222953973463 0 -0.036615900712462221 -9.9433266079548295e-05 0 -0.037222782221429281 -5.7127036188537014e-06 0 -0.037222782221429281 -5.7127036188537014e-06 0 -0.037561395611145861 -0.00013166689471388223 0 -0.037613183690708603 4.5288572104749463e-05 0 -0.037763489085134772 0.00015303693887761059 0 -0.037863266310404785 0.00018367303530490169 0 -0.037800912738855788 0.00015078116909936613 0 -0.038934315183122153 0.00018838770851586071 0 -0.037435736045849204 -0.00013194312258621771 0 -0.037561395611145861 -0.00013166689471388223 0 -0.037613183690708603 4.5288572104749463e-05 0 -0.037715976256863022 5.3996210298534313e-05 0 -0.037222782221429281 -5.7127036188537014e-06 0 -0.037613183690708603 4.5288572104749463e-05 0 -0.037424365888408556 0.00019529903303748522 0 -0.036675345207121825 0.00027634378095703788 0 -0.037222782221429281 -5.7127036188537014e-06 0 -0.037424365888408556 0.00019529903303748522 0 -0.032494963852949518 3.8384021294059659e-05 0 -0.032623806619294135 -0.0001052031566181887 0 -0.027796058065177192 -0.00038336560421871926 0 -0.028164106795291678 -0.0010381158978651627 0 -0.028613847833663088 -0.00060705000195729027 0 -0.027796058065177192 -0.00038336560421871926 0 -0.027593032378206515 -0.00094352228440192933 0 -0.028164106795291678 -0.0010381158978651627 0 -0.027796058065177192 -0.00038336560421871926 0 -0.027593032378206515 -0.00094352228440192933 0 -0.027067696139042828 -0.0007589783095304476 0 -0.032623806619294135 -0.0001052031566181887 0 -0.032381010133770191 -0.00054800666379651143 0 -0.037613183690708603 4.5288572104749463e-05 0 -0.037424365888408556 0.00019529903303748522 0 -0.037770820927119801 -0.00029915122088847482 0 -0.027222171961760196 -0.0011876997526017858 0 -0.027593032378206515 -0.00094352228440192933 0 -0.027768703544412129 -0.0012964352241530089 0 -0.027222171961760196 -0.0011876997526017858 0 -0.027593032378206515 -0.00094352228440192933 0 -0.027067696139042828 -0.0007589783095304476 0 -0.028164106795291678 -0.0010381158978651627 0 -0.027768703544412129 -0.0012964352241530089 0 -0.028240249273797226 -0.0015573220397262567 0 -0.027593032378206515 -0.00094352228440192933 0 -0.028164106795291678 -0.0010381158978651627 0 -0.027768703544412129 -0.0012964352241530089 0 -0.028164106795291678 -0.0010381158978651627 0 -0.028811733065055186 -0.0012654396853132583 0 -0.028527837711397105 -0.0019693938720868301 0 -0.028829454647048083 -0.0011580676749536715 0 -0.025267932500996147 -0.0021487254658178203 0 -0.028811733065055186 -0.0012654396853132583 0 -0.028613847833663088 -0.00060705000195729027 0 -0.029305387554339712 -0.00085131236744518551 0 -0.028164106795291678 -0.0010381158978651627 0 -0.028811733065055186 -0.0012654396853132583 0 -0.028613847833663088 -0.00060705000195729027 0 -0.02947829547675037 -0.0001866427828087114 0 -0.028613847833663088 -0.00060705000195729027 0 -0.029305387554339712 -0.00085131236744518551 0 -0.029502845799975579 -0.0016760256616284647 0 -0.028811733065055186 -0.0012654396853132583 0 -0.029305387554339712 -0.00085131236744518551 0 -0.025177926143385817 -0.0021806677577488149 0 -0.025267932500996147 -0.0021487254658178203 0 -0.020125077398795335 -0.0026738303052846911 0 -0.021120995433272571 -0.0025503104608047803 0 -0.020303633337623053 -0.0020986368770574632 0 -0.029502845799975579 -0.0016760256616284647 0 -0.028811733065055186 -0.0012654396853132583 0 -0.028527837711397105 -0.0019693938720868301 0 -0.023330172063531281 -0.0022580896214886427 0 -0.02252954729440769 -0.0002881548981658145 0 -0.023907824618087648 -0.00129255373897526 0 -0.02252954729440769 -0.0002881548981658145 0 -0.024879509598657996 -0.00070021058601608846 0 -0.023907824618087648 -0.00129255373897526 0 -0.025267932500996147 -0.0021487254658178203 0 -0.020477357390529864 -0.00086628648677070314 0 -0.019966054411283043 -0.0015080228730705309 0 -0.020303633337623053 -0.0020986368770574632 0 -0.020695770436869512 -0.0015722267576653635 0 -0.021120995433272571 -0.0025503104608047803 0 -0.020303633337623053 -0.0020986368770574632 0 -0.020695770436869512 -0.0015722267576653635 0 -0.020071050141812923 -0.0014894787131845869 0 -0.020477357390529864 -0.00086628648677070314 0 -0.019966054411283043 -0.0015080228730705309 0 -0.020327313788150121 -0.0015389504929724548 0 -0.020002476764613 -0.00095035874570050048 0 -0.020477357390529864 -0.00086628648677070314 0 -0.019400885789652666 -0.00070065468207013691 0 -0.020477357390529864 -0.00086628648677070314 0 -0.022227271360143123 -0.00095897656124614391 0 -0.018899956595005183 -0.00080359343549734599 0 -0.019149573762633588 -0.00042143854145283304 0 -0.019444376765281671 -0.0012321682168871192 0 -0.018991355776327219 -0.00031222883012461939 0 -0.019149573762633588 -0.00042143854145283304 0 -0.019057117120696469 -0.00027835745361741633 0 -0.018899956595005183 -0.00080359343549734599 0 -0.018991355776327219 -0.00031222883012461939 0 -0.019149573762633588 -0.00042143854145283304 0 -0.019686720297226328 -0.00056796871017798258 0 -0.020406375308617743 -0.00093454561790907076 0 -0.020360101668212876 -0.00018936236291417023 0 -0.019686720297226328 -0.00056796871017798258 0 -0.019477812986572796 -0.00018129323001303427 0 -0.020360101668212876 -0.00018936236291417023 0 -0.019686720297226328 -0.00056796871017798258 0 -0.019477812986572796 -0.00018129323001303427 0 -0.019149573762633588 -0.00042143854145283304 0 -0.019686720297226328 -0.00056796871017798258 0 -0.019149573762633588 -0.00042143854145283304 0 -0.019444376765281671 -0.0012321682168871192 0 -0.019686720297226328 -0.00056796871017798258 0 -0.019444376765281671 -0.0012321682168871192 0 -0.020406375308617743 -0.00093454561790907076 0 -0.019444376765281671 -0.0012321682168871192 0 -0.020406375308617743 -0.00093454561790907076 0 -0.021401551354990524 -0.0020499132969949143 0 -0.024879509598657996 -0.00070021058601608846 0 -0.025628280726492453 -0.0013205759626656632 0 -0.026520504839784697 -0.0013125604669367861 0 -0.025628280726492453 -0.0013205759626656632 0 -0.024837983814343056 -0.0018933269906468199 0 -0.026102551829291644 -0.0015739205620070968 0 -0.024879509598657996 -0.00070021058601608846 0 -0.025628280726492453 -0.0013205759626656632 0 -0.024837983814343056 -0.0018933269906468199 0 -0.022227271360143123 -0.00095897656124614391 0 -0.023970242057496743 -0.0015679715676597335 0 -0.026381243351530591 -0.0017305168683341466 0 -0.026562035157100029 -0.0015671370083816386 0 -0.024879509598657996 -0.00070021058601608846 0 -0.023907824618087648 -0.00129255373897526 0 -0.024837983814343056 -0.0018933269906468199 0 -0.023330172063531281 -0.0022580896214886427 0 -0.023907824618087648 -0.00129255373897526 0 -0.024837983814343056 -0.0018933269906468199 0 -0.027768703544412129 -0.0012964352241530089 0 -0.028240249273797226 -0.0015573220397262567 0 -0.027714617894292418 -0.0016497737279486298 0 -0.025267932500996147 -0.0021487254658178203 0 -0.026381243351530591 -0.0017305168683341466 0 -0.027714617894292418 -0.0016497737279486298 0 -0.027311488778725239 -0.0014382547711847818 0 -0.027080495644144435 -0.0016137882407961574 0 -0.027222171961760196 -0.0011876997526017858 0 -0.027768703544412129 -0.0012964352241530089 0 -0.027311488778725239 -0.0014382547711847818 0 -0.027768703544412129 -0.0012964352241530089 0 -0.027714617894292418 -0.0016497737279486298 0 -0.027311488778725239 -0.0014382547711847818 0 -0.027311488778725239 -0.0014382547711847818 0 -0.026762062618873206 -0.0013427968153722867 0 -0.027080495644144435 -0.0016137882407961574 0 -0.027222171961760196 -0.0011876997526017858 0 -0.027311488778725239 -0.0014382547711847818 0 -0.026762062618873206 -0.0013427968153722867 0 -0.027222171961760196 -0.0011876997526017858 0 -0.026762062618873206 -0.0013427968153722867 0 -0.026859546190410605 -0.0011786019801751666 0 -0.026762062618873206 -0.0013427968153722867 0 -0.026597157095581955 -0.001288943293463926 0 -0.026859546190410605 -0.0011786019801751666 0 -0.026762062618873206 -0.0013427968153722867 0 -0.026593674510493368 -0.0012744420280866417 0 -0.026597157095581955 -0.001288943293463926 0 -0.026593674510493368 -0.0012744420280866417 0 -0.026597157095581955 -0.001288943293463926 0 -0.026522002020178907 -0.0011552341366302824 0 -0.026517455986129805 -0.0012849724011086833 0 -0.026520504839784697 -0.0013125604669367861 0 -0.026289688751210103 -0.0011351118285916574 0 -0.023970242057496743 -0.0015679715676597335 0 -0.026106633857483394 -0.0012632561249809285 0 -0.021401551354990524 -0.0020499132969949143 0 -0.023550600504846891 -0.00089790759864334364 0 -0.026289688751210103 -0.0011351118285916574 0 -0.026593674510493368 -0.0012744420280866417 0 -0.026517455986129805 -0.0012849724011086833 0 -0.026522002020178907 -0.0011552341366302824 0 -0.026762062618873206 -0.0013427968153722867 0 -0.026593674510493368 -0.0012744420280866417 0 -0.026517455986129805 -0.0012849724011086833 0 -0.026762062618873206 -0.0013427968153722867 0 -0.026517455986129805 -0.0012849724011086833 0 -0.027080495644144435 -0.0016137882407961574 0 -0.025628280726492453 -0.0013205759626656632 0 -0.026102551829291644 -0.0015739205620070968 0 -0.026520504839784697 -0.0013125604669367861 0 -0.026517455986129805 -0.0012849724011086833 0 -0.026102551829291644 -0.0015739205620070968 0 -0.026520504839784697 -0.0013125604669367861 0 -0.026568664349829966 -0.0013628922174676193 0 -0.026562035157100029 -0.0015671370083816386 0 -0.020406375308617743 -0.00093454561790907076 0 -0.021401551354990524 -0.0020499132969949143 0 -0.021693714206084968 -0.00052276223118895933 0 -0.021401551354990524 -0.0020499132969949143 0 -0.021693714206084968 -0.00052276223118895933 0 -0.023550600504846891 -0.00089790759864334364 0 -0.023550600504846891 -0.00089790759864334364 0 -0.02329759898362661 -0.00037092295378596057 0 -0.024972986889823957 -0.00049881590419126895 0 -0.021693714206084968 -0.00052276223118895933 0 -0.023550600504846891 -0.00089790759864334364 0 -0.02329759898362661 -0.00037092295378596057 0 -0.021693714206084968 -0.00052276223118895933 0 -0.02329759898362661 -0.00037092295378596057 0 -0.021362026370108953 0.00051857573315222335 0 -0.02329759898362661 -0.00037092295378596057 0 -0.024218947259846215 -1.6966251201672171e-05 0 -0.021362026370108953 0.00051857573315222335 0 -0.021693714206084968 -0.00052276223118895933 0 -0.020360101668212876 -0.00018936236291417023 0 -0.021362026370108953 0.00051857573315222335 0 -0.020406375308617743 -0.00093454561790907076 0 -0.021693714206084968 -0.00052276223118895933 0 -0.020360101668212876 -0.00018936236291417023 0 -0.025800015521521075 -1.3333650014648234e-08 0 -0.025699259848808123 -9.2194069274040448e-05 0 -0.024357320057332162 0.00030662340245473686 0 -0.024218947259846215 -1.6966251201672171e-05 0 -0.025699259848808123 -9.2194069274040448e-05 0 -0.024357320057332162 0.00030662340245473686 0 -0.024218947259846215 -1.6966251201672171e-05 0 -0.024357320057332162 0.00030662340245473686 0 -0.021362026370108953 0.00051857573315222335 0 -0.024218947259846215 -1.6966251201672171e-05 0 -0.024972986889823957 -0.00049881590419126895 0 -0.025699259848808123 -9.2194069274040448e-05 0 -0.02329759898362661 -0.00037092295378596057 0 -0.024218947259846215 -1.6966251201672171e-05 0 -0.024972986889823957 -0.00049881590419126895 0 -0.023550600504846891 -0.00089790759864334364 0 -0.024972986889823957 -0.00049881590419126895 0 -0.026289688751210103 -0.0011351118285916574 0 -0.024972986889823957 -0.00049881590419126895 0 -0.026498616906565381 -0.00044339287099634327 0 -0.026289688751210103 -0.0011351118285916574 0 -0.024972986889823957 -0.00049881590419126895 0 -0.026498616906565381 -0.00044339287099634327 0 -0.025699259848808123 -9.2194069274040448e-05 0 -0.025800015521521075 -1.3333650014648234e-08 0 -0.025699259848808123 -9.2194069274040448e-05 0 -0.02816284075182738 1.9154635716381256e-07 0 -0.026498616906565381 -0.00044339287099634327 0 -0.025699259848808123 -9.2194069274040448e-05 0 -0.02816284075182738 1.9154635716381256e-07 0 -0.02816284075182738 1.9154635716381256e-07 0 -0.027266105642405648 -0.00057669584259523513 0 -0.028508622868346087 -0.00030037361969383145 0 -0.02816284075182738 1.9154635716381256e-07 0 -0.028508622868346087 -0.00030037361969383145 0 -0.030521240910575186 -3.9992088435564259e-06 0 -0.026498616906565381 -0.00044339287099634327 0 -0.02816284075182738 1.9154635716381256e-07 0 -0.027266105642405648 -0.00057669584259523513 0 -0.027266105642405648 -0.00057669584259523513 0 -0.028508622868346087 -0.00030037361969383145 0 -0.027709148872295343 -0.00067522560680793452 0 -0.026517455986129805 -0.0012849724011086833 0 -0.026289688751210103 -0.0011351118285916574 0 -0.026522002020178907 -0.0011552341366302824 0 -0.026498616906565381 -0.00044339287099634327 0 -0.027266105642405648 -0.00057669584259523513 0 -0.026289688751210103 -0.0011351118285916574 0 -0.027266105642405648 -0.00057669584259523513 0 -0.026289688751210103 -0.0011351118285916574 0 -0.026657333849328658 -0.00094924228943411393 0 -0.027266105642405648 -0.00057669584259523513 0 -0.026657333849328658 -0.00094924228943411393 0 -0.027709148872295343 -0.00067522560680793452 0 -0.026657333849328658 -0.00094924228943411393 0 -0.026522002020178907 -0.0011552341366302824 0 -0.026606890025382596 -0.0011905054525866857 0 -0.026289688751210103 -0.0011351118285916574 0 -0.026657333849328658 -0.00094924228943411393 0 -0.026522002020178907 -0.0011552341366302824 0 -0.026318584375989076 -0.00047556182274867089 0 -0.030876077832791626 -0.0013889984450753284 0 -0.026597157095581955 -0.001288943293463926 0 -0.026719170221597855 -0.0013606146534774651 0 -0.026620784761393439 -0.0012310749315656508 0 -0.026657333849328658 -0.00094924228943411393 0 -0.026719170221597855 -0.0013606146534774651 0 -0.027093740930595089 -0.0016806088837558299 0 -0.026597157095581955 -0.001288943293463926 0 -0.026522002020178907 -0.0011552341366302824 0 -0.026606890025382596 -0.0011905054525866857 0 -0.026597157095581955 -0.001288943293463926 0 -0.026606890025382596 -0.0011905054525866857 0 -0.026719170221597855 -0.0013606146534774651 0 -0.026657333849328658 -0.00094924228943411393 0 -0.026606890025382596 -0.0011905054525866857 0 -0.026719170221597855 -0.0013606146534774651 0 -0.026657333849328658 -0.00094924228943411393 0 -0.027709148872295343 -0.00067522560680793452 0 -0.028322292878397406 -0.0010771321672535018 0 -0.028508622868346087 -0.00030037361969383145 0 -0.028322292878397406 -0.0010771321672535018 0 -0.030521240910575186 -3.9992088435564259e-06 0 -0.028508622868346087 -0.00030037361969383145 0 -0.027709148872295343 -0.00067522560680793452 0 -0.028322292878397406 -0.0010771321672535018 0 -0.030876077832791626 -0.0013889984450753284 0 -0.030525661835020871 -7.3274716987717143e-07 0 -0.035123611356590916 -0.0027520789680169997 0 -0.033517351667543528 -2.8662216923260752e-06 0 -0.035856560529576996 -0.00070822089377664229 0 -0.031109638150117577 -4.7491982587344085e-06 0 -0.03052953647372024 -1.5407738499114896e-08 0 -0.033508527673823486 -2.7211143284628569e-09 0 -0.030876077832791626 -0.0013889984450753284 0 -0.033513189753194318 -7.4280875560345687e-07 0 -0.033517351667543528 -2.8662216923260752e-06 0 -0.035856560529576996 -0.00070822089377664229 0 -0.036544418599004404 8.1859986078069543e-05 0 -0.035856560529576996 -0.00070822089377664229 0 -0.037312791521963762 -0.00021968698270587411 0 -0.036544418599004404 8.1859986078069543e-05 0 -0.035856560529576996 -0.00070822089377664229 0 -0.037064468765751868 -0.001349421985405953 0 -0.037312791521963762 -0.00021968698270587411 0 -0.026719170221597855 -0.0013606146534774651 0 -0.027093740930595089 -0.0016806088837558299 0 -0.026620784761393439 -0.0012310749315656508 0 -0.035123611356590916 -0.0027520789680169997 0 -0.035856560529576996 -0.00070822089377664229 0 -0.037064468765751868 -0.001349421985405953 0 -0.030876077832791626 -0.0013889984450753284 0 -0.031852270853814334 -0.001392596098884291 0 -0.026620784761393439 -0.0012310749315656508 0 -0.026859546190410605 -0.0011786019801751666 0 -0.027067696139042828 -0.0007589783095304476 0 -0.026597157095581955 -0.001288943293463926 0 -0.026620784761393439 -0.0012310749315656508 0 -0.026859546190410605 -0.0011786019801751666 0 -0.031852270853814334 -0.001392596098884291 0 -0.032381010133770191 -0.00054800666379651143 0 -0.027222171961760196 -0.0011876997526017858 0 -0.026859546190410605 -0.0011786019801751666 0 -0.027067696139042828 -0.0007589783095304476 0 -0.037770820927119801 -0.00029915122088847482 0 -0.037312791521963762 -0.00021968698270587411 0 -0.037715976256863022 5.3996210298534313e-05 0 -0.037064468765751868 -0.001349421985405953 0 -0.037770820927119801 -0.00029915122088847482 0 -0.037312791521963762 -0.00021968698270587411 0 -0.037312791521963762 -0.00021968698270587411 0 -0.037567158371168093 0.00019286713973086698 0 -0.036544418599004404 8.1859986078069543e-05 0 -0.037312791521963762 -0.00021968698270587411 0 -0.037715976256863022 5.3996210298534313e-05 0 -0.037567158371168093 0.00019286713973086698 0 -0.037613183690708603 4.5288572104749463e-05 0 -0.037770820927119801 -0.00029915122088847482 0 -0.037715976256863022 5.3996210298534313e-05 0 -0.037435736045849204 -0.00013194312258621771 0 -0.037797361977246105 0.00010657090244014657 0 -0.037763489085134772 0.00015303693887761059 0 -0.037800912738855788 0.00015078116909936613 0 -0.037782886279521762 0.00019486976002910009 0 -0.037800912738855788 0.00015078116909936613 0 -0.037715976256863022 5.3996210298534313e-05 0 -0.037782886279521762 0.00019486976002910009 0 -0.038064760952169659 0.00016472830246869327 0 -0.037763489085134772 0.00015303693887761059 0 -0.037782886279521762 0.00019486976002910009 0 -0.037715976256863022 5.3996210298534313e-05 0 -0.037782886279521762 0.00019486976002910009 0 -0.037567158371168093 0.00019286713973086698 0 -0.038064760952169659 0.00016472830246869327 0 -0.037782886279521762 0.00019486976002910009 0 -0.037567158371168093 0.00019286713973086698 0 -0.038064760952169659 0.00016472830246869327 0 -0.037567158371168093 0.00019286713973086698 0 -0.037396127442883897 0.00026198580404752746 0 -0.038028660477756736 3.0128571440086478e-07 0 -0.037396127442883897 0.00026198580404752746 0 -0.035769814379150083 1.3138425677154614e-06 0 -0.037396127442883897 0.00026198580404752746 0 -0.035769814379150083 1.3138425677154614e-06 0 -0.036544418599004404 8.1859986078069543e-05 0 -0.033517351667543528 -2.8662216923260752e-06 0 -0.035769814379150083 1.3138425677154614e-06 0 -0.036544418599004404 8.1859986078069543e-05 0 -0.037567158371168093 0.00019286713973086698 0 -0.037396127442883897 0.00026198580404752746 0 -0.036544418599004404 8.1859986078069543e-05 0 -0.01508767325431244 0.00020938623184878582 0 -0.015714891266311617 0.000273245903670863 0 -0.016346392752450874 0.00030663303101299448 0 -0.01508767325431244 0.00020938623184878582 0 -0.015218860921613469 4.440763748958318e-07 0 -0.016346392752450874 0.00030663303101299448 0 -0.01508767325431244 0.00020938623184878582 0 -0.015218860921613469 4.440763748958318e-07 0 -0.013840402320063713 0.00014321169813925511 0 -0.015218860921613469 4.440763748958318e-07 0 -0.013840402320063713 0.00014321169813925511 0 -0.012291337743725863 5.3428176732303385e-07 0 -0.01508767325431244 0.00020938623184878582 0 -0.014816965629240125 0.00011570331303712602 0 -0.014491393132488846 -6.360881047729286e-06 0 -0.01508767325431244 0.00020938623184878582 0 -0.013840402320063713 0.00014321169813925511 0 -0.014491393132488846 -6.360881047729286e-06 0 -0.01452005344450211 0.00017949606891634474 0 -0.013603003750659719 0.00034008883905738287 0 -0.014816965629240125 0.00011570331303712602 0 -0.014167250510191817 -0.00011848490606811419 0 -0.012884086802684899 0.00079613226194323844 0 -0.014816965629240125 0.00011570331303712602 0 -0.014167250510191817 -0.00011848490606811419 0 -0.015526111368652147 0.00016227822058670656 0 -0.014167250510191817 -0.00011848490606811419 0 -0.012171596805186018 -0.0017952801498315196 0 -0.011848094205581075 -0.0006714542537573832 0 -0.014502078670410003 -4.1394269183760132e-05 0 -0.014210444967187463 -0.001057928162851434 0 -0.014167250510191817 -0.00011848490606811419 0 -0.011848094205581075 -0.0006714542537573832 0 -0.012562471734352872 0.00011726994767476899 0 -0.014167250510191817 -0.00011848490606811419 0 -0.013202851913371432 0.00029592950449052439 0 -0.012562471734352872 0.00011726994767476899 0 -0.014167250510191817 -0.00011848490606811419 0 -0.015526111368652147 0.00016227822058670656 0 -0.016934941094655875 7.2694914583210617e-05 0 -0.015526111368652147 0.00016227822058670656 0 -0.016515562417747574 0.00046128236204710115 0 -0.016934941094655875 7.2694914583210617e-05 0 -0.01508767325431244 0.00020938623184878582 0 -0.014816965629240125 0.00011570331303712602 0 -0.015714891266311617 0.000273245903670863 0 -0.014816965629240125 0.00011570331303712602 0 -0.015526111368652147 0.00016227822058670656 0 -0.015714891266311617 0.000273245903670863 0 -0.015526111368652147 0.00016227822058670656 0 -0.015714891266311617 0.000273245903670863 0 -0.016515562417747574 0.00046128236204710115 0 -0.015714891266311617 0.000273245903670863 0 -0.017339682204844303 0.00051265119701144387 0 -0.016346392752450874 0.00030663303101299448 0 -0.015714891266311617 0.000273245903670863 0 -0.016515562417747574 0.00046128236204710115 0 -0.017339682204844303 0.00051265119701144387 0 -0.016515562417747574 0.00046128236204710115 0 -0.01736152005828636 0.00060008516441431656 0 -0.017339682204844303 0.00051265119701144387 0 -0.016515562417747574 0.00046128236204710115 0 -0.017351958877513139 0.00055353326229364952 0 -0.016934941094655875 7.2694914583210617e-05 0 -0.016515562417747574 0.00046128236204710115 0 -0.01736152005828636 0.00060008516441431656 0 -0.017351958877513139 0.00055353326229364952 0 -0.01736152005828636 0.00060008516441431656 0 -0.017339682204844303 0.00051265119701144387 0 -0.018028422987584478 0.00062720624088493044 0 -0.017339682204844303 0.00051265119701144387 0 -0.016346392752450874 0.00030663303101299448 0 -0.018395586537015354 0.00031472154962387447 0 -0.015218860921613469 4.440763748958318e-07 0 -0.016346392752450874 0.00030663303101299448 0 -0.01814772759481785 1.131867385606348e-06 0 -0.016346392752450874 0.00030663303101299448 0 -0.01814772759481785 1.131867385606348e-06 0 -0.018395586537015354 0.00031472154962387447 0 -0.01814772759481785 1.131867385606348e-06 0 -0.018395586537015354 0.00031472154962387447 0 -0.021069549450996896 -6.9657885391004889e-07 0 -0.017339682204844303 0.00051265119701144387 0 -0.018395586537015354 0.00031472154962387447 0 -0.018796025120268438 0.00028250056694516864 0 -0.018395586537015354 0.00031472154962387447 0 -0.018796025120268438 0.00028250056694516864 0 -0.019324465682814693 0.00011019880189538147 0 -0.018796025120268438 0.00028250056694516864 0 -0.019324465682814693 0.00011019880189538147 0 -0.019518369707175392 0.00018458378998999464 0 -0.019324465682814693 0.00011019880189538147 0 -0.021069549450996896 -6.9657885391004889e-07 0 -0.019374558117964829 -4.6327027265608342e-05 0 -0.018395586537015354 0.00031472154962387447 0 -0.019324465682814693 0.00011019880189538147 0 -0.021069549450996896 -6.9657885391004889e-07 0 -0.021078775464681048 -1.1858703649095791e-06 0 -0.023626937007057227 0.00060390223504003335 0 -0.023437437929098911 1.6855273327087182e-06 0 -0.02107575698507581 3.6077330031650246e-07 0 -0.021494816575477093 0.00032012246070345813 0 -0.019324465682814693 0.00011019880189538147 0 -0.019374558117964829 -4.6327027265608342e-05 0 -0.019518369707175392 0.00018458378998999464 0 -0.021494816575477093 0.00032012246070345813 0 -0.021274904377568241 0.00037288194341970936 0 -0.023626937007057227 0.00060390223504003335 0 -0.024357320057332162 0.00030662340245473686 0 -0.021362026370108953 0.00051857573315222335 0 -0.025800015521521075 -1.3333650014648234e-08 0 -0.024357320057332162 0.00030662340245473686 0 -0.023437437929098911 1.6855273327087182e-06 0 -0.023626937007057227 0.00060390223504003335 0 -0.024357320057332162 0.00030662340245473686 0 -0.023437437929098911 1.6855273327087182e-06 0 -0.020360101668212876 -0.00018936236291417023 0 -0.021362026370108953 0.00051857573315222335 0 -0.01976529187831293 0.00035748564751193399 0 -0.019374558117964829 -4.6327027265608342e-05 0 -0.021362026370108953 0.00051857573315222335 0 -0.019518369707175392 0.00018458378998999464 0 -0.021362026370108953 0.00051857573315222335 0 -0.019518369707175392 0.00018458378998999464 0 -0.01976529187831293 0.00035748564751193399 0 -0.019518369707175392 0.00018458378998999464 0 -0.01976529187831293 0.00035748564751193399 0 -0.018775669523496446 0.00048483078166428663 0 -0.019518369707175392 0.00018458378998999464 0 -0.018775669523496446 0.00048483078166428663 0 -0.018486450624699811 0.00045509182246603714 0 -0.018796025120268438 0.00028250056694516864 0 -0.019518369707175392 0.00018458378998999464 0 -0.018486450624699811 0.00045509182246603714 0 -0.017339682204844303 0.00051265119701144387 0 -0.018796025120268438 0.00028250056694516864 0 -0.018486450624699811 0.00045509182246603714 0 -0.017339682204844303 0.00051265119701144387 0 -0.018486450624699811 0.00045509182246603714 0 -0.018028422987584478 0.00062720624088493044 0 -0.018775669523496446 0.00048483078166428663 0 -0.018486450624699811 0.00045509182246603714 0 -0.018028422987584478 0.00062720624088493044 0 -0.018775669523496446 0.00048483078166428663 0 -0.018028422987584478 0.00062720624088493044 0 -0.018349918042278281 0.00066425224593006803 0 -0.018028422987584478 0.00062720624088493044 0 -0.018349918042278281 0.00066425224593006803 0 -0.018028242624617111 0.00075223209182772796 0 -0.018349918042278281 0.00066425224593006803 0 -0.018196980949742172 0.00075213406124127193 0 -0.018028242624617111 0.00075223209182772796 0 -0.018349918042278281 0.00066425224593006803 0 -0.018196980949742172 0.00075213406124127193 0 -0.01862680868952488 0.00050052340689218271 0 -0.01862680868952488 0.00050052340689218271 0 -0.018996254645718618 -2.7196916220847067e-05 0 -0.018064243512334932 0.00042830351959228011 0 -0.018196980949742172 0.00075213406124127193 0 -0.01862680868952488 0.00050052340689218271 0 -0.018064243512334932 0.00042830351959228011 0 -0.018775669523496446 0.00048483078166428663 0 -0.018349918042278281 0.00066425224593006803 0 -0.01862680868952488 0.00050052340689218271 0 -0.01976529187831293 0.00035748564751193399 0 -0.018775669523496446 0.00048483078166428663 0 -0.01862680868952488 0.00050052340689218271 0 -0.01976529187831293 0.00035748564751193399 0 -0.01862680868952488 0.00050052340689218271 0 -0.018996254645718618 -2.7196916220847067e-05 0 -0.019149573762633588 -0.00042143854145283304 0 -0.018996254645718618 -2.7196916220847067e-05 0 -0.019057117120696469 -0.00027835745361741633 0 -0.019477812986572796 -0.00018129323001303427 0 -0.019149573762633588 -0.00042143854145283304 0 -0.018996254645718618 -2.7196916220847067e-05 0 -0.019477812986572796 -0.00018129323001303427 0 -0.020360101668212876 -0.00018936236291417023 0 -0.01976529187831293 0.00035748564751193399 0 -0.019477812986572796 -0.00018129323001303427 0 -0.01976529187831293 0.00035748564751193399 0 -0.018996254645718618 -2.7196916220847067e-05 0 -0.018991355776327219 -0.00031222883012461939 0 -0.019128086293848719 -0.00038476894251522788 0 -0.01939909128573163 -0.00044734178309397885 0 -0.019400885789652666 -0.00070065468207013691 0 -0.019444297516597681 -0.00048118769993073571 0 -0.018991355776327219 -0.00031222883012461939 0 -0.019057117120696469 -0.00027835745361741633 0 -0.019128086293848719 -0.00038476894251522788 0 -0.018996254645718618 -2.7196916220847067e-05 0 -0.019057117120696469 -0.00027835745361741633 0 -0.019128086293848719 -0.00038476894251522788 0 -0.018996254645718618 -2.7196916220847067e-05 0 -0.017783592288854178 -0.00028997040937485218 0 -0.018064243512334932 0.00042830351959228011 0 -0.018951536266403977 -9.3382154212521802e-05 0 -0.01846836412064104 -0.00031051925433457574 0 -0.01846836412064104 -0.00031051925433457574 0 -0.018143947613663784 -0.00043244253007698638 0 -0.017783592288854178 -0.00028997040937485218 0 -0.017378371590644873 0.00018716354645331653 0 -0.016826418702199093 -0.0003862464460156802 0 -0.017378371590644873 0.00018716354645331653 0 -0.018064243512334932 0.00042830351959228011 0 -0.017474670556735652 0.00063295164274332143 0 -0.017783592288854178 -0.00028997040937485218 0 -0.017378371590644873 0.00018716354645331653 0 -0.018064243512334932 0.00042830351959228011 0 -0.018064243512334932 0.00042830351959228011 0 -0.017474670556735652 0.00063295164274332143 0 -0.017829946952019195 0.00087114676802100448 0 -0.018196980949742172 0.00075213406124127193 0 -0.018064243512334932 0.00042830351959228011 0 -0.017829946952019195 0.00087114676802100448 0 -0.017474670556735652 0.00063295164274332143 0 -0.017406761637098134 0.0010901086123008992 0 -0.016901108281030631 0.00062561814334358276 0 -0.017474670556735652 0.00063295164274332143 0 -0.017406761637098134 0.0010901086123008992 0 -0.017829946952019195 0.00087114676802100448 0 -0.017406761637098134 0.0010901086123008992 0 -0.017426017803507565 0.0013570305580385556 0 -0.017227145993057063 0.0013224680426392364 0 -0.017406761637098134 0.0010901086123008992 0 -0.017426017803507565 0.0013570305580385556 0 -0.017670478336047103 0.0012428917289448349 0 -0.017426017803507565 0.0013570305580385556 0 -0.017278854265604333 0.001473120502029525 0 -0.017227145993057063 0.0013224680426392364 0 -0.017426017803507565 0.0013570305580385556 0 -0.017670478336047103 0.0012428917289448349 0 -0.017511656859994361 0.0014868031500944747 0 -0.017670478336047103 0.0012428917289448349 0 -0.017829946952019195 0.00087114676802100448 0 -0.017830983820042973 0.0011853480883267831 0 -0.018638119286826516 0.0012800438425167708 0 -0.015921401672503156 0.00024010688815541764 0 -0.017406761637098134 0.0010901086123008992 0 -0.017670478336047103 0.0012428917289448349 0 -0.017829946952019195 0.00087114676802100448 0 -0.018196980949742172 0.00075213406124127193 0 -0.018028242624617111 0.00075223209182772796 0 -0.01823694203300846 0.00078137845712589432 0 -0.018196980949742172 0.00075213406124127193 0 -0.017829946952019195 0.00087114676802100448 0 -0.01823694203300846 0.00078137845712589432 0 -0.018066850860140794 0.00062820537825950657 0 -0.015921401672503156 0.00024010688815541764 0 -0.01736152005828636 0.00060008516441431656 0 -0.018028422987584478 0.00062720624088493044 0 -0.018028242624617111 0.00075223209182772796 0 -0.01736152005828636 0.00060008516441431656 0 -0.018028242624617111 0.00075223209182772796 0 -0.017351958877513139 0.00055353326229364952 0 -0.018028242624617111 0.00075223209182772796 0 -0.017351958877513139 0.00055353326229364952 0 -0.017836234864631852 0.00059264662251693129 0 -0.015921401672503156 0.00024010688815541764 0 -0.014210444967187463 -0.001057928162851434 0 -0.017351958877513139 0.00055353326229364952 0 -0.017836234864631852 0.00059264662251693129 0 -0.016934941094655875 7.2694914583210617e-05 0 -0.017670478336047103 0.0012428917289448349 0 -0.017830983820042973 0.0011853480883267831 0 -0.017693178159421511 0.0015506881180254249 0 -0.010996889562377432 -0.0027824657282176 0 -0.011192601768593109 -0.0013976898443970574 0 -0.010270491331010989 -0.0011963926140780813 0 -0.015921401672503156 0.00024010688815541764 0 -0.013926756287356208 9.1880105207014874e-05 0 -0.010996889562377432 -0.0027824657282176 0 -0.011192601768593109 -0.0013976898443970574 0 -0.012171596805186018 -0.0017952801498315196 0 -0.011192601768593109 -0.0013976898443970574 0 -0.012171596805186018 -0.0017952801498315196 0 -0.011848094205581075 -0.0006714542537573832 0 -0.011848094205581075 -0.0006714542537573832 0 -0.010791638090538912 -0.00048849100761150211 0 -0.011408523017173407 7.8674714951707116e-05 0 -0.011848094205581075 -0.0006714542537573832 0 -0.011408523017173407 7.8674714951707116e-05 0 -0.012562471734352872 0.00011726994767476899 0 -0.011192601768593109 -0.0013976898443970574 0 -0.011848094205581075 -0.0006714542537573832 0 -0.010791638090538912 -0.00048849100761150211 0 -0.011192601768593109 -0.0013976898443970574 0 -0.010791638090538912 -0.00048849100761150211 0 -0.010270491331010989 -0.0011963926140780813 0 -0.017502140687033818 0.001633286899305841 0 -0.017693178159421511 0.0015506881180254249 0 -0.017486139369651821 0.0018603027340659648 0 -0.017502140687033818 0.001633286899305841 0 -0.017393071248508141 0.0017119214857897796 0 -0.017486139369651821 0.0018603027340659648 0 -0.013926756287356208 9.1880105207014874e-05 0 -0.01275477973873872 0.00052680619890903193 0 -0.010791638090538912 -0.00048849100761150211 0 -0.010270491331010989 -0.0011963926140780813 0 -0.009773211268260782 0.00021900859959363763 0 -0.011110552147239928 0.00086298549735095006 0 -0.01142848896153667 0.00087725623631495922 0 -0.01111860698366211 0.00053889998372055273 0 -0.014334856973464833 0.0014074973208275359 0 -0.014982480958899331 0.0013407078321074164 0 -0.011110552147239928 0.00086298549735095006 0 -0.011409686406548606 0.0012264228571108985 0 -0.01142848896153667 0.00087725623631495922 0 -0.017393071248508141 0.0017119214857897796 0 -0.017374214711125491 0.0015976075489650501 0 -0.017272706170472277 0.0015769854897360821 0 -0.017502140687033818 0.001633286899305841 0 -0.017393071248508141 0.0017119214857897796 0 -0.017374214711125491 0.0015976075489650501 0 -0.017502140687033818 0.001633286899305841 0 -0.017374214711125491 0.0015976075489650501 0 -0.017511656859994361 0.0014868031500944747 0 -0.017374214711125491 0.0015976075489650501 0 -0.017363229656226654 0.0015202448930210697 0 -0.017511656859994361 0.0014868031500944747 0 -0.017374214711125491 0.0015976075489650501 0 -0.017289739213492999 0.0015949882987760585 0 -0.017363229656226654 0.0015202448930210697 0 -0.017076380806880079 0.0017193092915987996 0 -0.014982480958899331 0.0013407078321074164 0 -0.017426017803507565 0.0013570305580385556 0 -0.017278854265604333 0.001473120502029525 0 -0.017363229656226654 0.0015202448930210697 0 -0.017289739213492999 0.0015949882987760585 0 -0.017278854265604333 0.001473120502029525 0 -0.017363229656226654 0.0015202448930210697 0 -0.017426017803507565 0.0013570305580385556 0 -0.017363229656226654 0.0015202448930210697 0 -0.017511656859994361 0.0014868031500944747 0 -0.017670478336047103 0.0012428917289448349 0 -0.017511656859994361 0.0014868031500944747 0 -0.017693178159421511 0.0015506881180254249 0 -0.017502140687033818 0.001633286899305841 0 -0.017511656859994361 0.0014868031500944747 0 -0.017693178159421511 0.0015506881180254249 0 -0.01662292309908743 0.0019613607729947243 0 -0.015756442523298379 0.0018554952801785782 0 -0.016191137040123291 0.001491961079181221 0 -0.01662292309908743 0.0019613607729947243 0 -0.016191137040123291 0.001491961079181221 0 -0.016647563776844811 0.0016383171524566526 0 -0.0055533907195686417 0.0003255478341048886 0 -0.0046485431472214995 0.00038195644561673332 0 -0.0040631628090516091 -0.00020706948123727227 0 -0.012167985804558313 0.00076121955110243381 0 -0.0084477709607001725 0.0007767732874955427 0 -0.0056475825631008983 0.0001733737841430005 0 -0.0055533907195686417 0.0003255478341048886 0 -0.0053084269062744693 0.00025576043733723891 0 -0.0039341622186299836 -0.00012949012192921077 0 -0.0084477709607001725 0.0007767732874955427 0 -0.012167985804558313 0.00076121955110243381 0 -0.015952405399721155 0.0017738598687708665 0 -0.014982480958899331 0.0013407078321074164 0 -0.015952405399721155 0.0017738598687708665 0 -0.017289739213492999 0.0015949882987760585 0 -0.017278854265604333 0.001473120502029525 0 -0.017103079621024104 0.0015088120243857393 0 -0.014982480958899331 0.0013407078321074164 0 -0.012167985804558313 0.00076121955110243381 0 -0.014120125224601238 0.0013360155382042952 0 -0.014700116679004427 0.00148298691441142 0 -0.014696695073109665 0.0020682842353289175 0 -0.011755029240354603 0.0013106806400823021 0 -0.01142848896153667 0.00087725623631495922 0 -0.011742050605962277 0.00044064104297684379 0 -0.012167985804558313 0.00076121955110243381 0 -0.0073118522095122372 0.00080367435763696365 0 -0.0056475825631008983 0.0001733737841430005 0 -0.0055533907195686417 0.0003255478341048886 0 -0.0056657914833715874 0.0014152795171661343 0 -0.0055533907195686417 0.0003255478341048886 0 -0.0052558237906931461 0.00086224848281729605 0 -0.0056657914833715874 0.0014152795171661343 0 -0.011409686406548606 0.0012264228571108985 0 -0.011755029240354603 0.0013106806400823021 0 -0.01142848896153667 0.00087725623631495922 0 -0.0050886602639885273 0.00058464156289218328 0 -0.0046485431472214995 0.00038195644561673332 0 -0.0046829740734216294 0.001179608853848993 0 -0.0055533907195686417 0.0003255478341048886 0 -0.0050886602639885273 0.00058464156289218328 0 -0.0046485431472214995 0.00038195644561673332 0 -0.0055533907195686417 0.0003255478341048886 0 -0.0052558237906931461 0.00086224848281729605 0 -0.0050886602639885273 0.00058464156289218328 0 -0.0052558237906931461 0.00086224848281729605 0 -0.0050886602639885273 0.00058464156289218328 0 -0.0046829740734216294 0.001179608853848993 0 -0.0046485431472214995 0.00038195644561673332 0 -0.004095175183574962 0.00043797455304081517 0 -0.0046829740734216294 0.001179608853848993 0 -0.004095175183574962 0.00043797455304081517 0 -0.0037032775165631976 0.00081084876913956353 0 -0.0046829740734216294 0.001179608853848993 0 -0.0026061518212956523 -0.00038873220523496561 0 -0.0037919933627869515 0.00017407215001183845 0 -0.0026061518212956523 -0.00038873220523496561 0 -0.0031381815160602439 0.00016992728896202599 0 -0.0016810639129099709 -0.00070836539230206721 0 -0.0029280130594682 -0.00042358797367608015 0 -0.0023361683199412241 -0.001109069511471806 0 -0.0017030737358181862 -0.00077752293272711538 0 -0.0030978895857511459 4.2371615934688139e-05 0 -0.0029280130594682 -0.00042358797367608015 0 -0.0037032775165631976 0.00081084876913956353 0 -0.003586110977380306 0.00015600362851064239 0 -0.0030978895857511459 4.2371615934688139e-05 0 -0.0026061518212956523 -0.00038873220523496561 0 -0.0024687654690051701 -0.00054298865118054471 0 -0.004095175183574962 0.00043797455304081517 0 -0.0037032775165631976 0.00081084876913956353 0 -0.003586110977380306 0.00015600362851064239 0 -0.0084477709607001725 0.0007767732874955427 0 -0.0057874094177749946 0.00051483192778845055 0 -0.003586110977380306 0.00015600362851064239 0 -0.0040631628090516091 -0.00020706948123727227 0 -0.0032092775009601921 9.0672880576658698e-05 0 -0.0032975389273394583 8.4967629782242905e-05 0 -0.003586110977380306 0.00015600362851064239 0 -0.0030978895857511459 4.2371615934688139e-05 0 -0.0032975389273394583 8.4967629782242905e-05 0 -0.003586110977380306 0.00015600362851064239 0 -0.0032092775009601921 9.0672880576658698e-05 0 -0.0046485431472214995 0.00038195644561673332 0 -0.004095175183574962 0.00043797455304081517 0 -0.0040631628090516091 -0.00020706948123727227 0 -0.004095175183574962 0.00043797455304081517 0 -0.003586110977380306 0.00015600362851064239 0 -0.0040631628090516091 -0.00020706948123727227 0 -0.015597069983557522 0.001462541615150653 0 -0.015815388445669498 0.00095816533210309901 0 -0.016191137040123291 0.001491961079181221 0 -0.015756442523298379 0.0018554952801785782 0 -0.015597069983557522 0.001462541615150653 0 -0.016191137040123291 0.001491961079181221 0 -0.0084477709607001725 0.0007767732874955427 0 -0.012750250580230483 0.0016613409045481524 0 -0.0088082778890173855 0.00098619585182759938 0 -0.008984024201976179 0.0011059373311588963 0 -0.0090063614346609158 0.0010816455158767005 0 -0.015756442523298379 0.0018554952801785782 0 -0.015597069983557522 0.001462541615150653 0 -0.015091333627349667 0.0017180157758279364 0 -0.015597069983557522 0.001462541615150653 0 -0.015091333627349667 0.0017180157758279364 0 -0.015150197887989467 0.0011740438225406448 0 -0.015150197887989467 0.0011740438225406448 0 -0.015815388445669498 0.00095816533210309901 0 -0.015264939760664781 0.00056995285987703175 0 -0.015597069983557522 0.001462541615150653 0 -0.015150197887989467 0.0011740438225406448 0 -0.015815388445669498 0.00095816533210309901 0 -0.015150197887989467 0.0011740438225406448 0 -0.015264939760664781 0.00056995285987703175 0 -0.014663058599283007 0.00079614965352461659 0 -0.015815388445669498 0.00095816533210309901 0 -0.016304830001611641 0.0010737405399643761 0 -0.016371516052954636 0.00067645515512814846 0 -0.015815388445669498 0.00095816533210309901 0 -0.016304830001611641 0.0010737405399643761 0 -0.016191137040123291 0.001491961079181221 0 -0.016304830001611641 0.0010737405399643761 0 -0.016744635168686756 0.0010877412536867987 0 -0.016371516052954636 0.00067645515512814846 0 -0.016304830001611641 0.0010737405399643761 0 -0.016502646782787286 0.0014023469315300038 0 -0.016744635168686756 0.0010877412536867987 0 -0.016502646782787286 0.0014023469315300038 0 -0.016191137040123291 0.001491961079181221 0 -0.016647563776844811 0.0016383171524566526 0 -0.016304830001611641 0.0010737405399643761 0 -0.016502646782787286 0.0014023469315300038 0 -0.016191137040123291 0.001491961079181221 0 -0.016502646782787286 0.0014023469315300038 0 -0.016717477720698391 0.0015825650021913662 0 -0.016744635168686756 0.0010877412536867987 0 -0.015952405399721155 0.0017738598687708665 0 -0.016916505577502971 0.0010558321388572322 0 -0.017103079621024104 0.0015088120243857393 0 -0.017227145993057063 0.0013224680426392364 0 -0.017010202581862709 0.0011696289988132407 0 -0.017278854265604333 0.001473120502029525 0 -0.017103079621024104 0.0015088120243857393 0 -0.017227145993057063 0.0013224680426392364 0 -0.016385397843275234 0.001622125614265445 0 -0.015952405399721155 0.0017738598687708665 0 -0.016744635168686756 0.0010877412536867987 0 -0.016901108281030631 0.00062561814334358276 0 -0.016371516052954636 0.00067645515512814846 0 -0.017406761637098134 0.0010901086123008992 0 -0.017227145993057063 0.0013224680426392364 0 -0.017010202581862709 0.0011696289988132407 0 -0.016916505577502971 0.0010558321388572322 0 -0.016893026890774866 0.00067515413751650661 0 -0.017406761637098134 0.0010901086123008992 0 -0.017010202581862709 0.0011696289988132407 0 -0.016901108281030631 0.00062561814334358276 0 -0.017378371590644873 0.00018716354645331653 0 -0.017474670556735652 0.00063295164274332143 0 -0.016901108281030631 0.00062561814334358276 0 -0.016371516052954636 0.00067645515512814846 0 -0.016401026733093075 0.00011502194868798946 0 -0.015849237607344253 0.0002827082570617161 0 -0.016901108281030631 0.00062561814334358276 0 -0.016371516052954636 0.00067645515512814846 0 -0.016401026733093075 0.00011502194868798946 0 -0.016401026733093075 0.00011502194868798946 0 -0.016878448489997627 0.0001416656547606511 0 -0.016826418702199093 -0.0003862464460156802 0 -0.016901108281030631 0.00062561814334358276 0 -0.016401026733093075 0.00011502194868798946 0 -0.016878448489997627 0.0001416656547606511 0 -0.017378371590644873 0.00018716354645331653 0 -0.016901108281030631 0.00062561814334358276 0 -0.016878448489997627 0.0001416656547606511 0 -0.017378371590644873 0.00018716354645331653 0 -0.016878448489997627 0.0001416656547606511 0 -0.016826418702199093 -0.0003862464460156802 0 -0.019128086293848719 -0.00038476894251522788 0 -0.01939909128573163 -0.00044734178309397885 0 -0.019510182016948107 -0.00049838516260288911 0 -0.01939909128573163 -0.00044734178309397885 0 -0.019510182016948107 -0.00049838516260288911 0 -0.019481688334042423 -0.00062450223678923989 0 -0.019510182016948107 -0.00049838516260288911 0 -0.01923163029819239 -0.00061630710403656058 0 -0.018990835168891433 -0.00031660486289188013 0 -0.019510182016948107 -0.00049838516260288911 0 -0.01923163029819239 -0.00061630710403656058 0 -0.019481688334042423 -0.00062450223678923989 0 -0.016401026733093075 0.00011502194868798946 0 -0.016826418702199093 -0.0003862464460156802 0 -0.015819809982106723 -0.00038451302200574272 0 -0.018143947613663784 -0.00043244253007698638 0 -0.017394460339117894 -0.00034368588262097179 0 -0.019033728358911334 -0.00096531344307570089 0 -0.019412949186090746 -0.00086479137127056904 0 -0.01923163029819239 -0.00061630710403656058 0 -0.019412949186090746 -0.00086479137127056904 0 -0.01923163029819239 -0.00061630710403656058 0 -0.019481688334042423 -0.00062450223678923989 0 -0.020002476764613 -0.00095035874570050048 0 -0.019412949186090746 -0.00086479137127056904 0 -0.019481688334042423 -0.00062450223678923989 0 -0.020002476764613 -0.00095035874570050048 0 -0.01939909128573163 -0.00044734178309397885 0 -0.019481688334042423 -0.00062450223678923989 0 -0.018182470018537084 -0.0010047556195104585 0 -0.018706018194544888 -0.0011449963489924783 0 -0.018519116122771198 -0.00074439891924246541 0 -0.018706018194544888 -0.0011449963489924783 0 -0.018519116122771198 -0.00074439891924246541 0 -0.01888186809827137 -0.00064710497984595873 0 -0.018519116122771198 -0.00074439891924246541 0 -0.01888186809827137 -0.00064710497984595873 0 -0.018601855544295713 -0.00046857748591672176 0 -0.018519116122771198 -0.00074439891924246541 0 -0.018601855544295713 -0.00046857748591672176 0 -0.01824585695809787 -0.00049880495792616075 0 -0.019033728358911334 -0.00096531344307570089 0 -0.018706018194544888 -0.0011449963489924783 0 -0.01888186809827137 -0.00064710497984595873 0 -0.019033728358911334 -0.00096531344307570089 0 -0.01923163029819239 -0.00061630710403656058 0 -0.01888186809827137 -0.00064710497984595873 0 -0.01923163029819239 -0.00061630710403656058 0 -0.01888186809827137 -0.00064710497984595873 0 -0.018990835168891433 -0.00031660486289188013 0 -0.01888186809827137 -0.00064710497984595873 0 -0.018990835168891433 -0.00031660486289188013 0 -0.018601855544295713 -0.00046857748591672176 0 -0.017394460339117894 -0.00034368588262097179 0 -0.016635356120480171 -0.00013947011934191316 0 -0.018990835168891433 -0.00031660486289188013 0 -0.018601855544295713 -0.00046857748591672176 0 -0.018335005770405879 -0.00013926561816299531 0 -0.015819809982106723 -0.00038451302200574272 0 -0.015259691858382846 5.1868300889544236e-05 0 -0.014861630407623181 -0.00016618819053446706 0 -0.016401026733093075 0.00011502194868798946 0 -0.015819809982106723 -0.00038451302200574272 0 -0.015849237607344253 0.0002827082570617161 0 -0.015819809982106723 -0.00038451302200574272 0 -0.015259691858382846 5.1868300889544236e-05 0 -0.015849237607344253 0.0002827082570617161 0 -0.015815388445669498 0.00095816533210309901 0 -0.015849237607344253 0.0002827082570617161 0 -0.015264939760664781 0.00056995285987703175 0 -0.015815388445669498 0.00095816533210309901 0 -0.016371516052954636 0.00067645515512814846 0 -0.015849237607344253 0.0002827082570617161 0 -0.015259691858382846 5.1868300889544236e-05 0 -0.015849237607344253 0.0002827082570617161 0 -0.015264939760664781 0.00056995285987703175 0 -0.015259691858382846 5.1868300889544236e-05 0 -0.015264939760664781 0.00056995285987703175 0 -0.014901272462965114 0.00028395411094639156 0 -0.015264939760664781 0.00056995285987703175 0 -0.014901272462965114 0.00028395411094639156 0 -0.014663058599283007 0.00079614965352461659 0 -0.014901272462965114 0.00028395411094639156 0 -0.014185814984116153 0.00038155536947772674 0 -0.014873807601393729 -0.00020706422046941345 0 -0.014901272462965114 0.00028395411094639156 0 -0.014185814984116153 0.00038155536947772674 0 -0.014663058599283007 0.00079614965352461659 0 -0.013403121898039546 0.00050229233424996527 0 -0.014185814984116153 0.00038155536947772674 0 -0.01292488217738205 -0.00022698418780653558 0 -0.014185814984116153 0.00038155536947772674 0 -0.014873807601393729 -0.00020706422046941345 0 -0.01292488217738205 -0.00022698418780653558 0 -0.013403121898039546 0.00050229233424996527 0 -0.014185814984116153 0.00038155536947772674 0 -0.013991573996786561 0.00087909517105165048 0 -0.016635356120480171 -0.00013947011934191316 0 -0.016644368339662392 7.2332175069691313e-05 0 -0.014873807601393729 -0.00020706422046941345 0 -0.015729763066799136 0.00016990586142136765 0 -0.015924941559664306 -0.00022011016207415567 0 -0.014822727499908567 -0.00021855549440494824 0 -0.014332464967265269 -0.00018031274731752291 0 -0.015259691858382846 5.1868300889544236e-05 0 -0.014901272462965114 0.00028395411094639156 0 -0.014873807601393729 -0.00020706422046941345 0 -0.014873807601393729 -0.00020706422046941345 0 -0.014861630407623181 -0.00016618819053446706 0 -0.015729763066799136 0.00016990586142136765 0 -0.015259691858382846 5.1868300889544236e-05 0 -0.014873807601393729 -0.00020706422046941345 0 -0.014861630407623181 -0.00016618819053446706 0 -0.018601855544295713 -0.00046857748591672176 0 -0.018335005770405879 -0.00013926561816299531 0 -0.01824585695809787 -0.00049880495792616075 0 -0.018335005770405879 -0.00013926561816299531 0 -0.01824585695809787 -0.00049880495792616075 0 -0.017904768119721873 -0.00035744365017311059 0 -0.018335005770405879 -0.00013926561816299531 0 -0.017904768119721873 -0.00035744365017311059 0 -0.017557788938094964 3.5702671129868339e-05 0 -0.017904768119721873 -0.00035744365017311059 0 -0.017472101092056849 -0.00050080778714721463 0 -0.017557788938094964 3.5702671129868339e-05 0 -0.017904768119721873 -0.00035744365017311059 0 -0.01787859993103906 -0.0006826022695185193 0 -0.017472101092056849 -0.00050080778714721463 0 -0.01824585695809787 -0.00049880495792616075 0 -0.017904768119721873 -0.00035744365017311059 0 -0.01787859993103906 -0.0006826022695185193 0 -0.01787859993103906 -0.0006826022695185193 0 -0.01758145539259506 -0.00096748590089374505 0 -0.017472101092056849 -0.00050080778714721463 0 -0.018182470018537084 -0.0010047556195104585 0 -0.01787859993103906 -0.0006826022695185193 0 -0.01758145539259506 -0.00096748590089374505 0 -0.018182470018537084 -0.0010047556195104585 0 -0.018519116122771198 -0.00074439891924246541 0 -0.01824585695809787 -0.00049880495792616075 0 -0.018182470018537084 -0.0010047556195104585 0 -0.01824585695809787 -0.00049880495792616075 0 -0.01787859993103906 -0.0006826022695185193 0 -0.016691973369735807 -0.0010129754287931084 0 -0.017047917429650391 -0.00074966825753373999 0 -0.016592286443221541 -0.00045124727249535023 0 -0.017047917429650391 -0.00074966825753373999 0 -0.01758145539259506 -0.00096748590089374505 0 -0.017472101092056849 -0.00050080778714721463 0 -0.017047917429650391 -0.00074966825753373999 0 -0.017472101092056849 -0.00050080778714721463 0 -0.017015995266402979 -0.00033758606619930517 0 -0.017472101092056849 -0.00050080778714721463 0 -0.017015995266402979 -0.00033758606619930517 0 -0.017557788938094964 3.5702671129868339e-05 0 -0.017047917429650391 -0.00074966825753373999 0 -0.017015995266402979 -0.00033758606619930517 0 -0.016592286443221541 -0.00045124727249535023 0 -0.017015995266402979 -0.00033758606619930517 0 -0.016526148729132172 7.226001246571046e-05 0 -0.016592286443221541 -0.00045124727249535023 0 -0.017015995266402979 -0.00033758606619930517 0 -0.016526148729132172 7.226001246571046e-05 0 -0.017557788938094964 3.5702671129868339e-05 0 -0.016540986677087664 8.5682351514396486e-05 0 -0.016644368339662392 7.2332175069691313e-05 0 -0.016526148729132172 7.226001246571046e-05 0 -0.015729763066799136 0.00016990586142136765 0 -0.015924941559664306 -0.00022011016207415567 0 -0.01292488217738205 -0.00022698418780653558 0 -0.012592294266162537 0.00048227215941492181 0 -0.010489555369676246 0.00036693750118938547 0 -0.013403121898039546 0.00050229233424996527 0 -0.01292488217738205 -0.00022698418780653558 0 -0.012592294266162537 0.00048227215941492181 0 -0.014332464967265269 -0.00018031274731752291 0 -0.013652761602442146 0.00026586755482198835 0 -0.016526148729132172 7.226001246571046e-05 0 -0.015924941559664306 -0.00022011016207415567 0 -0.016410604633541614 7.1878606410455561e-05 0 -0.010489555369676246 0.00036693750118938547 0 -0.011889199041534767 0.0018622813484548829 0 -0.012127140254211466 0.0009744477740183618 0 -0.010489555369676246 0.00036693750118938547 0 -0.011889199041534767 0.0018622813484548829 0 -0.0097865166779031593 0.00086457394295543714 0 -0.0083261188144808027 0.0011843513078008384 0 -0.010387612867358349 0.00097217090205476927 0 -0.012592294266162537 0.00048227215941492181 0 -0.010489555369676246 0.00036693750118938547 0 -0.012127140254211466 0.0009744477740183618 0 -0.0075383017868641787 0.00054466584270316295 0 -0.0087989146374808178 0.00016188811563203306 0 -0.0089952278719192431 -0.0009460429060823112 0 -0.0075383017868641787 0.00054466584270316295 0 -0.0087989146374808178 0.00016188811563203306 0 -0.0097865166779031593 0.00086457394295543714 0 -0.0052008876321410439 0.0012323251032827166 0 -0.0057116903436743383 0.00046356165659158305 0 -0.0064934351499365143 0.00019816141592138899 0 -0.0083261188144808027 0.0011843513078008384 0 -0.0073540153843427531 -0.00037654978196025024 0 -0.0053060301134442885 0.00065098423264717015 0 -0.0052008876321410439 0.0012323251032827166 0 -0.0057116903436743383 0.00046356165659158305 0 -0.0047200770939669423 0.00058992535343386652 0 -0.0052008876321410439 0.0012323251032827166 0 -0.003954999867361325 0.00077644234644681136 0 -0.0093370533736548481 0.0011876805857190553 0 -0.0092793128773803104 0.0012510720976737161 0 -0.0091746177685212548 0.0011431806865728421 0 -0.0083261188144808027 0.0011843513078008384 0 -0.0064580032352198353 0.00093733875221259822 0 -0.0047200770939669423 0.00058992535343386652 0 -0.0053060301134442885 0.00065098423264717015 0 -0.0052008876321410439 0.0012323251032827166 0 -0.011473824113761608 0.0011341116454448344 0 -0.012006794535138338 0.00086700004999849529 0 -0.011889199041534767 0.0018622813484548829 0 -0.012643408748961636 0.0012091689807679849 0 -0.012127140254211466 0.0009744477740183618 0 -0.0083261188144808027 0.0011843513078008384 0 -0.011473824113761608 0.0011341116454448344 0 -0.011473824113761608 0.0011341116454448344 0 -0.012205034701902661 0.0012506303588090796 0 -0.012592294266162537 0.00048227215941492181 0 -0.012127140254211466 0.0009744477740183618 0 -0.012659316735437088 0.00087848677245894158 0 -0.013403121898039546 0.00050229233424996527 0 -0.012592294266162537 0.00048227215941492181 0 -0.013101363856674811 0.0010362578575998631 0 -0.012866017391752704 0.00126118470961117 0 -0.012127140254211466 0.0009744477740183618 0 -0.012659316735437088 0.00087848677245894158 0 -0.012866017391752704 0.00126118470961117 0 -0.013101363856674811 0.0010362578575998631 0 -0.012659316735437088 0.00087848677245894158 0 -0.012592294266162537 0.00048227215941492181 0 -0.013101363856674811 0.0010362578575998631 0 -0.012659316735437088 0.00087848677245894158 0 -0.012869391724380582 0.0012646805446849966 0 -0.013101363856674811 0.0010362578575998631 0 -0.014232885541911496 0.0015679625772576514 0 -0.013101363856674811 0.0010362578575998631 0 -0.013991573996786561 0.00087909517105165048 0 -0.014232885541911496 0.0015679625772576514 0 -0.011473824113761608 0.0011341116454448344 0 -0.011460156163191581 0.0013050633721077727 0 -0.013403121898039546 0.00050229233424996527 0 -0.013101363856674811 0.0010362578575998631 0 -0.013991573996786561 0.00087909517105165048 0 -0.015150197887989467 0.0011740438225406448 0 -0.014663058599283007 0.00079614965352461659 0 -0.014232885541911496 0.0015679625772576514 0 -0.014185814984116153 0.00038155536947772674 0 -0.013991573996786561 0.00087909517105165048 0 -0.014663058599283007 0.00079614965352461659 0 -0.013991573996786561 0.00087909517105165048 0 -0.014663058599283007 0.00079614965352461659 0 -0.014232885541911496 0.0015679625772576514 0 -0.0090063614346609158 0.0010816455158767005 0 -0.0091360344426865518 0.0011872025488905171 0 -0.0091746177685212548 0.0011431806865728421 0 -0.008984024201976179 0.0011059373311588963 0 -0.0090063614346609158 0.0010816455158767005 0 -0.0091360344426865518 0.0011872025488905171 0 -0.0057874094177749946 0.00051483192778845055 0 -0.0064580032352198353 0.00093733875221259822 0 -0.012750250580230483 0.0016613409045481524 0 -0.011460156163191581 0.0013050633721077727 0 -0.015091333627349667 0.0017180157758279364 0 -0.015150197887989467 0.0011740438225406448 0 -0.014232885541911496 0.0015679625772576514 0 -0.0032092775009601921 9.0672880576658698e-05 0 -0.003954999867361325 0.00077644234644681136 0 -0.0036155137401186689 0.00012773529153039425 0 -0.0092793128773803104 0.0012510720976737161 0 -0.0091360344426865518 0.0011872025488905171 0 -0.0091746177685212548 0.0011431806865728421 0 -0.0047200770939669423 0.00058992535343386652 0 -0.003954999867361325 0.00077644234644681136 0 -0.0043492838842098128 8.6700920396597594e-05 0 -0.003954999867361325 0.00077644234644681136 0 -0.0043492838842098128 8.6700920396597594e-05 0 -0.0036155137401186689 0.00012773529153039425 0 -0.0043492838842098128 8.6700920396597594e-05 0 -0.0036155137401186689 0.00012773529153039425 0 -0.0040406725356794473 -0.00026274884181931384 0 -0.0036155137401186689 0.00012773529153039425 0 -0.0040406725356794473 -0.00026274884181931384 0 -0.0036436187768178856 -0.00021618591202716441 0 -0.0043492838842098128 8.6700920396597594e-05 0 -0.0044137072670767698 -0.00036980972016713461 0 -0.0040406725356794473 -0.00026274884181931384 0 -0.0032975389273394583 8.4967629782242905e-05 0 -0.0032092775009601921 9.0672880576658698e-05 0 -0.0032782733374084778 6.3962031401106767e-05 0 -0.0032092775009601921 9.0672880576658698e-05 0 -0.0036155137401186689 0.00012773529153039425 0 -0.0032782733374084778 6.3962031401106767e-05 0 -0.0036155137401186689 0.00012773529153039425 0 -0.0033725019200221422 -4.8915227188196283e-05 0 -0.0036436187768178856 -0.00021618591202716441 0 -0.0036155137401186689 0.00012773529153039425 0 -0.0033725019200221422 -4.8915227188196283e-05 0 -0.0032782733374084778 6.3962031401106767e-05 0 -0.0033725019200221422 -4.8915227188196283e-05 0 -0.0032782733374084778 6.3962031401106767e-05 0 -0.0030978895857511459 4.2371615934688139e-05 0 -0.0032975389273394583 8.4967629782242905e-05 0 -0.0032782733374084778 6.3962031401106767e-05 0 -0.0030978895857511459 4.2371615934688139e-05 0 -0.0033725019200221422 -4.8915227188196283e-05 0 -0.0030978895857511459 4.2371615934688139e-05 0 -0.0032354183737013497 -0.00026886073327072257 0 -0.0030978895857511459 4.2371615934688139e-05 0 -0.0029280130594682 -0.00042358797367608015 0 -0.0032354183737013497 -0.00026886073327072257 0 -0.0029280130594682 -0.00042358797367608015 0 -0.0032354183737013497 -0.00026886073327072257 0 -0.0032238363252139663 -0.0006302328624063024 0 -0.0032354183737013497 -0.00026886073327072257 0 -0.0034653306533664191 -0.00037209855455683509 0 -0.0032238363252139663 -0.0006302328624063024 0 -0.0034653306533664191 -0.00037209855455683509 0 -0.0035438393242691137 -0.00069028569337752576 0 -0.0032238363252139663 -0.0006302328624063024 0 -0.0033725019200221422 -4.8915227188196283e-05 0 -0.0032354183737013497 -0.00026886073327072257 0 -0.0034653306533664191 -0.00037209855455683509 0 -0.0033725019200221422 -4.8915227188196283e-05 0 -0.0034653306533664191 -0.00037209855455683509 0 -0.0036436187768178856 -0.00021618591202716441 0 -0.0034653306533664191 -0.00037209855455683509 0 -0.0035438393242691137 -0.00069028569337752576 0 -0.0038094521515708159 -0.00052263551591998775 0 -0.0034242600253610029 -0.0010044991171914083 0 -0.0032238363252139663 -0.0006302328624063024 0 -0.0029533013566601951 -0.00099940697279020971 0 -0.0035438393242691137 -0.00069028569337752576 0 -0.0034242600253610029 -0.0010044991171914083 0 -0.0032238363252139663 -0.0006302328624063024 0 -0.0035438393242691137 -0.00069028569337752576 0 -0.0034242600253610029 -0.0010044991171914083 0 -0.0037715186075171262 -0.00096714509512831612 0 -0.0029280130594682 -0.00042358797367608015 0 -0.0032238363252139663 -0.0006302328624063024 0 -0.0029533013566601951 -0.00099940697279020971 0 -0.0029280130594682 -0.00042358797367608015 0 -0.0029533013566601951 -0.00099940697279020971 0 -0.0023361683199412241 -0.001109069511471806 0 -0.0040406725356794473 -0.00026274884181931384 0 -0.0038094521515708159 -0.00052263551591998775 0 -0.0042421447644114532 -0.00069072260901851916 0 -0.0044137072670767698 -0.00036980972016713461 0 -0.0040406725356794473 -0.00026274884181931384 0 -0.0042421447644114532 -0.00069072260901851916 0 -0.0040406725356794473 -0.00026274884181931384 0 -0.0036436187768178856 -0.00021618591202716441 0 -0.0038094521515708159 -0.00052263551591998775 0 -0.0034653306533664191 -0.00037209855455683509 0 -0.0036436187768178856 -0.00021618591202716441 0 -0.0038094521515708159 -0.00052263551591998775 0 -0.0035438393242691137 -0.00069028569337752576 0 -0.0038094521515708159 -0.00052263551591998775 0 -0.0037715186075171262 -0.00096714509512831612 0 -0.0038094521515708159 -0.00052263551591998775 0 -0.003991729840982095 -0.00081840274293774732 0 -0.0037715186075171262 -0.00096714509512831612 0 -0.003991729840982095 -0.00081840274293774732 0 -0.0037715186075171262 -0.00096714509512831612 0 -0.004163105194518877 -0.001165064429822855 0 -0.003991729840982095 -0.00081840274293774732 0 -0.0042421447644114532 -0.00069072260901851916 0 -0.004163105194518877 -0.001165064429822855 0 -0.0042421447644114532 -0.00069072260901851916 0 -0.0044604922442542097 -0.00099047209203821911 0 -0.004163105194518877 -0.001165064429822855 0 -0.0038094521515708159 -0.00052263551591998775 0 -0.003991729840982095 -0.00081840274293774732 0 -0.0042421447644114532 -0.00069072260901851916 0 -0.0042421447644114532 -0.00069072260901851916 0 -0.0046830027376818734 -0.00076006079159788675 0 -0.0044604922442542097 -0.00099047209203821911 0 -0.0046830027376818734 -0.00076006079159788675 0 -0.0044604922442542097 -0.00099047209203821911 0 -0.0047557021088182527 -0.001343708241809263 0 -0.0046830027376818734 -0.00076006079159788675 0 -0.0050783672984534792 -0.00077592399893644916 0 -0.0047557021088182527 -0.001343708241809263 0 -0.0044137072670767698 -0.00036980972016713461 0 -0.0046830027376818734 -0.00076006079159788675 0 -0.0047664239062955955 -0.00025442295445793594 0 -0.0046830027376818734 -0.00076006079159788675 0 -0.0050783672984534792 -0.00077592399893644916 0 -0.0047664239062955955 -0.00025442295445793594 0 -0.0044137072670767698 -0.00036980972016713461 0 -0.0042421447644114532 -0.00069072260901851916 0 -0.0046830027376818734 -0.00076006079159788675 0 -0.005245379323737016 -0.00043275867922787581 0 -0.0050783672984534792 -0.00077592399893644916 0 -0.0047664239062955955 -0.00025442295445793594 0 -0.005245379323737016 -0.00043275867922787581 0 -0.0050783672984534792 -0.00077592399893644916 0 -0.0054882439195576751 -0.00084646544092904731 0 -0.0050783672984534792 -0.00077592399893644916 0 -0.0052508839409086691 -0.0011962539897941685 0 -0.0047557021088182527 -0.001343708241809263 0 -0.0050783672984534792 -0.00077592399893644916 0 -0.0052508839409086691 -0.0011962539897941685 0 -0.0054882439195576751 -0.00084646544092904731 0 -0.0052508839409086691 -0.0011962539897941685 0 -0.0054882439195576751 -0.00084646544092904731 0 -0.0057489716032796418 -0.0013504930882608911 0 -0.0054882439195576751 -0.00084646544092904731 0 -0.0059669853799768097 -0.00084509967224398073 0 -0.0057489716032796418 -0.0013504930882608911 0 -0.0059669853799768097 -0.00084509967224398073 0 -0.0057489716032796418 -0.0013504930882608911 0 -0.0065222480272796989 -0.0013993746847262814 0 -0.0059669853799768097 -0.00084509967224398073 0 -0.0060203507359697156 -0.00049960575148807617 0 -0.0065425590294534847 -0.00066179771730133226 0 -0.0060203507359697156 -0.00049960575148807617 0 -0.0061724848949654644 -0.00020429015202397862 0 -0.0065425590294534847 -0.00066179771730133226 0 -0.0059669853799768097 -0.00084509967224398073 0 -0.0060203507359697156 -0.00049960575148807617 0 -0.0056604872228934889 -0.00048372887054774056 0 -0.0060203507359697156 -0.00049960575148807617 0 -0.0056604872228934889 -0.00048372887054774056 0 -0.0058451650861316255 -0.00016817467843722002 0 -0.0054882439195576751 -0.00084646544092904731 0 -0.0059669853799768097 -0.00084509967224398073 0 -0.0056604872228934889 -0.00048372887054774056 0 -0.005245379323737016 -0.00043275867922787581 0 -0.0054882439195576751 -0.00084646544092904731 0 -0.0056604872228934889 -0.00048372887054774056 0 -0.005245379323737016 -0.00043275867922787581 0 -0.0056604872228934889 -0.00048372887054774056 0 -0.0054607946201671864 -0.00015421166306600121 0 -0.0056604872228934889 -0.00048372887054774056 0 -0.0054607946201671864 -0.00015421166306600121 0 -0.0058451650861316255 -0.00016817467843722002 0 -0.0054607946201671864 -0.00015421166306600121 0 -0.0058451650861316255 -0.00016817467843722002 0 -0.0056357302197881211 0.00013699827578325807 0 -0.0054607946201671864 -0.00015421166306600121 0 -0.0056357302197881211 0.00013699827578325807 0 -0.0052924616729781316 0.00016257574300479986 0 -0.0061724848949654644 -0.00020429015202397862 0 -0.0060000567547994349 9.9360771500410592e-05 0 -0.0064934351499365143 0.00019816141592138899 0 -0.0060203507359697156 -0.00049960575148807617 0 -0.0061724848949654644 -0.00020429015202397862 0 -0.0058451650861316255 -0.00016817467843722002 0 -0.0061724848949654644 -0.00020429015202397862 0 -0.0058451650861316255 -0.00016817467843722002 0 -0.0060000567547994349 9.9360771500410592e-05 0 -0.0058451650861316255 -0.00016817467843722002 0 -0.0060000567547994349 9.9360771500410592e-05 0 -0.0056357302197881211 0.00013699827578325807 0 -0.0060000567547994349 9.9360771500410592e-05 0 -0.0057116903436743383 0.00046356165659158305 0 -0.0064934351499365143 0.00019816141592138899 0 -0.0060000567547994349 9.9360771500410592e-05 0 -0.0056357302197881211 0.00013699827578325807 0 -0.0057116903436743383 0.00046356165659158305 0 -0.0053060301134442885 0.00065098423264717015 0 -0.0054938329166990037 0.00036913851418671076 0 -0.0052924616729781316 0.00016257574300479986 0 -0.0056357302197881211 0.00013699827578325807 0 -0.0054938329166990037 0.00036913851418671076 0 -0.0052924616729781316 0.00016257574300479986 0 -0.0056357302197881211 0.00013699827578325807 0 -0.0057116903436743383 0.00046356165659158305 0 -0.0054938329166990037 0.00036913851418671076 0 -0.0053060301134442885 0.00065098423264717015 0 -0.0057116903436743383 0.00046356165659158305 0 -0.0054938329166990037 0.00036913851418671076 0 -0.0053060301134442885 0.00065098423264717015 0 -0.0052924616729781316 0.00016257574300479986 0 -0.0048351515466165413 0.00018406705000055957 0 -0.0047200770939669423 0.00058992535343386652 0 -0.0053060301134442885 0.00065098423264717015 0 -0.0048351515466165413 0.00018406705000055957 0 -0.0047200770939669423 0.00058992535343386652 0 -0.0043492838842098128 8.6700920396597594e-05 0 -0.0048351515466165413 0.00018406705000055957 0 -0.0043492838842098128 8.6700920396597594e-05 0 -0.0044137072670767698 -0.00036980972016713461 0 -0.0047664239062955955 -0.00025442295445793594 0 -0.0043492838842098128 8.6700920396597594e-05 0 -0.0048351515466165413 0.00018406705000055957 0 -0.0047664239062955955 -0.00025442295445793594 0 -0.0052924616729781316 0.00016257574300479986 0 -0.0048351515466165413 0.00018406705000055957 0 -0.0051107832804123381 -0.00010675562287590735 0 -0.005245379323737016 -0.00043275867922787581 0 -0.0047664239062955955 -0.00025442295445793594 0 -0.0051107832804123381 -0.00010675562287590735 0 -0.0048351515466165413 0.00018406705000055957 0 -0.0047664239062955955 -0.00025442295445793594 0 -0.0051107832804123381 -0.00010675562287590735 0 -0.005245379323737016 -0.00043275867922787581 0 -0.0054607946201671864 -0.00015421166306600121 0 -0.0051107832804123381 -0.00010675562287590735 0 -0.0054607946201671864 -0.00015421166306600121 0 -0.0052924616729781316 0.00016257574300479986 0 -0.0051107832804123381 -0.00010675562287590735 0 -0.0050235855928388185 -0.002208775147842412 0 -0.0042049573655950885 -0.0026514211909835234 0 -0.0049128654404890079 -0.0030923519168590406 0 -0.0050235855928388185 -0.002208775147842412 0 -0.004214672627966265 -0.0018139171034533403 0 -0.0042049573655950885 -0.0026514211909835234 0 -0.0050235855928388185 -0.002208775147842412 0 -0.005926538825638112 -0.0029317275351510089 0 -0.0059454683304451467 -0.0019357567186971641 0 -0.0050235855928388185 -0.002208775147842412 0 -0.005926538825638112 -0.0029317275351510089 0 -0.0049128654404890079 -0.0030923519168590406 0 -0.0050235855928388185 -0.002208775147842412 0 -0.0059454683304451467 -0.0019357567186971641 0 -0.0053072032752506078 -0.0016132050082216932 0 -0.0059454683304451467 -0.0019357567186971641 0 -0.0057489716032796418 -0.0013504930882608911 0 -0.0065222480272796989 -0.0013993746847262814 0 -0.0059454683304451467 -0.0019357567186971641 0 -0.0057489716032796418 -0.0013504930882608911 0 -0.0053072032752506078 -0.0016132050082216932 0 -0.0052508839409086691 -0.0011962539897941685 0 -0.0057489716032796418 -0.0013504930882608911 0 -0.0053072032752506078 -0.0016132050082216932 0 -0.0052508839409086691 -0.0011962539897941685 0 -0.0053072032752506078 -0.0016132050082216932 0 -0.0047557021088182527 -0.001343708241809263 0 -0.0050235855928388185 -0.002208775147842412 0 -0.0053072032752506078 -0.0016132050082216932 0 -0.0047557021088182527 -0.001343708241809263 0 -0.0050235855928388185 -0.002208775147842412 0 -0.0047557021088182527 -0.001343708241809263 0 -0.004214672627966265 -0.0018139171034533403 0 -0.0044604922442542097 -0.00099047209203821911 0 -0.0047557021088182527 -0.001343708241809263 0 -0.004163105194518877 -0.001165064429822855 0 -0.0047557021088182527 -0.001343708241809263 0 -0.004163105194518877 -0.001165064429822855 0 -0.004214672627966265 -0.0018139171034533403 0 -0.004163105194518877 -0.001165064429822855 0 -0.0038012350989757651 -0.0013543603824706808 0 -0.004214672627966265 -0.0018139171034533403 0 -0.0038012350989757651 -0.0013543603824706808 0 -0.0036502482880945331 -0.0017523189793269608 0 -0.0032890832382087443 -0.0014449075685723167 0 -0.0037715186075171262 -0.00096714509512831612 0 -0.004163105194518877 -0.001165064429822855 0 -0.0038012350989757651 -0.0013543603824706808 0 -0.0034242600253610029 -0.0010044991171914083 0 -0.0037715186075171262 -0.00096714509512831612 0 -0.0038012350989757651 -0.0013543603824706808 0 -0.0036502482880945331 -0.0017523189793269608 0 -0.004214672627966265 -0.0018139171034533403 0 -0.0036005995386139879 -0.0023483469644291384 0 -0.0038012350989757651 -0.0013543603824706808 0 -0.0036502482880945331 -0.0017523189793269608 0 -0.004214672627966265 -0.0018139171034533403 0 -0.0029533013566601951 -0.00099940697279020971 0 -0.0027806022869839306 -0.0014497716125730074 0 -0.0023361683199412241 -0.001109069511471806 0 -0.0029533013566601951 -0.00099940697279020971 0 -0.0027806022869839306 -0.0014497716125730074 0 -0.0032890832382087443 -0.0014449075685723167 0 -0.0034242600253610029 -0.0010044991171914083 0 -0.0038012350989757651 -0.0013543603824706808 0 -0.0032890832382087443 -0.0014449075685723167 0 -0.0034242600253610029 -0.0010044991171914083 0 -0.0029533013566601951 -0.00099940697279020971 0 -0.0032890832382087443 -0.0014449075685723167 0 -0.0036502482880945331 -0.0017523189793269608 0 -0.0032890832382087443 -0.0014449075685723167 0 -0.0030726682255994937 -0.002076068391758913 0 -0.0027806022869839306 -0.0014497716125730074 0 -0.0032890832382087443 -0.0014449075685723167 0 -0.0030726682255994937 -0.002076068391758913 0 -0.0027806022869839306 -0.0014497716125730074 0 -0.0030726682255994937 -0.002076068391758913 0 -0.0025377594530178755 -0.0019098596034817464 0 -0.0030726682255994937 -0.002076068391758913 0 -0.0029742773965166021 -0.0027759528761004322 0 -0.0023980502988048438 -0.0024007777983585158 0 -0.0030726682255994937 -0.002076068391758913 0 -0.0023980502988048438 -0.0024007777983585158 0 -0.0025377594530178755 -0.0019098596034817464 0 -0.0036502482880945331 -0.0017523189793269608 0 -0.0030726682255994937 -0.002076068391758913 0 -0.0036005995386139879 -0.0023483469644291384 0 -0.0030726682255994937 -0.002076068391758913 0 -0.0029742773965166021 -0.0027759528761004322 0 -0.0036005995386139879 -0.0023483469644291384 0 -0.0029742773965166021 -0.0027759528761004322 0 -0.0036005995386139879 -0.0023483469644291384 0 -0.003434137471487928 -0.0031513964710193471 0 -0.0029742773965166021 -0.0027759528761004322 0 -0.0024418515312470191 -0.002896134962838194 0 -0.0023980502988048438 -0.0024007777983585158 0 -0.004214672627966265 -0.0018139171034533403 0 -0.0036005995386139879 -0.0023483469644291384 0 -0.0042049573655950885 -0.0026514211909835234 0 -0.0036005995386139879 -0.0023483469644291384 0 -0.0042049573655950885 -0.0026514211909835234 0 -0.003434137471487928 -0.0031513964710193471 0 -0.0042049573655950885 -0.0026514211909835234 0 -0.003434137471487928 -0.0031513964710193471 0 -0.0040263134494646314 -0.0036998176625402147 0 -0.003434137471487928 -0.0031513964710193471 0 -0.0040263134494646314 -0.0036998176625402147 0 -0.0030394367249831802 -0.0038841321302261846 0 -0.0029742773965166021 -0.0027759528761004322 0 -0.0024670052374648329 -0.0034361721680839438 0 -0.0024418515312470191 -0.002896134962838194 0 -0.0029742773965166021 -0.0027759528761004322 0 -0.003434137471487928 -0.0031513964710193471 0 -0.0024670052374648329 -0.0034361721680839438 0 -0.003434137471487928 -0.0031513964710193471 0 -0.0024670052374648329 -0.0034361721680839438 0 -0.0030394367249831802 -0.0038841321302261846 0 -0.0024670052374648329 -0.0034361721680839438 0 -0.0030394367249831802 -0.0038841321302261846 0 -0.0024829055535421753 -0.0045043371430375685 0 -0.0030394367249831802 -0.0038841321302261846 0 -0.0032179098037817331 -0.0045568297230855117 0 -0.0024829055535421753 -0.0045043371430375685 0 -0.0032179098037817331 -0.0045568297230855117 0 -0.0024829055535421753 -0.0045043371430375685 0 -0.0031743937407369819 -0.0052662965737878603 0 -0.0040263134494646314 -0.0036998176625402147 0 -0.0030394367249831802 -0.0038841321302261846 0 -0.0032179098037817331 -0.0045568297230855117 0 -0.0040263134494646314 -0.0036998176625402147 0 -0.0032179098037817331 -0.0045568297230855117 0 -0.0040513726414779395 -0.0045579047054109005 0 -0.0040263134494646314 -0.0036998176625402147 0 -0.0040513726414779395 -0.0045579047054109005 0 -0.0052276326818164326 -0.0040122866989526053 0 -0.0040513726414779395 -0.0045579047054109005 0 -0.0052276326818164326 -0.0040122866989526053 0 -0.0050536878010924678 -0.005077072644054428 0 -0.0040263134494646314 -0.0036998176625402147 0 -0.0049128654404890079 -0.0030923519168590406 0 -0.0052276326818164326 -0.0040122866989526053 0 -0.0042049573655950885 -0.0026514211909835234 0 -0.0040263134494646314 -0.0036998176625402147 0 -0.0049128654404890079 -0.0030923519168590406 0 -0.005926538825638112 -0.0029317275351510089 0 -0.0049128654404890079 -0.0030923519168590406 0 -0.0052276326818164326 -0.0040122866989526053 0 -0.005926538825638112 -0.0029317275351510089 0 -0.0052276326818164326 -0.0040122866989526053 0 -0.0065340561063906375 -0.0039035141102911775 0 -0.0052276326818164326 -0.0040122866989526053 0 -0.0065340561063906375 -0.0039035141102911775 0 -0.0060142612244246741 -0.0045886495805985052 0 -0.0052276326818164326 -0.0040122866989526053 0 -0.0050536878010924678 -0.005077072644054428 0 -0.0060142612244246741 -0.0045886495805985052 0 -0.0050536878010924678 -0.005077072644054428 0 -0.0063874422507393088 -0.0055957132103890868 0 -0.0060142612244246741 -0.0045886495805985052 0 -0.0050536878010924678 -0.005077072644054428 0 -0.0037931177165736211 -0.00628394159380289 0 -0.0040266188885165633 -0.0052927160468680904 0 -0.0040513726414779395 -0.0045579047054109005 0 -0.0050536878010924678 -0.005077072644054428 0 -0.0040266188885165633 -0.0052927160468680904 0 -0.0086879690451541428 -0.0042599067804432221 0 0.0067937840118895958 -0.0062580276431824754 0 0.0070317653965885959 -0.0054872924736962363 0 0.0067937840118895958 -0.0062580276431824754 0 -0.0050536878010924678 -0.005077072644054428 0 -0.0048648190590297059 -0.0065645680092356684 0 -0.0032599848577066618 -0.0062329882726974211 0 -0.0050536878010924678 -0.005077072644054428 0 -0.0048648190590297059 -0.0065645680092356684 0 -0.0063874422507393088 -0.0055957132103890868 0 0.0013495284690254446 -0.0066431535503614176 0 -0.0020605089955228126 -0.0050706383259237911 0 -0.0010736670435706789 -0.0072282221809473373 0 0.0070317653965885959 -0.0054872924736962363 0 -0.0058746043396012823 -0.005115384952089355 0 0.01771505614680989 -0.0048125042803910624 0 0.017963797227665057 -0.0047869850698263224 0 0.017371773603802525 -0.0045514354888066049 0 0.0070317653965885959 -0.0054872924736962363 0 0.0084827138081573009 -0.0058083326642349147 0 0.01771505614680989 -0.0048125042803910624 0 0.017463843834945258 -0.0051589664291315229 0 0.017371773603802525 -0.0045514354888066049 0 0.01771505614680989 -0.0048125042803910624 0 0.017937078675599776 -0.0049277697032853512 0 0.017463843834945258 -0.0051589664291315229 0 0.01771505614680989 -0.0048125042803910624 0 0.017937078675599776 -0.0049277697032853512 0 0.017963797227665057 -0.0047869850698263224 0 0.0070317653965885959 -0.0054872924736962363 0 0.020750157534299186 -0.0064947330560614991 0 0.017963797227665057 -0.0047869850698263224 0 0.018058422687512826 -0.0049989666715579157 0 0.017909137084426537 -0.0051659242331608367 0 0.017937078675599776 -0.0049277697032853512 0 0.017963797227665057 -0.0047869850698263224 0 0.018058422687512826 -0.0049989666715579157 0 0.017760363138428707 -0.0051818365617194041 0 0.017909137084426537 -0.0051659242331608367 0 0.017825446578967927 -0.0053302596010383072 0 0.018058422687512826 -0.0049989666715579157 0 0.017985134911894594 -0.004861437337128547 0 0.017909137084426537 -0.0051659242331608367 0 0.018058422687512826 -0.0049989666715579157 0 0.018220232658967248 -0.0048787269482348837 0 0.017985134911894594 -0.004861437337128547 0 0.017937078675599776 -0.0049277697032853512 0 0.018058422687512826 -0.0049989666715579157 0 0.018220232658967248 -0.0048787269482348837 0 0.018220232658967248 -0.0048787269482348837 0 0.017985134911894594 -0.004861437337128547 0 0.018266782588895122 -0.0044776779599377398 0 0.017977303530505487 -0.0047129437259217765 0 0.018722961214614125 -0.005999142291716171 0 0.017937078675599776 -0.0049277697032853512 0 0.018220232658967248 -0.0048787269482348837 0 0.017463843834945258 -0.0051589664291315229 0 0.018220232658967248 -0.0048787269482348837 0 0.018273475875703205 -0.0047387002896813087 0 0.0182551938813807 -0.0045700204251666529 0 0.018220232658967248 -0.0048787269482348837 0 0.018273475875703205 -0.0047387002896813087 0 0.018470951562898168 -0.004648865693216475 0 0.018273475875703205 -0.0047387002896813087 0 0.01791749845863012 -0.0047647463674698985 0 0.018470951562898168 -0.004648865693216475 0 0.017616431289380508 -0.0046408690150769221 0 0.019283694032534261 -0.0053416402355275679 0 0.018273475875703205 -0.0047387002896813087 0 0.0182551938813807 -0.0045700204251666529 0 0.01791749845863012 -0.0047647463674698985 0 0.017298292036261691 -0.0049529052500074866 0 0.017735834789544068 -0.0051758543263300668 0 0.017434366678292131 -0.0054024350209278173 0 0.017985134911894594 -0.004861437337128547 0 0.017735834789544068 -0.0051758543263300668 0 0.017909137084426537 -0.0051659242331608367 0 0.017298292036261691 -0.0049529052500074866 0 0.017985134911894594 -0.004861437337128547 0 0.017735834789544068 -0.0051758543263300668 0 0.017735834789544068 -0.0051758543263300668 0 0.017909137084426537 -0.0051659242331608367 0 0.017825446578967927 -0.0053302596010383072 0 0.017735834789544068 -0.0051758543263300668 0 0.017434366678292131 -0.0054024350209278173 0 0.017825446578967927 -0.0053302596010383072 0 0.018837027774925286 -0.0063232607897090315 0 0.0067937840118895958 -0.0062580276431824754 0 0.0070284277996178635 -0.006580344712746003 0 0.0067937840118895958 -0.0062580276431824754 0 -0.0022942257399730958 -0.0060319895124802177 0 -0.0037931177165736211 -0.00628394159380289 0 -0.0031743937407369819 -0.0052662965737878603 0 0.016570139552121596 -0.0061757186055726885 0 0.01633192240421804 -0.007052770967317607 0 0.01696492375936854 -0.0066982333906688415 0 -0.0037931177165736211 -0.00628394159380289 0 -0.0040266188885165633 -0.0052927160468680904 0 -0.0031743937407369819 -0.0052662965737878603 0 -0.0032179098037817331 -0.0045568297230855117 0 -0.0040513726414779395 -0.0045579047054109005 0 -0.0031743937407369819 -0.0052662965737878603 0 -0.0040513726414779395 -0.0045579047054109005 0 -0.0040266188885165633 -0.0052927160468680904 0 -0.0031743937407369819 -0.0052662965737878603 0 -0.0022942257399730958 -0.0060319895124802177 0 -0.0031743937407369819 -0.0052662965737878603 0 -0.0018507941838192474 -0.0052080214534949969 0 -0.0024829055535421753 -0.0045043371430375685 0 -0.0031743937407369819 -0.0052662965737878603 0 -0.0018507941838192474 -0.0052080214534949969 0 -0.0022942257399730958 -0.0060319895124802177 0 -0.0018507941838192474 -0.0052080214534949969 0 -0.00075455155295349105 -0.0058357963601817541 0 -0.0018507941838192474 -0.0052080214534949969 0 -0.00075455155295349105 -0.0058357963601817541 0 -0.00088778379115523546 -0.0048807849660192516 0 -0.00075455155295349105 -0.0058357963601817541 0 -0.00026753436041417414 -0.0051107634040936743 0 -0.00088778379115523546 -0.0048807849660192516 0 0.015053583258354267 -0.0076636893130175862 0 0.015452128867889067 -0.0064873406595078887 0 0.014477445481671262 -0.0066376875506946407 0 0.01633192240421804 -0.007052770967317607 0 0.015053583258354267 -0.0076636893130175862 0 0.015452128867889067 -0.0064873406595078887 0 0.0070284277996178635 -0.006580344712746003 0 0.0068035253491987848 -0.0067302479968892126 0 0.01633192240421804 -0.007052770967317607 0 0.016103433814503236 -0.0060373781820502424 0 0.015452128867889067 -0.0064873406595078887 0 0.016570139552121596 -0.0061757186055726885 0 0.01633192240421804 -0.007052770967317607 0 0.016103433814503236 -0.0060373781820502424 0 0.015452128867889067 -0.0064873406595078887 0 0.014768840573605047 -0.0058661726563270563 0 0.014477445481671262 -0.0066376875506946407 0 0.015452128867889067 -0.0064873406595078887 0 0.015583317805305906 -0.0057530602813256875 0 0.014768840573605047 -0.0058661726563270563 0 0.016103433814503236 -0.0060373781820502424 0 0.015452128867889067 -0.0064873406595078887 0 0.015583317805305906 -0.0057530602813256875 0 0.015583317805305906 -0.0057530602813256875 0 0.015312800692275842 -0.0051098616677466829 0 0.014768840573605047 -0.0058661726563270563 0 0.015583317805305906 -0.0057530602813256875 0 0.015312800692275842 -0.0051098616677466829 0 0.016191211056479082 -0.0051623993205185525 0 0.016570139552121596 -0.0061757186055726885 0 0.016103433814503236 -0.0060373781820502424 0 0.016191211056479082 -0.0051623993205185525 0 0.018837027774925286 -0.0063232607897090315 0 0.015509724145999234 -0.0048054433781404404 0 0.017298292036261691 -0.0049529052500074866 0 0.017434366678292131 -0.0054024350209278173 0 0.016191211056479082 -0.0051623993205185525 0 0.016103433814503236 -0.0060373781820502424 0 0.015583317805305906 -0.0057530602813256875 0 0.016191211056479082 -0.0051623993205185525 0 0.013338252690321959 -0.005245174166807377 0 0.014201469564688556 -0.0052362992411072624 0 0.013355478165497382 -0.0059727360761569585 0 0.013338252690321959 -0.005245174166807377 0 0.013355478165497382 -0.0059727360761569585 0 0.012516365523848371 -0.0054345038327678792 0 0.013338252690321959 -0.005245174166807377 0 0.012516365523848371 -0.0054345038327678792 0 0.012877268300122507 -0.0045309910894742993 0 0.013338252690321959 -0.005245174166807377 0 0.014201469564688556 -0.0052362992411072624 0 0.013755519956996462 -0.0045609909157219505 0 0.014201469564688556 -0.0052362992411072624 0 0.014768840573605047 -0.0058661726563270563 0 0.013355478165497382 -0.0059727360761569585 0 0.015312800692275842 -0.0051098616677466829 0 0.014201469564688556 -0.0052362992411072624 0 0.014399081340213046 -0.0043078753125197836 0 0.015312800692275842 -0.0051098616677466829 0 0.014201469564688556 -0.0052362992411072624 0 0.014768840573605047 -0.0058661726563270563 0 0.014477445481671262 -0.0066376875506946407 0 0.013355478165497382 -0.0059727360761569585 0 0.013478036066219133 -0.0070656979511262664 0 0.014768840573605047 -0.0058661726563270563 0 0.014477445481671262 -0.0066376875506946407 0 0.013355478165497382 -0.0059727360761569585 0 0.013355478165497382 -0.0059727360761569585 0 0.012658445941843522 -0.006371186952745792 0 0.012484811345751003 -0.0063068470093007936 0 0.013355478165497382 -0.0059727360761569585 0 0.012484811345751003 -0.0063068470093007936 0 0.012516365523848371 -0.0054345038327678792 0 0.013264697114976959 -0.0060243003531407751 0 0.013090457600719734 -0.0065685433150920501 0 0.013090457600719734 -0.0065685433150920501 0 0.0088779713875436102 -0.0072801728453935127 0 0.012658445941843522 -0.006371186952745792 0 0.012475607717498092 -0.0062138231577302042 0 0.012024521358498784 -0.0059332739359277981 0 0.012658445941843522 -0.006371186952745792 0 0.012475607717498092 -0.0062138231577302042 0 0.012484811345751003 -0.0063068470093007936 0 0.015053583258354267 -0.0076636893130175862 0 0.013478036066219133 -0.0070656979511262664 0 0.013430429412200347 -0.0081298098051167909 0 0.015053583258354267 -0.0076636893130175862 0 0.014477445481671262 -0.0066376875506946407 0 0.013478036066219133 -0.0070656979511262664 0 -0.00075455155295349105 -0.0058357963601817541 0 0.00019741685290663392 -0.0052858211884286247 0 0.00091177385191980483 -0.0056678757605787243 0 0.0068035253491987848 -0.0067302479968892126 0 0.0088779713875436102 -0.0072801728453935127 0 0.00019741685290663392 -0.0052858211884286247 0 0.00091177385191980483 -0.0056678757605787243 0 0.00065859204889672624 -0.0049178945227710286 0 -0.00075455155295349105 -0.0058357963601817541 0 0.00019741685290663392 -0.0052858211884286247 0 -0.00026753436041417414 -0.0051107634040936743 0 0.00019741685290663392 -0.0052858211884286247 0 -0.00026753436041417414 -0.0051107634040936743 0 8.6990586917693e-05 -0.004892516799094521 0 0.012344387650928561 -0.0058890288091956872 0 0.01199422721275826 -0.0042690106617252503 0 0.012667717969454203 -0.0061406104377368775 0 0.012475607717498092 -0.0062138231577302042 0 0.012024521358498784 -0.0059332739359277981 0 0.012344387650928561 -0.0058890288091956872 0 0.012475607717498092 -0.0062138231577302042 0 0.012344387650928561 -0.0058890288091956872 0 0.012667717969454203 -0.0061406104377368775 0 0.00091177385191980483 -0.0056678757605787243 0 0.00065859204889672624 -0.0049178945227710286 0 0.00089508968041822194 -0.0040750798721075317 0 0.012024521358498784 -0.0059332739359277981 0 0.012344387650928561 -0.0058890288091956872 0 0.01199422721275826 -0.0042690106617252503 0 0.0088779713875436102 -0.0072801728453935127 0 0.0040927679272265774 -0.0035473849009395667 0 0.0040927679272265774 -0.0035473849009395667 0 0.0050171533716691511 -0.0040600952016231337 0 -0.0024003342384973196 -0.002700367005372593 0 -0.0027696080695803183 -0.0024478207154695697 0 -0.0028344175319150277 -0.0020047028787748191 0 0.00065859204889672624 -0.0049178945227710286 0 0.00064383386951258586 -0.0043823256245510058 0 0.00089508968041822194 -0.0040750798721075317 0 0.00064383386951258586 -0.0043823256245510058 0 0.00089508968041822194 -0.0040750798721075317 0 0.00053794997438976909 -0.0040486496444455001 0 -0.0024003342384973196 -0.002700367005372593 0 -0.0025806425682469631 -0.0027413221204069188 0 -0.0027696080695803183 -0.0024478207154695697 0 -0.0025806425682469631 -0.0027413221204069188 0 -0.0027784328353031118 -0.0027548687308545329 0 -0.0027696080695803183 -0.0024478207154695697 0 -0.0024003342384973196 -0.002700367005372593 0 -0.0025806425682469631 -0.0027413221204069188 0 -0.002642271284484487 -0.0029268934460441208 0 -0.002642271284484487 -0.0029268934460441208 0 -0.002441877850226972 -0.0033816020405179172 0 -0.0030166672930206479 -0.0030242644435482793 0 0.0040927679272265774 -0.0035473849009395667 0 -0.0039492713288338923 -0.0013303911415298443 0 0.00089508968041822194 -0.0040750798721075317 0 0.00055142409858112396 -0.0034145845360650847 0 0.00083410398753774526 -0.002307438031852297 0 -0.0024003342384973196 -0.002700367005372593 0 -0.002642271284484487 -0.0029268934460441208 0 -0.002441877850226972 -0.0033816020405179172 0 -0.0025806425682469631 -0.0027413221204069188 0 -0.002642271284484487 -0.0029268934460441208 0 -0.0027784328353031118 -0.0027548687308545329 0 0.00089508968041822194 -0.0040750798721075317 0 0.00055142409858112396 -0.0034145845360650847 0 0.00053794997438976909 -0.0040486496444455001 0 -0.0001609547389348263 -0.0030816106730959074 0 0.00022879524668558849 -0.0034394670103880336 0 -0.00017414861623359516 -0.0037608862362931363 0 -0.0001609547389348263 -0.0030816106730959074 0 -0.00017414861623359516 -0.0037608862362931363 0 -0.00073818896416474379 -0.003370496788953856 0 -0.0001609547389348263 -0.0030816106730959074 0 0.00022879524668558849 -0.0034394670103880336 0 0.00025216332948318083 -0.0029064050838431871 0 0.00055142409858112396 -0.0034145845360650847 0 0.00022879524668558849 -0.0034394670103880336 0 0.00025216332948318083 -0.0029064050838431871 0 0.00055142409858112396 -0.0034145845360650847 0 0.00027075332382972192 -0.0037597146873766343 0 0.00053794997438976909 -0.0040486496444455001 0 0.00022879524668558849 -0.0034394670103880336 0 0.00027075332382972192 -0.0037597146873766343 0 -0.00017414861623359516 -0.0037608862362931363 0 0.00055142409858112396 -0.0034145845360650847 0 0.00022879524668558849 -0.0034394670103880336 0 0.00027075332382972192 -0.0037597146873766343 0 0.00027075332382972192 -0.0037597146873766343 0 -0.00017414861623359516 -0.0037608862362931363 0 0.00021617314749044673 -0.0041319029974226113 0 0.00027075332382972192 -0.0037597146873766343 0 0.00053794997438976909 -0.0040486496444455001 0 0.00021617314749044673 -0.0041319029974226113 0 -0.00017414861623359516 -0.0037608862362931363 0 -0.00021323163348284784 -0.0044971839541737774 0 0.00021617314749044673 -0.0041319029974226113 0 -0.00017414861623359516 -0.0037608862362931363 0 -0.00021323163348284784 -0.0044971839541737774 0 -0.00088669419397562402 -0.0040654036049733305 0 -0.00021323163348284784 -0.0044971839541737774 0 0.00021617314749044673 -0.0041319029974226113 0 0.00031032035945920491 -0.0045184948120696213 0 0.00064383386951258586 -0.0043823256245510058 0 0.00053794997438976909 -0.0040486496444455001 0 0.0004409351670773597 -0.0042483760206778872 0 0.00053794997438976909 -0.0040486496444455001 0 0.0004409351670773597 -0.0042483760206778872 0 0.00021617314749044673 -0.0041319029974226113 0 0.0004409351670773597 -0.0042483760206778872 0 0.00021617314749044673 -0.0041319029974226113 0 0.00031032035945920491 -0.0045184948120696213 0 0.00064383386951258586 -0.0043823256245510058 0 0.00031032035945920491 -0.0045184948120696213 0 0.00052007317339822364 -0.0046544676951295223 0 0.00064383386951258586 -0.0043823256245510058 0 0.0004409351670773597 -0.0042483760206778872 0 0.00031032035945920491 -0.0045184948120696213 0 0.00065859204889672624 -0.0049178945227710286 0 0.00064383386951258586 -0.0043823256245510058 0 0.00052007317339822364 -0.0046544676951295223 0 0.00031032035945920491 -0.0045184948120696213 0 0.00052007317339822364 -0.0046544676951295223 0 0.00042859488112975995 -0.0049122428147531138 0 0.00031032035945920491 -0.0045184948120696213 0 0.00042859488112975995 -0.0049122428147531138 0 8.6990586917693e-05 -0.004892516799094521 0 0.00019741685290663392 -0.0052858211884286247 0 0.00042859488112975995 -0.0049122428147531138 0 8.6990586917693e-05 -0.004892516799094521 0 0.00019741685290663392 -0.0052858211884286247 0 0.00065859204889672624 -0.0049178945227710286 0 0.00042859488112975995 -0.0049122428147531138 0 0.00065859204889672624 -0.0049178945227710286 0 0.00052007317339822364 -0.0046544676951295223 0 0.00042859488112975995 -0.0049122428147531138 0 -0.00021323163348284784 -0.0044971839541737774 0 0.00031032035945920491 -0.0045184948120696213 0 8.6990586917693e-05 -0.004892516799094521 0 -0.00026753436041417414 -0.0051107634040936743 0 -0.00021323163348284784 -0.0044971839541737774 0 8.6990586917693e-05 -0.004892516799094521 0 -0.00026753436041417414 -0.0051107634040936743 0 -0.00021323163348284784 -0.0044971839541737774 0 -0.00088778379115523546 -0.0048807849660192516 0 -0.00088778379115523546 -0.0048807849660192516 0 -0.00088669419397562402 -0.0040654036049733305 0 -0.0014711424243010881 -0.0044924839684801019 0 -0.00088669419397562402 -0.0040654036049733305 0 -0.0014711424243010881 -0.0044924839684801019 0 -0.0013981787399515591 -0.0039478198144597436 0 -0.00021323163348284784 -0.0044971839541737774 0 -0.00088778379115523546 -0.0048807849660192516 0 -0.00088669419397562402 -0.0040654036049733305 0 -0.0024670052374648329 -0.0034361721680839438 0 -0.0024829055535421753 -0.0045043371430375685 0 -0.0018818874605778966 -0.0039178193121389886 0 -0.0024829055535421753 -0.0045043371430375685 0 -0.0014711424243010881 -0.0044924839684801019 0 -0.0018818874605778966 -0.0039178193121389886 0 -0.0018507941838192474 -0.0052080214534949969 0 -0.00088778379115523546 -0.0048807849660192516 0 -0.0014711424243010881 -0.0044924839684801019 0 -0.0024829055535421753 -0.0045043371430375685 0 -0.0018507941838192474 -0.0052080214534949969 0 -0.0014711424243010881 -0.0044924839684801019 0 -0.0014711424243010881 -0.0044924839684801019 0 -0.0018818874605778966 -0.0039178193121389886 0 -0.0013981787399515591 -0.0039478198144597436 0 -0.0024670052374648329 -0.0034361721680839438 0 -0.0018818874605778966 -0.0039178193121389886 0 -0.0018490709351327993 -0.0034473937710652095 0 -0.0018818874605778966 -0.0039178193121389886 0 -0.0018490709351327993 -0.0034473937710652095 0 -0.0013981787399515591 -0.0039478198144597436 0 -0.0018490709351327993 -0.0034473937710652095 0 -0.0013981787399515591 -0.0039478198144597436 0 -0.0013543545762399606 -0.0034776274538994975 0 -0.0019234322579219979 -0.0029707317423959888 0 -0.0013543545762399606 -0.0034776274538994975 0 -0.0012585935942153517 -0.0028825587179839721 0 -0.0019234322579219979 -0.0029707317423959888 0 -0.0018490709351327993 -0.0034473937710652095 0 -0.0013543545762399606 -0.0034776274538994975 0 -0.0024670052374648329 -0.0034361721680839438 0 -0.0019234322579219979 -0.0029707317423959888 0 -0.0024418515312470191 -0.002896134962838194 0 -0.0024670052374648329 -0.0034361721680839438 0 -0.0019234322579219979 -0.0029707317423959888 0 -0.0018490709351327993 -0.0034473937710652095 0 -0.00017414861623359516 -0.0037608862362931363 0 -0.00088669419397562402 -0.0040654036049733305 0 -0.00073818896416474379 -0.003370496788953856 0 -0.00088669419397562402 -0.0040654036049733305 0 -0.0013543545762399606 -0.0034776274538994975 0 -0.00073818896416474379 -0.003370496788953856 0 -0.00088669419397562402 -0.0040654036049733305 0 -0.0013981787399515591 -0.0039478198144597436 0 -0.0013543545762399606 -0.0034776274538994975 0 -0.0013543545762399606 -0.0034776274538994975 0 -0.00073818896416474379 -0.003370496788953856 0 -0.0012585935942153517 -0.0028825587179839721 0 -0.00073818896416474379 -0.003370496788953856 0 -0.00067738519519458355 -0.0027665494683747757 0 -0.0012585935942153517 -0.0028825587179839721 0 -0.0001609547389348263 -0.0030816106730959074 0 -0.00073818896416474379 -0.003370496788953856 0 -0.00067738519519458355 -0.0027665494683747757 0 -0.00067738519519458355 -0.0027665494683747757 0 -0.0012585935942153517 -0.0028825587179839721 0 -0.0010250358591295304 -0.0022806157030192255 0 -0.00067738519519458355 -0.0027665494683747757 0 -0.0010250358591295304 -0.0022806157030192255 0 -0.00019519960940202901 -0.0024192837065523179 0 -0.0012585935942153517 -0.0028825587179839721 0 -0.0010250358591295304 -0.0022806157030192255 0 -0.001732901440969144 -0.0024418644486878718 0 -0.0010250358591295304 -0.0022806157030192255 0 -0.0004180227203869216 -0.0015092208175874159 0 -0.00019519960940202901 -0.0024192837065523179 0 -0.0019234322579219979 -0.0029707317423959888 0 -0.0024418515312470191 -0.002896134962838194 0 -0.0023980502988048438 -0.0024007777983585158 0 -0.0019234322579219979 -0.0029707317423959888 0 -0.001732901440969144 -0.0024418644486878718 0 -0.0023980502988048438 -0.0024007777983585158 0 -0.0019234322579219979 -0.0029707317423959888 0 -0.0012585935942153517 -0.0028825587179839721 0 -0.001732901440969144 -0.0024418644486878718 0 -0.001732901440969144 -0.0024418644486878718 0 -0.0023980502988048438 -0.0024007777983585158 0 -0.0018772907809696839 -0.0017045263311706667 0 -0.0010250358591295304 -0.0022806157030192255 0 -0.001732901440969144 -0.0024418644486878718 0 -0.0018772907809696839 -0.0017045263311706667 0 -0.0023980502988048438 -0.0024007777983585158 0 -0.0025377594530178755 -0.0019098596034817464 0 -0.0018772907809696839 -0.0017045263311706667 0 -0.0027806022869839306 -0.0014497716125730074 0 -0.0025377594530178755 -0.0019098596034817464 0 -0.0018772907809696839 -0.0017045263311706667 0 -0.0016810639129099709 -0.00070836539230206721 0 -0.0018772907809696839 -0.0017045263311706667 0 -0.0023361683199412241 -0.001109069511471806 0 -0.0027806022869839306 -0.0014497716125730074 0 -0.0018772907809696839 -0.0017045263311706667 0 -0.0023361683199412241 -0.001109069511471806 0 -0.0010250358591295304 -0.0022806157030192255 0 -0.0018772907809696839 -0.0017045263311706667 0 -0.0004180227203869216 -0.0015092208175874159 0 -0.0026061518212956523 -0.00038873220523496561 0 -0.0015140929487815508 -0.0010789200611031802 0 -0.0016810639129099709 -0.00070836539230206721 0 -0.0018772907809696839 -0.0017045263311706667 0 -0.0004180227203869216 -0.0015092208175874159 0 -0.0024938254138265679 -0.0009722922663290694 0 -0.0034886253016109272 -0.00067496896721061994 0 -0.0034831883211402241 -0.00032545087927523874 0 -0.0034831883211402241 -0.00032545087927523874 0 -0.004493591547793426 -0.00036735570809355166 0 -0.0044800462853638243 0.00032946587388578717 0 -0.0034886253016109272 -0.00067496896721061994 0 -0.0034831883211402241 -0.00032545087927523874 0 -0.004493591547793426 -0.00036735570809355166 0 -0.0037919933627869515 0.00017407215001183845 0 -0.0073118522095122372 0.00080367435763696365 0 -0.0015140929487815508 -0.0010789200611031802 0 -0.0039492713288338923 -0.0013303911415298443 0 -0.0052558237906931461 0.00086224848281729605 0 -0.0046829740734216294 0.001179608853848993 0 -0.0056657914833715874 0.0014152795171661343 0 -0.0087631917461864529 0.00072669185506644615 0 -0.0087677807104617443 0.00086471675872433387 0 -0.0090087719451453115 0.00083650104808739108 0 -0.0073118522095122372 0.00080367435763696365 0 -0.010595505743027976 0.00059103302749230621 0 -0.01142848896153667 0.00087725623631495922 0 -0.011742050605962277 0.00044064104297684379 0 -0.01111860698366211 0.00053889998372055273 0 -0.0073118522095122372 0.00080367435763696365 0 -0.0039492713288338923 -0.0013303911415298443 0 -0.0039492713288338923 -0.0013303911415298443 0 -0.0063269367065131241 -0.0009537174160017454 0 0.00055142409858112396 -0.0034145845360650847 0 0.00083410398753774526 -0.002307438031852297 0 0.00025216332948318083 -0.0029064050838431871 0 0.00083410398753774526 -0.002307438031852297 0 0.00025216332948318083 -0.0029064050838431871 0 -0.00019519960940202901 -0.0024192837065523179 0 -0.0004180227203869216 -0.0015092208175874159 0 0.00083410398753774526 -0.002307438031852297 0 -0.00019519960940202901 -0.0024192837065523179 0 -0.0001609547389348263 -0.0030816106730959074 0 -0.00067738519519458355 -0.0027665494683747757 0 -0.00019519960940202901 -0.0024192837065523179 0 -0.0001609547389348263 -0.0030816106730959074 0 0.00025216332948318083 -0.0029064050838431871 0 -0.00019519960940202901 -0.0024192837065523179 0 -0.0090087719451453115 0.00083650104808739108 0 -0.0088787799146468373 0.00087697226172125172 0 -0.009064340771789723 0.00095438485552881377 0 -0.011091479481780207 0.00020852254479999488 0 -0.010895978036884534 0.00021494113228649406 0 -0.010304677983012383 -6.2364238171198422e-05 0 -0.010595505743027976 0.00059103302749230621 0 -0.0094682862752517565 0.00058456349594552582 0 -0.0088787799146468373 0.00087697226172125172 0 -0.0089632047809693575 0.001271996948954476 0 -0.009064340771789723 0.00095438485552881377 0 -0.0090087719451453115 0.00083650104808739108 0 -0.009064340771789723 0.00095438485552881377 0 -0.0090267804578501674 0.00096410664905452774 0 -0.0087677807104617443 0.00086471675872433387 0 -0.0090087719451453115 0.00083650104808739108 0 -0.0090267804578501674 0.00096410664905452774 0 -0.011091479481780207 0.00020852254479999488 0 -0.01111860698366211 0.00053889998372055273 0 -0.010895978036884534 0.00021494113228649406 0 -0.011742050605962277 0.00044064104297684379 0 -0.011091479481780207 0.00020852254479999488 0 -0.01111860698366211 0.00053889998372055273 0 -0.01111860698366211 0.00053889998372055273 0 -0.010790831963929192 0.00048372434727879046 0 -0.010895978036884534 0.00021494113228649406 0 -0.011110552147239928 0.00086298549735095006 0 -0.01111860698366211 0.00053889998372055273 0 -0.010790831963929192 0.00048372434727879046 0 -0.014334856973464833 0.0014074973208275359 0 -0.01275477973873872 0.00052680619890903193 0 -0.010756417386535542 0.0005063004125828726 0 -0.010895978036884534 0.00021494113228649406 0 -0.010304677983012383 -6.2364238171198422e-05 0 -0.009773211268260782 0.00021900859959363763 0 -0.010622271275889101 0.00026541814627378108 0 -0.010495094757099234 0.00085713765498737738 0 -0.01275477973873872 0.00052680619890903193 0 -0.01163017726183475 0.00068588836892219352 0 -0.01275477973873872 0.00052680619890903193 0 -0.0094682862752517565 0.00058456349594552582 0 -0.010791638090538912 -0.00048849100761150211 0 -0.009773211268260782 0.00021900859959363763 0 -0.010622271275889101 0.00026541814627378108 0 -0.010791638090538912 -0.00048849100761150211 0 -0.010622271275889101 0.00026541814627378108 0 -0.011408523017173407 7.8674714951707116e-05 0 -0.010622271275889101 0.00026541814627378108 0 -0.0108961297647095 0.00054941582118932762 0 -0.011408523017173407 7.8674714951707116e-05 0 -0.010622271275889101 0.00026541814627378108 0 -0.0108961297647095 0.00054941582118932762 0 -0.010495094757099234 0.00085713765498737738 0 -0.011408523017173407 7.8674714951707116e-05 0 -0.01195783987944158 0.00037276459917015575 0 -0.012562471734352872 0.00011726994767476899 0 -0.011408523017173407 7.8674714951707116e-05 0 -0.011372791460560911 0.00045552735195342024 0 -0.01195783987944158 0.00037276459917015575 0 -0.0108961297647095 0.00054941582118932762 0 -0.011408523017173407 7.8674714951707116e-05 0 -0.011372791460560911 0.00045552735195342024 0 -0.0108961297647095 0.00054941582118932762 0 -0.011372791460560911 0.00045552735195342024 0 -0.010899556792511114 0.00076366406819351144 0 -0.011372791460560911 0.00045552735195342024 0 -0.01195783987944158 0.00037276459917015575 0 -0.011626233701393077 0.00062993380832529358 0 -0.01195783987944158 0.00037276459917015575 0 -0.011626233701393077 0.00062993380832529358 0 -0.012611095714148351 0.00048559826683824113 0 -0.010659537655581993 0.0011320284015305289 0 -0.0095511507368241187 0.0014943560726364293 0 -0.012807675845440691 0.00089745638798903742 0 -0.011626233701393077 0.00062993380832529358 0 -0.010659537655581993 0.0011320284015305289 0 -0.012190823270314457 0.00070145162702652886 0 -0.011626233701393077 0.00062993380832529358 0 -0.010899556792511114 0.00076366406819351144 0 -0.010659537655581993 0.0011320284015305289 0 -0.011372791460560911 0.00045552735195342024 0 -0.011626233701393077 0.00062993380832529358 0 -0.010899556792511114 0.00076366406819351144 0 -0.010656344368208379 0.0013030000780977322 0 -0.0094682862752517565 0.00058456349594552582 0 -0.0108961297647095 0.00054941582118932762 0 -0.010899556792511114 0.00076366406819351144 0 -0.010495094757099234 0.00085713765498737738 0 -0.010899556792511114 0.00076366406819351144 0 -0.010659537655581993 0.0011320284015305289 0 -0.010495094757099234 0.00085713765498737738 0 -0.010659537655581993 0.0011320284015305289 0 -0.0083356157804035658 0.0013101171899610445 0 -0.0095511507368241187 0.0014943560726364293 0 -0.0083356157804035658 0.0013101171899610445 0 -0.0095511507368241187 0.0014943560726364293 0 -0.0089632047809693575 0.001271996948954476 0 -0.0094682862752517565 0.00058456349594552582 0 -0.0091361421952682945 0.00084827135460595901 0 -0.0088980621404168396 0.00090070103819938729 0 -0.009249651001608206 0.00057224591789136337 0 -0.009064340771789723 0.00095438485552881377 0 -0.0089632047809693575 0.001271996948954476 0 -0.0088980621404168396 0.00090070103819938729 0 -0.009064340771789723 0.00095438485552881377 0 -0.0095511507368241187 0.0014943560726364293 0 -0.0089632047809693575 0.001271996948954476 0 -0.0088980621404168396 0.00090070103819938729 0 -0.0095511507368241187 0.0014943560726364293 0 -0.0088980621404168396 0.00090070103819938729 0 -0.0074400936054116046 0.00046387970075765491 0 -0.0094403730593018206 0.0014265521429947686 0 -0.009099285166631773 0.00093084390667028984 0 -0.0095511507368241187 0.0014943560726364293 0 -0.0074400936054116046 0.00046387970075765491 0 -0.0055014968575200583 0.0011700272752555986 0 -0.0074400936054116046 0.00046387970075765491 0 -0.0077458802478364503 -0.00082436038916564914 0 -0.0055276656507838185 -0.00035525683368306277 0 -0.0088980621404168396 0.00090070103819938729 0 -0.0074400936054116046 0.00046387970075765491 0 -0.0077458802478364503 -0.00082436038916564914 0 -0.0088980621404168396 0.00090070103819938729 0 -0.009249651001608206 0.00057224591789136337 0 -0.0077458802478364503 -0.00082436038916564914 0 -0.0036399132619765241 -0.002631194987630796 0 -0.0036312597845590032 -0.0018631136331926747 0 -0.0042740928149299492 -0.0021691855428819479 0 -0.0063402011181375563 -0.0010874845931904708 0 -0.0059667611696517494 -0.0014114356064179802 0 -0.0036399132619765241 -0.002631194987630796 0 -0.0032373617812660616 -0.0023056044623576809 0 -0.0036312597845590032 -0.0018631136331926747 0 -0.0036399132619765241 -0.002631194987630796 0 -0.0032373617812660616 -0.0023056044623576809 0 -0.0030553726591678503 -0.0025974969048891679 0 -0.0063402011181375563 -0.0010874845931904708 0 -0.0063269367065131241 -0.0009537174160017454 0 -0.009249651001608206 0.00057224591789136337 0 -0.009064340771789723 0.00095438485552881377 0 -0.0090267804578501674 0.00096410664905452774 0 -0.0036399132619765241 -0.002631194987630796 0 -0.0030166672930206479 -0.0030242644435482793 0 -0.0030553726591678503 -0.0025974969048891679 0 -0.002642271284484487 -0.0029268934460441208 0 -0.0030166672930206479 -0.0030242644435482793 0 -0.0027784328353031118 -0.0027548687308545329 0 -0.0030166672930206479 -0.0030242644435482793 0 -0.0027784328353031118 -0.0027548687308545329 0 -0.0030553726591678503 -0.0025974969048891679 0 -0.0027784328353031118 -0.0027548687308545329 0 -0.0030553726591678503 -0.0025974969048891679 0 -0.0027696080695803183 -0.0024478207154695697 0 -0.0032373617812660616 -0.0023056044623576809 0 -0.0030553726591678503 -0.0025974969048891679 0 -0.0027696080695803183 -0.0024478207154695697 0 -0.0032373617812660616 -0.0023056044623576809 0 -0.0027696080695803183 -0.0024478207154695697 0 -0.0028344175319150277 -0.0020047028787748191 0 -0.0032373617812660616 -0.0023056044623576809 0 -0.0028344175319150277 -0.0020047028787748191 0 -0.0036312597845590032 -0.0018631136331926747 0 -0.0036312597845590032 -0.0018631136331926747 0 -0.0033129919894419398 -0.0013271033062696696 0 -0.0038645952539960449 -0.001289725530088392 0 -0.0028344175319150277 -0.0020047028787748191 0 -0.0036312597845590032 -0.0018631136331926747 0 -0.0033129919894419398 -0.0013271033062696696 0 0.012475607717498092 -0.0062138231577302042 0 0.012667717969454203 -0.0061406104377368775 0 0.012484811345751003 -0.0063068470093007936 0 0.012667717969454203 -0.0061406104377368775 0 0.012484811345751003 -0.0063068470093007936 0 0.011827217443468801 -0.0063361167854991728 0 0.0050171533716691511 -0.0040600952016231337 0 0.0040393512636022677 -0.0037879332369953151 0 0.012484811345751003 -0.0063068470093007936 0 0.011827217443468801 -0.0063361167854991728 0 0.011605714070661903 -0.0056113042164811855 0 0.012484811345751003 -0.0063068470093007936 0 0.011605714070661903 -0.0056113042164811855 0 0.012516365523848371 -0.0054345038327678792 0 0.0040393512636022677 -0.0037879332369953151 0 0.00442333616848404 -0.0027698845415249319 0 -0.0033129919894419398 -0.0013271033062696696 0 -0.003722988449258573 -0.00069618086619832673 0 -0.0038645952539960449 -0.001289725530088392 0 0.011827217443468801 -0.0063361167854991728 0 0.011605714070661903 -0.0056113042164811855 0 0.010299250747739384 -0.0053760943151709584 0 0.011605714070661903 -0.0056113042164811855 0 0.010299250747739384 -0.0053760943151709584 0 0.011319930604013151 -0.0046291657774072108 0 0.011605714070661903 -0.0056113042164811855 0 0.012516365523848371 -0.0054345038327678792 0 0.011319930604013151 -0.0046291657774072108 0 0.0019048565652910244 4.6752936080033607e-06 0 0.0022873048908475762 3.7304136081406601e-05 0 0.0021791362207473882 -0.00050339689718768084 0 0.0019048565652910244 4.6752936080033607e-06 0 0.0021791362207473882 -0.00050339689718768084 0 0.00094287196750905938 -0.00020424814234720347 0 0.00442333616848404 -0.0027698845415249319 0 -0.001728222569607062 -0.00081995915131453858 0 0.0022873048908475762 3.7304136081406601e-05 0 0.0025276802938040514 -2.9263563535912292e-05 0 0.0021791362207473882 -0.00050339689718768084 0 -0.003722988449258573 -0.00069618086619832673 0 -0.0038645952539960449 -0.001289725530088392 0 -0.0042678425736175727 -0.0010742993895966483 0 -0.0042678425736175727 -0.0010742993895966483 0 -0.004328130398373359 -0.0015253066968427247 0 -0.0046654529121212106 -0.0016285127820647972 0 -0.001728222569607062 -0.00081995915131453858 0 -0.0019855169714406646 -0.0012395408919774623 0 -0.0038645952539960449 -0.001289725530088392 0 -0.0042678425736175727 -0.0010742993895966483 0 -0.004328130398373359 -0.0015253066968427247 0 -0.0036312597845590032 -0.0018631136331926747 0 -0.0038645952539960449 -0.001289725530088392 0 -0.004328130398373359 -0.0015253066968427247 0 -0.0036312597845590032 -0.0018631136331926747 0 -0.004328130398373359 -0.0015253066968427247 0 -0.0042740928149299492 -0.0021691855428819479 0 -0.004328130398373359 -0.0015253066968427247 0 -0.0042740928149299492 -0.0021691855428819479 0 -0.0048876343583594108 -0.0014488465947954713 0 -0.0059667611696517494 -0.0014114356064179802 0 -0.0050620171575910282 -0.0015143111317285258 0 -0.0077458802478364503 -0.00082436038916564914 0 -0.0048876343583594108 -0.0014488465947954713 0 -0.0055276656507838185 -0.00035525683368306277 0 -0.0048876343583594108 -0.0014488465947954713 0 -0.0041637786233950065 -0.000631586744917112 0 -0.0055276656507838185 -0.00035525683368306277 0 -0.0041637786233950065 -0.000631586744917112 0 -0.0031362499682384176 -0.0011689226059142239 0 -0.0042507884294170984 -0.00017185855260634251 0 -0.0048876343583594108 -0.0014488465947954713 0 -0.0041637786233950065 -0.000631586744917112 0 -0.0031362499682384176 -0.0011689226059142239 0 -0.0031362499682384176 -0.0011689226059142239 0 0.00039661597348061389 -0.0012318120404248463 0 -0.0006487145787510048 -0.0005408400780897274 0 -0.0028866218446321865 -0.0012335138483295111 0 -0.0019855169714406646 -0.0012395408919774623 0 -0.004328130398373359 -0.0015253066968427247 0 -0.0048876343583594108 -0.0014488465947954713 0 -0.0046654529121212106 -0.0016285127820647972 0 -0.0048876343583594108 -0.0014488465947954713 0 -0.0031362499682384176 -0.0011689226059142239 0 -0.0046654529121212106 -0.0016285127820647972 0 0.00039661597348061389 -0.0012318120404248463 0 -0.0006487145787510048 -0.0005408400780897274 0 0.00094287196750905938 -0.00020424814234720347 0 0.0021791362207473882 -0.00050339689718768084 0 0.00039661597348061389 -0.0012318120404248463 0 0.00094287196750905938 -0.00020424814234720347 0 -0.0031362499682384176 -0.0011689226059142239 0 -0.0006487145787510048 -0.0005408400780897274 0 -0.0017211802180316803 -0.00034735205911350586 0 -0.0006487145787510048 -0.0005408400780897274 0 -3.8597084225688046e-05 -8.6284600403657228e-05 0 -0.0017211802180316803 -0.00034735205911350586 0 -0.0006487145787510048 -0.0005408400780897274 0 -3.8597084225688046e-05 -8.6284600403657228e-05 0 0.00094287196750905938 -0.00020424814234720347 0 -3.8597084225688046e-05 -8.6284600403657228e-05 0 0.00094287196750905938 -0.00020424814234720347 0 0.0012530933367726354 0.0001503636255401714 0 0.00094287196750905938 -0.00020424814234720347 0 0.0017634946583205992 0.00011535824935132858 0 0.0012530933367726354 0.0001503636255401714 0 0.0019048565652910244 4.6752936080033607e-06 0 0.00094287196750905938 -0.00020424814234720347 0 0.0017634946583205992 0.00011535824935132858 0 -0.00048482647580532244 2.8552505145164912e-08 0 0.00037370250866813838 -3.7676335192020952e-05 0 -0.00048978858163373283 -2.8773900705101066e-07 0 -0.0019499080878999033 2.659091105575511e-05 0 -0.0014796633301323294 0.00021721737908876105 0 -0.0017211802180316803 -0.00034735205911350586 0 -0.0019499080878999033 2.659091105575511e-05 0 -0.0014796633301323294 0.00021721737908876105 0 -3.8597084225688046e-05 -8.6284600403657228e-05 0 -0.0017211802180316803 -0.00034735205911350586 0 -0.0014796633301323294 0.00021721737908876105 0 -0.0017211802180316803 -0.00034735205911350586 0 -0.0019499080878999033 2.659091105575511e-05 0 -0.0031773160519093825 -0.00032746405975271305 0 -0.0028870555064045185 -1.7991137346298861e-07 0 -0.0019499080878999033 2.659091105575511e-05 0 -0.0031773160519093825 -0.00032746405975271305 0 -0.00048978858163373283 -2.8773900705101066e-07 0 -0.0028870555064045185 -1.7991137346298861e-07 0 -0.0019499080878999033 2.659091105575511e-05 0 -0.0028870555064045185 -1.7991137346298861e-07 0 -0.0031773160519093825 -0.00032746405975271305 0 -0.005292244599619929 5.7946161488762521e-07 0 -0.0031362499682384176 -0.0011689226059142239 0 -0.0017211802180316803 -0.00034735205911350586 0 -0.0031773160519093825 -0.00032746405975271305 0 -0.0031362499682384176 -0.0011689226059142239 0 -0.0031773160519093825 -0.00032746405975271305 0 -0.0042507884294170984 -0.00017185855260634251 0 -0.0031773160519093825 -0.00032746405975271305 0 -0.0042507884294170984 -0.00017185855260634251 0 -0.005292244599619929 5.7946161488762521e-07 0 -0.0042507884294170984 -0.00017185855260634251 0 -0.005292244599619929 5.7946161488762521e-07 0 -0.0076879498626158055 -2.5306443055679183e-06 0 -0.0076998947663778992 -3.9983525791209035e-06 0 -0.0105032847095691 0.00021909310723978626 0 -0.0093587605648224308 3.6121524223778329e-06 0 -0.0076998947663778992 -3.9983525791209035e-06 0 -0.0105032847095691 0.00021909310723978626 0 -0.011708043344214242 -0.00047924697509299995 0 -0.0076947889747168924 -2.0799000164339876e-07 0 -0.0081387659808644444 -0.00028308969639314057 0 -0.0105032847095691 0.00021909310723978626 0 -0.011708043344214242 -0.00047924697509299995 0 -0.012402910876913129 0.00060437956912866059 0 -0.0042507884294170984 -0.00017185855260634251 0 -0.0044294436773176125 -0.00044821192959340806 0 -0.0044934639213708516 -0.00024876174913543528 0 -0.0042507884294170984 -0.00017185855260634251 0 -0.0076879498626158055 -2.5306443055679183e-06 0 -0.0044294436773176125 -0.00044821192959340806 0 -0.0041637786233950065 -0.000631586744917112 0 -0.0042507884294170984 -0.00017185855260634251 0 -0.0044934639213708516 -0.00024876174913543528 0 -0.0041637786233950065 -0.000631586744917112 0 -0.0044934639213708516 -0.00024876174913543528 0 -0.0055276656507838185 -0.00035525683368306277 0 -0.0044934639213708516 -0.00024876174913543528 0 -0.0055276656507838185 -0.00035525683368306277 0 -0.0055014968575200583 0.0011700272752555986 0 -0.0074400936054116046 0.00046387970075765491 0 -0.0055276656507838185 -0.00035525683368306277 0 -0.0055014968575200583 0.0011700272752555986 0 -0.0044294436773176125 -0.00044821192959340806 0 -0.0044934639213708516 -0.00024876174913543528 0 -0.0055014968575200583 0.0011700272752555986 0 -0.011708043344214242 -0.00047924697509299995 0 -0.012807675845440691 0.00089745638798903742 0 -0.012402910876913129 0.00060437956912866059 0 -0.0081387659808644444 -0.00028308969639314057 0 -0.009099285166631773 0.00093084390667028984 0 -0.012402910876913129 0.00060437956912866059 0 -0.012746812883125984 0.00066278360102685872 0 -0.013215884495960468 0.00046239001924412747 0 -0.012807675845440691 0.00089745638798903742 0 -0.012402910876913129 0.00060437956912866059 0 -0.012746812883125984 0.00066278360102685872 0 -0.010659537655581993 0.0011320284015305289 0 -0.012807675845440691 0.00089745638798903742 0 -0.012190823270314457 0.00070145162702652886 0 -0.012807675845440691 0.00089745638798903742 0 -0.012746812883125984 0.00066278360102685872 0 -0.012190823270314457 0.00070145162702652886 0 -0.012746812883125984 0.00066278360102685872 0 -0.012190823270314457 0.00070145162702652886 0 -0.012611095714148351 0.00048559826683824113 0 -0.011626233701393077 0.00062993380832529358 0 -0.012190823270314457 0.00070145162702652886 0 -0.012611095714148351 0.00048559826683824113 0 -0.012746812883125984 0.00066278360102685872 0 -0.012611095714148351 0.00048559826683824113 0 -0.013215884495960468 0.00046239001924412747 0 -0.012611095714148351 0.00048559826683824113 0 -0.013202851913371432 0.00029592950449052439 0 -0.013215884495960468 0.00046239001924412747 0 -0.014167250510191817 -0.00011848490606811419 0 -0.013202851913371432 0.00029592950449052439 0 -0.013215884495960468 0.00046239001924412747 0 -0.012611095714148351 0.00048559826683824113 0 -0.013202851913371432 0.00029592950449052439 0 -0.012562471734352872 0.00011726994767476899 0 -0.01195783987944158 0.00037276459917015575 0 -0.012611095714148351 0.00048559826683824113 0 -0.012562471734352872 0.00011726994767476899 0 -0.012402910876913129 0.00060437956912866059 0 -0.013215884495960468 0.00046239001924412747 0 -0.012884086802684899 0.00079613226194323844 0 -0.014167250510191817 -0.00011848490606811419 0 -0.013215884495960468 0.00046239001924412747 0 -0.012884086802684899 0.00079613226194323844 0 -0.012402910876913129 0.00060437956912866059 0 -0.012884086802684899 0.00079613226194323844 0 -0.011056924762228472 0.00094456329140543607 0 -0.013840402320063713 0.00014321169813925511 0 -0.014491393132488846 -6.360881047729286e-06 0 -0.012505216486180264 -0.00034293837462504679 0 -0.013603003750659719 0.00034008883905738287 0 -0.01180571776682606 0.00037308412946904945 0 -0.013840402320063713 0.00014321169813925511 0 -0.012291337743725863 5.3428176732303385e-07 0 -0.012505216486180264 -0.00034293837462504679 0 -0.0105032847095691 0.00021909310723978626 0 -0.0093587605648224308 3.6121524223778329e-06 0 -0.011056924762228472 0.00094456329140543607 0 -0.0093650808276168913 -1.9821346709406405e-06 0 -0.012291337743725863 5.3428176732303385e-07 0 -0.012505216486180264 -0.00034293837462504679 0 -0.0093633702600140929 1.1302583806506824e-07 0 -0.01180571776682606 0.00037308412946904945 0 -0.0105032847095691 0.00021909310723978626 0 -0.012402910876913129 0.00060437956912866059 0 -0.011056924762228472 0.00094456329140543607 0 -0.010047213174661413 -0.00095478479115768469 0 -0.010179512257425279 -0.0014467808773997405 0 -0.010364583707667087 -0.00080886562558312033 0 -0.010047213174661413 -0.00095478479115768469 0 -0.010364583707667087 -0.00080886562558312033 0 -0.0097552234808348012 -0.00038511611640216023 0 -0.010047213174661413 -0.00095478479115768469 0 -0.0094027915934340785 -0.00084645872651246653 0 -0.0097552234808348012 -0.00038511611640216023 0 -0.010047213174661413 -0.00095478479115768469 0 -0.0094027915934340785 -0.00084645872651246653 0 -0.0098350326157912518 -0.0012778786068281098 0 -0.0094027915934340785 -0.00084645872651246653 0 -0.0098350326157912518 -0.0012778786068281098 0 -0.0094896519931009973 -0.0013935822155481002 0 -0.0098350326157912518 -0.0012778786068281098 0 -0.0094896519931009973 -0.0013935822155481002 0 -0.0099290839651912446 -0.0016553335756295594 0 -0.010047213174661413 -0.00095478479115768469 0 -0.0098350326157912518 -0.0012778786068281098 0 -0.010179512257425279 -0.0014467808773997405 0 -0.0098350326157912518 -0.0012778786068281098 0 -0.010179512257425279 -0.0014467808773997405 0 -0.0099290839651912446 -0.0016553335756295594 0 -0.0098615349382633055 -0.001141251862292029 0 -0.0099796787837641253 -0.0011292650441091599 0 -0.0099849127966773303 -0.0013918738214671487 0 -0.0099796787837641253 -0.0011292650441091599 0 -0.010031248175411929 -0.0011624559533415094 0 -0.010024893412041554 -0.00133897928061109 0 -0.0099796787837641253 -0.0011292650441091599 0 -0.010031248175411929 -0.0011624559533415094 0 -0.0099923081663248776 -0.0010631743276414566 0 -0.0099796787837641253 -0.0011292650441091599 0 -0.0099923081663248776 -0.0010631743276414566 0 -0.0099415373742481293 -0.00097345254480453111 0 -0.010031248175411929 -0.0011624559533415094 0 -0.0099923081663248776 -0.0010631743276414566 0 -0.010032739726148732 -0.0011046565060391885 0 -0.0099923081663248776 -0.0010631743276414566 0 -0.0099415373742481293 -0.00097345254480453111 0 -0.0099684037353414134 -0.0010127216955330084 0 -0.0099923081663248776 -0.0010631743276414566 0 -0.0099684037353414134 -0.0010127216955330084 0 -0.0099967326360247827 -0.0010467144155278155 0 -0.0099923081663248776 -0.0010631743276414566 0 -0.010032739726148732 -0.0011046565060391885 0 -0.0099967326360247827 -0.0010467144155278155 0 -0.010466715067974659 -0.0012260280156533019 0 -0.0068586878790173203 -0.00070902039006937707 0 -0.0098615349382633055 -0.001141251862292029 0 -0.0099796787837641253 -0.0011292650441091599 0 -0.0099179850750806924 -0.00088774184204988788 0 -0.0099796787837641253 -0.0011292650441091599 0 -0.0099415373742481293 -0.00097345254480453111 0 -0.0099179850750806924 -0.00088774184204988788 0 -0.0096064549448387927 -0.0010360979182986875 0 -0.0068586878790173203 -0.00070902039006937707 0 -0.00018542737678315172 0.0014908909734458052 0 0.00013114222093352484 0.0012902689696955114 0 -0.00055194898552686457 0.00062209774820490586 0 -0.0045449321078265201 0.00045999684387921423 0 0.00057663364480472817 0.00035240136933185586 0 0.00013114222093352484 0.0012902689696955114 0 0.00056206734159269063 -5.9030836552685409e-05 0 -0.00055194898552686457 0.00062209774820490586 0 -0.0068586878790173203 -0.00070902039006937707 0 -0.0045449321078265201 0.00045999684387921423 0 -0.00018542737678315172 0.0014908909734458052 0 1.7765196934795843e-05 0.0016087534669532073 0 9.0140400139894418e-05 0.0013012180687737292 0 -0.0025564329387020445 -6.4485934787274444e-06 0 -0.0045449321078265201 0.00045999684387921423 0 -0.0099415373742481293 -0.00097345254480453111 0 -0.0099044929674931368 -0.00097707832727946171 0 -0.0099135309958346737 -0.00096572521492729586 0 -0.0029116816631267889 0.00024447764298616772 0 -0.0025008546263744738 -2.3934004766889494e-05 0 -0.002780898869315652 -0.00014929022072958985 0 -0.0099684037353414134 -0.0010127216955330084 0 -0.0099434274788019524 -0.00099343264281988807 0 -0.0099967326360247827 -0.0010467144155278155 0 -0.0045449321078265201 0.00045999684387921423 0 -0.0038765646351727337 -0.00063236717237265261 0 -0.0099415373742481293 -0.00097345254480453111 0 -0.0099135309958346737 -0.00096572521492729586 0 -0.0099434274788019524 -0.00099343264281988807 0 -0.0099415373742481293 -0.00097345254480453111 0 -0.0099684037353414134 -0.0010127216955330084 0 -0.0099434274788019524 -0.00099343264281988807 0 -0.0038765646351727337 -0.00063236717237265261 0 0.00057663364480472817 0.00035240136933185586 0 0.0031900745061387305 0.0010258202503322306 0 0.0017915358253945508 0.00041720636013434546 0 0.0033547480931247439 -0.00053245647695027533 0 0.00056206734159269063 -5.9030836552685409e-05 0 -0.00043841489810071693 -0.0005343584551284683 0 -0.00055194898552686457 0.00062209774820490586 0 0.00057663364480472817 0.00035240136933185586 0 -9.3043155085814982e-05 -0.00037827419750731118 0 -0.00043841489810071693 -0.0005343584551284683 0 -0.0016496488375496998 0.00015682259501943849 0 -0.0013610605220582977 -0.0010304081545119083 0 -0.00043841489810071693 -0.0005343584551284683 0 -0.00055194898552686457 0.00062209774820490586 0 -0.0016496488375496998 0.00015682259501943849 0 -0.00018542737678315172 0.0014908909734458052 0 1.7765196934795843e-05 0.0016087534669532073 0 -0.0017889960093039137 0.0014149791143164159 0 -0.00018542737678315172 0.0014908909734458052 0 -0.00055194898552686457 0.00062209774820490586 0 -0.0017889960093039137 0.0014149791143164159 0 -0.00055194898552686457 0.00062209774820490586 0 -0.0017889960093039137 0.0014149791143164159 0 -0.0016496488375496998 0.00015682259501943849 0 -0.0068586878790173203 -0.00070902039006937707 0 -0.0053755481729301936 0.00067266560541808754 0 -0.0094027915934340785 -0.00084645872651246653 0 -0.0097552234808348012 -0.00038511611640216023 0 -0.0087925046743804088 0.00013492069380618193 0 -0.0017889960093039137 0.0014149791143164159 0 -0.0016496488375496998 0.00015682259501943849 0 -0.0027802993602447177 0.00042320886587381395 0 -0.0053755481729301936 0.00067266560541808754 0 -0.0064692154580142346 0.00057658460852977485 0 -0.0017889960093039137 0.0014149791143164159 0 -0.0027802993602447177 0.00042320886587381395 0 -0.0040089130578111311 0.0011484293720335024 0 -0.0016496488375496998 0.00015682259501943849 0 -0.0027802993602447177 0.00042320886587381395 0 -0.0031688971317345152 -0.00084926102084663217 0 -0.0016496488375496998 0.00015682259501943849 0 -0.0013610605220582977 -0.0010304081545119083 0 -0.0031688971317345152 -0.00084926102084663217 0 -0.0027802993602447177 0.00042320886587381395 0 -0.0040089130578111311 0.0011484293720335024 0 -0.0031688971317345152 -0.00084926102084663217 0 -0.0050000017903016857 -0.00088005699213919702 0 -0.0040089130578111311 0.0011484293720335024 0 -0.0031688971317345152 -0.00084926102084663217 0 -0.0050000017903016857 -0.00088005699213919702 0 -0.0040089130578111311 0.0011484293720335024 0 -0.0068168274643990853 0.00039106639545496069 0 -0.0087925046743804088 0.00013492069380618193 0 -0.0068168274643990853 0.00039106639545496069 0 -0.0076475024604423097 -0.00034675983354253613 0 -0.0064692154580142346 0.00057658460852977485 0 -0.0067470558291754636 0.00044927473272100854 0 -0.0055244846111554523 -0.0017398800150456514 0 -0.0052816960022846731 -0.002459964763856127 0 -0.0039636739582666596 -0.0039109590110936723 0 -0.0039516103729770984 -0.0035688001067443005 0 -0.0035876532346278767 -0.0039989168018658211 0 -0.0050000017903016857 -0.00088005699213919702 0 -0.0068168274643990853 0.00039106639545496069 0 -0.0070384875902812921 -0.00089638747920087625 0 -0.0068168274643990853 0.00039106639545496069 0 -0.0070810629467171291 0.00017373604945269795 0 -0.0070384875902812921 -0.00089638747920087625 0 -0.0068168274643990853 0.00039106639545496069 0 -0.0070810629467171291 0.00017373604945269795 0 -0.0072077789344383138 -0.00023828153441078241 0 -0.0068168274643990853 0.00039106639545496069 0 -0.0072077789344383138 -0.00023828153441078241 0 -0.0076475024604423097 -0.00034675983354253613 0 -0.006733201041632361 -0.00069711414378511184 0 -0.0072077789344383138 -0.00023828153441078241 0 -0.0072170564164055467 -0.00076525637008078835 0 -0.006733201041632361 -0.00069711414378511184 0 -0.0070810629467171291 0.00017373604945269795 0 -0.0072077789344383138 -0.00023828153441078241 0 -0.005711979882898564 -0.0017803570015173416 0 -0.0055244846111554523 -0.0017398800150456514 0 -0.0072077789344383138 -0.00023828153441078241 0 -0.0075270490223869465 -0.00067047950551370639 0 -0.0076475024604423097 -0.00034675983354253613 0 -0.0075270490223869465 -0.00067047950551370639 0 -0.0076475024604423097 -0.00034675983354253613 0 -0.0081100033698580046 -0.0010516694042310517 0 -0.0072077789344383138 -0.00023828153441078241 0 -0.0075270490223869465 -0.00067047950551370639 0 -0.0072170564164055467 -0.00076525637008078835 0 -0.0075270490223869465 -0.00067047950551370639 0 -0.0075724408671338462 -0.0011803023337728831 0 -0.0081100033698580046 -0.0010516694042310517 0 -0.0075724408671338462 -0.0011803023337728831 0 -0.0081100033698580046 -0.0010516694042310517 0 -0.0080688346865086472 -0.0014916292875290095 0 -0.0075724408671338462 -0.0011803023337728831 0 -0.0077698443073516872 -0.0015385367895714569 0 -0.0080688346865086472 -0.0014916292875290095 0 -0.0075724408671338462 -0.0011803023337728831 0 -0.0074377050176150841 -0.0014115089848273663 0 -0.0077698443073516872 -0.0015385367895714569 0 -0.0075270490223869465 -0.00067047950551370639 0 -0.0075724408671338462 -0.0011803023337728831 0 -0.0072170564164055467 -0.00076525637008078835 0 -0.006733201041632361 -0.00069711414378511184 0 -0.0066187471191708602 -0.0015674725326898491 0 -0.0069029345741242632 -0.0013681921460226149 0 -0.0075724408671338462 -0.0011803023337728831 0 -0.0072170564164055467 -0.00076525637008078835 0 -0.0071359824011759535 -0.0011520624288031836 0 -0.0075724408671338462 -0.0011803023337728831 0 -0.0071359824011759535 -0.0011520624288031836 0 -0.0074377050176150841 -0.0014115089848273663 0 -0.006733201041632361 -0.00069711414378511184 0 -0.0071359824011759535 -0.0011520624288031836 0 -0.0069029345741242632 -0.0013681921460226149 0 -0.006733201041632361 -0.00069711414378511184 0 -0.0072170564164055467 -0.00076525637008078835 0 -0.0071359824011759535 -0.0011520624288031836 0 -0.0094027915934340785 -0.00084645872651246653 0 -0.0085462336842473223 -0.00068217942817015861 0 -0.0088827594995200491 -0.0012366552545256548 0 -0.0094027915934340785 -0.00084645872651246653 0 -0.0087925046743804088 0.00013492069380618193 0 -0.0085462336842473223 -0.00068217942817015861 0 -0.0087925046743804088 0.00013492069380618193 0 -0.0085462336842473223 -0.00068217942817015861 0 -0.0076475024604423097 -0.00034675983354253613 0 -0.0085462336842473223 -0.00068217942817015861 0 -0.0076475024604423097 -0.00034675983354253613 0 -0.0081100033698580046 -0.0010516694042310517 0 -0.0081100033698580046 -0.0010516694042310517 0 -0.0088827594995200491 -0.0012366552545256548 0 -0.0085683328021033504 -0.0015510429949010234 0 -0.0085462336842473223 -0.00068217942817015861 0 -0.0081100033698580046 -0.0010516694042310517 0 -0.0088827594995200491 -0.0012366552545256548 0 -0.0081100033698580046 -0.0010516694042310517 0 -0.0085683328021033504 -0.0015510429949010234 0 -0.0080688346865086472 -0.0014916292875290095 0 -0.0088827594995200491 -0.0012366552545256548 0 -0.0091392176063179887 -0.0017107469112955754 0 -0.0085683328021033504 -0.0015510429949010234 0 -0.0094027915934340785 -0.00084645872651246653 0 -0.0094896519931009973 -0.0013935822155481002 0 -0.0088827594995200491 -0.0012366552545256548 0 -0.0094896519931009973 -0.0013935822155481002 0 -0.0088827594995200491 -0.0012366552545256548 0 -0.0091392176063179887 -0.0017107469112955754 0 -0.0094896519931009973 -0.0013935822155481002 0 -0.0091392176063179887 -0.0017107469112955754 0 -0.0096500799210298156 -0.0018572394854851992 0 -0.0091392176063179887 -0.0017107469112955754 0 -0.0093333954922500528 -0.0021787737040723314 0 -0.0096500799210298156 -0.0018572394854851992 0 -0.0091392176063179887 -0.0017107469112955754 0 -0.008800503668323351 -0.0020267284016823291 0 -0.0093333954922500528 -0.0021787737040723314 0 -0.0091392176063179887 -0.0017107469112955754 0 -0.0085683328021033504 -0.0015510429949010234 0 -0.008800503668323351 -0.0020267284016823291 0 -0.0083755968022421103 -0.0017700934417121379 0 -0.0085683328021033504 -0.0015510429949010234 0 -0.0080688346865086472 -0.0014916292875290095 0 -0.0083755968022421103 -0.0017700934417121379 0 -0.0085683328021033504 -0.0015510429949010234 0 -0.008800503668323351 -0.0020267284016823291 0 -0.0083755968022421103 -0.0017700934417121379 0 -0.008800503668323351 -0.0020267284016823291 0 -0.008359382669172204 -0.0021114864128730505 0 -0.008800503668323351 -0.0020267284016823291 0 -0.0090275302789768128 -0.0025065583576569005 0 -0.0093333954922500528 -0.0021787737040723314 0 -0.008800503668323351 -0.0020267284016823291 0 -0.0086756898499866786 -0.0023454489467508613 0 -0.0090275302789768128 -0.0025065583576569005 0 -0.008800503668323351 -0.0020267284016823291 0 -0.0086756898499866786 -0.0023454489467508613 0 -0.008359382669172204 -0.0021114864128730505 0 -0.0086756898499866786 -0.0023454489467508613 0 -0.0086715264134256068 -0.0027206545377395455 0 -0.0090275302789768128 -0.0025065583576569005 0 -0.0090275302789768128 -0.0025065583576569005 0 -0.0094882220761742502 -0.0025782218920428379 0 -0.0093333954922500528 -0.0021787737040723314 0 -0.0094882220761742502 -0.0025782218920428379 0 -0.0093333954922500528 -0.0021787737040723314 0 -0.0097669662512331768 -0.0023611180289466577 0 -0.0093333954922500528 -0.0021787737040723314 0 -0.0097669662512331768 -0.0023611180289466577 0 -0.0096500799210298156 -0.0018572394854851992 0 -0.0072217537357573839 -0.0021865954774066072 0 -0.0069254108174704862 -0.0018173169749125544 0 -0.0069551474441829301 -0.002317189154424595 0 -0.0066190678236937991 -0.0019557063193535967 0 -0.0069254108174704862 -0.0018173169749125544 0 -0.0069551474441829301 -0.002317189154424595 0 -0.0069254108174704862 -0.0018173169749125544 0 -0.0072027599738968325 -0.0015704290180814831 0 -0.0074487783565161357 -0.0020647670350373054 0 -0.0072217537357573839 -0.0021865954774066072 0 -0.0069254108174704862 -0.0018173169749125544 0 -0.0074487783565161357 -0.0020647670350373054 0 -0.0069254108174704862 -0.0018173169749125544 0 -0.0069029345741242632 -0.0013681921460226149 0 -0.0072027599738968325 -0.0015704290180814831 0 -0.0066187471191708602 -0.0015674725326898491 0 -0.0069254108174704862 -0.0018173169749125544 0 -0.0069029345741242632 -0.0013681921460226149 0 -0.0071359824011759535 -0.0011520624288031836 0 -0.0069029345741242632 -0.0013681921460226149 0 -0.0072027599738968325 -0.0015704290180814831 0 -0.0071359824011759535 -0.0011520624288031836 0 -0.0072027599738968325 -0.0015704290180814831 0 -0.0074377050176150841 -0.0014115089848273663 0 -0.0072027599738968325 -0.0015704290180814831 0 -0.0075887474204221414 -0.0017068277617613673 0 -0.0074487783565161357 -0.0020647670350373054 0 -0.0072027599738968325 -0.0015704290180814831 0 -0.0074377050176150841 -0.0014115089848273663 0 -0.0075887474204221414 -0.0017068277617613673 0 -0.0075887474204221414 -0.0017068277617613673 0 -0.0074487783565161357 -0.0020647670350373054 0 -0.0079218385520160826 -0.0023008276538704882 0 -0.0080061922384071019 -0.0018248875721179783 0 -0.008359382669172204 -0.0021114864128730505 0 -0.0079218385520160826 -0.0023008276538704882 0 -0.0075887474204221414 -0.0017068277617613673 0 -0.0080061922384071019 -0.0018248875721179783 0 -0.0079218385520160826 -0.0023008276538704882 0 -0.0075887474204221414 -0.0017068277617613673 0 -0.0080061922384071019 -0.0018248875721179783 0 -0.0077698443073516872 -0.0015385367895714569 0 -0.0074377050176150841 -0.0014115089848273663 0 -0.0075887474204221414 -0.0017068277617613673 0 -0.0077698443073516872 -0.0015385367895714569 0 -0.0080061922384071019 -0.0018248875721179783 0 -0.0077698443073516872 -0.0015385367895714569 0 -0.0080688346865086472 -0.0014916292875290095 0 -0.0083755968022421103 -0.0017700934417121379 0 -0.0080061922384071019 -0.0018248875721179783 0 -0.0080688346865086472 -0.0014916292875290095 0 -0.0083755968022421103 -0.0017700934417121379 0 -0.0080061922384071019 -0.0018248875721179783 0 -0.008359382669172204 -0.0021114864128730505 0 -0.0086756898499866786 -0.0023454489467508613 0 -0.008359382669172204 -0.0021114864128730505 0 -0.0083532768249030154 -0.0024860557011962105 0 -0.008359382669172204 -0.0021114864128730505 0 -0.0083532768249030154 -0.0024860557011962105 0 -0.0079218385520160826 -0.0023008276538704882 0 -0.0086756898499866786 -0.0023454489467508613 0 -0.0086715264134256068 -0.0027206545377395455 0 -0.0083532768249030154 -0.0024860557011962105 0 -0.0086715264134256068 -0.0027206545377395455 0 -0.0083532768249030154 -0.0024860557011962105 0 -0.0082571403116933478 -0.0029759828245762856 0 -0.0083532768249030154 -0.0024860557011962105 0 -0.0079218385520160826 -0.0023008276538704882 0 -0.0082571403116933478 -0.0029759828245762856 0 -0.0075648956899887791 -0.0025592204115962242 0 -0.0069551474441829301 -0.002317189154424595 0 -0.0077485246957094776 -0.0034352909820885209 0 -0.0075648956899887791 -0.0025592204115962242 0 -0.0077485246957094776 -0.0034352909820885209 0 -0.0082571403116933478 -0.0029759828245762856 0 -0.0074487783565161357 -0.0020647670350373054 0 -0.0079218385520160826 -0.0023008276538704882 0 -0.0075648956899887791 -0.0025592204115962242 0 -0.0079218385520160826 -0.0023008276538704882 0 -0.0075648956899887791 -0.0025592204115962242 0 -0.0082571403116933478 -0.0029759828245762856 0 -0.0072217537357573839 -0.0021865954774066072 0 -0.0074487783565161357 -0.0020647670350373054 0 -0.0075648956899887791 -0.0025592204115962242 0 -0.0072217537357573839 -0.0021865954774066072 0 -0.0075648956899887791 -0.0025592204115962242 0 -0.0069551474441829301 -0.002317189154424595 0 -0.0085095681646086795 -0.0039741190310783577 0 -0.0087976183887530576 -0.0038126640237619346 0 -0.0077485246957094776 -0.0034352909820885209 0 -0.0077485246957094776 -0.0034352909820885209 0 -0.0082571403116933478 -0.0029759828245762856 0 -0.0087591330677821606 -0.0034358174119418316 0 -0.0082571403116933478 -0.0029759828245762856 0 -0.0087591330677821606 -0.0034358174119418316 0 -0.0089882217985653191 -0.0031095300070866044 0 -0.0086715264134256068 -0.0027206545377395455 0 -0.0082571403116933478 -0.0029759828245762856 0 -0.0089882217985653191 -0.0031095300070866044 0 -0.0092131098057082299 -0.0037757840153975547 0 -0.0087976183887530576 -0.0038126640237619346 0 -0.0087591330677821606 -0.0034358174119418316 0 -0.0087976183887530576 -0.0038126640237619346 0 -0.0077485246957094776 -0.0034352909820885209 0 -0.0087591330677821606 -0.0034358174119418316 0 -0.0094478447183846143 -0.0030129746221705142 0 -0.0098520350597556695 -0.0033711379037349807 0 -0.0098904393344423028 -0.0029224372352349192 0 -0.0094882220761742502 -0.0025782218920428379 0 -0.0098904393344423028 -0.0029224372352349192 0 -0.0097669662512331768 -0.0023611180289466577 0 -0.0094882220761742502 -0.0025782218920428379 0 -0.0094478447183846143 -0.0030129746221705142 0 -0.0098904393344423028 -0.0029224372352349192 0 -0.0090275302789768128 -0.0025065583576569005 0 -0.0094882220761742502 -0.0025782218920428379 0 -0.0094478447183846143 -0.0030129746221705142 0 -0.0090275302789768128 -0.0025065583576569005 0 -0.0094478447183846143 -0.0030129746221705142 0 -0.0089882217985653191 -0.0031095300070866044 0 -0.0086715264134256068 -0.0027206545377395455 0 -0.0090275302789768128 -0.0025065583576569005 0 -0.0089882217985653191 -0.0031095300070866044 0 -0.0094478447183846143 -0.0030129746221705142 0 -0.0089882217985653191 -0.0031095300070866044 0 -0.0094457020927523078 -0.0035126248476529199 0 -0.0092131098057082299 -0.0037757840153975547 0 -0.0087591330677821606 -0.0034358174119418316 0 -0.0094457020927523078 -0.0035126248476529199 0 -0.0087591330677821606 -0.0034358174119418316 0 -0.0089882217985653191 -0.0031095300070866044 0 -0.0094457020927523078 -0.0035126248476529199 0 -0.010099587981084185 -0.0038451697171087047 0 -0.0094457020927523078 -0.0035126248476529199 0 -0.0098520350597556695 -0.0033711379037349807 0 -0.0094478447183846143 -0.0030129746221705142 0 -0.0094457020927523078 -0.0035126248476529199 0 -0.0098520350597556695 -0.0033711379037349807 0 -0.0098520350597556695 -0.0033711379037349807 0 -0.010277821573683187 -0.003494983961156052 0 -0.0098904393344423028 -0.0029224372352349192 0 -0.010099587981084185 -0.0038451697171087047 0 -0.0098520350597556695 -0.0033711379037349807 0 -0.010277821573683187 -0.003494983961156052 0 -0.010277821573683187 -0.003494983961156052 0 -0.01039500901332519 -0.0031291215044371877 0 -0.0098904393344423028 -0.0029224372352349192 0 -0.010792381708520277 -0.0035397039095414178 0 -0.010880663457048873 -0.0029832864329132794 0 -0.01039500901332519 -0.0031291215044371877 0 -0.010277821573683187 -0.003494983961156052 0 -0.010792381708520277 -0.0035397039095414178 0 -0.01039500901332519 -0.0031291215044371877 0 -0.010516564039849458 -0.0038265087249998004 0 -0.010277821573683187 -0.003494983961156052 0 -0.010792381708520277 -0.0035397039095414178 0 -0.010880663457048873 -0.0029832864329132794 0 -0.01039500901332519 -0.0031291215044371877 0 -0.010099930162237652 -0.0025422867316409526 0 -0.01039500901332519 -0.0031291215044371877 0 -0.0098904393344423028 -0.0029224372352349192 0 -0.010099930162237652 -0.0025422867316409526 0 -0.0098904393344423028 -0.0029224372352349192 0 -0.010099930162237652 -0.0025422867316409526 0 -0.0097669662512331768 -0.0023611180289466577 0 -0.010099930162237652 -0.0025422867316409526 0 -0.0097669662512331768 -0.0023611180289466577 0 -0.0098493033996578574 -0.0020447239466085225 0 -0.0097669662512331768 -0.0023611180289466577 0 -0.0098493033996578574 -0.0020447239466085225 0 -0.0096500799210298156 -0.0018572394854851992 0 -0.010099930162237652 -0.0025422867316409526 0 -0.0098493033996578574 -0.0020447239466085225 0 -0.010056733468581434 -0.0018478125533484904 0 -0.0098493033996578574 -0.0020447239466085225 0 -0.010056733468581434 -0.0018478125533484904 0 -0.009878628565898424 -0.0018302764215474775 0 -0.010422542825784541 -0.0022271012774050785 0 -0.010091202137905774 -0.0018593310155860469 0 -0.010880663457048873 -0.0029832864329132794 0 -0.010099930162237652 -0.0025422867316409526 0 -0.010056733468581434 -0.0018478125533484904 0 -0.010008534721331513 -0.0014876522189247992 0 -0.010056733468581434 -0.0018478125533484904 0 -0.010005717654765397 -0.0017339549160420575 0 -0.0098615349382633055 -0.001141251862292029 0 -0.010005717654765397 -0.0017339549160420575 0 -0.0099849127966773303 -0.0013918738214671487 0 -0.010056733468581434 -0.0018478125533484904 0 -0.010005717654765397 -0.0017339549160420575 0 -0.0099290839651912446 -0.0016553335756295594 0 -0.010179512257425279 -0.0014467808773997405 0 -0.010005717654765397 -0.0017339549160420575 0 -0.0099290839651912446 -0.0016553335756295594 0 -0.010466715067974659 -0.0012260280156533019 0 -0.0098827845250649936 -0.0017337765835710635 0 -0.0094896519931009973 -0.0013935822155481002 0 -0.0099290839651912446 -0.0016553335756295594 0 -0.0096500799210298156 -0.0018572394854851992 0 -0.0098493033996578574 -0.0020447239466085225 0 -0.0096500799210298156 -0.0018572394854851992 0 -0.009878628565898424 -0.0018302764215474775 0 -0.010056733468581434 -0.0018478125533484904 0 -0.0099290839651912446 -0.0016553335756295594 0 -0.009878628565898424 -0.0018302764215474775 0 -0.0099290839651912446 -0.0016553335756295594 0 -0.0096500799210298156 -0.0018572394854851992 0 -0.009878628565898424 -0.0018302764215474775 0 -0.0099796787837641253 -0.0011292650441091599 0 -0.010024893412041554 -0.00133897928061109 0 -0.0099849127966773303 -0.0013918738214671487 0 -0.010024893412041554 -0.00133897928061109 0 -0.0099849127966773303 -0.0013918738214671487 0 -0.0099698440741271127 -0.0015153890702985179 0 -0.010008534721331513 -0.0014876522189247992 0 -0.010005717654765397 -0.0017339549160420575 0 -0.0099698440741271127 -0.0015153890702985179 0 -0.010005717654765397 -0.0017339549160420575 0 -0.0099849127966773303 -0.0013918738214671487 0 -0.0099698440741271127 -0.0015153890702985179 0 -0.010024893412041554 -0.00133897928061109 0 -0.0099698440741271127 -0.0015153890702985179 0 -0.010015173242430163 -0.0014890774026456929 0 -0.0099698440741271127 -0.0015153890702985179 0 -0.0099810640596982355 -0.0014837707747203054 0 -0.010015173242430163 -0.0014890774026456929 0 -0.0099810640596982355 -0.0014837707747203054 0 -0.0099610516425464798 -0.0014439547775008379 0 -0.010015173242430163 -0.0014890774026456929 0 -0.010008534721331513 -0.0014876522189247992 0 -0.0099698440741271127 -0.0015153890702985179 0 -0.0099810640596982355 -0.0014837707747203054 0 -0.01053593676208562 -0.0026100383320813258 0 -0.010422542825784541 -0.0022271012774050785 0 -0.011180867271601851 -0.0037190932339357442 0 -0.010792381708520277 -0.0035397039095414178 0 -0.010880663457048873 -0.0029832864329132794 0 -0.010961601638781125 -0.0037056769177441673 0 -0.011180867271601851 -0.0037190932339357442 0 -0.010792381708520277 -0.0035397039095414178 0 -0.0099593231860947984 -0.0014414526418453865 0 -0.010008534721331513 -0.0014876522189247992 0 -0.0099610516425464798 -0.0014439547775008379 0 -0.010008534721331513 -0.0014876522189247992 0 -0.0099810640596982355 -0.0014837707747203054 0 -0.0099610516425464798 -0.0014439547775008379 0 -0.0099593231860947984 -0.0014414526418453865 0 -0.0099610516425464798 -0.0014439547775008379 0 -0.010027761534957078 -0.0014206181497258682 0 -0.0099610516425464798 -0.0014439547775008379 0 -0.010027761534957078 -0.0014206181497258682 0 -0.010014520897083972 -0.0012345705671648467 0 -0.0099675417659436591 -0.0014338801317659146 0 -0.01001828662720539 -0.0013557307804738241 0 -0.010127216805475899 -0.0014593175630783035 0 -0.010027761534957078 -0.0014206181497258682 0 -0.010107978253307998 -0.0013337086070549426 0 -0.010027761534957078 -0.0014206181497258682 0 -0.010107978253307998 -0.0013337086070549426 0 -0.010014520897083972 -0.0012345705671648467 0 -0.010107978253307998 -0.0013337086070549426 0 -0.010014520897083972 -0.0012345705671648467 0 -0.010143366126290469 -0.0011926495406741303 0 -0.010143366126290469 -0.0011926495406741303 0 -0.01024629063040923 -0.0013427837620189223 0 -0.010223051295640993 -0.0010717972475408689 0 -0.010127216805475899 -0.0014593175630783035 0 -0.010107978253307998 -0.0013337086070549426 0 -0.01024629063040923 -0.0013427837620189223 0 -0.010107978253307998 -0.0013337086070549426 0 -0.010143366126290469 -0.0011926495406741303 0 -0.01024629063040923 -0.0013427837620189223 0 -0.011025110202219015 -0.0010983648272671414 0 -0.010869575202737005 -0.0012293752831751856 0 -0.011526421656865885 -0.0011224264548924253 0 -0.01092978037610921 -0.00099473618485701877 0 -0.010506202725478624 -0.0011459731067284659 0 -0.01092978037610921 -0.00099473618485701877 0 -0.010506202725478624 -0.0011459731067284659 0 -0.010217154460520645 -0.0010194112107185073 0 -0.01024629063040923 -0.0013427837620189223 0 -0.010506202725478624 -0.0011459731067284659 0 -0.010223051295640993 -0.0010717972475408689 0 -0.010869575202737005 -0.0012293752831751856 0 -0.010600189276017389 -0.0011489400188409906 0 -0.010223051295640993 -0.0010717972475408689 0 -0.010140707197230293 -0.0010061448892325032 0 -0.010122800786441975 -0.0010235128252648596 0 -0.010506202725478624 -0.0011459731067284659 0 -0.010223051295640993 -0.0010717972475408689 0 -0.010140707197230293 -0.0010061448892325032 0 -0.010506202725478624 -0.0011459731067284659 0 -0.010140707197230293 -0.0010061448892325032 0 -0.010110063552427719 -0.001012841212983299 0 -0.010506202725478624 -0.0011459731067284659 0 -0.010217154460520645 -0.0010194112107185073 0 -0.010110063552427719 -0.001012841212983299 0 -0.010140707197230293 -0.0010061448892325032 0 -0.010110063552427719 -0.001012841212983299 0 -0.0099167569395112697 -0.00098511665030079246 0 -0.010140707197230293 -0.0010061448892325032 0 -0.010012401378766855 -0.0010159091306940454 0 -0.0099167569395112697 -0.00098511665030079246 0 -0.010012401378766855 -0.0010159091306940454 0 -0.0099167569395112697 -0.00098511665030079246 0 -0.0098599775181732619 -0.0010164694080590803 0 -0.010012401378766855 -0.0010159091306940454 0 -0.010122800786441975 -0.0010235128252648596 0 -0.010063340527748528 -0.0010685437846626946 0 -0.010122800786441975 -0.0010235128252648596 0 -0.010134926765536182 -0.0010353170360714633 0 -0.010063340527748528 -0.0010685437846626946 0 -0.010140707197230293 -0.0010061448892325032 0 -0.010012401378766855 -0.0010159091306940454 0 -0.010122800786441975 -0.0010235128252648596 0 -0.010107373041706844 -0.0013022283065314744 0 -0.010059808189153694 -0.0010912319040772079 0 -0.010063340527748528 -0.0010685437846626946 0 -0.010109597912127673 -0.0011708518571750799 0 -0.010073075272442394 -0.0010866464675132891 0 -0.010107373041706844 -0.0013022283065314744 0 -0.010066400609919269 -0.0012018727335054286 0 -0.010059808189153694 -0.0010912319040772079 0 -0.010024893412041554 -0.00133897928061109 0 -0.010107373041706844 -0.0013022283065314744 0 -0.010066400609919269 -0.0012018727335054286 0 -0.010031248175411929 -0.0011624559533415094 0 -0.010024893412041554 -0.00133897928061109 0 -0.010066400609919269 -0.0012018727335054286 0 -0.01001828662720539 -0.0013557307804738241 0 -0.010109597912127673 -0.0011708518571750799 0 -0.010024893412041554 -0.00133897928061109 0 -0.010015173242430163 -0.0014890774026456929 0 -0.010107373041706844 -0.0013022283065314744 0 -0.010014520897083972 -0.0012345705671648467 0 -0.010143366126290469 -0.0011926495406741303 0 -0.010134926765536182 -0.0010353170360714633 0 -0.010223051295640993 -0.0010717972475408689 0 -0.010122800786441975 -0.0010235128252648596 0 -0.010134926765536182 -0.0010353170360714633 0 -0.010143366126290469 -0.0011926495406741303 0 -0.010223051295640993 -0.0010717972475408689 0 -0.010134926765536182 -0.0010353170360714633 0 -0.016526148729132172 7.226001246571046e-05 0 -0.016592286443221541 -0.00045124727249535023 0 -0.016280844558582166 -0.00011538570976211191 0 -0.016592286443221541 -0.00045124727249535023 0 -0.016187190582748225 -0.00069641475807832095 0 -0.016280844558582166 -0.00011538570976211191 0 -0.016691973369735807 -0.0010129754287931084 0 -0.016592286443221541 -0.00045124727249535023 0 -0.016187190582748225 -0.00069641475807832095 0 -0.016187190582748225 -0.00069641475807832095 0 -0.015905989591236007 -0.00019939779912062617 0 -0.016280844558582166 -0.00011538570976211191 0 -0.015905989591236007 -0.00019939779912062617 0 -0.015621290923923047 -0.00060137204047976047 0 -0.015351001396667601 -0.00021951441244047145 0 -0.016187190582748225 -0.00069641475807832095 0 -0.015905989591236007 -0.00019939779912062617 0 -0.015621290923923047 -0.00060137204047976047 0 -0.015628234291726644 -0.0011772176862428917 0 -0.016187190582748225 -0.00069641475807832095 0 -0.015621290923923047 -0.00060137204047976047 0 -0.012867662747718925 -0.00085789705605789383 0 -0.012752111816521815 -0.00064627206566066227 0 -0.014833565643389283 -0.00065546957699781833 0 -0.015621290923923047 -0.00060137204047976047 0 -0.015351001396667601 -0.00021951441244047145 0 -0.015628234291726644 -0.0011772176862428917 0 -0.014833565643389283 -0.00065546957699781833 0 -0.015621290923923047 -0.00060137204047976047 0 -0.010217154460520645 -0.0010194112107185073 0 -0.010110063552427719 -0.001012841212983299 0 -0.009692950216544682 -0.00090400171813403377 0 -0.012752111816521815 -0.00064627206566066227 0 -0.012821875087160225 -0.00045918507758145567 0 -0.0099167569395112697 -0.00098511665030079246 0 -0.0096460076880043634 -0.00096871742209032668 0 -0.009692950216544682 -0.00090400171813403377 0 -0.010110063552427719 -0.001012841212983299 0 -0.0099167569395112697 -0.00098511665030079246 0 -0.009692950216544682 -0.00090400171813403377 0 -0.0096460076880043634 -0.00096871742209032668 0 -0.009692950216544682 -0.00090400171813403377 0 -0.0094310266573166233 -0.00095907332946032931 0 -0.012821875087160225 -0.00045918507758145567 0 -0.011694603027562244 0.00010141803618559805 0 -0.015905989591236007 -0.00019939779912062617 0 -0.015351001396667601 -0.00021951441244047145 0 -0.015754084862447851 0.00011751644373008268 0 -0.015905989591236007 -0.00019939779912062617 0 -0.016178513906593941 9.2727678034961857e-05 0 -0.016280844558582166 -0.00011538570976211191 0 -0.015905989591236007 -0.00019939779912062617 0 -0.015754084862447851 0.00011751644373008268 0 -0.016178513906593941 9.2727678034961857e-05 0 -0.015754084862447851 0.00011751644373008268 0 -0.016178513906593941 9.2727678034961857e-05 0 -0.016020191674584475 0.00039164284999114609 0 -0.016410604633541614 7.1878606410455561e-05 0 -0.016178513906593941 9.2727678034961857e-05 0 -0.016020191674584475 0.00039164284999114609 0 -0.016526148729132172 7.226001246571046e-05 0 -0.016410604633541614 7.1878606410455561e-05 0 -0.016178513906593941 9.2727678034961857e-05 0 -0.016526148729132172 7.226001246571046e-05 0 -0.016178513906593941 9.2727678034961857e-05 0 -0.016280844558582166 -0.00011538570976211191 0 -0.0087989146374808178 0.00016188811563203306 0 -0.0092759637481138087 4.2179455327758588e-05 0 -0.0094363918379531172 0.00032826929530879566 0 -0.0091569000143026796 -0.0003317483768820285 0 -0.0087989146374808178 0.00016188811563203306 0 -0.0089952278719192431 -0.0009460429060823112 0 -0.0091569000143026796 -0.0003317483768820285 0 -0.0087989146374808178 0.00016188811563203306 0 -0.0092759637481138087 4.2179455327758588e-05 0 -0.0092759637481138087 4.2179455327758588e-05 0 -0.0094363918379531172 0.00032826929530879566 0 -0.0098395372856410323 0.00025314867404361142 0 -0.0091569000143026796 -0.0003317483768820285 0 -0.0092759637481138087 4.2179455327758588e-05 0 -0.0098395372856410323 0.00025314867404361142 0 -0.0094363918379531172 0.00032826929530879566 0 -0.0097865166779031593 0.00086457394295543714 0 -0.0098395372856410323 0.00025314867404361142 0 -0.0087989146374808178 0.00016188811563203306 0 -0.0094363918379531172 0.00032826929530879566 0 -0.0097865166779031593 0.00086457394295543714 0 -0.013652761602442146 0.00026586755482198835 0 -0.011694603027562244 0.00010141803618559805 0 -0.010489555369676246 0.00036693750118938547 0 -0.0097865166779031593 0.00086457394295543714 0 -0.0094680996697445695 0.00082150335852860916 0 -0.0097865166779031593 0.00086457394295543714 0 -0.0094680996697445695 0.00082150335852860916 0 -0.0098395372856410323 0.00025314867404361142 0 -0.0091522132220693535 -0.00095599085472359278 0 -0.0091840806696498901 -0.00097752524819874121 0 -0.0093165493786999901 -0.00097971434668950004 0 -0.011694603027562244 0.00010141803618559805 0 -0.010501290610605001 0.00015514746427944885 0 -0.0090547781078073909 -0.00093675609921396849 0 -0.0091840806696498901 -0.00097752524819874121 0 -0.0090329696238108537 -0.0010759513158640243 0 -0.0090547781078073909 -0.00093675609921396849 0 -0.0090329696238108537 -0.0010759513158640243 0 -0.0088341926088934663 -0.0011499745554479648 0 -0.011694603027562244 0.00010141803618559805 0 -0.0091307795436967234 -0.00069030666003253938 0 -0.0090329696238108537 -0.0010759513158640243 0 -0.0088341926088934663 -0.0011499745554479648 0 -0.0089083369619321513 -0.0011317129664051623 0 -0.0088341926088934663 -0.0011499745554479648 0 -0.0089083369619321513 -0.0011317129664051623 0 -0.0086956477802149681 -0.0011453427610403062 0 -0.0090329696238108537 -0.0010759513158640243 0 -0.0089083369619321513 -0.0011317129664051623 0 -0.0090854512712608502 -0.0010999782446031695 0 -0.0089083369619321513 -0.0011317129664051623 0 -0.0090854512712608502 -0.0010999782446031695 0 -0.0089827025254956578 -0.0011621401900392685 0 -0.0090854512712608502 -0.0010999782446031695 0 -0.0092005811897163513 -0.0011086697678058454 0 -0.0089827025254956578 -0.0011621401900392685 0 -0.0092005811897163513 -0.0011086697678058454 0 -0.0092682499129811951 -0.0011492632003453356 0 -0.0089827025254956578 -0.0011621401900392685 0 -0.0090854512712608502 -0.0010999782446031695 0 -0.0092005811897163513 -0.0011086697678058454 0 -0.009240276983637585 -0.0010683839491866024 0 -0.0092005811897163513 -0.0011086697678058454 0 -0.009240276983637585 -0.0010683839491866024 0 -0.0093662004440172187 -0.0010580298070758565 0 -0.009240276983637585 -0.0010683839491866024 0 -0.0093662004440172187 -0.0010580298070758565 0 -0.0093016349819222011 -0.0010290271020131695 0 -0.009240276983637585 -0.0010683839491866024 0 -0.009175035858667021 -0.0010404275273720044 0 -0.0093016349819222011 -0.0010290271020131695 0 -0.0090854512712608502 -0.0010999782446031695 0 -0.009240276983637585 -0.0010683839491866024 0 -0.009175035858667021 -0.0010404275273720044 0 -0.0090329696238108537 -0.0010759513158640243 0 -0.0090854512712608502 -0.0010999782446031695 0 -0.009175035858667021 -0.0010404275273720044 0 -0.0091840806696498901 -0.00097752524819874121 0 -0.0090329696238108537 -0.0010759513158640243 0 -0.009175035858667021 -0.0010404275273720044 0 -0.009692950216544682 -0.00090400171813403377 0 -0.0091522132220693535 -0.00095599085472359278 0 -0.0094310266573166233 -0.00095907332946032931 0 -0.0091840806696498901 -0.00097752524819874121 0 -0.009175035858667021 -0.0010404275273720044 0 -0.0093165493786999901 -0.00097971434668950004 0 -0.009175035858667021 -0.0010404275273720044 0 -0.0093165493786999901 -0.00097971434668950004 0 -0.0093016349819222011 -0.0010290271020131695 0 -0.0091522132220693535 -0.00095599085472359278 0 -0.0093165493786999901 -0.00097971434668950004 0 -0.0094310266573166233 -0.00095907332946032931 0 -0.0096460076880043634 -0.00096871742209032668 0 -0.0094310266573166233 -0.00095907332946032931 0 -0.0094687113736678652 -0.0010036064444318721 0 -0.0093165493786999901 -0.00097971434668950004 0 -0.0094310266573166233 -0.00095907332946032931 0 -0.0094687113736678652 -0.0010036064444318721 0 -0.0093165493786999901 -0.00097971434668950004 0 -0.0094687113736678652 -0.0010036064444318721 0 -0.0093016349819222011 -0.0010290271020131695 0 -0.0093662004440172187 -0.0010580298070758565 0 -0.0094687113736678652 -0.0010036064444318721 0 -0.0093016349819222011 -0.0010290271020131695 0 -0.0093662004440172187 -0.0010580298070758565 0 -0.0094687113736678652 -0.0010036064444318721 0 -0.0095151917173615062 -0.0010403330039822577 0 -0.0094687113736678652 -0.0010036064444318721 0 -0.0095151917173615062 -0.0010403330039822577 0 -0.0096836948468668627 -0.0010132580561835662 0 -0.0096460076880043634 -0.00096871742209032668 0 -0.0094687113736678652 -0.0010036064444318721 0 -0.0096836948468668627 -0.0010132580561835662 0 -0.0099167569395112697 -0.00098511665030079246 0 -0.0096460076880043634 -0.00096871742209032668 0 -0.0096836948468668627 -0.0010132580561835662 0 -0.0099167569395112697 -0.00098511665030079246 0 -0.0096836948468668627 -0.0010132580561835662 0 -0.0098599775181732619 -0.0010164694080590803 0 -0.0096836948468668627 -0.0010132580561835662 0 -0.0096039665680015297 -0.0010546464376102625 0 -0.0097607645090291312 -0.0010526851858403553 0 -0.0095151917173615062 -0.0010403330039822577 0 -0.0096836948468668627 -0.0010132580561835662 0 -0.0096039665680015297 -0.0010546464376102625 0 -0.0096039665680015297 -0.0010546464376102625 0 -0.0094442640993324736 -0.0010934835341047551 0 -0.0096281411358785825 -0.001090595776148087 0 -0.0095151917173615062 -0.0010403330039822577 0 -0.0096039665680015297 -0.0010546464376102625 0 -0.0094442640993324736 -0.0010934835341047551 0 -0.0093662004440172187 -0.0010580298070758565 0 -0.0095151917173615062 -0.0010403330039822577 0 -0.0094442640993324736 -0.0010934835341047551 0 -0.0092005811897163513 -0.0011086697678058454 0 -0.0093662004440172187 -0.0010580298070758565 0 -0.0094442640993324736 -0.0010934835341047551 0 -0.0092005811897163513 -0.0011086697678058454 0 -0.0094442640993324736 -0.0010934835341047551 0 -0.0092682499129811951 -0.0011492632003453356 0 -0.0094442640993324736 -0.0010934835341047551 0 -0.0092682499129811951 -0.0011492632003453356 0 -0.0094073213946001093 -0.0011437264478221226 0 -0.0094442640993324736 -0.0010934835341047551 0 -0.0094073213946001093 -0.0011437264478221226 0 -0.0095388700546726619 -0.0011386217714552699 0 -0.0094073213946001093 -0.0011437264478221226 0 -0.0095388700546726619 -0.0011386217714552699 0 -0.0093749217321251691 -0.0011995039794678454 0 -0.0094442640993324736 -0.0010934835341047551 0 -0.0095388700546726619 -0.0011386217714552699 0 -0.0096281411358785825 -0.001090595776148087 0 -0.0095388700546726619 -0.0011386217714552699 0 -0.0093749217321251691 -0.0011995039794678454 0 -0.0095870998027952695 -0.0011965551636663029 0 -0.0092682499129811951 -0.0011492632003453356 0 -0.0093749217321251691 -0.0011995039794678454 0 -0.0090617750979687904 -0.0012504783267663459 0 -0.0092682499129811951 -0.0011492632003453356 0 -0.0094073213946001093 -0.0011437264478221226 0 -0.0093749217321251691 -0.0011995039794678454 0 -0.0093749217321251691 -0.0011995039794678454 0 -0.0090617750979687904 -0.0012504783267663459 0 -0.009203736755509874 -0.0013650751038132079 0 -0.0093749217321251691 -0.0011995039794678454 0 -0.009203736755509874 -0.0013650751038132079 0 -0.0095131696271092605 -0.0013068436193224759 0 -0.009203736755509874 -0.0013650751038132079 0 -0.0094658476289319494 -0.0014671179754157211 0 -0.0092611527718426453 -0.0017419866484838517 0 -0.009203736755509874 -0.0013650751038132079 0 -0.0088377281018068438 -0.0014976455541472729 0 -0.0092611527718426453 -0.0017419866484838517 0 -0.0090617750979687904 -0.0012504783267663459 0 -0.009203736755509874 -0.0013650751038132079 0 -0.0088377281018068438 -0.0014976455541472729 0 -0.0090617750979687904 -0.0012504783267663459 0 -0.0088377281018068438 -0.0014976455541472729 0 -0.0087191168052465975 -0.0012521064656472458 0 -0.0088377281018068438 -0.0014976455541472729 0 -0.0087191168052465975 -0.0012521064656472458 0 -0.008134689195409394 -0.0013152373843190073 0 -0.0087191168052465975 -0.0012521064656472458 0 -0.0089827025254956578 -0.0011621401900392685 0 -0.0086956477802149681 -0.0011453427610403062 0 -0.0090617750979687904 -0.0012504783267663459 0 -0.0087191168052465975 -0.0012521064656472458 0 -0.0089827025254956578 -0.0011621401900392685 0 -0.0092682499129811951 -0.0011492632003453356 0 -0.0090617750979687904 -0.0012504783267663459 0 -0.0089827025254956578 -0.0011621401900392685 0 -0.0086956477802149681 -0.0011453427610403062 0 -0.008134689195409394 -0.0013152373843190073 0 -0.0089323296248537114 -0.0010021005146080995 0 -0.0088341926088934663 -0.0011499745554479648 0 -0.0086956477802149681 -0.0011453427610403062 0 -0.0089323296248537114 -0.0010021005146080995 0 -0.0089083369619321513 -0.0011317129664051623 0 -0.0089827025254956578 -0.0011621401900392685 0 -0.0086956477802149681 -0.0011453427610403062 0 -0.0087191168052465975 -0.0012521064656472458 0 -0.0086956477802149681 -0.0011453427610403062 0 -0.008134689195409394 -0.0013152373843190073 0 -0.008134689195409394 -0.0013152373843190073 0 -0.0065425590294534847 -0.00066179771730133226 0 -0.0065222480272796989 -0.0013993746847262814 0 -0.008134689195409394 -0.0013152373843190073 0 -0.0065425590294534847 -0.00066179771730133226 0 -0.0064934351499365143 0.00019816141592138899 0 -0.0083295394764072439 -0.001314311854738617 0 -0.0073540153843427531 -0.00037654978196025024 0 -0.0059669853799768097 -0.00084509967224398073 0 -0.0065425590294534847 -0.00066179771730133226 0 -0.0065222480272796989 -0.0013993746847262814 0 -0.008134689195409394 -0.0013152373843190073 0 -0.0089323296248537114 -0.0010021005146080995 0 -0.0089952278719192431 -0.0009460429060823112 0 -0.0061724848949654644 -0.00020429015202397862 0 -0.0065425590294534847 -0.00066179771730133226 0 -0.0064934351499365143 0.00019816141592138899 0 -0.0091569000143026796 -0.0003317483768820285 0 -0.0098395372856410323 0.00025314867404361142 0 -0.0089323296248537114 -0.0010021005146080995 0 -0.0091307795436967234 -0.00069030666003253938 0 -0.0090489655121947388 -0.00084718526200523551 0 -0.0091569000143026796 -0.0003317483768820285 0 -0.0089323296248537114 -0.0010021005146080995 0 -0.0089952278719192431 -0.0009460429060823112 0 -0.010037967714333049 -0.0011360920056579108 0 -0.010059808189153694 -0.0010912319040772079 0 -0.010088617648629471 -0.0011552847909880838 0 -0.010037967714333049 -0.0011360920056579108 0 -0.010059808189153694 -0.0010912319040772079 0 -0.010010115173050709 -0.0011097804560958274 0 -0.010057662975749613 -0.0011115104983544354 0 -0.010059808189153694 -0.0010912319040772079 0 -0.010044595897085555 -0.0011557997103751137 0 -0.010343026306295603 -0.00082390891439282289 0 -0.0084994766530922354 -0.0018437308702000947 0 -0.010037967714333049 -0.0011360920056579108 0 -0.010005020922797661 -0.0011789845856145097 0 -0.010050125020570779 -0.0011719736272602888 0 -0.010057662975749613 -0.0011115104983544354 0 -0.010041155906705965 -0.0011050830722308005 0 -0.010044595897085555 -0.0011557997103751137 0 -0.010057662975749613 -0.0011115104983544354 0 -0.010031988349211231 -0.0010850565919713355 0 -0.010041155906705965 -0.0011050830722308005 0 -0.010057662975749613 -0.0011115104983544354 0 -0.010031988349211231 -0.0010850565919713355 0 -0.010032739726148732 -0.0011046565060391885 0 -0.010031988349211231 -0.0010850565919713355 0 -0.010032739726148732 -0.0011046565060391885 0 -0.0099967326360247827 -0.0010467144155278155 0 -0.010057662975749613 -0.0011115104983544354 0 -0.010032739726148732 -0.0011046565060391885 0 -0.010059766589504141 -0.0011290270985588537 0 -0.010031248175411929 -0.0011624559533415094 0 -0.010032739726148732 -0.0011046565060391885 0 -0.010059766589504141 -0.0011290270985588537 0 -0.010031248175411929 -0.0011624559533415094 0 -0.010059766589504141 -0.0011290270985588537 0 -0.010066400609919269 -0.0012018727335054286 0 -0.010059766589504141 -0.0011290270985588537 0 -0.010066400609919269 -0.0012018727335054286 0 -0.010059808189153694 -0.0010912319040772079 0 -0.010057662975749613 -0.0011115104983544354 0 -0.010059766589504141 -0.0011290270985588537 0 -0.010059808189153694 -0.0010912319040772079 0 -0.010012401378766855 -0.0010159091306940454 0 -0.010063340527748528 -0.0010685437846626946 0 -0.0099306818310592616 -0.0010487576868972179 0 -0.0099865193616629905 -0.0010824929579617689 0 -0.0099306818310592616 -0.0010487576868972179 0 -0.0098574550874186567 -0.0010818283989113583 0 -0.010063340527748528 -0.0010685437846626946 0 -0.0099865193616629905 -0.0010824929579617689 0 -0.0099306818310592616 -0.0010487576868972179 0 -0.010059808189153694 -0.0010912319040772079 0 -0.010063340527748528 -0.0010685437846626946 0 -0.0099865193616629905 -0.0010824929579617689 0 -0.010012401378766855 -0.0010159091306940454 0 -0.0098599775181732619 -0.0010164694080590803 0 -0.0099306818310592616 -0.0010487576868972179 0 -0.0098599775181732619 -0.0010164694080590803 0 -0.0099306818310592616 -0.0010487576868972179 0 -0.0097607645090291312 -0.0010526851858403553 0 -0.0099306818310592616 -0.0010487576868972179 0 -0.0097607645090291312 -0.0010526851858403553 0 -0.0098574550874186567 -0.0010818283989113583 0 -0.0096836948468668627 -0.0010132580561835662 0 -0.0098599775181732619 -0.0010164694080590803 0 -0.0097607645090291312 -0.0010526851858403553 0 -0.0096039665680015297 -0.0010546464376102625 0 -0.0097607645090291312 -0.0010526851858403553 0 -0.0096281411358785825 -0.001090595776148087 0 -0.0097607645090291312 -0.0010526851858403553 0 -0.0096281411358785825 -0.001090595776148087 0 -0.0097370366140709583 -0.0010958244286182711 0 -0.0096281411358785825 -0.001090595776148087 0 -0.0097370366140709583 -0.0010958244286182711 0 -0.0096655435182851548 -0.0011349780039936958 0 -0.0097607645090291312 -0.0010526851858403553 0 -0.0097370366140709583 -0.0010958244286182711 0 -0.0098574550874186567 -0.0010818283989113583 0 -0.0097370366140709583 -0.0010958244286182711 0 -0.0098574550874186567 -0.0010818283989113583 0 -0.00978779699000684 -0.0011242969865581387 0 -0.0098574550874186567 -0.0010818283989113583 0 -0.00978779699000684 -0.0011242969865581387 0 -0.0098855063461338703 -0.0011131381678482957 0 -0.00978779699000684 -0.0011242969865581387 0 -0.0097215720888152828 -0.0011748565314025614 0 -0.0098511273146733198 -0.0011656554525443516 0 -0.0097370366140709583 -0.0010958244286182711 0 -0.00978779699000684 -0.0011242969865581387 0 -0.0096655435182851548 -0.0011349780039936958 0 -0.00978779699000684 -0.0011242969865581387 0 -0.0097215720888152828 -0.0011748565314025614 0 -0.0096655435182851548 -0.0011349780039936958 0 -0.0097215720888152828 -0.0011748565314025614 0 -0.0096655435182851548 -0.0011349780039936958 0 -0.0095870998027952695 -0.0011965551636663029 0 -0.0095388700546726619 -0.0011386217714552699 0 -0.0096655435182851548 -0.0011349780039936958 0 -0.0095870998027952695 -0.0011965551636663029 0 -0.0095388700546726619 -0.0011386217714552699 0 -0.0096281411358785825 -0.001090595776148087 0 -0.0096655435182851548 -0.0011349780039936958 0 -0.010059808189153694 -0.0010912319040772079 0 -0.0099865193616629905 -0.0010824929579617689 0 -0.010010115173050709 -0.0011097804560958274 0 -0.0099865193616629905 -0.0010824929579617689 0 -0.010010115173050709 -0.0011097804560958274 0 -0.0099530906409921478 -0.0011206720156160751 0 -0.0099865193616629905 -0.0010824929579617689 0 -0.0098855063461338703 -0.0011131381678482957 0 -0.0099530906409921478 -0.0011206720156160751 0 -0.0099865193616629905 -0.0010824929579617689 0 -0.0098574550874186567 -0.0010818283989113583 0 -0.0098855063461338703 -0.0011131381678482957 0 -0.0098511273146733198 -0.0011656554525443516 0 -0.0099730600805542722 -0.0011567184821374694 0 -0.0099530906409921478 -0.0011206720156160751 0 -0.0098855063461338703 -0.0011131381678482957 0 -0.0098511273146733198 -0.0011656554525443516 0 -0.0099530906409921478 -0.0011206720156160751 0 -0.00978779699000684 -0.0011242969865581387 0 -0.0098855063461338703 -0.0011131381678482957 0 -0.0098511273146733198 -0.0011656554525443516 0 -0.010037967714333049 -0.0011360920056579108 0 -0.010010115173050709 -0.0011097804560958274 0 -0.0099730600805542722 -0.0011567184821374694 0 -0.010010115173050709 -0.0011097804560958274 0 -0.0099730600805542722 -0.0011567184821374694 0 -0.0099530906409921478 -0.0011206720156160751 0 -0.010037967714333049 -0.0011360920056579108 0 -0.0099730600805542722 -0.0011567184821374694 0 -0.010005020922797661 -0.0011789845856145097 0 -0.0099701419079819571 -0.0012277429607456991 0 -0.009976178667298264 -0.0013352560540634867 0 -0.010050125020570779 -0.0011719736272602888 0 -0.0099730600805542722 -0.0011567184821374694 0 -0.010005020922797661 -0.0011789845856145097 0 -0.0099701419079819571 -0.0012277429607456991 0 -0.010005020922797661 -0.0011789845856145097 0 -0.0099701419079819571 -0.0012277429607456991 0 -0.010050125020570779 -0.0011719736272602888 0 -0.0099701419079819571 -0.0012277429607456991 0 -0.009869343508613914 -0.0012494519967698034 0 -0.009976178667298264 -0.0013352560540634867 0 -0.0099730600805542722 -0.0011567184821374694 0 -0.0099701419079819571 -0.0012277429607456991 0 -0.009869343508613914 -0.0012494519967698034 0 -0.0098511273146733198 -0.0011656554525443516 0 -0.009869343508613914 -0.0012494519967698034 0 -0.0097202286053976617 -0.0012535118604956618 0 -0.0098511273146733198 -0.0011656554525443516 0 -0.0099730600805542722 -0.0011567184821374694 0 -0.009869343508613914 -0.0012494519967698034 0 -0.009869343508613914 -0.0012494519967698034 0 -0.009976178667298264 -0.0013352560540634867 0 -0.0097099528470191328 -0.0013949997394932352 0 -0.009869343508613914 -0.0012494519967698034 0 -0.0097202286053976617 -0.0012535118604956618 0 -0.0097099528470191328 -0.0013949997394932352 0 -0.0095870998027952695 -0.0011965551636663029 0 -0.0097202286053976617 -0.0012535118604956618 0 -0.0095131696271092605 -0.0013068436193224759 0 -0.0093749217321251691 -0.0011995039794678454 0 -0.0095870998027952695 -0.0011965551636663029 0 -0.0095131696271092605 -0.0013068436193224759 0 -0.0097215720888152828 -0.0011748565314025614 0 -0.0095870998027952695 -0.0011965551636663029 0 -0.0097202286053976617 -0.0012535118604956618 0 -0.0097215720888152828 -0.0011748565314025614 0 -0.0098511273146733198 -0.0011656554525443516 0 -0.0097202286053976617 -0.0012535118604956618 0 -0.0097202286053976617 -0.0012535118604956618 0 -0.0097099528470191328 -0.0013949997394932352 0 -0.0095131696271092605 -0.0013068436193224759 0 -0.0097099528470191328 -0.0013949997394932352 0 -0.0095131696271092605 -0.0013068436193224759 0 -0.0094658476289319494 -0.0014671179754157211 0 -0.009203736755509874 -0.0013650751038132079 0 -0.0095131696271092605 -0.0013068436193224759 0 -0.0094658476289319494 -0.0014671179754157211 0 -0.0097099528470191328 -0.0013949997394932352 0 -0.0094658476289319494 -0.0014671179754157211 0 -0.0096318302841847149 -0.0016757445602504598 0 -0.0094658476289319494 -0.0014671179754157211 0 -0.0096318302841847149 -0.0016757445602504598 0 -0.0092611527718426453 -0.0017419866484838517 0 -0.009976178667298264 -0.0013352560540634867 0 -0.0099186199435022885 -0.0016395852864229013 0 -0.010160990047649174 -0.0015049877688915114 0 -0.009976178667298264 -0.0013352560540634867 0 -0.0097099528470191328 -0.0013949997394932352 0 -0.0099186199435022885 -0.0016395852864229013 0 -0.0097099528470191328 -0.0013949997394932352 0 -0.0096318302841847149 -0.0016757445602504598 0 -0.0099186199435022885 -0.0016395852864229013 0 -0.0056840421220564563 -0.0021795859200604215 0 -0.0048888071880554126 -0.002691351219306538 0 -0.0048599231587365442 -0.0018196877073759854 0 -0.007876534427072512 -0.0018633723888862774 0 -0.0051113504910608723 -0.0018381137470551954 0 -0.0099186199435022885 -0.0016395852864229013 0 -0.010160990047649174 -0.0015049877688915114 0 -0.010199461050378352 -0.001891641601853723 0 -0.0056840421220564563 -0.0021795859200604215 0 -0.0048599231587365442 -0.0018196877073759854 0 -0.0056563445954838478 -0.0013224819436013704 0 -0.007876534427072512 -0.0018633723888862774 0 -0.0084994766530922354 -0.0018437308702000947 0 -0.009976178667298264 -0.0013352560540634867 0 -0.010160990047649174 -0.0015049877688915114 0 -0.010077215242836375 -0.0011808928431944713 0 -0.0056840421220564563 -0.0021795859200604215 0 -0.0057165260194543509 -0.0030499271837098577 0 -0.0048888071880554126 -0.002691351219306538 0 -0.010041155906705965 -0.0011050830722308005 0 -0.010044595897085555 -0.0011557997103751137 0 -0.010019036368335413 -0.0010458638801115177 0 -0.0084994766530922354 -0.0018437308702000947 0 -0.0078571913738660036 -0.0020515511952147957 0 -0.009976178667298264 -0.0013352560540634867 0 -0.010077215242836375 -0.0011808928431944713 0 -0.010050125020570779 -0.0011719736272602888 0 -0.010037967714333049 -0.0011360920056579108 0 -0.010088617648629471 -0.0011552847909880838 0 -0.010050125020570779 -0.0011719736272602888 0 -0.0084994766530922354 -0.0018437308702000947 0 -0.0088724892026998663 -0.001883113439879113 0 -0.0099434274788019524 -0.00099343264281988807 0 -0.0099967326360247827 -0.0010467144155278155 0 -0.010019036368335413 -0.0010458638801115177 0 -0.010031988349211231 -0.0010850565919713355 0 -0.0099967326360247827 -0.0010467144155278155 0 -0.010019036368335413 -0.0010458638801115177 0 -0.010031988349211231 -0.0010850565919713355 0 -0.010041155906705965 -0.0011050830722308005 0 -0.010019036368335413 -0.0010458638801115177 0 -0.0038765646351727337 -0.00063236717237265261 0 -0.0078571913738660036 -0.0020515511952147957 0 -0.0038765646351727337 -0.00063236717237265261 0 0.00099479861265356186 -0.0015380226079659449 0 -0.0040608388017641939 -0.0023197301461227991 0 -0.0048888071880554126 -0.002691351219306538 0 -0.0048599231587365442 -0.0018196877073759854 0 0.0031900745061387305 0.0010258202503322306 0 0.0047676124901001402 -7.7393360879621429e-06 0 0.0033547480931247439 -0.00053245647695027533 0 0.0047676124901001402 -7.7393360879621429e-06 0 0.0045161029394733205 -0.0022122534520163254 0 0.0063173152743633944 -0.0011110205297777294 0 0.0047676124901001402 -7.7393360879621429e-06 0 0.0045161029394733205 -0.0022122534520163254 0 0.0033547480931247439 -0.00053245647695027533 0 0.0045161029394733205 -0.0022122534520163254 0 0.0051930167558032628 -0.0044366190410502849 0 0.0033506946508619455 -0.0042211820820869409 0 0.0045161029394733205 -0.0022122534520163254 0 0.0063831845428473722 -0.0032832497093043572 0 0.0051930167558032628 -0.0044366190410502849 0 -0.00097306818147634329 -0.0028510399697017656 0 -0.0051113504910608723 -0.0018381137470551954 0 0.0045161029394733205 -0.0022122534520163254 0 0.0063831845428473722 -0.0032832497093043572 0 0.0063173152743633944 -0.0011110205297777294 0 0.00099479861265356186 -0.0015380226079659449 0 -0.0051113504910608723 -0.0018381137470551954 0 -0.0051113504910608723 -0.0018381137470551954 0 -0.0096695006804338231 -0.0020097190188658148 0 -0.0096318302841847149 -0.0016757445602504598 0 -0.0099186199435022885 -0.0016395852864229013 0 -0.009811628392705626 -0.0022514884492827987 0 -0.0099186199435022885 -0.0016395852864229013 0 -0.010199461050378352 -0.001891641601853723 0 -0.009811628392705626 -0.0022514884492827987 0 -0.0096318302841847149 -0.0016757445602504598 0 -0.009811628392705626 -0.0022514884492827987 0 -0.0092611527718426453 -0.0017419866484838517 0 -0.009811628392705626 -0.0022514884492827987 0 -0.0092611527718426453 -0.0017419866484838517 0 -0.0091359660035406284 -0.0022388520452396947 0 -0.0096695006804338231 -0.0020097190188658148 0 -0.0082104415936483481 -0.0030380305592452648 0 -0.0079617113991599549 -0.0023166636989265642 0 -0.007719099358593922 -0.0031796450063227887 0 -0.0075304649963865745 -0.0031098048921415476 0 -0.009811628392705626 -0.0022514884492827987 0 -0.0091359660035406284 -0.0022388520452396947 0 -0.0091802678674785063 -0.0028490801209829003 0 -0.0088453590473876621 -0.0026229564161629566 0 -0.0088420916013914694 -0.0014161051484338544 0 -0.0079617113991599549 -0.0023166636989265642 0 -0.0079617113991599549 -0.0023166636989265642 0 -0.0082058380326885168 -0.002976655379737814 0 -0.007719099358593922 -0.0031796450063227887 0 -0.0088453590473876621 -0.0026229564161629566 0 -0.0079617113991599549 -0.0023166636989265642 0 -0.0082058380326885168 -0.002976655379737814 0 -0.0088453590473876621 -0.0026229564161629566 0 -0.0082058380326885168 -0.002976655379737814 0 -0.0084322367932347202 -0.003359192407637485 0 -0.0082058380326885168 -0.002976655379737814 0 -0.008122038033367673 -0.0035836634181469242 0 -0.007719099358593922 -0.0031796450063227887 0 -0.0082058380326885168 -0.002976655379737814 0 -0.008122038033367673 -0.0035836634181469242 0 -0.0084322367932347202 -0.003359192407637485 0 -0.007719099358593922 -0.0031796450063227887 0 -0.0077005350802217785 -0.0036606027261181498 0 -0.0075927125529450913 -0.0034096102086133054 0 -0.007719099358593922 -0.0031796450063227887 0 -0.0075304649963865745 -0.0031098048921415476 0 -0.0075927125529450913 -0.0034096102086133054 0 -0.0075398721809942599 -0.0031006260486029654 0 -0.0086995055752622855 -0.0043780366892224275 0 -0.007719099358593922 -0.0031796450063227887 0 -0.0077005350802217785 -0.0036606027261181498 0 -0.0082121046336335671 -0.0039092626879535979 0 -0.008122038033367673 -0.0035836634181469242 0 -0.007719099358593922 -0.0031796450063227887 0 -0.0078860949659228206 -0.0043199758027119414 0 -0.008122038033367673 -0.0035836634181469242 0 -0.0083941970057696547 -0.0040266569654507671 0 -0.0078860949659228206 -0.0043199758027119414 0 -0.008122038033367673 -0.0035836634181469242 0 -0.0084322367932347202 -0.003359192407637485 0 -0.0083941970057696547 -0.0040266569654507671 0 0.006469113109026833 -0.0055398798602252254 0 0.0057500013255786971 -0.0061420632463287383 0 0.0062800327746423152 -0.0073351895861274042 0 -0.0083941970057696547 -0.0040266569654507671 0 -0.0087703410148651049 -0.0036379799646320174 0 -0.0087140317521919048 -0.0045186238624707427 0 -0.0013832838803012159 -0.0045257535651404843 0 0.0020091098696135463 -0.0062803451733325581 0 -0.0084322367932347202 -0.003359192407637485 0 -0.0083941970057696547 -0.0040266569654507671 0 -0.0087703410148651049 -0.0036379799646320174 0 0.0060222867913351484 -0.0071321597712793051 0 0.0020091098696135463 -0.0062803451733325581 0 0.0057500013255786971 -0.0061420632463287383 0 0.00552742160521018 -0.0071508929321084068 0 0.0054096603274350862 -0.0077805708171361952 0 0.0057500013255786971 -0.0061420632463287383 0 0.0047290588968027965 -0.0056313518698448755 0 0.00552742160521018 -0.0071508929321084068 0 0.0047290588968027965 -0.0056313518698448755 0 0.0038686221478803368 -0.0062518176864288086 0 0.0033506946508619455 -0.0042211820820869409 0 0.0047290588968027965 -0.0056313518698448755 0 0.00552742160521018 -0.0071508929321084068 0 0.0038686221478803368 -0.0062518176864288086 0 0.0057500013255786971 -0.0061420632463287383 0 0.0047290588968027965 -0.0056313518698448755 0 0.0051930167558032628 -0.0044366190410502849 0 0.0047290588968027965 -0.0056313518698448755 0 0.0051930167558032628 -0.0044366190410502849 0 0.0033506946508619455 -0.0042211820820869409 0 -0.00097306818147634329 -0.0028510399697017656 0 -0.0013832838803012159 -0.0045257535651404843 0 0.0063831845428473722 -0.0032832497093043572 0 0.006469113109026833 -0.0055398798602252254 0 0.0051930167558032628 -0.0044366190410502849 0 -0.0088453590473876621 -0.0026229564161629566 0 -0.0084322367932347202 -0.003359192407637485 0 -0.0087703410148651049 -0.0036379799646320174 0 0.006469113109026833 -0.0055398798602252254 0 0.0057500013255786971 -0.0061420632463287383 0 0.0051930167558032628 -0.0044366190410502849 0 -0.005926538825638112 -0.0029317275351510089 0 -0.0068537349207844316 -0.0029420586933265056 0 -0.0069155256553658298 -0.0021755167811085092 0 -0.005926538825638112 -0.0029317275351510089 0 -0.0059454683304451467 -0.0019357567186971641 0 -0.0069155256553658298 -0.0021755167811085092 0 -0.008134689195409394 -0.0013152373843190073 0 -0.0069155256553658298 -0.0021755167811085092 0 -0.0065222480272796989 -0.0013993746847262814 0 -0.0059454683304451467 -0.0019357567186971641 0 -0.0069155256553658298 -0.0021755167811085092 0 -0.0065222480272796989 -0.0013993746847262814 0 -0.008134689195409394 -0.0013152373843190073 0 -0.0069155256553658298 -0.0021755167811085092 0 -0.0077032980439797026 -0.0025841270532148334 0 -0.0068537349207844316 -0.0029420586933265056 0 -0.0077032980439797026 -0.0025841270532148334 0 -0.0073157386858215467 -0.0033806600352149362 0 -0.0068537349207844316 -0.0029420586933265056 0 -0.0069155256553658298 -0.0021755167811085092 0 -0.0077032980439797026 -0.0025841270532148334 0 -0.0077032980439797026 -0.0025841270532148334 0 -0.0083776105570745191 -0.0026524969178827454 0 -0.0078148263197841857 -0.0035106066122139803 0 -0.0077032980439797026 -0.0025841270532148334 0 -0.0083776105570745191 -0.0026524969178827454 0 -0.008622402965731614 -0.0019825042016531958 0 -0.008134689195409394 -0.0013152373843190073 0 -0.0077032980439797026 -0.0025841270532148334 0 -0.008622402965731614 -0.0019825042016531958 0 -0.0088377281018068438 -0.0014976455541472729 0 -0.008134689195409394 -0.0013152373843190073 0 -0.008622402965731614 -0.0019825042016531958 0 -0.008622402965731614 -0.0019825042016531958 0 -0.0092611527718426453 -0.0017419866484838517 0 -0.0091359660035406284 -0.0022388520452396947 0 -0.0088377281018068438 -0.0014976455541472729 0 -0.008622402965731614 -0.0019825042016531958 0 -0.0092611527718426453 -0.0017419866484838517 0 -0.0083776105570745191 -0.0026524969178827454 0 -0.008622402965731614 -0.0019825042016531958 0 -0.0091359660035406284 -0.0022388520452396947 0 -0.0083776105570745191 -0.0026524969178827454 0 -0.0091359660035406284 -0.0022388520452396947 0 -0.0091802678674785063 -0.0028490801209829003 0 -0.0082104415936483481 -0.0030380305592452648 0 -0.007936204488650846 -0.0033965162772571461 0 -0.0083776105570745191 -0.0026524969178827454 0 -0.0091802678674785063 -0.0028490801209829003 0 -0.0078148263197841857 -0.0035106066122139803 0 -0.0075304649963865745 -0.0031098048921415476 0 -0.0075927125529450913 -0.0034096102086133054 0 -0.0078148263197841857 -0.0035106066122139803 0 -0.0075927125529450913 -0.0034096102086133054 0 -0.0073949189577284672 -0.0036854950796603243 0 -0.0078148263197841857 -0.0035106066122139803 0 -0.0077005350802217785 -0.0036606027261181498 0 -0.0075927125529450913 -0.0034096102086133054 0 -0.0073949189577284672 -0.0036854950796603243 0 -0.0073949189577284672 -0.0036854950796603243 0 -0.0074946416908971804 -0.0039181359063786697 0 -0.0074402817037556804 -0.0045102316565815816 0 -0.0073949189577284672 -0.0036854950796603243 0 -0.0074946416908971804 -0.0039181359063786697 0 -0.0078148263197841857 -0.0035106066122139803 0 -0.0074946416908971804 -0.0039181359063786697 0 -0.0078148263197841857 -0.0035106066122139803 0 -0.0073157386858215467 -0.0033806600352149362 0 -0.0077032980439797026 -0.0025841270532148334 0 -0.0078148263197841857 -0.0035106066122139803 0 -0.0073157386858215467 -0.0033806600352149362 0 -0.0074946416908971804 -0.0039181359063786697 0 -0.0073157386858215467 -0.0033806600352149362 0 -0.0065340561063906375 -0.0039035141102911775 0 -0.0074946416908971804 -0.0039181359063786697 0 -0.0065340561063906375 -0.0039035141102911775 0 -0.0068123148419447031 -0.0045056835974842035 0 -0.0065340561063906375 -0.0039035141102911775 0 -0.0060142612244246741 -0.0045886495805985052 0 -0.0068123148419447031 -0.0045056835974842035 0 -0.0068537349207844316 -0.0029420586933265056 0 -0.0073157386858215467 -0.0033806600352149362 0 -0.0065340561063906375 -0.0039035141102911775 0 -0.005926538825638112 -0.0029317275351510089 0 -0.0068537349207844316 -0.0029420586933265056 0 -0.0065340561063906375 -0.0039035141102911775 0 -0.0025376654362398482 -0.0064667244930021192 0 -0.0020605089955228126 -0.0050706383259237911 0 -0.004178395752819938 -0.0056622394360121174 0 -0.0025376654362398482 -0.0064667244930021192 0 -0.0020605089955228126 -0.0050706383259237911 0 -0.0010736670435706789 -0.0072282221809473373 0 -0.0063874422507393088 -0.0055957132103890868 0 -0.0060142612244246741 -0.0045886495805985052 0 -0.0068123148419447031 -0.0045056835974842035 0 -0.0074946416908971804 -0.0039181359063786697 0 -0.0068123148419447031 -0.0045056835974842035 0 -0.0074402817037556804 -0.0045102316565815816 0 -0.0063874422507393088 -0.0055957132103890868 0 -0.0068123148419447031 -0.0045056835974842035 0 -0.0074402817037556804 -0.0045102316565815816 0 -0.0058746043396012823 -0.005115384952089355 0 -0.0058192516216835008 -0.0044192425202906043 0 -0.0020605089955228126 -0.0050706383259237911 0 -0.0050395809489795782 -0.0040323318733802831 0 -0.004178395752819938 -0.0056622394360121174 0 -0.004178395752819938 -0.0056622394360121174 0 -0.0061293073199487503 -0.0059876425745596946 0 -0.0033288995924767133 -0.007646062066566082 0 -0.0050395809489795782 -0.0040323318733802831 0 -0.004178395752819938 -0.0056622394360121174 0 -0.0061293073199487503 -0.0059876425745596946 0 -0.0050395809489795782 -0.0040323318733802831 0 -0.0061293073199487503 -0.0059876425745596946 0 -0.0066259534180280206 -0.0045886979968754885 0 -0.0074096221318366694 -0.0036914832272059903 0 -0.0058192516216835008 -0.0044192425202906043 0 -0.0073949189577284672 -0.0036854950796603243 0 -0.0050395809489795782 -0.0040323318733802831 0 -0.0066259534180280206 -0.0045886979968754885 0 -0.0073949189577284672 -0.0036854950796603243 0 -0.0066259534180280206 -0.0045886979968754885 0 -0.0074597735736434785 -0.0046773266716551238 0 -0.0077005350802217785 -0.0036606027261181498 0 -0.0073949189577284672 -0.0036854950796603243 0 -0.0074597735736434785 -0.0046773266716551238 0 -0.0073497500875301814 -0.0055091740340061871 0 -0.0065844262142092684 -0.0049483288214985247 0 -0.0061293073199487503 -0.0059876425745596946 0 -0.0066259534180280206 -0.0045886979968754885 0 -0.0074597735736434785 -0.0046773266716551238 0 -0.0049344555574036206 -0.0053461775095640244 0 -0.0062848518764966211 -0.005831338493737773 0 -0.0074597735736434785 -0.0046773266716551238 0 -0.0062848518764966211 -0.005831338493737773 0 -0.0074597735736434785 -0.0046773266716551238 0 -0.0071548075080619207 -0.0062159613822523529 0 -0.005530913325594862 -0.0072056396002589829 0 -0.0071548075080619207 -0.0062159613822523529 0 -0.0080467694986667681 -0.007563313484616566 0 -0.0062848518764966211 -0.005831338493737773 0 -0.005530913325594862 -0.0072056396002589829 0 -0.0071548075080619207 -0.0062159613822523529 0 0.012756878756378737 -0.0042001593018220996 0 0.0092116651500105083 -0.0051335815976825266 0 0.012093288058429984 -0.006220823672518902 0 0.0025452599339821922 -0.0062640912234449191 0 0.0056871463123199031 -0.0028553508890626885 0 0.012756878756378737 -0.0042001593018220996 0 0.01427057420797798 -0.0055177438537951911 0 0.016366342368256796 -0.0034321752403347655 0 0.012756878756378737 -0.0042001593018220996 0 0.01427057420797798 -0.0055177438537951911 0 0.012093288058429984 -0.006220823672518902 0 -0.0049344555574036206 -0.0053461775095640244 0 -0.005530913325594862 -0.0072056396002589829 0 -0.0022742567399274276 -0.006544658588445774 0 0.0025452599339821922 -0.0062640912234449191 0 0.0064605447986408725 -0.0053372797074182207 0 -0.0049344555574036206 -0.0053461775095640244 0 -0.0062848518764966211 -0.005831338493737773 0 -0.005530913325594862 -0.0072056396002589829 0 -0.0025376654362398482 -0.0064667244930021192 0 -0.004178395752819938 -0.0056622394360121174 0 -0.0033288995924767133 -0.007646062066566082 0 -0.0073497500875301814 -0.0055091740340061871 0 0.0064605447986408725 -0.0053372797074182207 0 0.016366342368256796 -0.0034321752403347655 0 0.015975402567394797 -0.0052838711971176433 0 0.016964621445895483 -0.0044559214509369456 0 0.01427057420797798 -0.0055177438537951911 0 0.016366342368256796 -0.0034321752403347655 0 0.015975402567394797 -0.0052838711971176433 0 0.01427057420797798 -0.0055177438537951911 0 0.015975402567394797 -0.0052838711971176433 0 0.015359764023396946 -0.0061362723362830968 0 0.015975402567394797 -0.0052838711971176433 0 0.016417719060994901 -0.006444669499871364 0 0.015359764023396946 -0.0061362723362830968 0 0.015975402567394797 -0.0052838711971176433 0 0.017010646245289533 -0.0054582298195033014 0 0.016417719060994901 -0.006444669499871364 0 0.015975402567394797 -0.0052838711971176433 0 0.016964621445895483 -0.0044559214509369456 0 0.017010646245289533 -0.0054582298195033014 0 0.01791749845863012 -0.0047647463674698985 0 0.017583020954556435 -0.0063877923265113637 0 0.019052256732809903 -0.0069258173270439777 0 0.016964621445895483 -0.0044559214509369456 0 0.017010646245289533 -0.0054582298195033014 0 0.01791749845863012 -0.0047647463674698985 0 0.017010646245289533 -0.0054582298195033014 0 0.01791749845863012 -0.0047647463674698985 0 0.017583020954556435 -0.0063877923265113637 0 0.0182551938813807 -0.0045700204251666529 0 0.016964621445895483 -0.0044559214509369456 0 0.01791749845863012 -0.0047647463674698985 0 -0.0025376654362398482 -0.0064667244930021192 0 -0.0033288995924767133 -0.007646062066566082 0 -0.0010736670435706789 -0.0072282221809473373 0 0.0182551938813807 -0.0045700204251666529 0 0.016366342368256796 -0.0034321752403347655 0 0.016964621445895483 -0.0044559214509369456 0 0.019283694032534261 -0.0053416402355275679 0 0.0064605447986408725 -0.0053372797074182207 0 0.017463843834945258 -0.0051589664291315229 0 0.01622014007099435 -0.0047214809006771189 0 0.017371773603802525 -0.0045514354888066049 0 0.0064605447986408725 -0.0053372797074182207 0 0.0084827138081573009 -0.0058083326642349147 0 0.0045938201480437207 -0.0064583806220635228 0 0.0047808918500605183 -0.0077732208237182446 0 0.0027862352216777905 -0.0052984642199410178 0 0.0045938201480437207 -0.0064583806220635228 0 0.0027862352216777905 -0.0052984642199410178 0 0.0044085794263662532 -0.0045147491172470178 0 0.0045938201480437207 -0.0064583806220635228 0 0.0060947444855516475 -0.0052232363838859708 0 0.0044085794263662532 -0.0045147491172470178 0 0.0060947444855516475 -0.0052232363838859708 0 0.0059319002524754506 -0.0080573637570926677 0 0.0086802940907812678 -0.0066360662619532997 0 0.0045938201480437207 -0.0064583806220635228 0 0.0060947444855516475 -0.0052232363838859708 0 0.0059319002524754506 -0.0080573637570926677 0 0.0060947444855516475 -0.0052232363838859708 0 0.0088505046564060028 -0.0047117890164738215 0 0.0086802940907812678 -0.0066360662619532997 0 0.0059319002524754506 -0.0080573637570926677 0 0.00552742160521018 -0.0071508929321084068 0 0.0038686221478803368 -0.0062518176864288086 0 0.0059319002524754506 -0.0080573637570926677 0 0.00552742160521018 -0.0071508929321084068 0 0.0054096603274350862 -0.0077805708171361952 0 0.0045938201480437207 -0.0064583806220635228 0 0.0059319002524754506 -0.0080573637570926677 0 0.0054096603274350862 -0.0077805708171361952 0 0.0044410276805706738 -0.0069882762418981273 0 0.0020091098696135463 -0.0062803451733325581 0 -0.0087140317521919048 -0.0045186238624707427 0 -0.0078860949659228206 -0.0043199758027119414 0 -0.0081613367953964344 -0.0055403810509836822 0 -0.0083941970057696547 -0.0040266569654507671 0 -0.0087140317521919048 -0.0045186238624707427 0 -0.0078860949659228206 -0.0043199758027119414 0 -0.0077005350802217785 -0.0036606027261181498 0 -0.0082121046336335671 -0.0039092626879535979 0 -0.0074597735736434785 -0.0046773266716551238 0 -0.0082121046336335671 -0.0039092626879535979 0 -0.0079667973655981675 -0.0051339600479117118 0 -0.0074597735736434785 -0.0046773266716551238 0 -0.0079667973655981675 -0.0051339600479117118 0 -0.0074597735736434785 -0.0046773266716551238 0 -0.0071548075080619207 -0.0062159613822523529 0 -0.0079667973655981675 -0.0051339600479117118 0 -0.0088922952249962436 -0.0056273491094208164 0 -0.0071548075080619207 -0.0062159613822523529 0 -0.0082121046336335671 -0.0039092626879535979 0 -0.0079667973655981675 -0.0051339600479117118 0 -0.0088922952249962436 -0.0056273491094208164 0 0.0020091098696135463 -0.0062803451733325581 0 -0.0044720453098597741 -0.0050033465107428626 0 -0.0086995055752622855 -0.0043780366892224275 0 -0.0044720453098597741 -0.0050033465107428626 0 0.0012145049120360948 -0.0028925542765159515 0 0.0016884033625273484 -0.0037749619791671227 0 0.0010469335861427076 -0.0035467179297519074 0 0.0027862352216777905 -0.0052984642199410178 0 0.0033014281460294953 -0.0023127648496086791 0 0.0044085794263662532 -0.0045147491172470178 0 -0.0044720453098597741 -0.0050033465107428626 0 0.0027307955947162006 -0.0019397488884698401 0 -0.0044720453098597741 -0.0050033465107428626 0 0.0056871463123199031 -0.0028553508890626885 0 -0.0088922952249962436 -0.0056273491094208164 0 -0.0071548075080619207 -0.0062159613822523529 0 -0.0080467694986667681 -0.007563313484616566 0 0.012756878756378737 -0.0042001593018220996 0 0.0090199352611740821 -0.0050602861029083856 0 0.0092116651500105083 -0.0051335815976825266 0 0.013022220759369992 -0.0035530343007596798 0 0.017804092281138908 -0.0033341585394537671 0 0.013022220759369992 -0.0035530343007596798 0 0.02189829534061398 -0.0015411946828477684 0 0.023029453074837534 -0.0026208006318487434 0 0.022929814923633843 -0.0025770816130498623 0 0.023258835257405019 -0.0019744597961598147 0 0.0056871463123199031 -0.0028553508890626885 0 0.013022220759369992 -0.0035530343007596798 0 0.0056871463123199031 -0.0028553508890626885 0 0.01622504284063276 -0.00074318216965594218 0 0.0012698252407620265 -0.0010592535965878946 0 0.0038108079270959545 -0.00074982510813719437 0 0.0046968803696999578 2.7855768476028533e-05 0 0.023029453074837534 -0.0026208006318487434 0 0.024869520361165576 -0.0021327602760752543 0 0.023258835257405019 -0.0019744597961598147 0 0.0012698252407620265 -0.0010592535965878946 0 0.0035046788722569535 -0.0017848324512798805 0 0.0038108079270959545 -0.00074982510813719437 0 0.0056871463123199031 -0.0028553508890626885 0 0.0027307955947162006 -0.0019397488884698401 0 0.0038108079270959545 -0.00074982510813719437 0 0.0046968803696999578 2.7855768476028533e-05 0 0.004950541226104643 -0.0013712292046113902 0 0.0046968803696999578 2.7855768476028533e-05 0 0.004950541226104643 -0.0013712292046113902 0 0.0068949166586188913 -0.0012419477191563163 0 0.004950541226104643 -0.0013712292046113902 0 0.0052137652421835141 -0.0029099421134992586 0 0.0068949166586188913 -0.0012419477191563163 0 0.0034109879062310658 -0.0020180515467960432 0 0.0038108079270959545 -0.00074982510813719437 0 0.004950541226104643 -0.0013712292046113902 0 0.0034109879062310658 -0.0020180515467960432 0 0.004950541226104643 -0.0013712292046113902 0 0.0052137652421835141 -0.0029099421134992586 0 0.0027307955947162006 -0.0019397488884698401 0 0.0033006844474683119 -0.0010940027636672271 0 0.0027307955947162006 -0.0019397488884698401 0 0.0050344758932828011 -0.0028186924242449563 0 0.0033014281460294953 -0.0023127648496086791 0 0.0052137652421835141 -0.0029099421134992586 0 0.0044085794263662532 -0.0045147491172470178 0 0.0060947444855516475 -0.0052232363838859708 0 0.0052137652421835141 -0.0029099421134992586 0 0.0044085794263662532 -0.0045147491172470178 0 0.0073868946602058446 -0.0033024219655960361 0 0.0068949166586188913 -0.0012419477191563163 0 0.010161428410845767 -0.0023603722051952335 0 0.0060947444855516475 -0.0052232363838859708 0 0.0073868946602058446 -0.0033024219655960361 0 0.0088505046564060028 -0.0047117890164738215 0 0.0060947444855516475 -0.0052232363838859708 0 0.0052137652421835141 -0.0029099421134992586 0 0.0073868946602058446 -0.0033024219655960361 0 0.0052137652421835141 -0.0029099421134992586 0 0.0073868946602058446 -0.0033024219655960361 0 0.0068949166586188913 -0.0012419477191563163 0 0.0068949166586188913 -0.0012419477191563163 0 0.010161428410845767 -0.0023603722051952335 0 0.0092446066480343057 0.0016786941727135267 0 0.0046968803696999578 2.7855768476028533e-05 0 0.0068949166586188913 -0.0012419477191563163 0 0.0092446066480343057 0.0016786941727135267 0 0.012960541660058921 -0.00026857352983651264 0 0.010161428410845767 -0.0023603722051952335 0 0.0092446066480343057 0.0016786941727135267 0 0.012960541660058921 -0.00026857352983651264 0 0.016842631208112465 -0.00090027642764098977 0 0.014621480017917491 0.0033354837685595643 0 0.012960541660058921 -0.00026857352983651264 0 0.014233187884993583 -0.0031099882298322896 0 0.010161428410845767 -0.0023603722051952335 0 0.012960541660058921 -0.00026857352983651264 0 0.014233187884993583 -0.0031099882298322896 0 0.016842631208112465 -0.00090027642764098977 0 0.014233187884993583 -0.0031099882298322896 0 0.010161428410845767 -0.0023603722051952335 0 0.011897413251696997 -0.0056884972399107326 0 0.014233187884993583 -0.0031099882298322896 0 0.015933988474426838 -0.00589078844460845 0 0.011897413251696997 -0.0056884972399107326 0 0.0088505046564060028 -0.0047117890164738215 0 0.010161428410845767 -0.0023603722051952335 0 0.011897413251696997 -0.0056884972399107326 0 0.0073868946602058446 -0.0033024219655960361 0 0.0088505046564060028 -0.0047117890164738215 0 0.010161428410845767 -0.0023603722051952335 0 0.016842631208112465 -0.00090027642764098977 0 0.020816766992236384 -0.0028818938452055557 0 0.020560530311477216 0.0010989351106958705 0 0.02092093022368479 -0.0026715024003864871 0 0.021040269416868485 0.00017727997420795909 0 0.020816766992236384 -0.0028818938452055557 0 0.023126071044881659 -0.0024771363994936721 0 0.021467701214527058 -0.0011342479643951014 0 0.016842631208112465 -0.00090027642764098977 0 0.017746911367930773 -0.0037380910847281046 0 0.020816766992236384 -0.0028818938452055557 0 0.017746911367930773 -0.0037380910847281046 0 0.019537034385876159 -0.0055711896405420073 0 0.015933988474426838 -0.00589078844460845 0 0.014233187884993583 -0.0031099882298322896 0 0.016842631208112465 -0.00090027642764098977 0 0.017746911367930773 -0.0037380910847281046 0 0.014233187884993583 -0.0031099882298322896 0 0.017746911367930773 -0.0037380910847281046 0 0.015933988474426838 -0.00589078844460845 0 0.020816766992236384 -0.0028818938452055557 0 0.022488154978700332 -0.0048264564248739952 0 0.023126071044881659 -0.0024771363994936721 0 0.017746911367930773 -0.0037380910847281046 0 0.020816766992236384 -0.0028818938452055557 0 0.019537034385876159 -0.0055711896405420073 0 0.020816766992236384 -0.0028818938452055557 0 0.019537034385876159 -0.0055711896405420073 0 0.022488154978700332 -0.0048264564248739952 0 0.021784257427447832 -0.0084436204188101261 0 0.018599552129540866 -0.0072636648473863238 0 0.016916897372536991 -0.0090004977658471284 0 0.019537034385876159 -0.0055711896405420073 0 0.021784257427447832 -0.0084436204188101261 0 0.022488154978700332 -0.0048264564248739952 0 0.019537034385876159 -0.0055711896405420073 0 0.021784257427447832 -0.0084436204188101261 0 0.018599552129540866 -0.0072636648473863238 0 0.0048607958700980633 -0.0064186733796485363 0 0.009666260407974317 -0.0086283862613834115 0 0.019537034385876159 -0.0055711896405420073 0 0.018599552129540866 -0.0072636648473863238 0 0.015933988474426838 -0.00589078844460845 0 0.015933988474426838 -0.00589078844460845 0 0.016916897372536991 -0.0090004977658471284 0 0.014075634056290835 -0.0073990980407647993 0 0.018599552129540866 -0.0072636648473863238 0 0.015933988474426838 -0.00589078844460845 0 0.016916897372536991 -0.0090004977658471284 0 -0.0010633867737971335 -0.0065225351234259625 0 0.0011564049624932062 -0.0065233648306156876 0 -0.00058904606880422021 -0.0059853618607900051 0 -0.0017241200946738321 -0.007418184440952413 0 0.0014702517662583939 -0.0062902753187234761 0 9.6837355726211801e-05 -0.0080626624988847807 0 -0.00021814217187965352 -0.0075413889578848743 0 0.0011564049624932062 -0.0065233648306156876 0 -0.0010633867737971335 -0.0065225351234259625 0 -0.00058904606880422021 -0.0059853618607900051 0 -0.0016064423736930826 -0.0056380756068472012 0 -0.0025949395368891357 -0.0063209582755323936 0 -0.0010633867737971335 -0.0065225351234259625 0 -0.002254458987936153 -0.0058438849826258814 0 0.0048607958700980633 -0.0064186733796485363 0 -0.0017241200946738321 -0.007418184440952413 0 -0.0010978113966150394 -0.0079649436704575718 0 9.6837355726211801e-05 -0.0080626624988847807 0 -0.00021814217187965352 -0.0075413889578848743 0 -0.0010633867737971335 -0.0065225351234259625 0 -0.002254458987936153 -0.0058438849826258814 0 -0.0016064423736930826 -0.0056380756068472012 0 0.0059319002524754506 -0.0080573637570926677 0 0.0086802940907812678 -0.0066360662619532997 0 0.011545486818119058 -0.0090251516887110382 0 0.0086802940907812678 -0.0066360662619532997 0 0.011897413251696997 -0.0056884972399107326 0 0.011545486818119058 -0.0090251516887110382 0 0.0088505046564060028 -0.0047117890164738215 0 0.0086802940907812678 -0.0066360662619532997 0 0.011897413251696997 -0.0056884972399107326 0 0.011897413251696997 -0.0056884972399107326 0 0.014075634056290835 -0.0073990980407647993 0 0.011545486818119058 -0.0090251516887110382 0 0.015933988474426838 -0.00589078844460845 0 0.011897413251696997 -0.0056884972399107326 0 0.014075634056290835 -0.0073990980407647993 0 0.016916897372536991 -0.0090004977658471284 0 0.014075634056290835 -0.0073990980407647993 0 0.011545486818119058 -0.0090251516887110382 0 0.009666260407974317 -0.0086283862613834115 0 0.0067831921823196901 -0.0085491352322228566 0 9.6837355726211801e-05 -0.0080626624988847807 0 0.0024039505735471336 -0.0082455074217014385 0 0.0011564049624932062 -0.0065233648306156876 0 0.0059319002524754506 -0.0080573637570926677 0 0.0024039505735471336 -0.0082455074217014385 0 0.0038686221478803368 -0.0062518176864288086 0 0.0024039505735471336 -0.0082455074217014385 0 0.0038686221478803368 -0.0062518176864288086 0 0.0011564049624932062 -0.0065233648306156876 0 0.0061874296509523714 -0.0081976909917815984 0 0.0067831921823196901 -0.0085491352322228566 0 0.0038686221478803368 -0.0062518176864288086 0 0.0021818538627479912 -0.0052187565670817372 0 0.0033506946508619455 -0.0042211820820869409 0 0.0038686221478803368 -0.0062518176864288086 0 0.0021818538627479912 -0.0052187565670817372 0 0.0011564049624932062 -0.0065233648306156876 0 0.0021818538627479912 -0.0052187565670817372 0 0.0033506946508619455 -0.0042211820820869409 0 0.0011469588805171755 -0.0037044815294313784 0 0.0021818538627479912 -0.0052187565670817372 0 0.0011469588805171755 -0.0037044815294313784 0 0.00066195047495467381 -0.0050467856165396291 0 0.0011469588805171755 -0.0037044815294313784 0 0.00066195047495467381 -0.0050467856165396291 0 -0.00038203789173431535 -0.0042555464896424557 0 0.00066195047495467381 -0.0050467856165396291 0 0.0011564049624932062 -0.0065233648306156876 0 -0.00065224703806506944 -0.0052841979602223929 0 0.0021818538627479912 -0.0052187565670817372 0 0.00066195047495467381 -0.0050467856165396291 0 0.0011564049624932062 -0.0065233648306156876 0 0.0011564049624932062 -0.0065233648306156876 0 -0.00058904606880422021 -0.0059853618607900051 0 -0.00065224703806506944 -0.0052841979602223929 0 -0.00058904606880422021 -0.0059853618607900051 0 -0.00065224703806506944 -0.0052841979602223929 0 -0.0016064423736930826 -0.0056380756068472012 0 -0.00065224703806506944 -0.0052841979602223929 0 -0.0016064423736930826 -0.0056380756068472012 0 -0.001596592501090533 -0.0046353112419284049 0 0.00066195047495467381 -0.0050467856165396291 0 -0.00065224703806506944 -0.0052841979602223929 0 -0.00038203789173431535 -0.0042555464896424557 0 -0.002254458987936153 -0.0058438849826258814 0 -0.0016064423736930826 -0.0056380756068472012 0 -0.002743691860010672 -0.0050548320945667776 0 -0.0016064423736930826 -0.0056380756068472012 0 -0.001596592501090533 -0.0046353112419284049 0 -0.002743691860010672 -0.0050548320945667776 0 -0.001596592501090533 -0.0046353112419284049 0 -0.0025833330396575691 -0.0037614781310034854 0 -0.002743691860010672 -0.0050548320945667776 0 -0.001596592501090533 -0.0046353112419284049 0 -0.0014365986497187457 -0.0036087170434443401 0 -0.0025833330396575691 -0.0037614781310034854 0 -0.0014365986497187457 -0.0036087170434443401 0 -0.00038203789173431535 -0.0042555464896424557 0 -0.00049915265488822177 -0.0027550647843449473 0 0.0011469588805171755 -0.0037044815294313784 0 -0.00038203789173431535 -0.0042555464896424557 0 -0.00049915265488822177 -0.0027550647843449473 0 -0.00065224703806506944 -0.0052841979602223929 0 -0.001596592501090533 -0.0046353112419284049 0 -0.00038203789173431535 -0.0042555464896424557 0 -0.001596592501090533 -0.0046353112419284049 0 -0.0014365986497187457 -0.0036087170434443401 0 -0.00038203789173431535 -0.0042555464896424557 0 -0.00049915265488822177 -0.0027550647843449473 0 -0.0020019941532206458 -0.0025103084734058971 0 -0.0013610605220582977 -0.0010304081545119083 0 -0.0020019941532206458 -0.0025103084734058971 0 -0.0025164065020832379 -0.0016928466065301631 0 -0.0034925196607535017 -0.0023713318217518154 0 -0.0025833330396575691 -0.0037614781310034854 0 -0.0020019941532206458 -0.0025103084734058971 0 -0.0034925196607535017 -0.0023713318217518154 0 -0.0014365986497187457 -0.0036087170434443401 0 -0.0025833330396575691 -0.0037614781310034854 0 -0.0020019941532206458 -0.0025103084734058971 0 -0.0014365986497187457 -0.0036087170434443401 0 -0.00049915265488822177 -0.0027550647843449473 0 -0.0020019941532206458 -0.0025103084734058971 0 -0.0020019941532206458 -0.0025103084734058971 0 -0.0025164065020832379 -0.0016928466065301631 0 -0.0013610605220582977 -0.0010304081545119083 0 -0.0025164065020832379 -0.0016928466065301631 0 -0.0013610605220582977 -0.0010304081545119083 0 -0.0031688971317345152 -0.00084926102084663217 0 0.00020061934071448855 -0.00025224322424221971 0 -0.0013610605220582977 -0.0010304081545119083 0 0.00072555818093544204 -0.0016060091221846171 0 -0.00049915265488822177 -0.0027550647843449473 0 -0.0013610605220582977 -0.0010304081545119083 0 0.00072555818093544204 -0.0016060091221846171 0 -9.3043155085814982e-05 -0.00037827419750731118 0 -0.0012073443119326724 -0.00092909233005334052 0 0.0016761740384767642 0.00038300577342196819 0 0.00072555818093544204 -0.0016060091221846171 0 0.0024245148902339018 -0.0019358489004280696 0 0.0016761740384767642 0.00038300577342196819 0 0.00020061934071448855 -0.00025224322424221971 0 0.00072555818093544204 -0.0016060091221846171 0 0.00057663364480472817 0.00035240136933185586 0 0.0026275195254846641 -0.0019801376200618117 0 0.0045161029394733205 -0.0022122534520163254 0 0.0025414261346885869 -0.0019011937311722532 0 0.0033547480931247439 -0.00053245647695027533 0 0.0017915358253945508 0.00041720636013434546 0 0.0025414261346885869 -0.0019011937311722532 0 0.0033547480931247439 -0.00053245647695027533 0 0.0045161029394733205 -0.0022122534520163254 0 0.0033506946508619455 -0.0042211820820869409 0 0.0025414261346885869 -0.0019011937311722532 0 0.0033506946508619455 -0.0042211820820869409 0 0.0011469588805171755 -0.0037044815294313784 0 0.0024245148902339018 -0.0019358489004280696 0 0.0032408117026757411 -0.004060444078697668 0 0.0026275195254846641 -0.0019801376200618117 0 0.0011469588805171755 -0.0037044815294313784 0 -0.00049915265488822177 -0.0027550647843449473 0 0.00072555818093544204 -0.0016060091221846171 0 0.0011469588805171755 -0.0037044815294313784 0 0.00072555818093544204 -0.0016060091221846171 0 0.0024245148902339018 -0.0019358489004280696 0 -0.003360171016338408 -0.0042264169034992721 0 -0.0035396424510532689 -0.0041959219567874037 0 -0.0035876532346278767 -0.0039989168018658211 0 -0.0037749018080032812 -0.004093628591504566 0 -0.0039636739582666596 -0.0039109590110936723 0 -0.0035876532346278767 -0.0039989168018658211 0 -0.0037749018080032812 -0.004093628591504566 0 -0.0035396424510532689 -0.0041959219567874037 0 -0.0035876532346278767 -0.0039989168018658211 0 -0.0059672466267345677 -0.003104240495481708 0 -0.0070384875902812921 -0.00089638747920087625 0 -0.0050199452356853346 -0.0022827068997122589 0 -0.0046643619710327478 -0.0036372805928708905 0 -0.0052816960022846731 -0.002459964763856127 0 -0.0050000017903016857 -0.00088005699213919702 0 -0.0070384875902812921 -0.00089638747920087625 0 -0.0050199452356853346 -0.0022827068997122589 0 -0.0050000017903016857 -0.00088005699213919702 0 -0.0034925196607535017 -0.0023713318217518154 0 -0.0050199452356853346 -0.0022827068997122589 0 -0.0050000017903016857 -0.00088005699213919702 0 -0.0031688971317345152 -0.00084926102084663217 0 -0.0034925196607535017 -0.0023713318217518154 0 -0.0025164065020832379 -0.0016928466065301631 0 -0.0031688971317345152 -0.00084926102084663217 0 -0.0034925196607535017 -0.0023713318217518154 0 -0.0025833330396575691 -0.0037614781310034854 0 -0.0034925196607535017 -0.0023713318217518154 0 -0.0039920094175374147 -0.0039500577436823057 0 -0.0059672466267345677 -0.003104240495481708 0 -0.0050199452356853346 -0.0022827068997122589 0 -0.0039920094175374147 -0.0039500577436823057 0 -0.0034925196607535017 -0.0023713318217518154 0 -0.0050199452356853346 -0.0022827068997122589 0 -0.0039920094175374147 -0.0039500577436823057 0 -0.0059672466267345677 -0.003104240495481708 0 -0.0039920094175374147 -0.0039500577436823057 0 -0.0046534634052492118 -0.0048735391805019715 0 -0.0025833330396575691 -0.0037614781310034854 0 -0.0039920094175374147 -0.0039500577436823057 0 -0.002743691860010672 -0.0050548320945667776 0 -0.0039920094175374147 -0.0039500577436823057 0 -0.002743691860010672 -0.0050548320945667776 0 -0.0036185856346290513 -0.0052795318862014244 0 -0.0039920094175374147 -0.0039500577436823057 0 -0.0046534634052492118 -0.0048735391805019715 0 -0.0036185856346290513 -0.0052795318862014244 0 -0.0032406215038219793 -0.0044373993000647802 0 -0.0033574672757248837 -0.0043290975592090832 0 -0.0032452435121232566 -0.0043892376862293431 0 -0.003360171016338408 -0.0042264169034992721 0 -0.0032406215038219793 -0.0044373993000647802 0 -0.0033574672757248837 -0.0043290975592090832 0 -0.0046643619710327478 -0.0036372805928708905 0 -0.003960355683731002 -0.0045988953038078317 0 -0.0034815936401883215 -0.0042528673906777779 0 -0.0035396424510532689 -0.0041959219567874037 0 -0.0033574672757248837 -0.0043290975592090832 0 -0.003360171016338408 -0.0042264169034992721 0 -0.0035396424510532689 -0.0041959219567874037 0 -0.0033574672757248837 -0.0043290975592090832 0 -0.0032077633126197554 -0.0042987066763689576 0 -0.0033574672757248837 -0.0043290975592090832 0 -0.0032452435121232566 -0.0043892376862293431 0 -0.0029975423146415604 -0.004084562022722775 0 -0.0032452435121232566 -0.0043892376862293431 0 -0.0030971250754030476 -0.00416195378289381 0 -0.0032077633126197554 -0.0042987066763689576 0 -0.0029975423146415604 -0.004084562022722775 0 -0.0032452435121232566 -0.0043892376862293431 0 -0.0032406215038219793 -0.0044373993000647802 0 -0.0032685278971162969 -0.0045678723909798298 0 -0.0034271072203221928 -0.0051160852176022377 0 -0.0032452435121232566 -0.0043892376862293431 0 -0.0032685278971162969 -0.0045678723909798298 0 -0.0030971250754030476 -0.00416195378289381 0 -0.0032406215038219793 -0.0044373993000647802 0 -0.0032452435121232566 -0.0043892376862293431 0 -0.0032685278971162969 -0.0045678723909798298 0 -0.0032685278971162969 -0.0045678723909798298 0 -0.0032091920726330853 -0.0042350634439041988 0 -0.0030971250754030476 -0.00416195378289381 0 -0.0032091920726330853 -0.0042350634439041988 0 -0.0029944668811545476 -0.0044983335723426405 0 -0.0031692541368270599 -0.0039936806378937512 0 -0.0032685278971162969 -0.0045678723909798298 0 -0.0032812450354712014 -0.0044833146489010912 0 -0.0032091920726330853 -0.0042350634439041988 0 -0.0032685278971162969 -0.0045678723909798298 0 -0.0032812450354712014 -0.0044833146489010912 0 -0.0034271072203221928 -0.0051160852176022377 0 -0.0032091920726330853 -0.0042350634439041988 0 -0.0030971250754030476 -0.00416195378289381 0 -0.0031692541368270599 -0.0039936806378937512 0 -0.0028468722607156681 -0.0037882946772429338 0 -0.0030971250754030476 -0.00416195378289381 0 -0.0031692541368270599 -0.0039936806378937512 0 -0.0029975423146415604 -0.004084562022722775 0 -0.0028468722607156681 -0.0037882946772429338 0 -0.0030971250754030476 -0.00416195378289381 0 -0.0030884208367442335 -0.0056773283216736813 0 -0.0036185856346290513 -0.0052795318862014244 0 -0.0034749803208155212 -0.0055250167520432278 0 -0.0025949395368891357 -0.0063209582755323936 0 -0.0030884208367442335 -0.0056773283216736813 0 -0.0034749803208155212 -0.0055250167520432278 0 -0.0025949395368891357 -0.0063209582755323936 0 -0.002254458987936153 -0.0058438849826258814 0 -0.0030884208367442335 -0.0056773283216736813 0 -0.002254458987936153 -0.0058438849826258814 0 -0.002743691860010672 -0.0050548320945667776 0 -0.0030884208367442335 -0.0056773283216736813 0 -0.002743691860010672 -0.0050548320945667776 0 -0.0030884208367442335 -0.0056773283216736813 0 -0.0036185856346290513 -0.0052795318862014244 0 -0.003960355683731002 -0.0045988953038078317 0 -0.0035177113402168453 -0.0050365019896480992 0 -0.0046534634052492118 -0.0048735391805019715 0 -0.0036185856346290513 -0.0052795318862014244 0 -0.0034271072203221928 -0.0051160852176022377 0 -0.0036185856346290513 -0.0052795318862014244 0 -0.0034749803208155212 -0.0055250167520432278 0 -0.0034271072203221928 -0.0051160852176022377 0 -0.0032812450354712014 -0.0044833146489010912 0 -0.0027810742565519404 -0.0041494902463753702 0 -0.0029944668811545476 -0.0044983335723426405 0 -0.0032812450354712014 -0.0044833146489010912 0 -0.0032091920726330853 -0.0042350634439041988 0 -0.0029944668811545476 -0.0044983335723426405 0 -0.0027651757054243616 -0.0045678923151906102 0 -0.0042220681294191436 -0.0049304865167974265 0 -0.0032812450354712014 -0.0044833146489010912 0 -0.0034749803208155212 -0.0055250167520432278 0 -0.0034271072203221928 -0.0051160852176022377 0 0.021784257427447832 -0.0084436204188101261 0 0.025406734921772957 -0.0062476623475541072 0 0.024286681370508965 -0.0053526327540279577 0 0.0048607958700980633 -0.0064186733796485363 0 0.012168567088212226 -0.005091974391906548 0 0.0048607958700980633 -0.0064186733796485363 0 -0.0042220681294191436 -0.0049304865167974265 0 -0.001672048366274082 -0.0042028928094369183 0 -0.0027810742565519404 -0.0041494902463753702 0 -0.0029944668811545476 -0.0044983335723426405 0 0.021784257427447832 -0.0084436204188101261 0 0.022488154978700332 -0.0048264564248739952 0 0.024286681370508965 -0.0053526327540279577 0 0.022488154978700332 -0.0048264564248739952 0 0.024805640437441327 -0.0039430874444709796 0 0.023126071044881659 -0.0024771363994936721 0 0.022488154978700332 -0.0048264564248739952 0 0.024286681370508965 -0.0053526327540279577 0 0.024805640437441327 -0.0039430874444709796 0 0.025913083802356688 -0.0046496829699771277 0 0.026691342199492187 -0.0034054278763647958 0 0.027995856666201406 -0.0042607694555419446 0 0.012168567088212226 -0.005091974391906548 0 0.012233930063334758 -0.0042121796662032461 0 0.025406734921772957 -0.0062476623475541072 0 0.025913083802356688 -0.0046496829699771277 0 0.027995856666201406 -0.0042607694555419446 0 0.024805640437441327 -0.0039430874444709796 0 0.025913083802356688 -0.0046496829699771277 0 0.026691342199492187 -0.0034054278763647958 0 0.024286681370508965 -0.0053526327540279577 0 0.024805640437441327 -0.0039430874444709796 0 0.025913083802356688 -0.0046496829699771277 0 0.025406734921772957 -0.0062476623475541072 0 0.024286681370508965 -0.0053526327540279577 0 0.025913083802356688 -0.0046496829699771277 0 0.026691342199492187 -0.0034054278763647958 0 0.025503603143630676 -0.0022787214121707242 0 0.0276853268443739 -0.0021983379601385527 0 0.025503603143630676 -0.0022787214121707242 0 0.0276853268443739 -0.0021983379601385527 0 0.025978110396947248 -0.00063851551488777779 0 0.024805640437441327 -0.0039430874444709796 0 0.026691342199492187 -0.0034054278763647958 0 0.025503603143630676 -0.0022787214121707242 0 0.025503603143630676 -0.0022787214121707242 0 0.023126071044881659 -0.0024771363994936721 0 0.023832240364327423 -0.00064136043004037896 0 0.023126071044881659 -0.0024771363994936721 0 0.023832240364327423 -0.00064136043004037896 0 0.021467701214527058 -0.0011342479643951014 0 0.024805640437441327 -0.0039430874444709796 0 0.025503603143630676 -0.0022787214121707242 0 0.023126071044881659 -0.0024771363994936721 0 -0.0028468722607156681 -0.0037882946772429338 0 -0.0031692541368270599 -0.0039936806378937512 0 -0.0027613631208635633 -0.0033779172256705602 0 0.012233930063334758 -0.0042121796662032461 0 0.013444912335073 -0.0031054747479433873 0 0.027995856666201406 -0.0042607694555419446 0 0.0276853268443739 -0.0021983379601385527 0 0.029815575119572963 -0.0027488093100694528 0 0.026691342199492187 -0.0034054278763647958 0 0.027995856666201406 -0.0042607694555419446 0 0.0276853268443739 -0.0021983379601385527 0 0.0276853268443739 -0.0021983379601385527 0 0.028819775379986892 -0.0015047391676193068 0 0.029815575119572963 -0.0027488093100694528 0 0.028819775379986892 -0.0015047391676193068 0 0.029815575119572963 -0.0027488093100694528 0 0.029570471825215931 -0.0016376926237646739 0 0.029570471825215931 -0.0016376926237646739 0 0.029245848314632152 -0.0005221582683745962 0 0.030224232971430978 -0.0013198088379587254 0 0.029919536954490129 -0.00020491025637187429 0 0.029245848314632152 -0.0005221582683745962 0 0.03054844912487047 -0.00030752977501694099 0 0.028823199606644527 -0.00010923817766243999 0 0.031094324628268208 -0.0031533140966645105 0 0.029919536954490129 -0.00020491025637187429 0 0.029245848314632152 -0.0005221582683745962 0 0.029580115621135071 0.0001855801618066561 0 0.028819775379986892 -0.0015047391676193068 0 0.029570471825215931 -0.0016376926237646739 0 0.029245848314632152 -0.0005221582683745962 0 0.028819775379986892 -0.0015047391676193068 0 0.029245848314632152 -0.0005221582683745962 0 0.027964710491402454 -0.00043366431254895942 0 0.0276853268443739 -0.0021983379601385527 0 0.028819775379986892 -0.0015047391676193068 0 0.027964710491402454 -0.00043366431254895942 0 0.029245848314632152 -0.0005221582683745962 0 0.027964710491402454 -0.00043366431254895942 0 0.028881802067037252 0.00028090579175540811 0 0.027964710491402454 -0.00043366431254895942 0 0.028449901832438423 0.0010142877908081839 0 0.028881802067037252 0.00028090579175540811 0 0.028449901832438423 0.0010142877908081839 0 0.028881802067037252 0.00028090579175540811 0 0.029577370846101039 0.00075234984447568841 0 0.029919536954490129 -0.00020491025637187429 0 0.029580115621135071 0.0001855801618066561 0 0.030039988491442328 0.00037541150294711606 0 0.029577370846101039 0.00075234984447568841 0 0.029580115621135071 0.0001855801618066561 0 0.030039988491442328 0.00037541150294711606 0 0.028881802067037252 0.00028090579175540811 0 0.029577370846101039 0.00075234984447568841 0 0.029580115621135071 0.0001855801618066561 0 0.029245848314632152 -0.0005221582683745962 0 0.028881802067037252 0.00028090579175540811 0 0.029580115621135071 0.0001855801618066561 0 0.023832240364327423 -0.00064136043004037896 0 0.025978110396947248 -0.00063851551488777779 0 0.024665929580266442 0.0013423129746851965 0 0.023832240364327423 -0.00064136043004037896 0 0.024665929580266442 0.0013423129746851965 0 0.021562708325123549 0.00089843700062276299 0 0.0276853268443739 -0.0021983379601385527 0 0.027964710491402454 -0.00043366431254895942 0 0.025978110396947248 -0.00063851551488777779 0 0.027964710491402454 -0.00043366431254895942 0 0.028449901832438423 0.0010142877908081839 0 0.025978110396947248 -0.00063851551488777779 0 0.025503603143630676 -0.0022787214121707242 0 0.023832240364327423 -0.00064136043004037896 0 0.025978110396947248 -0.00063851551488777779 0 0.028449901832438423 0.0010142877908081839 0 0.028938608148473058 0.00065834959323579937 0 0.029048033500287347 0.00092014587298438544 0 0.028449901832438423 0.0010142877908081839 0 0.025978110396947248 -0.00063851551488777779 0 0.024665929580266442 0.0013423129746851965 0 0.028195497479624437 0.0010612474536215693 0 0.026796964886014497 0.00088209691068777461 0 0.026796964886014497 0.00088209691068777461 0 0.02479820456248865 0.0012536824839073078 0 0.028938608148473058 0.00065834959323579937 0 0.029048033500287347 0.00092014587298438544 0 0.028713835312458059 0.00071723635013032935 0 0.028449901832438423 0.0010142877908081839 0 0.029048033500287347 0.00092014587298438544 0 0.029432025130474864 0.0012530199670528436 0 0.029048033500287347 0.00092014587298438544 0 0.029432025130474864 0.0012530199670528436 0 0.029120511207802732 0.0012448880530226329 0 0.029048033500287347 0.00092014587298438544 0 0.029120511207802732 0.0012448880530226329 0 0.028713835312458059 0.00071723635013032935 0 0.029577370846101039 0.00075234984447568841 0 0.029789102842268829 0.0012325834787296432 0 0.03038471041071239 0.0009615899484043557 0 0.028449901832438423 0.0010142877908081839 0 0.029432025130474864 0.0012530199670528436 0 0.029789102842268829 0.0012325834787296432 0 0.028449901832438423 0.0010142877908081839 0 0.029577370846101039 0.00075234984447568841 0 0.029789102842268829 0.0012325834787296432 0 0.029432025130474864 0.0012530199670528436 0 0.029789102842268829 0.0012325834787296432 0 0.030206822349687384 0.001794262162049413 0 0.029789102842268829 0.0012325834787296432 0 0.030206822349687384 0.001794262162049413 0 0.030654363978884536 0.001575690662860268 0 0.030206822349687384 0.001794262162049413 0 0.030851827507180098 0.0025235679168361127 0 0.030953711162665775 0.0021348571779461773 0 0.030206822349687384 0.001794262162049413 0 0.029587134488766934 0.0016931042241884184 0 0.030173652085628215 0.0022210396473833337 0 0.030206822349687384 0.001794262162049413 0 0.030851827507180098 0.0025235679168361127 0 0.030173652085628215 0.0022210396473833337 0 0.029432025130474864 0.0012530199670528436 0 0.030206822349687384 0.001794262162049413 0 0.029587134488766934 0.0016931042241884184 0 0.029432025130474864 0.0012530199670528436 0 0.029587134488766934 0.0016931042241884184 0 0.029120511207802732 0.0012448880530226329 0 0.029587134488766934 0.0016931042241884184 0 0.029120511207802732 0.0012448880530226329 0 0.029018244976170175 0.0018348998685041615 0 0.029587134488766934 0.0016931042241884184 0 0.029396264020334285 0.0021420037399279531 0 0.029018244976170175 0.0018348998685041615 0 0.029626555285964151 0.0017128691522117854 0 0.029625567326955246 0.0022365690681898664 0 0.029587134488766934 0.0016931042241884184 0 0.029841449456013462 0.0023743479316747917 0 0.030173652085628215 0.0022210396473833337 0 0.029841449456013462 0.0023743479316747917 0 0.030473846493817944 0.0026835409355058762 0 0.030173652085628215 0.0022210396473833337 0 0.029625567326955246 0.0022365690681898664 0 0.029485680251497309 0.0028612812183011456 0 0.029841449456013462 0.0023743479316747917 0 0.03015480917731956 0.0028998817090947894 0 0.029750737184422893 0.0029453697075206074 0 0.029841449456013462 0.0023743479316747917 0 0.03015480917731956 0.0028998817090947894 0 0.030473846493817944 0.0026835409355058762 0 0.030473846493817944 0.0026835409355058762 0 0.030851827507180098 0.0025235679168361127 0 0.031238172955654932 0.003081868851314039 0 0.030851827507180098 0.0025235679168361127 0 0.031238172955654932 0.003081868851314039 0 0.031572371947996843 0.0030922550755440831 0 0.030473846493817944 0.0026835409355058762 0 0.030851827507180098 0.0025235679168361127 0 0.030173652085628215 0.0022210396473833337 0 0.028021252432971114 0.0016222674134473622 0 0.028096290596544799 0.0022080397744083293 0 0.028751269830305199 0.0019866461849628197 0 0.028096290596544799 0.0022080397744083293 0 0.028751269830305199 0.0019866461849628197 0 0.028886898921586156 0.0025243184182976398 0 0.028751269830305199 0.0019866461849628197 0 0.029018244976170175 0.0018348998685041615 0 0.029360871987006973 0.0027441669202215792 0 0.029396264020334285 0.0021420037399279531 0 0.029018244976170175 0.0018348998685041615 0 0.029360871987006973 0.0027441669202215792 0 0.028751269830305199 0.0019866461849628197 0 0.029360871987006973 0.0027441669202215792 0 0.028886898921586156 0.0025243184182976398 0 0.028751269830305199 0.0019866461849628197 0 0.029018244976170175 0.0018348998685041615 0 0.028290421769697503 0.0012776116292293139 0 0.029018244976170175 0.0018348998685041615 0 0.028831142555854491 0.0013675722078801134 0 0.028290421769697503 0.0012776116292293139 0 0.029120511207802732 0.0012448880530226329 0 0.029018244976170175 0.0018348998685041615 0 0.028831142555854491 0.0013675722078801134 0 0.028831142555854491 0.0013675722078801134 0 0.028290421769697503 0.0012776116292293139 0 0.02844668961685249 0.00099491060510101411 0 0.028021252432971114 0.0016222674134473622 0 0.028290421769697503 0.0012776116292293139 0 0.027547285590677168 0.0011558072617096785 0 0.028290421769697503 0.0012776116292293139 0 0.027613121381458501 0.00061361689394524106 0 0.027547285590677168 0.0011558072617096785 0 0.028021252432971114 0.0016222674134473622 0 0.028751269830305199 0.0019866461849628197 0 0.028290421769697503 0.0012776116292293139 0 0.028290421769697503 0.0012776116292293139 0 0.02786285488388111 0.00065983980439407279 0 0.027613121381458501 0.00061361689394524106 0 0.028290421769697503 0.0012776116292293139 0 0.02786285488388111 0.00065983980439407279 0 0.02844668961685249 0.00099491060510101411 0 0.02786285488388111 0.00065983980439407279 0 0.028397626936386835 0.00029669248383232526 0 0.027218447470422204 -0.00021039042190256786 0 0.02786285488388111 0.00065983980439407279 0 0.02844668961685249 0.00099491060510101411 0 0.028397626936386835 0.00029669248383232526 0 0.027759097168264961 0.00061562039886105691 0 0.026617805331744144 0.00017758695760717352 0 0.02786285488388111 0.00065983980439407279 0 0.027613121381458501 0.00061361689394524106 0 0.027346853277850729 -0.00018479054545169111 0 0.02786285488388111 0.00065983980439407279 0 0.027218447470422204 -0.00021039042190256786 0 0.025960673080495104 0.00057939075920578347 0 0.028683440477193647 0.0014588571598007658 0 0.029310061549694417 0.00048466711956451702 0 0.029120511207802732 0.0012448880530226329 0 0.028831142555854491 0.0013675722078801134 0 0.028713835312458059 0.00071723635013032935 0 0.028831142555854491 0.0013675722078801134 0 0.02844668961685249 0.00099491060510101411 0 0.028844771895564482 0.00083168956304063596 0 0.02844668961685249 0.00099491060510101411 0 0.028844771895564482 0.00083168956304063596 0 0.028397626936386835 0.00029669248383232526 0 0.029310061549694417 0.00048466711956451702 0 0.02479820456248865 0.0012536824839073078 0 0.028938608148473058 0.00065834959323579937 0 0.028713835312458059 0.00071723635013032935 0 0.028612406302503123 0.00016367459789543484 0 0.028924505190866607 6.6710983435971957e-05 0 0.028397626936386835 0.00029669248383232526 0 0.028057680023421086 -0.00069358444407631621 0 0.028844771895564482 0.00083168956304063596 0 0.028924505190866607 6.6710983435971957e-05 0 0.028397626936386835 0.00029669248383232526 0 0.016842631208112465 -0.00090027642764098977 0 0.020560530311477216 0.0010989351106958705 0 0.014621480017917491 0.0033354837685595643 0 0.020435403954285832 0.00478791067004575 0 0.020560530311477216 0.0010989351106958705 0 0.014621480017917491 0.0033354837685595643 0 0.02479820456248865 0.0012536824839073078 0 0.021386144313113479 0.0014601378859662353 0 0.02479820456248865 0.0012536824839073078 0 0.021040269416868485 0.00017727997420795909 0 0.023832240364327423 -0.00064136043004037896 0 0.021562708325123549 0.00089843700062276299 0 0.021467701214527058 -0.0011342479643951014 0 0.028397626936386835 0.00029669248383232526 0 0.027218447470422204 -0.00021039042190256786 0 0.028057680023421086 -0.00069358444407631621 0 0.012960541660058921 -0.00026857352983651264 0 0.014621480017917491 0.0033354837685595643 0 0.0092446066480343057 0.0016786941727135267 0 0.027218447470422204 -0.00021039042190256786 0 0.028057680023421086 -0.00069358444407631621 0 0.026695501712280464 -0.0014858282335780757 0 0.021386144313113479 0.0014601378859662353 0 0.017666140512999993 1.5329071868405899e-05 0 0.024869520361165576 -0.0021327602760752543 0 0.026695501712280464 -0.0014858282335780757 0 0.025349638339094566 -0.00075818737580493384 0 0.027218447470422204 -0.00021039042190256786 0 0.026695501712280464 -0.0014858282335780757 0 0.025349638339094566 -0.00075818737580493384 0 0.01622504284063276 -0.00074318216965594218 0 0.017666140512999993 1.5329071868405899e-05 0 0.027218447470422204 -0.00021039042190256786 0 0.025349638339094566 -0.00075818737580493384 0 0.025960673080495104 0.00057939075920578347 0 0.025349638339094566 -0.00075818737580493384 0 0.023900235000011153 -0.0013029916533270898 0 0.023922144147705007 9.1780551721522058e-06 0 0.025349638339094566 -0.00075818737580493384 0 0.023922144147705007 9.1780551721522058e-06 0 0.025960673080495104 0.00057939075920578347 0 0.024869520361165576 -0.0021327602760752543 0 0.025349638339094566 -0.00075818737580493384 0 0.023900235000011153 -0.0013029916533270898 0 0.023900235000011153 -0.0013029916533270898 0 0.02253314362017814 -0.0016384775799933003 0 0.023922144147705007 9.1780551721522058e-06 0 0.024869520361165576 -0.0021327602760752543 0 0.023900235000011153 -0.0013029916533270898 0 0.023258835257405019 -0.0019744597961598147 0 0.020813840800094425 0.00025585112814961573 0 0.021487363044792571 -0.0009103407496139416 0 0.02281426408131753 -0.00052869918704468929 0 0.023900235000011153 -0.0013029916533270898 0 0.023258835257405019 -0.0019744597961598147 0 0.02253314362017814 -0.0016384775799933003 0 0.022929814923633843 -0.0025770816130498623 0 0.023258835257405019 -0.0019744597961598147 0 0.02253314362017814 -0.0016384775799933003 0 0.02189829534061398 -0.0015411946828477684 0 0.023574902696504772 -0.0012965454359505271 0 0.026250233324173523 -0.00089089807789086118 0 0.025544765165158623 -0.00057555164429224878 0 0.025193323200782318 -0.0013101105238697537 0 0.025105867732933135 -0.00039539801660796022 0 0.023574902696504772 -0.0012965454359505271 0 0.02253314362017814 -0.0016384775799933003 0 0.023922144147705007 9.1780551721522058e-06 0 0.022083722200470463 -0.00070460868167212837 0 0.026250233324173523 -0.00089089807789086118 0 0.025544765165158623 -0.00057555164429224878 0 0.025898706540682551 0.00017013788474993594 0 0.025898706540682551 0.00017013788474993594 0 0.025165268761566641 1.0177960924345157e-06 0 0.02514505439742009 0.00035954495463311962 0 0.025544765165158623 -0.00057555164429224878 0 0.025898706540682551 0.00017013788474993594 0 0.025261365048399795 -0.00035243312575129987 0 0.025898706540682551 0.00017013788474993594 0 0.025261365048399795 -0.00035243312575129987 0 0.025165268761566641 1.0177960924345157e-06 0 0.025898706540682551 0.00017013788474993594 0 0.026874898864237915 0.00031108461061406104 0 0.026350509104070587 0.00087610637231549276 0 0.026250233324173523 -0.00089089807789086118 0 0.025898706540682551 0.00017013788474993594 0 0.026874898864237915 0.00031108461061406104 0 0.026874898864237915 0.00031108461061406104 0 0.027613121381458501 0.00061361689394524106 0 0.027346853277850729 -0.00018479054545169111 0 0.026250233324173523 -0.00089089807789086118 0 0.026874898864237915 0.00031108461061406104 0 0.027346853277850729 -0.00018479054545169111 0 0.025105867732933135 -0.00039539801660796022 0 0.026617805331744144 0.00017758695760717352 0 0.0237948887309728 -0.0015156629364949695 0 0.023828107669793947 -0.0013412003774154111 0 0.02359660621441554 -0.0015134816168094853 0 0.023612278873196071 -0.0017094267866883967 0 0.0237948887309728 -0.0015156629364949695 0 0.02359660621441554 -0.0015134816168094853 0 0.017693769923280138 -0.0080831495532166561 0 0.017583020954556435 -0.0063877923265113637 0 0.019052256732809903 -0.0069258173270439777 0 0.017010646245289533 -0.0054582298195033014 0 0.017583020954556435 -0.0063877923265113637 0 0.016417719060994901 -0.006444669499871364 0 0.017693769923280138 -0.0080831495532166561 0 0.017583020954556435 -0.0063877923265113637 0 0.016417719060994901 -0.006444669499871364 0 0.020923824352240446 -0.0050245782676294828 0 0.019310558467894416 -0.0042643088613691735 0 0.017693769923280138 -0.0080831495532166561 0 0.016417719060994901 -0.006444669499871364 0 0.014976151185809198 -0.0072181723021031222 0 0.016417719060994901 -0.006444669499871364 0 0.015359764023396946 -0.0061362723362830968 0 0.014976151185809198 -0.0072181723021031222 0 0.01427057420797798 -0.0055177438537951911 0 0.015359764023396946 -0.0061362723362830968 0 0.014976151185809198 -0.0072181723021031222 0 0.023612278873196071 -0.0017094267866883967 0 0.024010199299404754 -0.0014268846511799359 0 0.0237948887309728 -0.0015156629364949695 0 0.023871922137496972 -0.0014792780612338521 0 0.023941199481893848 -0.0013172417188382444 0 0.023828107669793947 -0.0013412003774154111 0 0.024010199299404754 -0.0014268846511799359 0 0.023871922137496972 -0.0014792780612338521 0 0.0237948887309728 -0.0015156629364949695 0 0.023871922137496972 -0.0014792780612338521 0 0.0237948887309728 -0.0015156629364949695 0 0.023828107669793947 -0.0013412003774154111 0 0.023941199481893848 -0.0013172417188382444 0 0.023708561089289617 -0.0015088594691865518 0 0.024291383356547284 -0.0014492317378584432 0 0.023871922137496972 -0.0014792780612338521 0 0.023941199481893848 -0.0013172417188382444 0 0.023708561089289617 -0.0015088594691865518 0 0.01427057420797798 -0.0055177438537951911 0 0.014976151185809198 -0.0072181723021031222 0 0.012093288058429984 -0.006220823672518902 0 0.024010199299404754 -0.0014268846511799359 0 0.023871922137496972 -0.0014792780612338521 0 0.023708561089289617 -0.0015088594691865518 0 0.019310558467894416 -0.0042643088613691735 0 0.017804092281138908 -0.0033341585394537671 0 0.024010199299404754 -0.0014268846511799359 0 0.023708561089289617 -0.0015088594691865518 0 0.02281426408131753 -0.00052869918704468929 0 0.023708561089289617 -0.0015088594691865518 0 0.02281426408131753 -0.00052869918704468929 0 0.02209845389061698 -0.0019603527542211363 0 0.021487363044792571 -0.0009103407496139416 0 0.02281426408131753 -0.00052869918704468929 0 0.02209845389061698 -0.0019603527542211363 0 0.023941199481893848 -0.0013172417188382444 0 0.024291383356547284 -0.0014492317378584432 0 0.024223824198393369 -0.0010459466023226935 0 0.023574902696504772 -0.0012965454359505271 0 0.024639535069802154 -0.0009378247669308312 0 0.023515521596248812 -0.0016186954629367309 0 0.023574902696504772 -0.0012965454359505271 0 0.025544765165158623 -0.00057555164429224878 0 0.025193323200782318 -0.0013101105238697537 0 0.024858350873056455 -0.00072124951824355905 0 0.025544765165158623 -0.00057555164429224878 0 0.025261365048399795 -0.00035243312575129987 0 0.024858350873056455 -0.00072124951824355905 0 0.024858350873056455 -0.00072124951824355905 0 0.024868212782254658 -0.00031437435660975764 0 0.02428602395178028 -0.00040029540203888401 0 0.025261365048399795 -0.00035243312575129987 0 0.024858350873056455 -0.00072124951824355905 0 0.024868212782254658 -0.00031437435660975764 0 0.025261365048399795 -0.00035243312575129987 0 0.025165268761566641 1.0177960924345157e-06 0 0.024868212782254658 -0.00031437435660975764 0 0.024971263548512215 -2.3661569054976625e-05 0 0.025165268761566641 1.0177960924345157e-06 0 0.025149060995350466 0.00035984278794757158 0 0.024971263548512215 -2.3661569054976625e-05 0 0.025165268761566641 1.0177960924345157e-06 0 0.024868212782254658 -0.00031437435660975764 0 0.024716291728486446 -9.799782807877e-05 0 0.024868212782254658 -0.00031437435660975764 0 0.02428602395178028 -0.00040029540203888401 0 0.024971263548512215 -2.3661569054976625e-05 0 0.024716291728486446 -9.799782807877e-05 0 0.024868212782254658 -0.00031437435660975764 0 0.024223824198393369 -0.0010459466023226935 0 0.02428602395178028 -0.00040029540203888401 0 0.023921475796571213 -0.00097206420102424079 0 0.024639535069802154 -0.0009378247669308312 0 0.02425564907131178 -0.00035630084261631352 0 0.024716291728486446 -9.799782807877e-05 0 0.02428602395178028 -0.00040029540203888401 0 0.024216709324221746 -0.00028100763167148183 0 0.02428602395178028 -0.00040029540203888401 0 0.023921475796571213 -0.00097206420102424079 0 0.024216709324221746 -0.00028100763167148183 0 0.023941199481893848 -0.0013172417188382444 0 0.024223824198393369 -0.0010459466023226935 0 0.023921475796571213 -0.00097206420102424079 0 0.023941199481893848 -0.0013172417188382444 0 0.023828107669793947 -0.0013412003774154111 0 0.023921475796571213 -0.00097206420102424079 0 0.023828107669793947 -0.0013412003774154111 0 0.023744182539640224 -0.0011703483778095715 0 0.023921475796571213 -0.00097206420102424079 0 0.024482831818494435 -0.00076786993144549226 0 0.025261739121249537 -0.00021217881994771835 0 0.023921475796571213 -0.00097206420102424079 0 0.023740865416294405 -0.00085921551876157025 0 0.024216709324221746 -0.00028100763167148183 0 0.023744182539640224 -0.0011703483778095715 0 0.023921475796571213 -0.00097206420102424079 0 0.023740865416294405 -0.00085921551876157025 0 0.023744182539640224 -0.0011703483778095715 0 0.023740865416294405 -0.00085921551876157025 0 0.023694164053551559 -0.0011476195675692838 0 0.024482831818494435 -0.00076786993144549226 0 0.023767119984034517 -0.0010854831473220193 0 0.023744182539640224 -0.0011703483778095715 0 0.02359660621441554 -0.0015134816168094853 0 0.023694164053551559 -0.0011476195675692838 0 0.023828107669793947 -0.0013412003774154111 0 0.023744182539640224 -0.0011703483778095715 0 0.02359660621441554 -0.0015134816168094853 0 0.025481318897119375 0.00096417844589238009 0 0.024308782452510481 0.00024534108135592828 0 0.024523897133408256 0.0011701269242022411 0 0.02516425220055974 0.00011152672634200212 0 0.025481318897119375 0.00096417844589238009 0 0.024308782452510481 0.00024534108135592828 0 0.02516425220055974 0.00011152672634200212 0 0.023694164053551559 -0.0011476195675692838 0 0.024308782452510481 0.00024534108135592828 0 0.025265097137545454 -0.00072392531844165428 0 0.02516425220055974 0.00011152672634200212 0 0.023694164053551559 -0.0011476195675692838 0 0.025265097137545454 -0.00072392531844165428 0 0.025748148631971932 2.944061702516701e-05 0 0.026234269879087238 -0.00014019286520278057 0 0.025265097137545454 -0.00072392531844165428 0 0.02516425220055974 0.00011152672634200212 0 0.025748148631971932 2.944061702516701e-05 0 0.02516425220055974 0.00011152672634200212 0 0.025748148631971932 2.944061702516701e-05 0 0.025781444808298911 0.00048762677528053997 0 0.025748148631971932 2.944061702516701e-05 0 0.025781444808298911 0.00048762677528053997 0 0.026171924854479136 0.00036186112757075252 0 0.02516425220055974 0.00011152672634200212 0 0.025781444808298911 0.00048762677528053997 0 0.025481318897119375 0.00096417844589238009 0 0.025781444808298911 0.00048762677528053997 0 0.025481318897119375 0.00096417844589238009 0 0.026258802048173126 0.0010186727030751736 0 0.026258802048173126 0.0010186727030751736 0 0.026473305294797907 0.00061172692285664401 0 0.026171924854479136 0.00036186112757075252 0 0.025781444808298911 0.00048762677528053997 0 0.026258802048173126 0.0010186727030751736 0 0.026171924854479136 0.00036186112757075252 0 0.025748148631971932 2.944061702516701e-05 0 0.026171924854479136 0.00036186112757075252 0 0.026234269879087238 -0.00014019286520278057 0 0.026171924854479136 0.00036186112757075252 0 0.026234269879087238 -0.00014019286520278057 0 0.026462816480070352 0.00023546155671428596 0 0.026473305294797907 0.00061172692285664401 0 0.026171924854479136 0.00036186112757075252 0 0.026462816480070352 0.00023546155671428596 0 0.024716291728486446 -9.799782807877e-05 0 0.024216709324221746 -0.00028100763167148183 0 0.025149060995350466 0.00035984278794757158 0 0.026234269879087238 -0.00014019286520278057 0 0.026462816480070352 0.00023546155671428596 0 0.026915157350150064 0.00032438025852728609 0 0.026670364363709759 0.00056504247868859958 0 0.026915157350150064 0.00032438025852728609 0 0.026801561580282737 0.0010577513576870532 0 0.026462816480070352 0.00023546155671428596 0 0.026670364363709759 0.00056504247868859958 0 0.026915157350150064 0.00032438025852728609 0 0.025261739121249537 -0.00021217881994771835 0 0.025923025491323907 0.00033761133900803462 0 0.026473305294797907 0.00061172692285664401 0 0.026462816480070352 0.00023546155671428596 0 0.026670364363709759 0.00056504247868859958 0 0.024971263548512215 -2.3661569054976625e-05 0 0.024716291728486446 -9.799782807877e-05 0 0.025149060995350466 0.00035984278794757158 0 0.025592957931660287 0.0001636934051565647 0 0.025923025491323907 0.00033761133900803462 0 0.025923025491323907 0.00033761133900803462 0 0.026616184260083321 0.0010153562373158924 0 0.026258802048173126 0.0010186727030751736 0 0.026473305294797907 0.00061172692285664401 0 0.026801561580282737 0.0010577513576870532 0 0.026473305294797907 0.00061172692285664401 0 0.026670364363709759 0.00056504247868859958 0 0.026801561580282737 0.0010577513576870532 0 0.026305740879773151 0.0010209033253268959 0 0.02636790611571244 0.0016961158880282776 0 0.026701418876138527 0.001421948891776655 0 0.026616184260083321 0.0010153562373158924 0 0.026506960059372517 0.0016950886143834829 0 0.026258802048173126 0.0010186727030751736 0 0.026801561580282737 0.0010577513576870532 0 0.026651255273381445 0.0017171888875004019 0 0.02636790611571244 0.0016961158880282776 0 0.026735338506970321 0.0018895440753981102 0 0.026492720542325453 0.0021552577088521816 0 0.026506960059372517 0.0016950886143834829 0 0.026493131929936884 0.0021076054265479942 0 0.026651255273381445 0.0017171888875004019 0 0.026052098233817815 0.0015782918359220004 0 0.026187540487809004 0.0020291374690109697 0 0.026258802048173126 0.0010186727030751736 0 0.026651255273381445 0.0017171888875004019 0 0.026052098233817815 0.0015782918359220004 0 0.025481318897119375 0.00096417844589238009 0 0.026258802048173126 0.0010186727030751736 0 0.026052098233817815 0.0015782918359220004 0 0.025481318897119375 0.00096417844589238009 0 0.026052098233817815 0.0015782918359220004 0 0.025458532478227044 0.0014990405898161142 0 0.026052098233817815 0.0015782918359220004 0 0.025809290122324337 0.0018307536113128528 0 0.026187540487809004 0.0020291374690109697 0 0.026052098233817815 0.0015782918359220004 0 0.025809290122324337 0.0018307536113128528 0 0.025458532478227044 0.0014990405898161142 0 0.025809290122324337 0.0018307536113128528 0 0.025323232817565763 0.0017365336437718466 0 0.025458532478227044 0.0014990405898161142 0 0.025323232817565763 0.0017365336437718466 0 0.024939228716435325 0.0015011860306930523 0 0.025458532478227044 0.0014990405898161142 0 0.024939228716435325 0.0015011860306930523 0 0.025458532478227044 0.0014990405898161142 0 0.024523897133408256 0.0011701269242022411 0 0.025481318897119375 0.00096417844589238009 0 0.025458532478227044 0.0014990405898161142 0 0.024523897133408256 0.0011701269242022411 0 0.027077388867520834 0.00078213810788608118 0 0.027011968155781118 0.0012593014730954014 0 0.02744830682457066 0.001507863490407027 0 0.027547285590677168 0.0011558072617096785 0 0.027077388867520834 0.00078213810788608118 0 0.02744830682457066 0.001507863490407027 0 0.028021252432971114 0.0016222674134473622 0 0.027547285590677168 0.0011558072617096785 0 0.02744830682457066 0.001507863490407027 0 0.026874898864237915 0.00031108461061406104 0 0.027613121381458501 0.00061361689394524106 0 0.027547285590677168 0.0011558072617096785 0 0.027520576529254839 0.001126002046844869 0 0.0266711622505225 0.00081507608479767493 0 0.026874898864237915 0.00031108461061406104 0 0.027547285590677168 0.0011558072617096785 0 0.026350509104070587 0.00087610637231549276 0 0.025898706540682551 0.00017013788474993594 0 0.02514505439742009 0.00035954495463311962 0 0.026350509104070587 0.00087610637231549276 0 0.026343342448201055 0.00028185498146281922 0 0.027077388867520834 0.00078213810788608118 0 0.026692451817390564 0.00090985489153890074 0 0.025923025491323907 0.00033761133900803462 0 0.0266711622505225 0.00081507608479767493 0 0.026343342448201055 0.00028185498146281922 0 0.026305740879773151 0.0010209033253268959 0 0.026692451817390564 0.00090985489153890074 0 0.026692451817390564 0.00090985489153890074 0 0.027011968155781118 0.0012593014730954014 0 0.026701418876138527 0.001421948891776655 0 0.026305740879773151 0.0010209033253268959 0 0.026692451817390564 0.00090985489153890074 0 0.026701418876138527 0.001421948891776655 0 0.027077388867520834 0.00078213810788608118 0 0.026692451817390564 0.00090985489153890074 0 0.027011968155781118 0.0012593014730954014 0 0.027077050426109688 0.0016719909771349803 0 0.026701418876138527 0.001421948891776655 0 0.026735338506970321 0.0018895440753981102 0 0.027011968155781118 0.0012593014730954014 0 0.027077050426109688 0.0016719909771349803 0 0.026701418876138527 0.001421948891776655 0 0.02636790611571244 0.0016961158880282776 0 0.026701418876138527 0.001421948891776655 0 0.026735338506970321 0.0018895440753981102 0 0.027077050426109688 0.0016719909771349803 0 0.026735338506970321 0.0018895440753981102 0 0.02708980306677268 0.0020494355081555919 0 0.02708980306677268 0.0020494355081555919 0 0.027406252566454962 0.0019386107800503974 0 0.027386320508270421 0.002226883195231157 0 0.027077050426109688 0.0016719909771349803 0 0.02708980306677268 0.0020494355081555919 0 0.027406252566454962 0.0019386107800503974 0 0.027011968155781118 0.0012593014730954014 0 0.027077050426109688 0.0016719909771349803 0 0.02744830682457066 0.001507863490407027 0 0.027077050426109688 0.0016719909771349803 0 0.027406252566454962 0.0019386107800503974 0 0.02744830682457066 0.001507863490407027 0 0.028021252432971114 0.0016222674134473622 0 0.028096290596544799 0.0022080397744083293 0 0.02744830682457066 0.001507863490407027 0 0.028096290596544799 0.0022080397744083293 0 0.027406252566454962 0.0019386107800503974 0 0.027386320508270421 0.002226883195231157 0 0.028096290596544799 0.0022080397744083293 0 0.027406252566454962 0.0019386107800503974 0 0.02744830682457066 0.001507863490407027 0 0.028096290596544799 0.0022080397744083293 0 0.027514179509622681 0.00247825535362683 0 0.027386320508270421 0.002226883195231157 0 0.028096290596544799 0.0022080397744083293 0 0.027862212695222124 0.0027935172583041026 0 0.0282310087063967 0.0029589788136706397 0 0.028162035921833365 0.0021846589874723798 0 0.027482233424915084 0.0026393828907751533 0 0.027862212695222124 0.0027935172583041026 0 0.027949584221724045 0.0032498009851401059 0 0.0282310087063967 0.0029589788136706397 0 0.027482233424915084 0.0026393828907751533 0 0.028815269316056213 0.0032519288809787087 0 0.027862212695222124 0.0027935172583041026 0 0.027949584221724045 0.0032498009851401059 0 0.027630287996000081 0.0031452327161214833 0 0.027514179509622681 0.00247825535362683 0 0.027292708111112597 0.0023912476318417391 0 0.027191245835110345 0.002747531606892856 0 0.027292708111112597 0.0023912476318417391 0 0.027386320508270421 0.002226883195231157 0 0.027090647847088738 0.0022613869909843733 0 0.027514179509622681 0.00247825535362683 0 0.027292708111112597 0.0023912476318417391 0 0.027386320508270421 0.002226883195231157 0 0.02708980306677268 0.0020494355081555919 0 0.027386320508270421 0.002226883195231157 0 0.027090647847088738 0.0022613869909843733 0 0.026735338506970321 0.0018895440753981102 0 0.02708980306677268 0.0020494355081555919 0 0.026824957091200856 0.0022312831670410478 0 0.02708980306677268 0.0020494355081555919 0 0.027090647847088738 0.0022613869909843733 0 0.026824957091200856 0.0022312831670410478 0 0.027090647847088738 0.0022613869909843733 0 0.026824957091200856 0.0022312831670410478 0 0.026978784465117103 0.0023854519898985891 0 0.027292708111112597 0.0023912476318417391 0 0.027090647847088738 0.0022613869909843733 0 0.026978784465117103 0.0023854519898985891 0 0.026824957091200856 0.0022312831670410478 0 0.026492720542325453 0.0021552577088521816 0 0.026585675435198571 0.0023315778128519212 0 0.026735338506970321 0.0018895440753981102 0 0.026824957091200856 0.0022312831670410478 0 0.026492720542325453 0.0021552577088521816 0 0.026824957091200856 0.0022312831670410478 0 0.026799705060601628 0.0024233663467272755 0 0.026585675435198571 0.0023315778128519212 0 0.026799705060601628 0.0024233663467272755 0 0.026908612307420459 0.0026021768972459285 0 0.026668554323579997 0.002507466830832607 0 0.026799705060601628 0.0024233663467272755 0 0.026668554323579997 0.002507466830832607 0 0.026585675435198571 0.0023315778128519212 0 0.027292708111112597 0.0023912476318417391 0 0.027056295339313037 0.0027214718378017191 0 0.027191245835110345 0.002747531606892856 0 0.027292708111112597 0.0023912476318417391 0 0.026978784465117103 0.0023854519898985891 0 0.026908612307420459 0.0026021768972459285 0 0.027026380054403755 0.0024677005435660704 0 0.027773260806234816 0.0026392941761665318 0 0.026824957091200856 0.0022312831670410478 0 0.026799705060601628 0.0024233663467272755 0 0.026978784465117103 0.0023854519898985891 0 0.026799705060601628 0.0024233663467272755 0 0.026978784465117103 0.0023854519898985891 0 0.026908612307420459 0.0026021768972459285 0 0.030404415065623323 0.0036106771696457706 0 0.030475426416099901 0.00306479282126731 0 0.029953043284695377 0.0036133569763244326 0 0.027773260806234816 0.0026392941761665318 0 0.028815269316056213 0.0032519288809787087 0 0.030373138689282556 0.0035819047923199652 0 0.030502448943853101 0.0036168092000494886 0 0.030464936564814617 0.0034672848368605931 0 0.030404415065623323 0.0036106771696457706 0 0.030588986798428825 0.0031387615124268122 0 0.030822265877324503 0.0030228106318074305 0 0.030404415065623323 0.0036106771696457706 0 0.030588986798428825 0.0031387615124268122 0 0.030475426416099901 0.00306479282126731 0 0.030711821918713241 0.0031243700715793223 0 0.030769266484984584 0.0031521470663366715 0 0.030769266484984584 0.0031521470663366715 0 0.028815269316056213 0.0032519288809787087 0 0.027773260806234816 0.0026392941761665318 0 0.026531969956122028 0.0024245093230135704 0 0.026737148764897124 0.0025252239190523811 0 0.026600020612762176 0.0024360127219714926 0 0.026541001046872733 0.002504683608576756 0 0.026909612898292516 0.0023427416373972948 0 0.026676067851140822 0.0023412045119057525 0 0.026737148764897124 0.0025252239190523811 0 0.027773260806234816 0.0026392941761665318 0 0.028782853127882441 0.0027883071279689612 0 0.026676067851140822 0.0023412045119057525 0 0.026737148764897124 0.0025252239190523811 0 0.026600020612762176 0.0024360127219714926 0 0.030828239338213079 0.0029982868569957441 0 0.030586889007959871 0.0031066100130248959 0 0.030974433322720957 0.0033001770190434149 0 0.026737148764897124 0.0025252239190523811 0 0.026541001046872733 0.002504683608576756 0 0.026596276619400169 0.0026703434706429473 0 0.030588986798428825 0.0031387615124268122 0 0.030822265877324503 0.0030228106318074305 0 0.030828239338213079 0.0029982868569957441 0 0.028782853127882441 0.0027883071279689612 0 0.028963331717574581 0.0029388523644304754 0 0.030822265877324503 0.0030228106318074305 0 0.030828239338213079 0.0029982868569957441 0 0.030586889007959871 0.0031066100130248959 0 0.030828239338213079 0.0029982868569957441 0 0.031125418045648261 0.002642378536496032 0 0.031120033445697325 0.0029707830198476386 0 0.030588986798428825 0.0031387615124268122 0 0.030828239338213079 0.0029982868569957441 0 0.030541019308984525 0.0031053211195750659 0 0.030859942105750812 0.0029596127366975935 0 0.030769266484984584 0.0031521470663366715 0 0.031125418045648261 0.002642378536496032 0 0.031120033445697325 0.0029707830198476386 0 0.031355941789080008 0.0030719682982720373 0 0.030828239338213079 0.0029982868569957441 0 0.031120033445697325 0.0029707830198476386 0 0.031174722737861652 0.0031553230134037757 0 0.030828239338213079 0.0029982868569957441 0 0.031174722737861652 0.0031553230134037757 0 0.030974433322720957 0.0033001770190434149 0 0.031120033445697325 0.0029707830198476386 0 0.031174722737861652 0.0031553230134037757 0 0.031355941789080008 0.0030719682982720373 0 0.031125418045648261 0.002642378536496032 0 0.031355941789080008 0.0030719682982720373 0 0.031577578340468843 0.0031142261636101887 0 0.031125418045648261 0.002642378536496032 0 0.031577578340468843 0.0031142261636101887 0 0.031974484512460287 0.003218797317718681 0 0.030769266484984584 0.0031521470663366715 0 0.031251001668084165 0.003497166891894104 0 0.030373138689282556 0.0035819047923199652 0 0.030502448943853101 0.0036168092000494886 0 0.030553937886709348 0.0037635454489878067 0 0.030502448943853101 0.0036168092000494886 0 0.030573250782226169 0.0036433759499768731 0 0.030580012843547073 0.0035610123168691426 0 0.030573250782226169 0.0036433759499768731 0 0.030657622974945918 0.0036365648165553846 0 0.030580012843547073 0.0035610123168691426 0 0.030502448943853101 0.0036168092000494886 0 0.030573250782226169 0.0036433759499768731 0 0.030553937886709348 0.0037635454489878067 0 0.030657622974945918 0.0036365648165553846 0 0.030553937886709348 0.0037635454489878067 0 0.030777066764755483 0.0037384653335523696 0 0.030573250782226169 0.0036433759499768731 0 0.030657622974945918 0.0036365648165553846 0 0.030553937886709348 0.0037635454489878067 0 0.030657622974945918 0.0036365648165553846 0 0.030826579211455391 0.0035987256087083941 0 0.030777066764755483 0.0037384653335523696 0 0.030657622974945918 0.0036365648165553846 0 0.030689791971631204 0.0034923824263762564 0 0.030580012843547073 0.0035610123168691426 0 0.030657622974945918 0.0036365648165553846 0 0.030689791971631204 0.0034923824263762564 0 0.030826579211455391 0.0035987256087083941 0 0.029378043386076046 0.0033927110098457419 0 0.028815269316056213 0.0032519288809787087 0 0.030689791971631204 0.0034923824263762564 0 0.030464936564814617 0.0034672848368605931 0 0.030580012843547073 0.0035610123168691426 0 0.030502448943853101 0.0036168092000494886 0 0.030464936564814617 0.0034672848368605931 0 0.030580012843547073 0.0035610123168691426 0 0.025990770420710012 0.0021926885547414914 0 0.02586495322969639 0.0020502008525208597 0 0.026344795586508866 0.0023501403480346056 0 0.025809290122324337 0.0018307536113128528 0 0.025323232817565763 0.0017365336437718466 0 0.02586495322969639 0.0020502008525208597 0 0.025990770420710012 0.0021926885547414914 0 0.02586495322969639 0.0020502008525208597 0 0.025261904899466902 0.0018100055995453458 0 0.025323232817565763 0.0017365336437718466 0 0.02586495322969639 0.0020502008525208597 0 0.025261904899466902 0.0018100055995453458 0 0.025809290122324337 0.0018307536113128528 0 0.02586495322969639 0.0020502008525208597 0 0.026187540487809004 0.0020291374690109697 0 0.02586495322969639 0.0020502008525208597 0 0.026231615478781077 0.0022398328853954941 0 0.026187540487809004 0.0020291374690109697 0 0.026280477507098467 0.0022884536918789835 0 0.026357494993782298 0.0024122100592800558 0 0.02586495322969639 0.0020502008525208597 0 0.026231615478781077 0.0022398328853954941 0 0.026344795586508866 0.0023501403480346056 0 0.026231615478781077 0.0022398328853954941 0 0.026344795586508866 0.0023501403480346056 0 0.026516411618401244 0.0024914545122267521 0 0.026231615478781077 0.0022398328853954941 0 0.026351523350071154 0.0022501884116471428 0 0.026272244313219409 0.0023945621469221019 0 0.026351523350071154 0.0022501884116471428 0 0.026457853211752595 0.0023837252858637217 0 0.026272244313219409 0.0023945621469221019 0 0.026351523350071154 0.0022501884116471428 0 0.026187540487809004 0.0020291374690109697 0 0.026492720542325453 0.0021552577088521816 0 0.026231615478781077 0.0022398328853954941 0 0.026351523350071154 0.0022501884116471428 0 0.026187540487809004 0.0020291374690109697 0 0.026651255273381445 0.0017171888875004019 0 0.026187540487809004 0.0020291374690109697 0 0.026492720542325453 0.0021552577088521816 0 0.026668554323579997 0.002507466830832607 0 0.026585675435198571 0.0023315778128519212 0 0.026457853211752595 0.0023837252858637217 0 0.026351523350071154 0.0022501884116471428 0 0.026492720542325453 0.0021552577088521816 0 0.026585675435198571 0.0023315778128519212 0 0.026351523350071154 0.0022501884116471428 0 0.026585675435198571 0.0023315778128519212 0 0.026457853211752595 0.0023837252858637217 0 0.026676067851140822 0.0023412045119057525 0 0.026457853211752595 0.0023837252858637217 0 0.026600020612762176 0.0024360127219714926 0 0.026531969956122028 0.0024245093230135704 0 0.026544707624608001 0.0023981568246576254 0 0.026457853211752595 0.0023837252858637217 0 0.026541001046872733 0.002504683608576756 0 0.026403241886665246 0.0024815011664029818 0 0.026457853211752595 0.0023837252858637217 0 0.026600020612762176 0.0024360127219714926 0 0.026541001046872733 0.002504683608576756 0 0.027239463234594051 0.0025077208662395512 0 0.028963331717574581 0.0029388523644304754 0 0.026541001046872733 0.002504683608576756 0 0.026403241886665246 0.0024815011664029818 0 0.026596276619400169 0.0026703434706429473 0 0.026310554757330497 0.002560191250365797 0 0.026403241886665246 0.0024815011664029818 0 0.026596276619400169 0.0026703434706429473 0 0.027239463234594051 0.0025077208662395512 0 0.026357494993782298 0.0024122100592800558 0 0.026310554757330497 0.002560191250365797 0 0.026403241886665246 0.0024815011664029818 0 0.026272244313219409 0.0023945621469221019 0 0.026457853211752595 0.0023837252858637217 0 0.026403241886665246 0.0024815011664029818 0 0.026272244313219409 0.0023945621469221019 0 0.026344795586508866 0.0023501403480346056 0 0.026516411618401244 0.0024914545122267521 0 0.026939802360063301 0.0025163985872454302 0 0.027239463234594051 0.0025077208662395512 0 0.027156225244047795 0.0024747006396425041 0 0.028640049878520576 0.0024172003423758547 0 0.026939802360063301 0.0025163985872454302 0 0.028139679283680375 0.0029769688044546166 0 0.026555257289617197 0.0023824857309042865 0 0.026516411618401244 0.0024914545122267521 0 0.026939802360063301 0.0025163985872454302 0 0.025990770420710012 0.0021926885547414914 0 0.026344795586508866 0.0023501403480346056 0 0.026939802360063301 0.0025163985872454302 0 0.027661258305282637 0.0034524579147328289 0 0.028218481096110758 0.003577374124806429 0 0.028126157448509048 0.003717870036160479 0 0.027661258305282637 0.0034524579147328289 0 0.028218481096110758 0.003577374124806429 0 0.027729443217000039 0.0032094875241414529 0 0.027661258305282637 0.0034524579147328289 0 0.027729443217000039 0.0032094875241414529 0 0.02702532519920308 0.0031620592564642717 0 0.026939802360063301 0.0025163985872454302 0 0.027729443217000039 0.0032094875241414529 0 0.02702532519920308 0.0031620592564642717 0 0.026939802360063301 0.0025163985872454302 0 0.027729443217000039 0.0032094875241414529 0 0.028139679283680375 0.0029769688044546166 0 0.027729443217000039 0.0032094875241414529 0 0.028139679283680375 0.0029769688044546166 0 0.028549072867383406 0.0034158375265788974 0 0.028139679283680375 0.0029769688044546166 0 0.028549072867383406 0.0034158375265788974 0 0.028824345328144346 0.0031482844446610644 0 0.028218481096110758 0.003577374124806429 0 0.027729443217000039 0.0032094875241414529 0 0.028549072867383406 0.0034158375265788974 0 0.028218481096110758 0.003577374124806429 0 0.028549072867383406 0.0034158375265788974 0 0.028719680111108436 0.0037045395634526797 0 0.028549072867383406 0.0034158375265788974 0 0.028882743038247099 0.003636172824259837 0 0.028887981854496401 0.003535707404712045 0 0.028549072867383406 0.0034158375265788974 0 0.028882743038247099 0.003636172824259837 0 0.028719680111108436 0.0037045395634526797 0 0.028887981854496401 0.003535707404712045 0 0.029132213493597563 0.0035847724576983891 0 0.028824345328144346 0.0031482844446610644 0 0.029782729030733323 0.0035031046994599036 0 0.030206958180942732 0.0032105029401575343 0 0.030114962302990933 0.0036759557175916955 0 0.02845116918566289 0.0034495020242190149 0 0.028376239257264402 0.0030343352186355064 0 0.028721873828496787 0.0031094140836060596 0 0.029101099505290877 0.0035322646924901774 0 0.028598555440982741 0.0031203364468696802 0 0.028882743038247099 0.003636172824259837 0 0.028887981854496401 0.003535707404712045 0 0.029178239311890182 0.0036938210952150844 0 0.028887981854496401 0.003535707404712045 0 0.029178239311890182 0.0036938210952150844 0 0.029132213493597563 0.0035847724576983891 0 0.029101994090986003 0.0035952834602403384 0 0.029101099505290877 0.0035322646924901774 0 0.029101099505290877 0.0035322646924901774 0 0.029515997123041232 0.0030756726560580532 0 0.028549072867383406 0.0034158375265788974 0 0.028887981854496401 0.003535707404712045 0 0.028824345328144346 0.0031482844446610644 0 0.027239463234594051 0.0025077208662395512 0 0.028598555440982741 0.0031203364468696802 0 0.028640049878520576 0.0024172003423758547 0 0.028139679283680375 0.0029769688044546166 0 0.028824345328144346 0.0031482844446610644 0 0.028301098949502713 0.0026176661014902297 0 0.028376239257264402 0.0030343352186355064 0 0.028721873828496787 0.0031094140836060596 0 0.030206958180942732 0.0032105029401575343 0 0.030575114039041645 0.0028559694273364985 0 0.030790014679813002 0.0033200245587621112 0 0.028301098949502713 0.0026176661014902297 0 0.028721873828496787 0.0031094140836060596 0 0.028995164124894154 0.0027689343075693999 0 0.029515997123041232 0.0030756726560580532 0 0.028963331717574581 0.0029388523644304754 0 0.030206958180942732 0.0032105029401575343 0 0.03058225484838873 0.0037113616303367761 0 0.030790014679813002 0.0033200245587621112 0 0.030206958180942732 0.0032105029401575343 0 0.030114962302990933 0.0036759557175916955 0 0.03058225484838873 0.0037113616303367761 0 0.03058225484838873 0.0037113616303367761 0 0.030216928690454802 0.004074920333479371 0 0.030639201078475932 0.0040680567850297457 0 0.030114962302990933 0.0036759557175916955 0 0.030216928690454802 0.004074920333479371 0 0.029727404252501127 0.0040114903336558793 0 0.030114962302990933 0.0036759557175916955 0 0.03058225484838873 0.0037113616303367761 0 0.030216928690454802 0.004074920333479371 0 0.030216928690454802 0.004074920333479371 0 0.030639201078475932 0.0040680567850297457 0 0.030476737268328797 0.0043487972182049452 0 0.030476737268328797 0.0043487972182049452 0 0.030532274921683838 0.0046454125872197292 0 0.031028862033154702 0.0044893989347326788 0 0.030532274921683838 0.0046454125872197292 0 0.030074135948382631 0.0043449548466246339 0 0.030022667825224787 0.0046487984889170301 0 0.030532274921683838 0.0046454125872197292 0 0.030022667825224787 0.0046487984889170301 0 0.030375390546338494 0.0049069893926037278 0 0.030216928690454802 0.004074920333479371 0 0.030476737268328797 0.0043487972182049452 0 0.030074135948382631 0.0043449548466246339 0 0.030476737268328797 0.0043487972182049452 0 0.030532274921683838 0.0046454125872197292 0 0.030074135948382631 0.0043449548466246339 0 0.030074135948382631 0.0043449548466246339 0 0.030022667825224787 0.0046487984889170301 0 0.029524735869586361 0.0042697029983008181 0 0.029524735869586361 0.0042697029983008181 0 0.029361350600042677 0.0044755956528535045 0 0.029684466239221514 0.0047000328597667706 0 0.030022667825224787 0.0046487984889170301 0 0.029524735869586361 0.0042697029983008181 0 0.029684466239221514 0.0047000328597667706 0 0.029524735869586361 0.0042697029983008181 0 0.029370781557863306 0.0038868052643784654 0 0.029060680913733115 0.0040029863828210952 0 0.029524735869586361 0.0042697029983008181 0 0.029727404252501127 0.0040114903336558793 0 0.029370781557863306 0.0038868052643784654 0 0.030216928690454802 0.004074920333479371 0 0.030074135948382631 0.0043449548466246339 0 0.029727404252501127 0.0040114903336558793 0 0.030074135948382631 0.0043449548466246339 0 0.029524735869586361 0.0042697029983008181 0 0.029727404252501127 0.0040114903336558793 0 0.029101099505290877 0.0035322646924901774 0 0.029629787459586259 0.0040285556595499785 0 0.029782729030733323 0.0035031046994599036 0 0.030114962302990933 0.0036759557175916955 0 0.029727404252501127 0.0040114903336558793 0 0.029370781557863306 0.0038868052643784654 0 0.029043900822149627 0.0037883207698473746 0 0.029060680913733115 0.0040029863828210952 0 0.029303245014459516 0.0035823689347359322 0 0.029727404252501127 0.0040114903336558793 0 0.029370781557863306 0.0038868052643784654 0 0.029178239311890182 0.0036938210952150844 0 0.029303245014459516 0.0035823689347359322 0 0.029370781557863306 0.0038868052643784654 0 0.029178239311890182 0.0036938210952150844 0 0.029370781557863306 0.0038868052643784654 0 0.029043900822149627 0.0037883207698473746 0 0.028882743038247099 0.003636172824259837 0 0.029178239311890182 0.0036938210952150844 0 0.029043900822149627 0.0037883207698473746 0 0.029043900822149627 0.0037883207698473746 0 0.028719680111108436 0.0037045395634526797 0 0.029060680913733115 0.0040029863828210952 0 0.028882743038247099 0.003636172824259837 0 0.029043900822149627 0.0037883207698473746 0 0.028719680111108436 0.0037045395634526797 0 0.028719680111108436 0.0037045395634526797 0 0.028607666980067458 0.0038884175608920267 0 0.029060680913733115 0.0040029863828210952 0 0.028218481096110758 0.003577374124806429 0 0.028719680111108436 0.0037045395634526797 0 0.028607666980067458 0.0038884175608920267 0 0.028607666980067458 0.0038884175608920267 0 0.028892420215937464 0.0040696289075745498 0 0.028813073015231908 0.0041502052934185036 0 0.028607666980067458 0.0038884175608920267 0 0.028892420215937464 0.0040696289075745498 0 0.029060680913733115 0.0040029863828210952 0 0.028892420215937464 0.0040696289075745498 0 0.029060680913733115 0.0040029863828210952 0 0.02910374209217163 0.004224315269029404 0 0.029524735869586361 0.0042697029983008181 0 0.029060680913733115 0.0040029863828210952 0 0.02910374209217163 0.004224315269029404 0 0.029524735869586361 0.0042697029983008181 0 0.02910374209217163 0.004224315269029404 0 0.029361350600042677 0.0044755956528535045 0 0.029361350600042677 0.0044755956528535045 0 0.029082741897061198 0.0044216437481861296 0 0.029391136830528995 0.0046528816562023123 0 0.02910374209217163 0.004224315269029404 0 0.029361350600042677 0.0044755956528535045 0 0.029082741897061198 0.0044216437481861296 0 0.029082741897061198 0.0044216437481861296 0 0.028813073015231908 0.0041502052934185036 0 0.028844961753223149 0.0042797978968643346 0 0.02910374209217163 0.004224315269029404 0 0.029082741897061198 0.0044216437481861296 0 0.028813073015231908 0.0041502052934185036 0 0.028892420215937464 0.0040696289075745498 0 0.02910374209217163 0.004224315269029404 0 0.028813073015231908 0.0041502052934185036 0 0.028813073015231908 0.0041502052934185036 0 0.028627237431400897 0.0041516917640732525 0 0.028844961753223149 0.0042797978968643346 0 0.028813073015231908 0.0041502052934185036 0 0.028627237431400897 0.0041516917640732525 0 0.028450125675413135 0.0039636213386287887 0 0.028627237431400897 0.0041516917640732525 0 0.028857322255529491 0.0043878603816107373 0 0.028844961753223149 0.0042797978968643346 0 0.029082741897061198 0.0044216437481861296 0 0.028857322255529491 0.0043878603816107373 0 0.028844961753223149 0.0042797978968643346 0 0.028857322255529491 0.0043878603816107373 0 0.02854412216767126 0.0041938540755356588 0 0.028768154936174056 0.004424928469243904 0 0.028627237431400897 0.0041516917640732525 0 0.028857322255529491 0.0043878603816107373 0 0.02854412216767126 0.0041938540755356588 0 0.028627237431400897 0.0041516917640732525 0 0.02833179394255448 0.0039908429121030663 0 0.028450125675413135 0.0039636213386287887 0 0.028627237431400897 0.0041516917640732525 0 0.02854412216767126 0.0041938540755356588 0 0.02833179394255448 0.0039908429121030663 0 0.02833179394255448 0.0039908429121030663 0 0.028108316856919262 0.0038053357242418947 0 0.028450125675413135 0.0039636213386287887 0 0.028108316856919262 0.0038053357242418947 0 0.028450125675413135 0.0039636213386287887 0 0.028126157448509048 0.003717870036160479 0 0.028607666980067458 0.0038884175608920267 0 0.028450125675413135 0.0039636213386287887 0 0.028126157448509048 0.003717870036160479 0 0.028607666980067458 0.0038884175608920267 0 0.028813073015231908 0.0041502052934185036 0 0.028450125675413135 0.0039636213386287887 0 0.028218481096110758 0.003577374124806429 0 0.028607666980067458 0.0038884175608920267 0 0.028126157448509048 0.003717870036160479 0 0.028108316856919262 0.0038053357242418947 0 0.028126157448509048 0.003717870036160479 0 0.02775504412268091 0.0036227913076942002 0 0.027661258305282637 0.0034524579147328289 0 0.028126157448509048 0.003717870036160479 0 0.02775504412268091 0.0036227913076942002 0 0.03179031155525059 0.0037973110976621807 0 0.032119749521832691 0.0038024137297598699 0 0.031694416200792365 0.0034145858486961441 0 0.03179031155525059 0.0037973110976621807 0 0.032119749521832691 0.0038024137297598699 0 0.03221852162638892 0.0042007361287720694 0 0.032119749521832691 0.0038024137297598699 0 0.03221852162638892 0.0042007361287720694 0 0.032552885035434374 0.0039764972587354418 0 0.032119749521832691 0.0038024137297598699 0 0.031974484512460287 0.003218797317718681 0 0.032552885035434374 0.0039764972587354418 0 0.030553937886709348 0.0037635454489878067 0 0.030805968677947219 0.0040961189030701258 0 0.030777066764755483 0.0037384653335523696 0 0.031251001668084165 0.003497166891894104 0 0.031667123970530779 0.0040177949117875741 0 0.032119749521832691 0.0038024137297598699 0 0.031974484512460287 0.003218797317718681 0 0.031694416200792365 0.0034145858486961441 0 0.03179031155525059 0.0037973110976621807 0 0.031694416200792365 0.0034145858486961441 0 0.031447423271126582 0.00348506135054653 0 0.031577578340468843 0.0031142261636101887 0 0.031974484512460287 0.003218797317718681 0 0.031694416200792365 0.0034145858486961441 0 0.031355941789080008 0.0030719682982720373 0 0.031577578340468843 0.0031142261636101887 0 0.031694416200792365 0.0034145858486961441 0 0.031174722737861652 0.0031553230134037757 0 0.031355941789080008 0.0030719682982720373 0 0.031694416200792365 0.0034145858486961441 0 0.031694416200792365 0.0034145858486961441 0 0.031201038286897916 0.0030783543852533866 0 0.031447423271126582 0.00348506135054653 0 0.031174722737861652 0.0031553230134037757 0 0.031694416200792365 0.0034145858486961441 0 0.030974433322720957 0.0033001770190434149 0 0.031507788085009168 0.0033470063807629269 0 0.031396266039225774 0.0032476442942440645 0 0.031201038286897916 0.0030783543852533866 0 0.031447423271126582 0.00348506135054653 0 0.031162990275344724 0.0034388608272467088 0 0.030575114039041645 0.0028559694273364985 0 0.031201038286897916 0.0030783543852533866 0 0.030790014679813002 0.0033200245587621112 0 0.028963331717574581 0.0029388523644304754 0 0.031396266039225774 0.0032476442942440645 0 0.031201038286897916 0.0030783543852533866 0 0.030790014679813002 0.0033200245587621112 0 0.031162990275344724 0.0034388608272467088 0 0.03058225484838873 0.0037113616303367761 0 0.030790014679813002 0.0033200245587621112 0 0.031018036966414749 0.0036475789574084393 0 0.030790014679813002 0.0033200245587621112 0 0.031162990275344724 0.0034388608272467088 0 0.031018036966414749 0.0036475789574084393 0 0.031162990275344724 0.0034388608272467088 0 0.031018036966414749 0.0036475789574084393 0 0.031378255821644163 0.0037336108996171105 0 0.031018036966414749 0.0036475789574084393 0 0.031378255821644163 0.0037336108996171105 0 0.031075916767971397 0.0039723198494410923 0 0.03058225484838873 0.0037113616303367761 0 0.031018036966414749 0.0036475789574084393 0 0.031075916767971397 0.0039723198494410923 0 0.03179031155525059 0.0037973110976621807 0 0.031378255821644163 0.0037336108996171105 0 0.031701527285415899 0.004179370934448823 0 0.03179031155525059 0.0037973110976621807 0 0.031447423271126582 0.00348506135054653 0 0.031378255821644163 0.0037336108996171105 0 0.031447423271126582 0.00348506135054653 0 0.031162990275344724 0.0034388608272467088 0 0.031378255821644163 0.0037336108996171105 0 0.031378255821644163 0.0037336108996171105 0 0.031701527285415899 0.004179370934448823 0 0.031075916767971397 0.0039723198494410923 0 0.031701527285415899 0.004179370934448823 0 0.031075916767971397 0.0039723198494410923 0 0.031028862033154702 0.0044893989347326788 0 0.030639201078475932 0.0040680567850297457 0 0.031075916767971397 0.0039723198494410923 0 0.031028862033154702 0.0044893989347326788 0 0.03058225484838873 0.0037113616303367761 0 0.030639201078475932 0.0040680567850297457 0 0.031075916767971397 0.0039723198494410923 0 0.030639201078475932 0.0040680567850297457 0 0.030476737268328797 0.0043487972182049452 0 0.031028862033154702 0.0044893989347326788 0 0.031028862033154702 0.0044893989347326788 0 0.031569611257953496 0.0048841235738822583 0 0.031173611597646509 0.0049054502184441764 0 0.031028862033154702 0.0044893989347326788 0 0.030805716468398473 0.004911948299974064 0 0.031173611597646509 0.0049054502184441764 0 0.030532274921683838 0.0046454125872197292 0 0.031028862033154702 0.0044893989347326788 0 0.030805716468398473 0.004911948299974064 0 0.031701527285415899 0.004179370934448823 0 0.031028862033154702 0.0044893989347326788 0 0.031569611257953496 0.0048841235738822583 0 0.031701527285415899 0.004179370934448823 0 0.031569611257953496 0.0048841235738822583 0 0.032150483700423262 0.0050771242881573744 0 0.031701527285415899 0.004179370934448823 0 0.032784103797206518 0.0054052433240389854 0 0.032150483700423262 0.0050771242881573744 0 0.031701527285415899 0.004179370934448823 0 0.032104922310645483 0.0046416025945870071 0 0.031835680173268238 0.0049904723985170832 0 0.031979883563760941 0.0043399387701419058 0 0.03152690399315506 0.0051502112299122282 0 0.03179031155525059 0.0037973110976621807 0 0.031701527285415899 0.004179370934448823 0 0.03221852162638892 0.0042007361287720694 0 0.031701527285415899 0.004179370934448823 0 0.03221852162638892 0.0042007361287720694 0 0.032104922310645483 0.0046416025945870071 0 0.032104922310645483 0.0046416025945870071 0 0.03244330091434524 0.0046955774060981111 0 0.03226148489996352 0.0051644659488459055 0 0.03221852162638892 0.0042007361287720694 0 0.032104922310645483 0.0046416025945870071 0 0.03244330091434524 0.0046955774060981111 0 0.03244330091434524 0.0046955774060981111 0 0.032933217671383692 0.0046102927698661623 0 0.032716577641263289 0.0054435222999928033 0 0.032933217671383692 0.0046102927698661623 0 0.034107335683985822 0.005394760401219661 0 0.032716577641263289 0.0054435222999928033 0 0.032933217671383692 0.0046102927698661623 0 0.034344120315608663 0.0048452507038715224 0 0.034107335683985822 0.005394760401219661 0 0.032871477190721386 0.0046612965587645291 0 0.033158409025179705 0.0045175750706837872 0 0.032933217671383692 0.0046102927698661623 0 0.032089759246754342 0.0044379387461102471 0 0.031861393420936718 0.0043378768071751141 0 0.032933217671383692 0.0046102927698661623 0 0.032089759246754342 0.0044379387461102471 0 0.032572952583137145 0.0043063984898526692 0 0.03244330091434524 0.0046955774060981111 0 0.032933217671383692 0.0046102927698661623 0 0.032572952583137145 0.0043063984898526692 0 0.03221852162638892 0.0042007361287720694 0 0.03244330091434524 0.0046955774060981111 0 0.032572952583137145 0.0043063984898526692 0 0.03221852162638892 0.0042007361287720694 0 0.032572952583137145 0.0043063984898526692 0 0.032552885035434374 0.0039764972587354418 0 0.03203068840671533 0.0043825673432384303 0 0.031667123970530779 0.0040177949117875741 0 0.032089759246754342 0.0044379387461102471 0 0.030805968677947219 0.0040961189030701258 0 0.031454030329063784 0.0041460980854871729 0 0.032089759246754342 0.0044379387461102471 0 0.032572952583137145 0.0043063984898526692 0 0.032552885035434374 0.0039764972587354418 0 0.032089759246754342 0.0044379387461102471 0 0.031454030329063784 0.0041460980854871729 0 0.031718326578343586 0.0042589256711517151 0 0.031454030329063784 0.0041460980854871729 0 0.031517051405285879 0.0041098232042705105 0 0.031718326578343586 0.0042589256711517151 0 0.031454030329063784 0.0041460980854871729 0 0.031347018002633877 0.004013405784932483 0 0.031094735008642155 0.0038615550810193904 0 0.030805968677947219 0.0040961189030701258 0 0.031454030329063784 0.0041460980854871729 0 0.031094735008642155 0.0038615550810193904 0 0.031454030329063784 0.0041460980854871729 0 0.031347018002633877 0.004013405784932483 0 0.031517051405285879 0.0041098232042705105 0 0.031347018002633877 0.004013405784932483 0 0.031317471188442629 0.0039336387983612267 0 0.031517051405285879 0.0041098232042705105 0 0.031347018002633877 0.004013405784932483 0 0.031094735008642155 0.0038615550810193904 0 0.031317471188442629 0.0039336387983612267 0 0.031094735008642155 0.0038615550810193904 0 0.031317471188442629 0.0039336387983612267 0 0.031015983516167668 0.0036946715810941976 0 0.030805968677947219 0.0040961189030701258 0 0.031094735008642155 0.0038615550810193904 0 0.030777066764755483 0.0037384653335523696 0 0.033273228454950142 0.0047617824197515495 0 0.03116488238768636 0.0038407717185384191 0 0.031603819192457999 0.0040752159399775976 0 0.032089944326890468 0.0040109277034734688 0 0.031742322066615522 0.0036833739876008242 0 0.031603819192457999 0.0040752159399775976 0 0.031770384952600539 0.0042552248272082214 0 0.032089944326890468 0.0040109277034734688 0 0.033657749036553927 0.0045583839915677715 0 0.033273228454950142 0.0047617824197515495 0 0.031603819192457999 0.0040752159399775976 0 0.03126638194011562 0.0038005417836384811 0 0.031742322066615522 0.0036833739876008242 0 0.031317471188442629 0.0039336387983612267 0 0.031603819192457999 0.0040752159399775976 0 0.03126638194011562 0.0038005417836384811 0 0.031317471188442629 0.0039336387983612267 0 0.031015983516167668 0.0036946715810941976 0 0.03126638194011562 0.0038005417836384811 0 0.031517051405285879 0.0041098232042705105 0 0.031603819192457999 0.0040752159399775976 0 0.031689484219741819 0.0042251368925736782 0 0.031317471188442629 0.0039336387983612267 0 0.031517051405285879 0.0041098232042705105 0 0.031603819192457999 0.0040752159399775976 0 0.031689484219741819 0.0042251368925736782 0 0.031783079064930705 0.0043116430746788096 0 0.031770384952600539 0.0042552248272082214 0 0.031603819192457999 0.0040752159399775976 0 0.031689484219741819 0.0042251368925736782 0 0.031770384952600539 0.0042552248272082214 0 0.033657749036553927 0.0045583839915677715 0 0.033158409025179705 0.0045175750706837872 0 0.031783079064930705 0.0043116430746788096 0 0.031770384952600539 0.0042552248272082214 0 0.031861393420936718 0.0043378768071751141 0 0.031517051405285879 0.0041098232042705105 0 0.031689484219741819 0.0042251368925736782 0 0.031718326578343586 0.0042589256711517151 0 0.032089759246754342 0.0044379387461102471 0 0.031718326578343586 0.0042589256711517151 0 0.031783079064930705 0.0043116430746788096 0 0.031689484219741819 0.0042251368925736782 0 0.031718326578343586 0.0042589256711517151 0 0.031783079064930705 0.0043116430746788096 0 0.035522133156012894 0.0048983939533353343 0 0.03534055584170747 0.0047795822441290053 0 0.035498127333084564 0.0050392315321883862 0 0.035522133156012894 0.0048983939533353343 0 0.03534055584170747 0.0047795822441290053 0 0.034563751066067384 0.0044872960791033142 0 0.035972189594041061 0.0051982041521536166 0 0.03534055584170747 0.0047795822441290053 0 0.034344120315608663 0.0048452507038715224 0 0.035972189594041061 0.0051982041521536166 0 0.03534055584170747 0.0047795822441290053 0 0.035498127333084564 0.0050392315321883862 0 0.032933217671383692 0.0046102927698661623 0 0.034563751066067384 0.0044872960791033142 0 0.034344120315608663 0.0048452507038715224 0 0.032089759246754342 0.0044379387461102471 0 0.031783079064930705 0.0043116430746788096 0 0.031861393420936718 0.0043378768071751141 0 0.03534055584170747 0.0047795822441290053 0 0.034563751066067384 0.0044872960791033142 0 0.034344120315608663 0.0048452507038715224 0 0.035972189594041061 0.0051982041521536166 0 0.034344120315608663 0.0048452507038715224 0 0.034107335683985822 0.005394760401219661 0 0.035972189594041061 0.0051982041521536166 0 0.038874381028680724 0.0051226275155702057 0 0.036699245865597911 0.0044684536317707042 0 0.036103102130396886 0.00518815356730991 0 0.036559993792513734 0.0051650504791804974 0 0.035972189594041061 0.0051982041521536166 0 0.035236303055582265 0.0048184739778600614 0 0.036699245865597911 0.0044684536317707042 0 0.035236303055582265 0.0048184739778600614 0 0.034363357427321974 0.0047318521622559751 0 0.034662268268745959 0.0042090982174108711 0 0.035236303055582265 0.0048184739778600614 0 0.034363357427321974 0.0047318521622559751 0 0.034405680744792028 0.0050988794657537001 0 0.035236303055582265 0.0048184739778600614 0 0.035498127333084564 0.0050392315321883862 0 0.034405680744792028 0.0050988794657537001 0 0.035972189594041061 0.0051982041521536166 0 0.035236303055582265 0.0048184739778600614 0 0.035498127333084564 0.0050392315321883862 0 0.033924092605283167 0.0046341350233369862 0 0.034363357427321974 0.0047318521622559751 0 0.033941134164925564 0.0048756083595266984 0 0.033924092605283167 0.0046341350233369862 0 0.034363357427321974 0.0047318521622559751 0 0.03414896719938959 0.0043023170919411421 0 0.034363357427321974 0.0047318521622559751 0 0.034662268268745959 0.0042090982174108711 0 0.03414896719938959 0.0043023170919411421 0 0.034363357427321974 0.0047318521622559751 0 0.033941134164925564 0.0048756083595266984 0 0.034405680744792028 0.0050988794657537001 0 0.033941134164925564 0.0048756083595266984 0 0.033589045557824236 0.0049640563311019563 0 0.033716760927014672 0.0046883828236679668 0 0.033905870361522747 0.0044351468264384273 0 0.033969688053157046 0.0048650360028132267 0 0.034002762870669848 0.0043635571001290879 0 0.033941134164925564 0.0048756083595266984 0 0.033716760927014672 0.0046883828236679668 0 0.033941134164925564 0.0048756083595266984 0 0.033803719891939046 0.0050279978924773084 0 0.033589045557824236 0.0049640563311019563 0 0.033803719891939046 0.0050279978924773084 0 0.034405680744792028 0.0050988794657537001 0 0.033959006660373013 0.0050245504435711156 0 0.033941134164925564 0.0048756083595266984 0 0.033803719891939046 0.0050279978924773084 0 0.034405680744792028 0.0050988794657537001 0 0.033803719891939046 0.0050279978924773084 0 0.033494800410484499 0.0050118437851042631 0 0.033959006660373013 0.0050245504435711156 0 0.033494800410484499 0.0050118437851042631 0 0.033959006660373013 0.0050245504435711156 0 0.033828495246623111 0.0050578344540995763 0 0.033803719891939046 0.0050279978924773084 0 0.033494800410484499 0.0050118437851042631 0 0.033353296388701138 0.005040756024399338 0 0.033803719891939046 0.0050279978924773084 0 0.033353296388701138 0.005040756024399338 0 0.033589045557824236 0.0049640563311019563 0 0.035498127333084564 0.0050392315321883862 0 0.034405680744792028 0.0050988794657537001 0 0.035377330724083444 0.0055322310938482064 0 0.035522133156012894 0.0048983939533353343 0 0.035498127333084564 0.0050392315321883862 0 0.035377330724083444 0.0055322310938482064 0 0.034907758794536017 0.0053702454132822861 0 0.033273228454950142 0.0047617824197515495 0 0.033959006660373013 0.0050245504435711156 0 0.03389387639361182 0.0050283857650443922 0 0.033828495246623111 0.0050578344540995763 0 0.033273228454950142 0.0047617824197515495 0 0.032908966528220222 0.0046979504954606285 0 0.034405680744792028 0.0050988794657537001 0 0.033959006660373013 0.0050245504435711156 0 0.03389387639361182 0.0050283857650443922 0 0.031535618210396063 0.0047580734471097171 0 0.031497824486956351 0.0041017858513804776 0 0.03101905366820493 0.0042825618810337189 0 0.031535618210396063 0.0047580734471097171 0 0.031497824486956351 0.0041017858513804776 0 0.032059491361177674 0.0043168902653273134 0 0.031497824486956351 0.0041017858513804776 0 0.032059491361177674 0.0043168902653273134 0 0.031952531842286899 0.003756065575283588 0 0.032059491361177674 0.0043168902653273134 0 0.031952531842286899 0.003756065575283588 0 0.032578627255952723 0.0038863428808574522 0 0.031172045492327122 0.0039754519775307973 0 0.030663894953356252 0.0037033300811609555 0 0.031497824486956351 0.0041017858513804776 0 0.031952531842286899 0.003756065575283588 0 0.031312892132763975 0.0036215505065236328 0 0.032994351693073735 0.0050191581988443855 0 0.032510324633956644 0.0045801096032008822 0 0.0331353098013785 0.0049639527121928678 0 0.033494800410484499 0.0050118437851042631 0 0.033353296388701138 0.005040756024399338 0 0.032994351693073735 0.0050191581988443855 0 0.033353296388701138 0.005040756024399338 0 0.032994351693073735 0.0050191581988443855 0 0.0331353098013785 0.0049639527121928678 0 0.032994351693073735 0.0050191581988443855 0 0.033183557467599267 0.0050196558133431069 0 0.032530651058308123 0.004944645971365731 0 0.032908966528220222 0.0046979504954606285 0 0.032335405298513434 0.0044654243000684657 0 0.033828495246623111 0.0050578344540995763 0 0.033183557467599267 0.0050196558133431069 0 0.033042729381543644 0.0051950634622900376 0 0.033494800410484499 0.0050118437851042631 0 0.033828495246623111 0.0050578344540995763 0 0.033183557467599267 0.0050196558133431069 0 0.033494800410484499 0.0050118437851042631 0 0.032994351693073735 0.0050191581988443855 0 0.033183557467599267 0.0050196558133431069 0 0.031172045492327122 0.0039754519775307973 0 0.032335405298513434 0.0044654243000684657 0 0.030437766021581936 0.0042150934171783809 0 0.031576595854496882 0.0047835809391629652 0 0.031025182778328983 0.0039033998131880487 0 0.031576595854496882 0.0047835809391629652 0 0.032078945396941963 0.0045120492993713035 0 0.031025182778328983 0.0039033998131880487 0 0.032335405298513434 0.0044654243000684657 0 0.032080908709576923 0.0046148368782026493 0 0.031962007239272082 0.0048579415973218337 0 0.032530651058308123 0.004944645971365731 0 0.032078945396941963 0.0045120492993713035 0 0.032335405298513434 0.0044654243000684657 0 0.032536117490313411 0.0046498506664788847 0 0.033183557467599267 0.0050196558133431069 0 0.033042729381543644 0.0051950634622900376 0 0.032530651058308123 0.004944645971365731 0 0.032994351693073735 0.0050191581988443855 0 0.032530651058308123 0.004944645971365731 0 0.032510324633956644 0.0045801096032008822 0 0.032530651058308123 0.004944645971365731 0 0.032078945396941963 0.0045120492993713035 0 0.032510324633956644 0.0045801096032008822 0 0.032078945396941963 0.0045120492993713035 0 0.032510324633956644 0.0045801096032008822 0 0.03163740706936282 0.0037224664666375496 0 0.032510324633956644 0.0045801096032008822 0 0.031916282930078685 0.003468924901898028 0 0.03163740706936282 0.0037224664666375496 0 0.03163740706936282 0.0037224664666375496 0 0.031025182778328983 0.0039033998131880487 0 0.030788559444846268 0.0032720027479316337 0 0.032078945396941963 0.0045120492993713035 0 0.03163740706936282 0.0037224664666375496 0 0.031025182778328983 0.0039033998131880487 0 0.03163740706936282 0.0037224664666375496 0 0.030788559444846268 0.0032720027479316337 0 0.031238172955654932 0.003081868851314039 0 0.030473846493817944 0.0026835409355058762 0 0.030788559444846268 0.0032720027479316337 0 0.031238172955654932 0.003081868851314039 0 0.031916282930078685 0.003468924901898028 0 0.031238172955654932 0.003081868851314039 0 0.031572371947996843 0.0030922550755440831 0 0.031916282930078685 0.003468924901898028 0 0.03163740706936282 0.0037224664666375496 0 0.031238172955654932 0.003081868851314039 0 0.029891524187047734 0.0037495149057780778 0 0.030254403713420721 0.0034475966562960451 0 0.029750737184422893 0.0029453697075206074 0 0.030437766021581936 0.0042150934171783809 0 0.029891524187047734 0.0037495149057780778 0 0.030254403713420721 0.0034475966562960451 0 0.031025182778328983 0.0039033998131880487 0 0.030788559444846268 0.0032720027479316337 0 0.030254403713420721 0.0034475966562960451 0 0.030437766021581936 0.0042150934171783809 0 0.031025182778328983 0.0039033998131880487 0 0.030254403713420721 0.0034475966562960451 0 0.03015480917731956 0.0028998817090947894 0 0.030788559444846268 0.0032720027479316337 0 0.030254403713420721 0.0034475966562960451 0 0.03015480917731956 0.0028998817090947894 0 0.030473846493817944 0.0026835409355058762 0 0.030788559444846268 0.0032720027479316337 0 0.03015480917731956 0.0028998817090947894 0 0.030254403713420721 0.0034475966562960451 0 0.029750737184422893 0.0029453697075206074 0 0.029360871987006973 0.0027441669202215792 0 0.029475647449570552 0.0033899858727289038 0 0.029264414144872807 0.0029562279459839939 0 0.029891524187047734 0.0037495149057780778 0 0.029750737184422893 0.0029453697075206074 0 0.029578337918845874 0.0034458464477287935 0 0.029485680251497309 0.0028612812183011456 0 0.029956111835742993 0.0034819856055400369 0 0.029628963826431192 0.0033492989413759513 0 0.029475647449570552 0.0033899858727289038 0 0.029264414144872807 0.0029562279459839939 0 0.029684314746420519 0.0034063256188390776 0 0.029956111835742993 0.0034819856055400369 0 0.029628963826431192 0.0033492989413759513 0 0.029264414144872807 0.0029562279459839939 0 0.029072709879506508 0.0029118423802089841 0 0.029360871987006973 0.0027441669202215792 0 0.029264414144872807 0.0029562279459839939 0 0.028886898921586156 0.0025243184182976398 0 0.029264414144872807 0.0029562279459839939 0 0.028886898921586156 0.0025243184182976398 0 0.029072709879506508 0.0029118423802089841 0 0.028096290596544799 0.0022080397744083293 0 0.028886898921586156 0.0025243184182976398 0 0.028652110507079397 0.0027324886817803764 0 0.028886898921586156 0.0025243184182976398 0 0.028652110507079397 0.0027324886817803764 0 0.029072709879506508 0.0029118423802089841 0 0.028096290596544799 0.0022080397744083293 0 0.028652110507079397 0.0027324886817803764 0 0.0282310087063967 0.0029589788136706397 0 0.0282310087063967 0.0029589788136706397 0 0.028919199925313731 0.0031414209259902513 0 0.028498731715782634 0.0035147112177377733 0 0.027949584221724045 0.0032498009851401059 0 0.0282310087063967 0.0029589788136706397 0 0.028498731715782634 0.0035147112177377733 0 0.028652110507079397 0.0027324886817803764 0 0.0282310087063967 0.0029589788136706397 0 0.028919199925313731 0.0031414209259902513 0 0.029628963826431192 0.0033492989413759513 0 0.029072709879506508 0.0029118423802089841 0 0.028919199925313731 0.0031414209259902513 0 0.028652110507079397 0.0027324886817803764 0 0.029072709879506508 0.0029118423802089841 0 0.028919199925313731 0.0031414209259902513 0 0.029628963826431192 0.0033492989413759513 0 0.028919199925313731 0.0031414209259902513 0 0.02994491557918352 0.0036540690429634078 0 0.030891585853971844 0.0036291930952486811 0 0.02994491557918352 0.0036540690429634078 0 0.030075651050614657 0.0036226749788123148 0 0.03069155991852178 0.00348504701896737 0 0.030891585853971844 0.0036291930952486811 0 0.030075651050614657 0.0036226749788123148 0 0.028919199925313731 0.0031414209259902513 0 0.028498731715782634 0.0035147112177377733 0 0.02994491557918352 0.0036540690429634078 0 0.029688709315953646 0.0035578070891686309 0 0.029935146384468588 0.0036377454834524672 0 0.03069155991852178 0.00348504701896737 0 0.030529662872130207 0.0035202179416297013 0 0.030797123457091881 0.0034664101613063659 0 0.03069155991852178 0.00348504701896737 0 0.030529662872130207 0.0035202179416297013 0 0.030075651050614657 0.0036226749788123148 0 0.029378043386076046 0.0033927110098457419 0 0.029688709315953646 0.0035578070891686309 0 0.03069155991852178 0.00348504701896737 0 0.030891585853971844 0.0036291930952486811 0 0.030826579211455391 0.0035987256087083941 0 0.030689791971631204 0.0034923824263762564 0 0.030891585853971844 0.0036291930952486811 0 0.030826579211455391 0.0035987256087083941 0 0.03069155991852178 0.00348504701896737 0 0.030826579211455391 0.0035987256087083941 0 0.030879710489778556 0.0036518800437326548 0 0.031094735008642155 0.0038615550810193904 0 0.030879710489778556 0.0036518800437326548 0 0.030777066764755483 0.0037384653335523696 0 0.030826579211455391 0.0035987256087083941 0 0.030879710489778556 0.0036518800437326548 0 0.030777066764755483 0.0037384653335523696 0 0.03069155991852178 0.00348504701896737 0 0.031015983516167668 0.0036946715810941976 0 0.030797123457091881 0.0034664101613063659 0 0.03069155991852178 0.00348504701896737 0 0.030879710489778556 0.0036518800437326548 0 0.031015983516167668 0.0036946715810941976 0 0.031094735008642155 0.0038615550810193904 0 0.030879710489778556 0.0036518800437326548 0 0.031015983516167668 0.0036946715810941976 0 0.031015983516167668 0.0036946715810941976 0 0.03126638194011562 0.0038005417836384811 0 0.030797123457091881 0.0034664101613063659 0 0.03116488238768636 0.0038407717185384191 0 0.030549687001636797 0.0036228017524425646 0 0.030797123457091881 0.0034664101613063659 0 0.031742322066615522 0.0036833739876008242 0 0.030956845689271768 0.0031593322472911866 0 0.03126638194011562 0.0038005417836384811 0 0.030797123457091881 0.0034664101613063659 0 0.031742322066615522 0.0036833739876008242 0 0.031497824486956351 0.0041017858513804776 0 0.03101905366820493 0.0042825618810337189 0 0.030956524049759161 0.0038385349953114394 0 0.031497824486956351 0.0041017858513804776 0 0.031312892132763975 0.0036215505065236328 0 0.030956524049759161 0.0038385349953114394 0 0.030663894953356252 0.0037033300811609555 0 0.029956111835742993 0.0034819856055400369 0 0.031312892132763975 0.0036215505065236328 0 0.030663609610332276 0.0034905277308116432 0 0.030956524049759161 0.0038385349953114394 0 0.03101905366820493 0.0042825618810337189 0 0.030956524049759161 0.0038385349953114394 0 0.030502429079626907 0.0038011923422646295 0 0.030663609610332276 0.0034905277308116432 0 0.030956524049759161 0.0038385349953114394 0 0.030502429079626907 0.0038011923422646295 0 0.029956111835742993 0.0034819856055400369 0 0.030549687001636797 0.0036228017524425646 0 0.030110830508437662 0.0035068955461029622 0 0.02994491557918352 0.0036540690429634078 0 0.029960083405180714 0.0036948404037417089 0 0.029628963826431192 0.0033492989413759513 0 0.030110830508437662 0.0035068955461029622 0 0.02994491557918352 0.0036540690429634078 0 0.02994491557918352 0.0036540690429634078 0 0.030075651050614657 0.0036226749788123148 0 0.029960083405180714 0.0036948404037417089 0 0.030329488134447205 0.0035586125972965877 0 0.030549687001636797 0.0036228017524425646 0 0.030529662872130207 0.0035202179416297013 0 0.030797123457091881 0.0034664101613063659 0 0.03036751580269333 0.00354986495087434 0 0.030529662872130207 0.0035202179416297013 0 0.030075651050614657 0.0036226749788123148 0 0.03036751580269333 0.00354986495087434 0 0.030671663892297796 0.0034707073314415126 0 0.030549687001636797 0.0036228017524425646 0 0.0095908461131272438 -0.00072368830816834403 0 0.0064987798155675212 0.00047152578125444643 0 0.0079802980751992603 -0.00027747119996547869 0 0.0084578411180642361 -0.0003563751737888102 0 0.0080346100101362904 -4.515870283870062e-05 0 0.010128569958070583 5.3863815209054527e-05 0 0.011970849323664491 -4.6626940802095488e-07 0 0.0089761854469273591 5.7054427404477646e-07 0 0.0084578411180642361 -0.0003563751737888102 0 0.0085404446331958615 -0.00083273205958959257 0 0.008398892446371764 -0.00078123765949538175 0 0.0091112958183179917 -5.0981270338165819e-05 0 0.011761615495106226 -0.00032948543331353162 0 0.010128569958070583 5.3863815209054527e-05 0 0.011970849323664491 -4.6626940802095488e-07 0 0.012345812576108919 -0.00011306043207810388 0 0.0084578411180642361 -0.0003563751737888102 0 0.0085404446331958615 -0.00083273205958959257 0 0.0087235341198616083 -0.00094968768093710006 0 0.011973579455142436 1.3992925327630964e-07 0 0.011761615495106226 -0.00032948543331353162 0 0.0079802980751992603 -0.00027747119996547869 0 0.0084578411180642361 -0.0003563751737888102 0 0.008398892446371764 -0.00078123765949538175 0 0.01110338228771793 -0.00056581257061139598 0 0.010682918013798915 0.0010326425607318382 0 0.012200322161077868 0.00030913384364198999 0 0.0089261736474906418 -0.0006495732889839716 0 0.013070936195060464 0.00033669927268618628 0 0.0079802980751992603 -0.00027747119996547869 0 0.008398892446371764 -0.00078123765949538175 0 0.0081973435415383881 -0.00079873435091851988 0 0.0095908461131272438 -0.00072368830816834403 0 0.013070936195060464 0.00033669927268618628 0 0.010682918013798915 0.0010326425607318382 0 0.012200322161077868 0.00030913384364198999 0 0.012569783579277249 0.0016255714146771532 0 0.012200322161077868 0.00030913384364198999 0 0.01402525447102191 0.00037625842023106731 0 0.012729281552123679 -0.00092376368136102107 0 0.012200322161077868 0.00030913384364198999 0 0.01402525447102191 0.00037625842023106731 0 0.012569783579277249 0.0016255714146771532 0 0.0047706559183656946 0.0041858267554976169 0 0.0037234281044257059 0.0030882597735128708 0 0.0052856749107583869 0.0035970536587512712 0 0.0037234281044257059 0.0030882597735128708 0 0.0046400463701741388 0.0020227568660120009 0 0.0052856749107583869 0.0035970536587512712 0 0.0093694976600136072 0.0022718092508505505 0 0.0082993494370452621 0.0010716677559657053 0 0.01110338228771793 -0.00056581257061139598 0 0.012200322161077868 0.00030913384364198999 0 0.012729281552123679 -0.00092376368136102107 0 0.01110338228771793 -0.00056581257061139598 0 0.012729281552123679 -0.00092376368136102107 0 0.011505943094924824 -0.0021287283244800876 0 0.0037234281044257059 0.0030882597735128708 0 0.002896795085552364 0.0020579759017529471 0 0.0036782193493880904 0.0017554589566099487 0 0.0082993494370452621 0.0010716677559657053 0 0.0064987798155675212 0.00047152578125444643 0 0.0037234281044257059 0.0030882597735128708 0 0.0036782193493880904 0.0017554589566099487 0 0.0046400463701741388 0.0020227568660120009 0 0.0036782193493880904 0.0017554589566099487 0 0.0031808407888747905 0.0011114070697177548 0 0.0039032419337573323 0.00082992708954840282 0 0.0036782193493880904 0.0017554589566099487 0 0.0039032419337573323 0.00082992708954840282 0 0.0046400463701741388 0.0020227568660120009 0 0.0051996316234298387 0.00022156037082529645 0 0.0066477573025965821 0.0014442816463343913 0 0.0029630501395057733 0.0019912818998956174 0 0.003163043547397684 0.001191434998291086 0 0.0027738953461788262 0.0011479689645535951 0 0.0064987798155675212 0.00047152578125444643 0 0.0029293354418712457 0.0015812801513744564 0 0.002896795085552364 0.0020579759017529471 0 0.0036782193493880904 0.0017554589566099487 0 0.0031808407888747905 0.0011114070697177548 0 0.0029630501395057733 0.0019912818998956174 0 0.0027738953461788262 0.0011479689645535951 0 0.0023019578525944598 0.00095619861249293398 0 0.0064987798155675212 0.00047152578125444643 0 0.0054679776237797472 0.00011411927059452194 0 0.0080016309517948071 4.8429294287780363e-05 0 0.0079049636785967856 -7.8009084101378596e-06 0 0.0078489422350344219 -0.00028968977833553853 0 0.0079802980751992603 -0.00027747119996547869 0 0.0080016309517948071 4.8429294287780363e-05 0 0.0080346100101362904 -4.515870283870062e-05 0 0.0080016309517948071 4.8429294287780363e-05 0 0.0079049636785967856 -7.8009084101378596e-06 0 0.0080346100101362904 -4.515870283870062e-05 0 0.0079049636785967856 -7.8009084101378596e-06 0 0.0080346100101362904 -4.515870283870062e-05 0 0.0080145379333115638 2.8544736006010844e-05 0 0.010128569958070583 5.3863815209054527e-05 0 0.0089761854469273591 5.7054427404477646e-07 0 0.0080145379333115638 2.8544736006010844e-05 0 0.0084578411180642361 -0.0003563751737888102 0 0.0080346100101362904 -4.515870283870062e-05 0 0.0080145379333115638 2.8544736006010844e-05 0 0.0091112958183179917 -5.0981270338165819e-05 0 0.0082745993792544721 0.00013127925082451935 0 0.0089761854469273591 5.7054427404477646e-07 0 0.0080145379333115638 2.8544736006010844e-05 0 0.0075647585216038577 8.6034877858488359e-05 0 0.0089761854469273591 5.7054427404477646e-07 0 0.0075647585216038577 8.6034877858488359e-05 0 0.0059790374012135428 -9.8017917194220871e-08 0 0.0079049636785967856 -7.8009084101378596e-06 0 0.0075647585216038577 8.6034877858488359e-05 0 0.0071556958954902897 -3.0220044908466755e-05 0 0.0079049636785967856 -7.8009084101378596e-06 0 0.0080145379333115638 2.8544736006010844e-05 0 0.0075647585216038577 8.6034877858488359e-05 0 0.0077095317482765435 0.00025251793929619584 0 0.0054679776237797472 0.00011411927059452194 0 0.0075647585216038577 8.6034877858488359e-05 0 0.0071556958954902897 -3.0220044908466755e-05 0 0.0059790374012135428 -9.8017917194220871e-08 0 0.0023019578525944598 0.00095619861249293398 0 0.0026661856814803489 0.00052156846258352458 0 0.0023087802214434286 0.00030166639352105821 0 0.0059790374012135428 -9.8017917194220871e-08 0 0.0053038895939177899 -2.4773789977782633e-05 0 0.0029820894840613026 -2.3613979095400995e-07 0 0.0054679776237797472 0.00011411927059452194 0 0.0056402631565718193 3.2618935895929214e-05 0 0.0050502988273731291 -0.0003159676872919168 0 0.0053038895939177899 -2.4773789977782633e-05 0 0.0049486298175663804 2.9448531017044237e-05 0 0.0054679776237797472 0.00011411927059452194 0 0.0035560908893919273 0.00025473244921488531 0 0.0071556958954902897 -3.0220044908466755e-05 0 0.0059790374012135428 -9.8017917194220871e-08 0 0.0053038895939177899 -2.4773789977782633e-05 0 0.003163043547397684 0.001191434998291086 0 0.0027738953461788262 0.0011479689645535951 0 0.0026661856814803489 0.00052156846258352458 0 0.0027738953461788262 0.0011479689645535951 0 0.0023019578525944598 0.00095619861249293398 0 0.0026661856814803489 0.00052156846258352458 0 0.0026661856814803489 0.00052156846258352458 0 0.0024198762577557348 0.00011514197366802757 0 0.0025371487364471198 0.00016083593874522735 0 0.0026661856814803489 0.00052156846258352458 0 0.0025371487364471198 0.00016083593874522735 0 0.0029260525500840371 0.00026383296241832421 0 0.0026661856814803489 0.00052156846258352458 0 0.0023087802214434286 0.00030166639352105821 0 0.0024198762577557348 0.00011514197366802757 0 0.0023087802214434286 0.00030166639352105821 0 0.0024198762577557348 0.00011514197366802757 0 0.002977877374399869 2.4685924123075896e-07 0 0.0053038895939177899 -2.4773789977782633e-05 0 0.0049486298175663804 2.9448531017044237e-05 0 0.0029820894840613026 -2.3613979095400995e-07 0 0.0035560908893919273 0.00025473244921488531 0 0.0029814989978091478 5.4399883366327868e-07 0 0.002977877374399869 2.4685924123075896e-07 0 0.0021358879610874023 0.00015696223621778981 0 0.0012476090051426396 9.1416897313448551e-07 0 0.0024198762577557348 0.00011514197366802757 0 0.002977877374399869 2.4685924123075896e-07 0 0.0021358879610874023 0.00015696223621778981 0 0.0024198762577557348 0.00011514197366802757 0 0.0021358879610874023 0.00015696223621778981 0 0.0025371487364471198 0.00016083593874522735 0 0.0025371487364471198 0.00016083593874522735 0 0.0024296991269844143 -3.6992912403662186e-05 0 0.0028177526903028004 7.5225571427785582e-05 0 0.0021358879610874023 0.00015696223621778981 0 0.0025371487364471198 0.00016083593874522735 0 0.0024296991269844143 -3.6992912403662186e-05 0 0.0021358879610874023 0.00015696223621778981 0 0.0024296991269844143 -3.6992912403662186e-05 0 0.0020449323776581471 -0.00034990522035726441 0 0.0024296991269844143 -3.6992912403662186e-05 0 0.0020449323776581471 -0.00034990522035726441 0 0.0029390103611888368 -0.00026802132108323613 0 -0.00048146789415853624 -1.9828658035152428e-06 0 0.0020449323776581471 -0.00034990522035726441 0 0.0012476090051426396 9.1416897313448551e-07 0 0.0021358879610874023 0.00015696223621778981 0 0.0020449323776581471 -0.00034990522035726441 0 0.0012476090051426396 9.1416897313448551e-07 0 0.0022172256297219471 0.00023607825967017374 0 0.0022155762801692306 0.0002752642092820317 0 0.0028023322699777592 -4.850579787450366e-06 0 0.0022172256297219471 0.00023607825967017374 0 0.0018510998222383162 0.00036972241373673509 0 0.0022155762801692306 0.0002752642092820317 0 0.0018510998222383162 0.00036972241373673509 0 0.0022155762801692306 0.0002752642092820317 0 0.0019663177643641002 0.00047639207705413772 0 0.0022155762801692306 0.0002752642092820317 0 0.0019663177643641002 0.00047639207705413772 0 0.0028023322699777592 -4.850579787450366e-06 0 0.0022172256297219471 0.00023607825967017374 0 0.0028023322699777592 -4.850579787450366e-06 0 0.0033585796990064517 -0.00027617991946578323 0 0.0022172256297219471 0.00023607825967017374 0 0.0033585796990064517 -0.00027617991946578323 0 0.0023602308413970536 0.00018761656006466962 0 0.0022172256297219471 0.00023607825967017374 0 0.0017634946583205992 0.00011535824935132858 0 0.0023602308413970536 0.00018761656006466962 0 0.0019048565652910244 4.6752936080033607e-06 0 0.0017634946583205992 0.00011535824935132858 0 0.0023602308413970536 0.00018761656006466962 0 0.0022172256297219471 0.00023607825967017374 0 0.0017634946583205992 0.00011535824935132858 0 0.0012530933367726354 0.0001503636255401714 0 0.0022172256297219471 0.00023607825967017374 0 0.0018510998222383162 0.00036972241373673509 0 0.0012530933367726354 0.0001503636255401714 0 0.00037370250866813838 -3.7676335192020952e-05 0 0.0020491800635690886 0.00013526293690666001 0 -3.8597084225688046e-05 -8.6284600403657228e-05 0 0.0012530933367726354 0.0001503636255401714 0 0.0011807892781705641 0.00061834506063657005 0 0.0018510998222383162 0.00036972241373673509 0 0.0012530933367726354 0.0001503636255401714 0 0.0011807892781705641 0.00061834506063657005 0 -3.8597084225688046e-05 -8.6284600403657228e-05 0 -0.0014796633301323294 0.00021721737908876105 0 0.0011807892781705641 0.00061834506063657005 0 0.0018510998222383162 0.00036972241373673509 0 0.0011807892781705641 0.00061834506063657005 0 0.0019663177643641002 0.00047639207705413772 0 0.0020491800635690886 0.00013526293690666001 0 0.0019883132287994046 0.00014344369509942993 0 0.0019168057444478115 0.00055675023708361701 0 0.0019663177643641002 0.00047639207705413772 0 0.0044317485435292313 -0.0011254289976016939 0 0.0024296991269844143 -3.6992912403662186e-05 0 0.0029390103611888368 -0.00026802132108323613 0 0.0028177526903028004 7.5225571427785582e-05 0 0.0029390103611888368 -0.00026802132108323613 0 0.0028177526903028004 7.5225571427785582e-05 0 0.0032937614252918179 0.00021357828168566139 0 0.0020491800635690886 0.00013526293690666001 0 0.0038362189702807093 -0.00052516332678230536 0 0.0025371487364471198 0.00016083593874522735 0 0.0028177526903028004 7.5225571427785582e-05 0 0.0029260525500840371 0.00026383296241832421 0 0.0019663177643641002 0.00047639207705413772 0 0.0028023322699777592 -4.850579787450366e-06 0 0.0044317485435292313 -0.0011254289976016939 0 0.0028023322699777592 -4.850579787450366e-06 0 0.0033585796990064517 -0.00027617991946578323 0 0.0044317485435292313 -0.0011254289976016939 0 0.0038362189702807093 -0.00052516332678230536 0 0.0051996316234298387 0.00022156037082529645 0 0.0044317485435292313 -0.0011254289976016939 0 0.0065340992235338059 -0.0002892668484595725 0 0.0055457100917382651 -0.0014609153888904605 0 0.0032937614252918179 0.00021357828168566139 0 0.003249608710807561 0.00051624220358098094 0 0.0039032419337573323 0.00082992708954840282 0 0.0033585796990064517 -0.00027617991946578323 0 0.0044317485435292313 -0.0011254289976016939 0 0.0055457100917382651 -0.0014609153888904605 0 0.0026661856814803489 0.00052156846258352458 0 0.0029260525500840371 0.00026383296241832421 0 0.003249608710807561 0.00051624220358098094 0 0.0028177526903028004 7.5225571427785582e-05 0 0.0032937614252918179 0.00021357828168566139 0 0.0029260525500840371 0.00026383296241832421 0 0.0032937614252918179 0.00021357828168566139 0 0.0029260525500840371 0.00026383296241832421 0 0.003249608710807561 0.00051624220358098094 0 0.003163043547397684 0.001191434998291086 0 0.0026661856814803489 0.00052156846258352458 0 0.003249608710807561 0.00051624220358098094 0 0.0031808407888747905 0.0011114070697177548 0 0.003249608710807561 0.00051624220358098094 0 0.0039032419337573323 0.00082992708954840282 0 0.0029293354418712457 0.0015812801513744564 0 0.0033141555420563356 0.00041427404604285005 0 0.0077257797818910167 -0.00067644949690806903 0 0.009446167197677208 -0.00065780662222466647 0 0.0095454877980635598 0.0002405182258975491 0 0.0065340992235338059 -0.0002892668484595725 0 0.0077257797818910167 -0.00067644949690806903 0 0.0095454877980635598 0.0002405182258975491 0 0.0065340992235338059 -0.0002892668484595725 0 0.0077257797818910167 -0.00067644949690806903 0 0.0055457100917382651 -0.0014609153888904605 0 0.009446167197677208 -0.00065780662222466647 0 0.011684457469423159 -0.00059218117616623633 0 0.0095454877980635598 0.0002405182258975491 0 0.0077257797818910167 -0.00067644949690806903 0 0.009446167197677208 -0.00065780662222466647 0 0.0091083876516814648 -0.0021295187649849785 0 0.009446167197677208 -0.00065780662222466647 0 0.0091083876516814648 -0.0021295187649849785 0 0.010741856285234741 -0.0017474419075484797 0 0.0091083876516814648 -0.0021295187649849785 0 0.010949468661207084 -0.0029665785542571477 0 0.010741856285234741 -0.0017474419075484797 0 0.0077257797818910167 -0.00067644949690806903 0 0.0091083876516814648 -0.0021295187649849785 0 0.0055457100917382651 -0.0014609153888904605 0 0.0091083876516814648 -0.0021295187649849785 0 0.0055457100917382651 -0.0014609153888904605 0 0.0085985992909321327 -0.0042946076972603742 0 0.0033585796990064517 -0.00027617991946578323 0 0.0055457100917382651 -0.0014609153888904605 0 0.0023682717849764943 -4.3755362569928423e-05 0 0.0052907975809465503 -0.0013235992419601329 0 0.0058178372681436004 -0.0021617305841167924 0 0.0091083876516814648 -0.0021295187649849785 0 0.0085985992909321327 -0.0042946076972603742 0 0.010335650981626227 -0.0041847996115128502 0 0.0091083876516814648 -0.0021295187649849785 0 0.010335650981626227 -0.0041847996115128502 0 0.010949468661207084 -0.0029665785542571477 0 0.010414221485001693 -0.0056047330574330355 0 0.0085985992909321327 -0.0042946076972603742 0 0.010335650981626227 -0.0041847996115128502 0 0.0022873048908475762 3.7304136081406601e-05 0 0.0025276802938040514 -2.9263563535912292e-05 0 0.0023682717849764943 -4.3755362569928423e-05 0 0.00442333616848404 -0.0027698845415249319 0 0.0058178372681436004 -0.0021617305841167924 0 0.0033585796990064517 -0.00027617991946578323 0 0.0023682717849764943 -4.3755362569928423e-05 0 0.0023602308413970536 0.00018761656006466962 0 0.0022873048908475762 3.7304136081406601e-05 0 0.0023682717849764943 -4.3755362569928423e-05 0 0.0023602308413970536 0.00018761656006466962 0 0.0019048565652910244 4.6752936080033607e-06 0 0.0022873048908475762 3.7304136081406601e-05 0 0.0023602308413970536 0.00018761656006466962 0 0.012516365523848371 -0.0054345038327678792 0 0.011319930604013151 -0.0046291657774072108 0 0.012877268300122507 -0.0045309910894742993 0 0.011319930604013151 -0.0046291657774072108 0 0.012477130943252257 -0.003856527094301078 0 0.012877268300122507 -0.0045309910894742993 0 0.01190716730097594 -0.0043798565126046893 0 0.012186397896727177 -0.004086908474608123 0 0.010414221485001693 -0.0056047330574330355 0 0.010335650981626227 -0.0041847996115128502 0 0.011473896851963362 -0.0047737844040173357 0 0.00442333616848404 -0.0027698845415249319 0 0.01190716730097594 -0.0043798565126046893 0 0.011473896851963362 -0.0047737844040173357 0 0.010949468661207084 -0.0029665785542571477 0 0.012477130943252257 -0.003856527094301078 0 0.010335650981626227 -0.0041847996115128502 0 0.011473896851963362 -0.0047737844040173357 0 0.010949468661207084 -0.0029665785542571477 0 0.012477130943252257 -0.003856527094301078 0 0.012192217214293628 -0.0024484350266135504 0 0.013727434681482433 -0.0033364060835510156 0 0.010949468661207084 -0.0029665785542571477 0 0.012477130943252257 -0.003856527094301078 0 0.012192217214293628 -0.0024484350266135504 0 0.010949468661207084 -0.0029665785542571477 0 0.012192217214293628 -0.0024484350266135504 0 0.010741856285234741 -0.0017474419075484797 0 0.012192217214293628 -0.0024484350266135504 0 0.010741856285234741 -0.0017474419075484797 0 0.011684457469423159 -0.00059218117616623633 0 0.009446167197677208 -0.00065780662222466647 0 0.010741856285234741 -0.0017474419075484797 0 0.011684457469423159 -0.00059218117616623633 0 0.012192217214293628 -0.0024484350266135504 0 0.011684457469423159 -0.00059218117616623633 0 0.01328141603916641 -0.0017354578152754909 0 0.011684457469423159 -0.00059218117616623633 0 0.01347763613001066 -0.0003722391610410368 0 0.01328141603916641 -0.0017354578152754909 0 0.011684457469423159 -0.00059218117616623633 0 0.011807957551097426 0.00042431728193615867 0 0.01347763613001066 -0.0003722391610410368 0 0.013028968594188613 0.00068763430338120439 0 0.011807957551097426 0.00042431728193615867 0 0.01347763613001066 -0.0003722391610410368 0 0.013028968594188613 0.00068763430338120439 0 0.013492350446810641 0.0014049806818357488 0 0.014230103518863736 0.00072127225569993108 0 0.013028968594188613 0.00068763430338120439 0 0.013492350446810641 0.0014049806818357488 0 0.012272990719777286 0.0012759788421908903 0 0.013028968594188613 0.00068763430338120439 0 0.011807957551097426 0.00042431728193615867 0 0.012272990719777286 0.0012759788421908903 0 0.011807957551097426 0.00042431728193615867 0 0.010727130324354753 0.0011855760399495394 0 0.012272990719777286 0.0012759788421908903 0 0.011684457469423159 -0.00059218117616623633 0 0.011807957551097426 0.00042431728193615867 0 0.0095454877980635598 0.0002405182258975491 0 0.0065340992235338059 -0.0002892668484595725 0 0.0095454877980635598 0.0002405182258975491 0 0.0086949124772058555 0.00099845435253207164 0 0.0086949124772058555 0.00099845435253207164 0 0.010727130324354753 0.0011855760399495394 0 0.0104455290485804 0.0019408551139325225 0 0.0095454877980635598 0.0002405182258975491 0 0.0086949124772058555 0.00099845435253207164 0 0.010727130324354753 0.0011855760399495394 0 0.011807957551097426 0.00042431728193615867 0 0.0095454877980635598 0.0002405182258975491 0 0.010727130324354753 0.0011855760399495394 0 0.010727130324354753 0.0011855760399495394 0 0.011572708192050996 0.0017750163324053094 0 0.012272990719777286 0.0012759788421908903 0 0.010727130324354753 0.0011855760399495394 0 0.011572708192050996 0.0017750163324053094 0 0.0104455290485804 0.0019408551139325225 0 0.0066477573025965821 0.0014442816463343913 0 0.0076308516130314408 0.0027696773339642546 0 0.0047706559183656946 0.0041858267554976169 0 0.0052856749107583869 0.0035970536587512712 0 0.0058869124379522042 0.0052329458028900315 0 0.0076308516130314408 0.0027696773339642546 0 0.010865934462056978 0.0034593456635313193 0 0.0093694976600136072 0.0022718092508505505 0 0.010865934462056978 0.0034593456635313193 0 0.011572708192050996 0.0017750163324053094 0 0.012353655180968896 0.0023465376143747122 0 0.012888853025463594 0.0019888211959975064 0 0.011572708192050996 0.0017750163324053094 0 0.0104455290485804 0.0019408551139325225 0 0.012353655180968896 0.0023465376143747122 0 0.0104455290485804 0.0019408551139325225 0 0.012353655180968896 0.0023465376143747122 0 0.011926128061322766 0.0028556685131867839 0 0.012353655180968896 0.0023465376143747122 0 0.012888853025463594 0.0019888211959975064 0 0.01339196693977562 0.0025522053846998346 0 0.012888853025463594 0.0019888211959975064 0 0.013881941893764805 0.0020984194271799323 0 0.01339196693977562 0.0025522053846998346 0 0.012888853025463594 0.0019888211959975064 0 0.013881941893764805 0.0020984194271799323 0 0.013492350446810641 0.0014049806818357488 0 0.013881941893764805 0.0020984194271799323 0 0.013492350446810641 0.0014049806818357488 0 0.014649504192591171 0.0015530331582575053 0 0.012888853025463594 0.0019888211959975064 0 0.013492350446810641 0.0014049806818357488 0 0.012272990719777286 0.0012759788421908903 0 0.011572708192050996 0.0017750163324053094 0 0.012888853025463594 0.0019888211959975064 0 0.012272990719777286 0.0012759788421908903 0 0.015749275504379059 0.0011723524318756856 0 0.014649504192591171 0.0015530331582575053 0 0.014230103518863736 0.00072127225569993108 0 0.013492350446810641 0.0014049806818357488 0 0.014649504192591171 0.0015530331582575053 0 0.014230103518863736 0.00072127225569993108 0 0.013881941893764805 0.0020984194271799323 0 0.014649504192591171 0.0015530331582575053 0 0.01480310029157769 0.0021885606630478571 0 0.014649504192591171 0.0015530331582575053 0 0.016242431241352561 0.0017452336082717235 0 0.01480310029157769 0.0021885606630478571 0 0.015749275504379059 0.0011723524318756856 0 0.014649504192591171 0.0015530331582575053 0 0.016242431241352561 0.0017452336082717235 0 0.015749275504379059 0.0011723524318756856 0 0.016242431241352561 0.0017452336082717235 0 0.017508401418491398 0.0023219308201382961 0 0.016423486937237049 0.0017347139400577575 0 0.018195269957251806 0.0013987547882721391 0 0.017508401418491398 0.0023219308201382961 0 0.017085661686131629 0.0004304319240876192 0 0.018340775699813922 0.0013683185574303544 0 0.015749275504379059 0.0011723524318756856 0 0.017508401418491398 0.0023219308201382961 0 0.017085661686131629 0.0004304319240876192 0 0.015749275504379059 0.0011723524318756856 0 0.017085661686131629 0.0004304319240876192 0 0.015052223486834965 -0.00010096063863473808 0 0.017085661686131629 0.0004304319240876192 0 0.016201043905199046 -0.00088966386604504846 0 0.017341637247162336 -0.0016530453961173196 0 0.017085661686131629 0.0004304319240876192 0 0.016201043905199046 -0.00088966386604504846 0 0.015052223486834965 -0.00010096063863473808 0 0.015036238372274011 -0.00019641199426339269 0 0.015161496098369835 -0.0018615305205432048 0 0.015052223486834965 -0.00010096063863473808 0 0.01347763613001066 -0.0003722391610410368 0 0.015012530384499486 -0.0015803374811399753 0 0.016201043905199046 -0.00088966386604504846 0 0.015052223486834965 -0.00010096063863473808 0 0.015303857070963552 -0.0022239349751919288 0 0.015749275504379059 0.0011723524318756856 0 0.015052223486834965 -0.00010096063863473808 0 0.014230103518863736 0.00072127225569993108 0 0.013028968594188613 0.00068763430338120439 0 0.014230103518863736 0.00072127225569993108 0 0.01347763613001066 -0.0003722391610410368 0 0.015052223486834965 -0.00010096063863473808 0 0.014230103518863736 0.00072127225569993108 0 0.01347763613001066 -0.0003722391610410368 0 0.01347763613001066 -0.0003722391610410368 0 0.015012530384499486 -0.0015803374811399753 0 0.01328141603916641 -0.0017354578152754909 0 0.015161496098369835 -0.0018615305205432048 0 0.015280932430492106 -0.0035933457167675611 0 0.015012530384499486 -0.0015803374811399753 0 0.013727434681482433 -0.0033364060835510156 0 0.01507881146015609 -0.0033340153362359103 0 0.015012530384499486 -0.0015803374811399753 0 0.01328141603916641 -0.0017354578152754909 0 0.013727434681482433 -0.0033364060835510156 0 0.012192217214293628 -0.0024484350266135504 0 0.01328141603916641 -0.0017354578152754909 0 0.013727434681482433 -0.0033364060835510156 0 0.013727434681482433 -0.0033364060835510156 0 0.014399081340213046 -0.0043078753125197836 0 0.01507881146015609 -0.0033340153362359103 0 0.015312800692275842 -0.0051098616677466829 0 0.014399081340213046 -0.0043078753125197836 0 0.01507881146015609 -0.0033340153362359103 0 0.013727434681482433 -0.0033364060835510156 0 0.014399081340213046 -0.0043078753125197836 0 0.013755519956996462 -0.0045609909157219505 0 0.014201469564688556 -0.0052362992411072624 0 0.014399081340213046 -0.0043078753125197836 0 0.013755519956996462 -0.0045609909157219505 0 0.012477130943252257 -0.003856527094301078 0 0.013727434681482433 -0.0033364060835510156 0 0.012877268300122507 -0.0045309910894742993 0 0.013338252690321959 -0.005245174166807377 0 0.013755519956996462 -0.0045609909157219505 0 0.012877268300122507 -0.0045309910894742993 0 0.013727434681482433 -0.0033364060835510156 0 0.013755519956996462 -0.0045609909157219505 0 0.012877268300122507 -0.0045309910894742993 0 0.017298292036261691 -0.0049529052500074866 0 0.016191211056479082 -0.0051623993205185525 0 0.016764035011155833 -0.0040479837178414059 0 0.016191211056479082 -0.0051623993205185525 0 0.015966270914401004 -0.0044866694537772471 0 0.016764035011155833 -0.0040479837178414059 0 0.015312800692275842 -0.0051098616677466829 0 0.016191211056479082 -0.0051623993205185525 0 0.015966270914401004 -0.0044866694537772471 0 0.015312800692275842 -0.0051098616677466829 0 0.015966270914401004 -0.0044866694537772471 0 0.0155026648707917 -0.0037996930802655939 0 0.015341792535523731 -0.0050426387103299046 0 0.015280932430492106 -0.0035933457167675611 0 0.015966270914401004 -0.0044866694537772471 0 0.0155026648707917 -0.0037996930802655939 0 0.016764035011155833 -0.0040479837178414059 0 0.0155026648707917 -0.0037996930802655939 0 0.016764035011155833 -0.0040479837178414059 0 0.017090837324722549 -0.0030360193565719235 0 0.016764035011155833 -0.0040479837178414059 0 0.017090837324722549 -0.0030360193565719235 0 0.017694355737245506 -0.0038068244067708261 0 0.015303857070963552 -0.0022239349751919288 0 0.0155026648707917 -0.0037996930802655939 0 0.017090837324722549 -0.0030360193565719235 0 0.016201043905199046 -0.00088966386604504846 0 0.015303857070963552 -0.0022239349751919288 0 0.017341637247162336 -0.0016530453961173196 0 0.015303857070963552 -0.0022239349751919288 0 0.017090837324722549 -0.0030360193565719235 0 0.017341637247162336 -0.0016530453961173196 0 0.017090837324722549 -0.0030360193565719235 0 0.017341637247162336 -0.0016530453961173196 0 0.018733252805022544 -0.0018821069633009225 0 0.018733252805022544 -0.0018821069633009225 0 0.018463950925105679 -0.003244561342305594 0 0.019803121069187468 -0.0021226116935463774 0 0.018733252805022544 -0.0018821069633009225 0 0.019803121069187468 -0.0021226116935463774 0 0.019780068822623825 -0.00034862944354152413 0 0.017090837324722549 -0.0030360193565719235 0 0.018733252805022544 -0.0018821069633009225 0 0.018463950925105679 -0.003244561342305594 0 0.017090837324722549 -0.0030360193565719235 0 0.018463950925105679 -0.003244561342305594 0 0.017694355737245506 -0.0038068244067708261 0 0.016764035011155833 -0.0040479837178414059 0 0.017694355737245506 -0.0038068244067708261 0 0.017777654003110325 -0.0044299975539117027 0 0.017694355737245506 -0.0038068244067708261 0 0.018237530243290456 -0.004003572951964701 0 0.017777654003110325 -0.0044299975539117027 0 0.018463950925105679 -0.003244561342305594 0 0.017694355737245506 -0.0038068244067708261 0 0.018237530243290456 -0.004003572951964701 0 0.018463950925105679 -0.003244561342305594 0 0.018237530243290456 -0.004003572951964701 0 0.018526502385539548 -0.0040992964336021911 0 0.017985134911894594 -0.004861437337128547 0 0.017777654003110325 -0.0044299975539117027 0 0.018266782588895122 -0.0044776779599377398 0 0.018237530243290456 -0.004003572951964701 0 0.017777654003110325 -0.0044299975539117027 0 0.018266782588895122 -0.0044776779599377398 0 0.017298292036261691 -0.0049529052500074866 0 0.016764035011155833 -0.0040479837178414059 0 0.017777654003110325 -0.0044299975539117027 0 0.017298292036261691 -0.0049529052500074866 0 0.017985134911894594 -0.004861437337128547 0 0.017777654003110325 -0.0044299975539117027 0 0.018470951562898168 -0.004648865693216475 0 0.018266782588895122 -0.0044776779599377398 0 0.018526502385539548 -0.0040992964336021911 0 0.018220232658967248 -0.0048787269482348837 0 0.018470951562898168 -0.004648865693216475 0 0.018266782588895122 -0.0044776779599377398 0 0.018237530243290456 -0.004003572951964701 0 0.018266782588895122 -0.0044776779599377398 0 0.018526502385539548 -0.0040992964336021911 0 0.017693769923280138 -0.0080831495532166561 0 0.019052256732809903 -0.0069258173270439777 0 0.0201803971209851 -0.0089228703011314543 0 0.020923824352240446 -0.0050245782676294828 0 0.02037272833218038 -0.0046945976369050782 0 0.018722961214614125 -0.005999142291716171 0 0.02037272833218038 -0.0046945976369050782 0 0.023612278873196071 -0.0017094267866883967 0 0.02359660621441554 -0.0015134816168094853 0 0.023125159874343167 -0.001943302943969546 0 0.02359660621441554 -0.0015134816168094853 0 0.023125159874343167 -0.001943302943969546 0 0.023110282838388577 -0.0015914230983371423 0 0.02359660621441554 -0.0015134816168094853 0 0.023110282838388577 -0.0015914230983371423 0 0.023694164053551559 -0.0011476195675692838 0 0.02037272833218038 -0.0046945976369050782 0 0.021106924099589499 -0.001518078385882817 0 0.018129588837860252 -0.0030724241615233809 0 0.02037272833218038 -0.0046945976369050782 0 0.023125159874343167 -0.001943302943969546 0 0.023110282838388577 -0.0015914230983371423 0 0.022145298288409894 -0.0016804382523518163 0 0.018463950925105679 -0.003244561342305594 0 0.020834421165928256 -0.0040681514378880486 0 0.019803121069187468 -0.0021226116935463774 0 0.023110282838388577 -0.0015914230983371423 0 0.022145298288409894 -0.0016804382523518163 0 0.022830897095429445 -0.00056958696224788117 0 0.023110282838388577 -0.0015914230983371423 0 0.023694164053551559 -0.0011476195675692838 0 0.022830897095429445 -0.00056958696224788117 0 0.024308782452510481 0.00024534108135592828 0 0.023639340403416979 0.0005584362431704671 0 0.022830897095429445 -0.00056958696224788117 0 0.023694164053551559 -0.0011476195675692838 0 0.024308782452510481 0.00024534108135592828 0 0.022830897095429445 -0.00056958696224788117 0 0.024308782452510481 0.00024534108135592828 0 0.023639340403416979 0.0005584362431704671 0 0.024523897133408256 0.0011701269242022411 0 0.023639340403416979 0.0005584362431704671 0 0.024523897133408256 0.0011701269242022411 0 0.023714578141055414 0.0015386304657439365 0 0.023639340403416979 0.0005584362431704671 0 0.021402717623038699 0.00084841602508925744 0 0.023714578141055414 0.0015386304657439365 0 0.023639340403416979 0.0005584362431704671 0 0.022830897095429445 -0.00056958696224788117 0 0.021402717623038699 0.00084841602508925744 0 0.022145298288409894 -0.0016804382523518163 0 0.022830897095429445 -0.00056958696224788117 0 0.019780068822623825 -0.00034862944354152413 0 0.021106924099589499 -0.001518078385882817 0 0.019780066326466176 -0.00041810215965547369 0 0.017085661686131629 0.0004304319240876192 0 0.017341637247162336 -0.0016530453961173196 0 0.019780068822623825 -0.00034862944354152413 0 0.017341637247162336 -0.0016530453961173196 0 0.018733252805022544 -0.0018821069633009225 0 0.019780068822623825 -0.00034862944354152413 0 0.019780068822623825 -0.00034862944354152413 0 0.019855580812077198 0.0010622351518147846 0 0.018340775699813922 0.0013683185574303544 0 0.017085661686131629 0.0004304319240876192 0 0.019780068822623825 -0.00034862944354152413 0 0.018340775699813922 0.0013683185574303544 0 0.019780068822623825 -0.00034862944354152413 0 0.019855580812077198 0.0010622351518147846 0 0.021402717623038699 0.00084841602508925744 0 0.022830897095429445 -0.00056958696224788117 0 0.019780068822623825 -0.00034862944354152413 0 0.021402717623038699 0.00084841602508925744 0 0.019855580812077198 0.0010622351518147846 0 0.021402717623038699 0.00084841602508925744 0 0.020046445621051789 0.0024551927959792249 0 0.021402717623038699 0.00084841602508925744 0 0.020046445621051789 0.0024551927959792249 0 0.021360700955052821 0.0023040567973859252 0 0.020418503495910057 0.0011695110719590438 0 0.022284278750880099 0.00081470337846471048 0 0.019855580812077198 0.0010622351518147846 0 0.020046445621051789 0.0024551927959792249 0 0.018340775699813922 0.0013683185574303544 0 0.017508401418491398 0.0023219308201382961 0 0.020046445621051789 0.0024551927959792249 0 0.018340775699813922 0.0013683185574303544 0 0.018195269957251806 0.0013987547882721391 0 0.020418503495910057 0.0011695110719590438 0 0.018797547063333028 0.00047567819471415544 0 0.020735655734963825 -0.00011199323288270108 0 0.020043229903804964 0.00095750242533220592 0 0.018797547063333028 0.00047567819471415544 0 0.020043229903804964 0.00095750242533220592 0 0.019764536933472698 0.0020604584986199672 0 0.022284278750880099 0.00081470337846471048 0 0.022798182979199909 0.0014501420585193165 0 0.024402078095300744 0.001517128879195585 0 0.02455499321908337 0.0015269709325954814 0 0.024538257449533342 0.0014954975035167254 0 0.020735655734963825 -0.00011199323288270108 0 0.021428844543749485 -0.00033027325788948138 0 0.020897998559775775 0.0015682776456671186 0 0.020735655734963825 -0.00011199323288270108 0 0.020043229903804964 0.00095750242533220592 0 0.020897998559775775 0.0015682776456671186 0 0.024402078095300744 0.001517128879195585 0 0.02455499321908337 0.0015269709325954814 0 0.024211425117270848 0.0015105295124336663 0 0.02455499321908337 0.0015269709325954814 0 0.024612125023836803 0.0015874432706040214 0 0.024211425117270848 0.0015105295124336663 0 0.025323232817565763 0.0017365336437718466 0 0.024612125023836803 0.0015874432706040214 0 0.025261904899466902 0.0018100055995453458 0 0.02455499321908337 0.0015269709325954814 0 0.024612125023836803 0.0015874432706040214 0 0.025261904899466902 0.0018100055995453458 0 0.025323232817565763 0.0017365336437718466 0 0.024939228716435325 0.0015011860306930523 0 0.024612125023836803 0.0015874432706040214 0 0.024939228716435325 0.0015011860306930523 0 0.024612125023836803 0.0015874432706040214 0 0.024523897133408256 0.0011701269242022411 0 0.024612125023836803 0.0015874432706040214 0 0.024523897133408256 0.0011701269242022411 0 0.023714578141055414 0.0015386304657439365 0 0.021402717623038699 0.00084841602508925744 0 0.021360700955052821 0.0023040567973859252 0 0.023714578141055414 0.0015386304657439365 0 0.022284278750880099 0.00081470337846471048 0 0.023678320510420389 0.0015140327162833016 0 0.024402078095300744 0.001517128879195585 0 0.023714578141055414 0.0015386304657439365 0 0.024211425117270848 0.0015105295124336663 0 0.024612125023836803 0.0015874432706040214 0 0.023714578141055414 0.0015386304657439365 0 0.024211425117270848 0.0015105295124336663 0 0.024993491287363154 0.0017079644708167805 0 0.024095083297086518 0.0017186625809231411 0 0.025713231360641887 0.0022849508283747412 0 0.025503792605763277 0.0019837362713263974 0 0.024993491287363154 0.0017079644708167805 0 0.025713231360641887 0.0022849508283747412 0 0.025990770420710012 0.0021926885547414914 0 0.025503792605763277 0.0019837362713263974 0 0.025261904899466902 0.0018100055995453458 0 0.025990770420710012 0.0021926885547414914 0 0.025503792605763277 0.0019837362713263974 0 0.025713231360641887 0.0022849508283747412 0 0.025503792605763277 0.0019837362713263974 0 0.025261904899466902 0.0018100055995453458 0 0.024993491287363154 0.0017079644708167805 0 0.02455499321908337 0.0015269709325954814 0 0.025261904899466902 0.0018100055995453458 0 0.024993491287363154 0.0017079644708167805 0 0.02455499321908337 0.0015269709325954814 0 0.024993491287363154 0.0017079644708167805 0 0.024538257449533342 0.0014954975035167254 0 0.020897998559775775 0.0015682776456671186 0 0.019764536933472698 0.0020604584986199672 0 0.020614255006557225 0.0031956553592317732 0 0.020043229903804964 0.00095750242533220592 0 0.020897998559775775 0.0015682776456671186 0 0.019764536933472698 0.0020604584986199672 0 0.019764536933472698 0.0020604584986199672 0 0.020614255006557225 0.0031956553592317732 0 0.019466506300356047 0.0029786475398998506 0 0.024993491287363154 0.0017079644708167805 0 0.024538257449533342 0.0014954975035167254 0 0.024095083297086518 0.0017186625809231411 0 0.022798182979199909 0.0014501420585193165 0 0.022319285105105006 0.0026052276075289992 0 0.024095083297086518 0.0017186625809231411 0 0.021864045210045958 0.0043421910223307358 0 0.025132331351797602 0.0028385155337334366 0 0.024095083297086518 0.0017186625809231411 0 0.025132331351797602 0.0028385155337334366 0 0.025713231360641887 0.0022849508283747412 0 0.020614255006557225 0.0031956553592317732 0 0.020129258135793075 0.0038130350554663448 0 0.019466506300356047 0.0029786475398998506 0 0.020614255006557225 0.0031956553592317732 0 0.021864045210045958 0.0043421910223307358 0 0.020129258135793075 0.0038130350554663448 0 0.022319285105105006 0.0026052276075289992 0 0.021849564109505851 0.0043753563256390916 0 0.021864045210045958 0.0043421910223307358 0 0.021545625183163785 0.0046013532355535522 0 0.026060359963327534 0.003582439824930261 0 0.021864045210045958 0.0043421910223307358 0 0.021545625183163785 0.0046013532355535522 0 0.020129258135793075 0.0038130350554663448 0 0.027112346082800897 0.0025225100033468254 0 0.027060804436572987 0.002519818642027783 0 0.026890388389786565 0.0027926331971968471 0 0.027112346082800897 0.0025225100033468254 0 0.027060804436572987 0.002519818642027783 0 0.026992000406042143 0.002178334460438928 0 0.027060804436572987 0.002519818642027783 0 0.027030818842514039 0.002479488034370537 0 0.026992000406042143 0.002178334460438928 0 0.024140491669543275 0.0034607645481549423 0 0.025773608137546835 0.0035995031635146064 0 0.021864045210045958 0.0043421910223307358 0 0.025132331351797602 0.0028385155337334366 0 0.026060359963327534 0.003582439824930261 0 0.025132331351797602 0.0028385155337334366 0 0.026289143257282054 0.0029821465729659123 0 0.026060359963327534 0.003582439824930261 0 0.025132331351797602 0.0028385155337334366 0 0.025713231360641887 0.0022849508283747412 0 0.026289143257282054 0.0029821465729659123 0 0.025990770420710012 0.0021926885547414914 0 0.026939802360063301 0.0025163985872454302 0 0.025713231360641887 0.0022849508283747412 0 0.026939802360063301 0.0025163985872454302 0 0.025713231360641887 0.0022849508283747412 0 0.026289143257282054 0.0029821465729659123 0 0.026939802360063301 0.0025163985872454302 0 0.026289143257282054 0.0029821465729659123 0 0.02702532519920308 0.0031620592564642717 0 0.026289143257282054 0.0029821465729659123 0 0.02702532519920308 0.0031620592564642717 0 0.026623114013992567 0.0033233934657890497 0 0.026289143257282054 0.0029821465729659123 0 0.026623114013992567 0.0033233934657890497 0 0.026060359963327534 0.003582439824930261 0 0.026623114013992567 0.0033233934657890497 0 0.026829005909911097 0.0029801927277840591 0 0.026060359963327534 0.003582439824930261 0 0.026623114013992567 0.0033233934657890497 0 0.02706335289566154 0.0032172802316491615 0 0.026829005909911097 0.0029801927277840591 0 0.026623114013992567 0.0033233934657890497 0 0.02706335289566154 0.0032172802316491615 0 0.02722754571080261 0.0033904129971075447 0 0.02706335289566154 0.0032172802316491615 0 0.02722754571080261 0.0033904129971075447 0 0.027522963469936001 0.0034785140897397406 0 0.02702532519920308 0.0031620592564642717 0 0.026623114013992567 0.0033233934657890497 0 0.02722754571080261 0.0033904129971075447 0 0.027661258305282637 0.0034524579147328289 0 0.02702532519920308 0.0031620592564642717 0 0.02722754571080261 0.0033904129971075447 0 0.027661258305282637 0.0034524579147328289 0 0.02722754571080261 0.0033904129971075447 0 0.02775504412268091 0.0036227913076942002 0 0.02833179394255448 0.0039908429121030663 0 0.028108316856919262 0.0038053357242418947 0 0.028064119176788211 0.0038279636677997371 0 0.028108316856919262 0.0038053357242418947 0 0.02775504412268091 0.0036227913076942002 0 0.028064119176788211 0.0038279636677997371 0 0.02775504412268091 0.0036227913076942002 0 0.027522963469936001 0.0034785140897397406 0 0.027923515821430368 0.003760794182718916 0 0.02775504412268091 0.0036227913076942002 0 0.028064119176788211 0.0038279636677997371 0 0.027923515821430368 0.003760794182718916 0 0.02722754571080261 0.0033904129971075447 0 0.02775504412268091 0.0036227913076942002 0 0.027522963469936001 0.0034785140897397406 0 0.02706335289566154 0.0032172802316491615 0 0.027522963469936001 0.0034785140897397406 0 0.027271186075620058 0.0032613950383395128 0 0.027522963469936001 0.0034785140897397406 0 0.027840851918684566 0.0037242617679968692 0 0.027567471816202133 0.0035023728469339012 0 0.027522963469936001 0.0034785140897397406 0 0.027567471816202133 0.0035023728469339012 0 0.027271186075620058 0.0032613950383395128 0 0.027522963469936001 0.0034785140897397406 0 0.027840851918684566 0.0037242617679968692 0 0.027923515821430368 0.003760794182718916 0 0.027840851918684566 0.0037242617679968692 0 0.028173059217617244 0.0039875048681931365 0 0.027923515821430368 0.003760794182718916 0 0.027840851918684566 0.0037242617679968692 0 0.027567471816202133 0.0035023728469339012 0 0.027764510089496028 0.003695438924360109 0 0.027567471816202133 0.0035023728469339012 0 0.027764510089496028 0.003695438924360109 0 0.027553553847098716 0.0035188355672418495 0 0.027840851918684566 0.0037242617679968692 0 0.027764510089496028 0.003695438924360109 0 0.028056552727076647 0.0039551625686315593 0 0.027764510089496028 0.003695438924360109 0 0.028056552727076647 0.0039551625686315593 0 0.027814815087369129 0.0038073222420329264 0 0.027840851918684566 0.0037242617679968692 0 0.028056552727076647 0.0039551625686315593 0 0.028173059217617244 0.0039875048681931365 0 0.028056552727076647 0.0039551625686315593 0 0.028173059217617244 0.0039875048681931365 0 0.028380134137936143 0.0042031857272103179 0 0.028173059217617244 0.0039875048681931365 0 0.028452112894501599 0.0041897507253591702 0 0.028240507621435922 0.0039877652639225322 0 0.028173059217617244 0.0039875048681931365 0 0.028452112894501599 0.0041897507253591702 0 0.028380134137936143 0.0042031857272103179 0 0.02854412216767126 0.0041938540755356588 0 0.028452112894501599 0.0041897507253591702 0 0.028240507621435922 0.0039877652639225322 0 0.02854412216767126 0.0041938540755356588 0 0.028452112894501599 0.0041897507253591702 0 0.028768154936174056 0.004424928469243904 0 0.02854412216767126 0.0041938540755356588 0 0.02833179394255448 0.0039908429121030663 0 0.028240507621435922 0.0039877652639225322 0 0.02833179394255448 0.0039908429121030663 0 0.028064119176788211 0.0038279636677997371 0 0.028240507621435922 0.0039877652639225322 0 0.028064119176788211 0.0038279636677997371 0 0.028240507621435922 0.0039877652639225322 0 0.027923515821430368 0.003760794182718916 0 0.028173059217617244 0.0039875048681931365 0 0.028240507621435922 0.0039877652639225322 0 0.027923515821430368 0.003760794182718916 0 0.02730789962607055 0.0033749061165410589 0 0.027147008425463023 0.0031748368472063787 0 0.027261134357811908 0.0034601762803008768 0 0.02730789962607055 0.0033749061165410589 0 0.027147008425463023 0.0031748368472063787 0 0.027309402209066559 0.0032767635882589995 0 0.027147008425463023 0.0031748368472063787 0 0.027088138125802273 0.0032890796302799713 0 0.026970481676052978 0.0030839910126606793 0 0.027088138125802273 0.0032890796302799713 0 0.027261134357811908 0.0034601762803008768 0 0.02717623941557613 0.0035611067169447081 0 0.027147008425463023 0.0031748368472063787 0 0.027088138125802273 0.0032890796302799713 0 0.027261134357811908 0.0034601762803008768 0 0.027088138125802273 0.0032890796302799713 0 0.0269730765087304 0.0033425002046204009 0 0.02717623941557613 0.0035611067169447081 0 0.027261134357811908 0.0034601762803008768 0 0.027527521998500851 0.0036139565940082412 0 0.027427371491732584 0.0036923142287187058 0 0.02730789962607055 0.0033749061165410589 0 0.027261134357811908 0.0034601762803008768 0 0.027527521998500851 0.0036139565940082412 0 0.027527521998500851 0.0036139565940082412 0 0.027814815087369129 0.0038073222420329264 0 0.027553553847098716 0.0035188355672418495 0 0.027764510089496028 0.003695438924360109 0 0.027814815087369129 0.0038073222420329264 0 0.027553553847098716 0.0035188355672418495 0 0.027567471816202133 0.0035023728469339012 0 0.027553553847098716 0.0035188355672418495 0 0.027329647287279258 0.0032754681649888109 0 0.027553553847098716 0.0035188355672418495 0 0.027309402209066559 0.0032767635882589995 0 0.027329647287279258 0.0032754681649888109 0 0.027527521998500851 0.0036139565940082412 0 0.027553553847098716 0.0035188355672418495 0 0.027309402209066559 0.0032767635882589995 0 0.02730789962607055 0.0033749061165410589 0 0.027527521998500851 0.0036139565940082412 0 0.027309402209066559 0.0032767635882589995 0 0.027309402209066559 0.0032767635882589995 0 0.027162052952083768 0.0030791591328590542 0 0.027159073941224649 0.0030723499487406384 0 0.027309402209066559 0.0032767635882589995 0 0.027329647287279258 0.0032754681649888109 0 0.027162052952083768 0.0030791591328590542 0 0.027567471816202133 0.0035023728469339012 0 0.027329647287279258 0.0032754681649888109 0 0.027271186075620058 0.0032613950383395128 0 0.027271186075620058 0.0032613950383395128 0 0.027162052952083768 0.0030791591328590542 0 0.027062343333920411 0.003075153841303723 0 0.027329647287279258 0.0032754681649888109 0 0.027271186075620058 0.0032613950383395128 0 0.027162052952083768 0.0030791591328590542 0 0.027074993786683679 0.0029147415890539165 0 0.027159073941224649 0.0030723499487406384 0 0.027046481443739969 0.0029615200474492694 0 0.027162052952083768 0.0030791591328590542 0 0.027074993786683679 0.0029147415890539165 0 0.027159073941224649 0.0030723499487406384 0 0.027162052952083768 0.0030791591328590542 0 0.027074993786683679 0.0029147415890539165 0 0.027040571756038141 0.0028936915678320421 0 0.027147008425463023 0.0031748368472063787 0 0.027159073941224649 0.0030723499487406384 0 0.027046481443739969 0.0029615200474492694 0 0.027147008425463023 0.0031748368472063787 0 0.027309402209066559 0.0032767635882589995 0 0.027159073941224649 0.0030723499487406384 0 0.027147008425463023 0.0031748368472063787 0 0.027046481443739969 0.0029615200474492694 0 0.026970481676052978 0.0030839910126606793 0 0.027074993786683679 0.0029147415890539165 0 0.027022985849375371 0.0027720702679221872 0 0.02697219356714755 0.0027718921924459721 0 0.027074993786683679 0.0029147415890539165 0 0.027046481443739969 0.0029615200474492694 0 0.02697219356714755 0.0027718921924459721 0 0.027022985849375371 0.0027720702679221872 0 0.026971643771706136 0.0026487809719222678 0 0.02697219356714755 0.0027718921924459721 0 0.027022985849375371 0.0027720702679221872 0 0.026994454633470947 0.0026461916623103455 0 0.026971643771706136 0.0026487809719222678 0 0.027022985849375371 0.0027720702679221872 0 0.027040571756038141 0.0028936915678320421 0 0.027007960966813752 0.0027395238021603917 0 0.027074993786683679 0.0029147415890539165 0 0.027022985849375371 0.0027720702679221872 0 0.027040571756038141 0.0028936915678320421 0 0.027007960966813752 0.0027395238021603917 0 0.02697729187750415 0.0028304782975760757 0 0.026999214432679858 0.0026559439103839722 0 0.02697729187750415 0.0028304782975760757 0 0.026999214432679858 0.0026559439103839722 0 0.026931691338693955 0.0028113245147808495 0 0.027040571756038141 0.0028936915678320421 0 0.027007960966813752 0.0027395238021603917 0 0.02697729187750415 0.0028304782975760757 0 0.026994454633470947 0.0026461916623103455 0 0.026999214432679858 0.0026559439103839722 0 0.026968126555264038 0.002511424960726883 0 0.027007960966813752 0.0027395238021603917 0 0.026994454633470947 0.0026461916623103455 0 0.026999214432679858 0.0026559439103839722 0 0.027022985849375371 0.0027720702679221872 0 0.027007960966813752 0.0027395238021603917 0 0.026994454633470947 0.0026461916623103455 0 0.02706335289566154 0.0032172802316491615 0 0.027271186075620058 0.0032613950383395128 0 0.027062343333920411 0.003075153841303723 0 0.02706335289566154 0.0032172802316491615 0 0.027062343333920411 0.003075153841303723 0 0.026829005909911097 0.0029801927277840591 0 0.027162052952083768 0.0030791591328590542 0 0.027040571756038141 0.0028936915678320421 0 0.027062343333920411 0.003075153841303723 0 0.027040571756038141 0.0028936915678320421 0 0.027062343333920411 0.003075153841303723 0 0.026829005909911097 0.0029801927277840591 0 0.02697729187750415 0.0028304782975760757 0 0.026829005909911097 0.0029801927277840591 0 0.026931691338693955 0.0028113245147808495 0 0.027040571756038141 0.0028936915678320421 0 0.02697729187750415 0.0028304782975760757 0 0.026829005909911097 0.0029801927277840591 0 0.027112346082800897 0.0025225100033468254 0 0.026060359963327534 0.003582439824930261 0 0.026890388389786565 0.0027926331971968471 0 0.026060359963327534 0.003582439824930261 0 0.026931691338693955 0.0028113245147808495 0 0.026890388389786565 0.0027926331971968471 0 0.026829005909911097 0.0029801927277840591 0 0.026060359963327534 0.003582439824930261 0 0.026931691338693955 0.0028113245147808495 0 0.026999214432679858 0.0026559439103839722 0 0.026987942688115846 0.0024566599343204794 0 0.026968126555264038 0.002511424960726883 0 0.027003646544298644 0.0025658834564889336 0 0.026999214432679858 0.0026559439103839722 0 0.026967209971442616 0.0026969897043186905 0 0.027003646544298644 0.0025658834564889336 0 0.027004613727904386 0.0024298661798629862 0 0.026987942688115846 0.0024566599343204794 0 0.027003646544298644 0.0025658834564889336 0 0.026999214432679858 0.0026559439103839722 0 0.026987942688115846 0.0024566599343204794 0 0.026999214432679858 0.0026559439103839722 0 0.026931691338693955 0.0028113245147808495 0 0.026967209971442616 0.0026969897043186905 0 0.026931691338693955 0.0028113245147808495 0 0.026967209971442616 0.0026969897043186905 0 0.026890388389786565 0.0027926331971968471 0 0.026967209971442616 0.0026969897043186905 0 0.026890388389786565 0.0027926331971968471 0 0.026997324818474482 0.0026159171451227824 0 0.027060804436572987 0.002519818642027783 0 0.026890388389786565 0.0027926331971968471 0 0.026997324818474482 0.0026159171451227824 0 0.027060804436572987 0.002519818642027783 0 0.026997324818474482 0.0026159171451227824 0 0.027030818842514039 0.002479488034370537 0 0.027003646544298644 0.0025658834564889336 0 0.026967209971442616 0.0026969897043186905 0 0.026997324818474482 0.0026159171451227824 0 0.027003646544298644 0.0025658834564889336 0 0.026997324818474482 0.0026159171451227824 0 0.027030818842514039 0.002479488034370537 0 0.027003646544298644 0.0025658834564889336 0 0.027030818842514039 0.002479488034370537 0 0.027004613727904386 0.0024298661798629862 0 0.027030818842514039 0.002479488034370537 0 0.02699133390348276 0.0022925724699383141 0 0.027004613727904386 0.0024298661798629862 0 0.02699133390348276 0.0022925724699383141 0 0.026960402085331951 0.0022968931314197288 0 0.026884721447040377 0.0020248630973946536 0 0.027030818842514039 0.002479488034370537 0 0.02699133390348276 0.0022925724699383141 0 0.026992000406042143 0.002178334460438928 0 0.02699133390348276 0.0022925724699383141 0 0.027004613727904386 0.0024298661798629862 0 0.026960402085331951 0.0022968931314197288 0 0.027004613727904386 0.0024298661798629862 0 0.026960402085331951 0.0022968931314197288 0 0.026987942688115846 0.0024566599343204794 0 0.026960402085331951 0.0022968931314197288 0 0.026884721447040377 0.0020248630973946536 0 0.026898141918575074 0.0022625956887319556 0 0.026884721447040377 0.0020248630973946536 0 0.026898141918575074 0.0022625956887319556 0 0.026767359346913655 0.0020192338259681242 0 0.026898141918575074 0.0022625956887319556 0 0.026756308908186439 0.002184566254725206 0 0.026872780033587375 0.0024142459913619792 0 0.026898141918575074 0.0022625956887319556 0 0.026987942688115846 0.0024566599343204794 0 0.026968126555264038 0.002511424960726883 0 0.026960402085331951 0.0022968931314197288 0 0.026898141918575074 0.0022625956887319556 0 0.026987942688115846 0.0024566599343204794 0 0.026645236653002592 0.0016811103432052832 0 0.026609766145067801 0.0019263122817688837 0 0.026400547300812288 0.0015510174361608507 0 0.026884721447040377 0.0020248630973946536 0 0.026645236653002592 0.0016811103432052832 0 0.026767359346913655 0.0020192338259681242 0 0.026645236653002592 0.0016811103432052832 0 0.026767359346913655 0.0020192338259681242 0 0.026609766145067801 0.0019263122817688837 0 0.026898141918575074 0.0022625956887319556 0 0.026767359346913655 0.0020192338259681242 0 0.026756308908186439 0.002184566254725206 0 0.026767359346913655 0.0020192338259681242 0 0.026756308908186439 0.002184566254725206 0 0.026609766145067801 0.0019263122817688837 0 0.026609766145067801 0.0019263122817688837 0 0.026609264911577658 0.0021844531156462784 0 0.026431247392066762 0.0018650547219700242 0 0.026756308908186439 0.002184566254725206 0 0.026609766145067801 0.0019263122817688837 0 0.026609264911577658 0.0021844531156462784 0 0.026756308908186439 0.002184566254725206 0 0.026750056873237685 0.0024507661628857384 0 0.026872780033587375 0.0024142459913619792 0 0.026756308908186439 0.002184566254725206 0 0.026609264911577658 0.0021844531156462784 0 0.026750056873237685 0.0024507661628857384 0 0.026609264911577658 0.0021844531156462784 0 0.026750056873237685 0.0024507661628857384 0 0.026554735339162437 0.0023653434256993419 0 0.026968126555264038 0.002511424960726883 0 0.026872780033587375 0.0024142459913619792 0 0.026971643771706136 0.0026487809719222678 0 0.026994454633470947 0.0026461916623103455 0 0.026968126555264038 0.002511424960726883 0 0.026971643771706136 0.0026487809719222678 0 0.026898141918575074 0.0022625956887319556 0 0.026968126555264038 0.002511424960726883 0 0.026872780033587375 0.0024142459913619792 0 0.026750056873237685 0.0024507661628857384 0 0.02688371166659587 0.0025867437686053932 0 0.026810881189078782 0.0027082454407228005 0 0.026750056873237685 0.0024507661628857384 0 0.026872780033587375 0.0024142459913619792 0 0.02688371166659587 0.0025867437686053932 0 0.026872780033587375 0.0024142459913619792 0 0.02688371166659587 0.0025867437686053932 0 0.026971643771706136 0.0026487809719222678 0 0.02688371166659587 0.0025867437686053932 0 0.026971643771706136 0.0026487809719222678 0 0.02697219356714755 0.0027718921924459721 0 0.027046481443739969 0.0029615200474492694 0 0.02697219356714755 0.0027718921924459721 0 0.0269232675840743 0.0028859354210492264 0 0.02697219356714755 0.0027718921924459721 0 0.0269232675840743 0.0028859354210492264 0 0.026810881189078782 0.0027082454407228005 0 0.027046481443739969 0.0029615200474492694 0 0.0269232675840743 0.0028859354210492264 0 0.026970481676052978 0.0030839910126606793 0 0.0269232675840743 0.0028859354210492264 0 0.026810881189078782 0.0027082454407228005 0 0.026812495394303248 0.0029234747114066048 0 0.02688371166659587 0.0025867437686053932 0 0.02697219356714755 0.0027718921924459721 0 0.026810881189078782 0.0027082454407228005 0 0.026750056873237685 0.0024507661628857384 0 0.026810881189078782 0.0027082454407228005 0 0.026638403252675316 0.002593360795588061 0 0.026750056873237685 0.0024507661628857384 0 0.026638403252675316 0.002593360795588061 0 0.026554735339162437 0.0023653434256993419 0 0.026638403252675316 0.002593360795588061 0 0.026673901648144212 0.0027796313519897146 0 0.026553208435776941 0.0026554739547498289 0 0.026810881189078782 0.0027082454407228005 0 0.026638403252675316 0.002593360795588061 0 0.026673901648144212 0.0027796313519897146 0 0.026810881189078782 0.0027082454407228005 0 0.026673901648144212 0.0027796313519897146 0 0.026812495394303248 0.0029234747114066048 0 0.026673901648144212 0.0027796313519897146 0 0.026693875796004258 0.002974368544326228 0 0.026812495394303248 0.0029234747114066048 0 0.026673901648144212 0.0027796313519897146 0 0.026592112681349183 0.0028070942307694986 0 0.026553208435776941 0.0026554739547498289 0 0.026673901648144212 0.0027796313519897146 0 0.026592112681349183 0.0028070942307694986 0 0.026693875796004258 0.002974368544326228 0 0.026592112681349183 0.0028070942307694986 0 0.026527170644586144 0.0027289158150409546 0 0.026592782962835244 0.002978662235535856 0 0.026592112681349183 0.0028070942307694986 0 0.026693875796004258 0.002974368544326228 0 0.026592782962835244 0.002978662235535856 0 0.026693875796004258 0.002974368544326228 0 0.0268309013862916 0.0031539992612556562 0 0.026705345810378131 0.0032599258219052057 0 0.0268309013862916 0.0031539992612556562 0 0.0269730765087304 0.0033425002046204009 0 0.026970481676052978 0.0030839910126606793 0 0.0268309013862916 0.0031539992612556562 0 0.0269730765087304 0.0033425002046204009 0 0.026871110434719757 0.0034563835937773111 0 0.027088138125802273 0.0032890796302799713 0 0.0269730765087304 0.0033425002046204009 0 0.026970481676052978 0.0030839910126606793 0 0.0269232675840743 0.0028859354210492264 0 0.026970481676052978 0.0030839910126606793 0 0.026812495394303248 0.0029234747114066048 0 0.026693875796004258 0.002974368544326228 0 0.0268309013862916 0.0031539992612556562 0 0.026812495394303248 0.0029234747114066048 0 0.0268309013862916 0.0031539992612556562 0 0.026970481676052978 0.0030839910126606793 0 0.026812495394303248 0.0029234747114066048 0 0.027289200654088352 0.0021487034202499903 0 0.030607761693991341 0.0020980626776539819 0 0.029488528944206276 0.0022160850711116951 0 0.026626187755185646 0.002533898712319621 0 0.026450266176866782 0.0023212011306894867 0 0.027289200654088352 0.0021487034202499903 0 0.026626187755185646 0.002533898712319621 0 0.027289200654088352 0.0021487034202499903 0 0.026423937120694532 0.0027879767830376327 0 0.027513338708130546 0.0021923415396182884 0 0.02853974060134885 0.0025171177019574277 0 0.028392464025885661 0.0023671858526536247 0 0.027289200654088352 0.0021487034202499903 0 0.028188163114044124 0.0024775614719140028 0 0.028392464025885661 0.0023671858526536247 0 0.027289200654088352 0.0021487034202499903 0 0.029488528944206276 0.0022160850711116951 0 0.026527170644586144 0.0027289158150409546 0 0.026626187755185646 0.002533898712319621 0 0.026423937120694532 0.0027879767830376327 0 0.026527170644586144 0.0027289158150409546 0 0.026423937120694532 0.0027879767830376327 0 0.026592782962835244 0.002978662235535856 0 0.026527170644586144 0.0027289158150409546 0 0.026553208435776941 0.0026554739547498289 0 0.026626187755185646 0.002533898712319621 0 0.026592112681349183 0.0028070942307694986 0 0.026527170644586144 0.0027289158150409546 0 0.026553208435776941 0.0026554739547498289 0 0.026553208435776941 0.0026554739547498289 0 0.026626187755185646 0.002533898712319621 0 0.026514417279383942 0.0024830464126850476 0 0.026638403252675316 0.002593360795588061 0 0.026553208435776941 0.0026554739547498289 0 0.026514417279383942 0.0024830464126850476 0 0.026638403252675316 0.002593360795588061 0 0.026514417279383942 0.0024830464126850476 0 0.026554735339162437 0.0023653434256993419 0 0.026514417279383942 0.0024830464126850476 0 0.026554735339162437 0.0023653434256993419 0 0.026388443246921921 0.0021990598367823745 0 0.026514417279383942 0.0024830464126850476 0 0.026450266176866782 0.0023212011306894867 0 0.026388443246921921 0.0021990598367823745 0 0.026626187755185646 0.002533898712319621 0 0.026514417279383942 0.0024830464126850476 0 0.026450266176866782 0.0023212011306894867 0 0.026450266176866782 0.0023212011306894867 0 0.025905867812452344 0.0017394575380546133 0 0.025098938781364034 0.0018255166822781917 0 0.026450266176866782 0.0023212011306894867 0 0.025905867812452344 0.0017394575380546133 0 0.026388443246921921 0.0021990598367823745 0 0.025905867812452344 0.0017394575380546133 0 0.026388443246921921 0.0021990598367823745 0 0.026217754661032665 0.0017871293746992139 0 0.026554735339162437 0.0023653434256993419 0 0.026461567987015325 0.0021381503571045153 0 0.026388443246921921 0.0021990598367823745 0 0.026609264911577658 0.0021844531156462784 0 0.026554735339162437 0.0023653434256993419 0 0.026461567987015325 0.0021381503571045153 0 0.026461567987015325 0.0021381503571045153 0 0.026388443246921921 0.0021990598367823745 0 0.026217754661032665 0.0017871293746992139 0 0.026461567987015325 0.0021381503571045153 0 0.026217754661032665 0.0017871293746992139 0 0.026431247392066762 0.0018650547219700242 0 0.026609264911577658 0.0021844531156462784 0 0.026461567987015325 0.0021381503571045153 0 0.026431247392066762 0.0018650547219700242 0 0.026609766145067801 0.0019263122817688837 0 0.026431247392066762 0.0018650547219700242 0 0.026400547300812288 0.0015510174361608507 0 0.026431247392066762 0.0018650547219700242 0 0.026191174700540134 0.0015043479505799707 0 0.026400547300812288 0.0015510174361608507 0 0.026217754661032665 0.0017871293746992139 0 0.026431247392066762 0.0018650547219700242 0 0.026191174700540134 0.0015043479505799707 0 0.026191174700540134 0.0015043479505799707 0 0.025801458080196842 0.0011898180533833284 0 0.026082455763231736 0.0011163128585647325 0 0.026191174700540134 0.0015043479505799707 0 0.026400547300812288 0.0015510174361608507 0 0.026082455763231736 0.0011163128585647325 0 0.025905867812452344 0.0017394575380546133 0 0.025801458080196842 0.0011898180533833284 0 0.025043847447855407 0.0010186415382384777 0 0.026217754661032665 0.0017871293746992139 0 0.026191174700540134 0.0015043479505799707 0 0.025801458080196842 0.0011898180533833284 0 0.025905867812452344 0.0017394575380546133 0 0.026217754661032665 0.0017871293746992139 0 0.025801458080196842 0.0011898180533833284 0 0.025801458080196842 0.0011898180533833284 0 0.025683411194310935 0.0005882696875549626 0 0.025167264389658182 0.0005166717872309985 0 0.025801458080196842 0.0011898180533833284 0 0.025683411194310935 0.0005882696875549626 0 0.026082455763231736 0.0011163128585647325 0 0.014875535247171138 0.0032041559105458967 0 0.015447986133690162 0.0037964802890902375 0 0.013932680016390276 0.0023142215242293205 0 0.025683411194310935 0.0005882696875549626 0 0.026106226965923966 0.00037234270345472937 0 0.024890325445292877 -0.00025850587447640044 0 0.014875535247171138 0.0032041559105458967 0 0.014334889407370351 0.0027820321014218876 0 0.013932680016390276 0.0023142215242293205 0 0.019124493530818073 0.0029697874666995802 0 0.019870698214795944 0.00084826444272858399 0 0.014875535247171138 0.0032041559105458967 0 0.014859314143658511 0.0028589971834984771 0 0.01565348716382051 0.0031705772970459941 0 0.014875535247171138 0.0032041559105458967 0 0.014334889407370351 0.0027820321014218876 0 0.014859314143658511 0.0028589971834984771 0 0.015454554735357388 0.0037776696402097884 0 0.016894094467285629 0.0038479328450658754 0 0.01565348716382051 0.0031705772970459941 0 0.014875535247171138 0.0032041559105458967 0 0.015454554735357388 0.0037776696402097884 0 0.01565348716382051 0.0031705772970459941 0 0.014933645944995817 0.0026375485170916429 0 0.019124493530818073 0.0029697874666995802 0 0.019124493530818073 0.0029697874666995802 0 0.015757958356500523 0.003922445657876316 0 0.025683411194310935 0.0005882696875549626 0 0.026106226965923966 0.00037234270345472937 0 0.026072183447309175 0.0008100719254619164 0 0.026106226965923966 0.00037234270345472937 0 0.026072183447309175 0.0008100719254619164 0 0.026355382498277968 0.0011389092420958538 0 0.026072183447309175 0.0008100719254619164 0 0.026082455763231736 0.0011163128585647325 0 0.026355382498277968 0.0011389092420958538 0 0.025683411194310935 0.0005882696875549626 0 0.026072183447309175 0.0008100719254619164 0 0.026082455763231736 0.0011163128585647325 0 0.026400547300812288 0.0015510174361608507 0 0.026082455763231736 0.0011163128585647325 0 0.026355382498277968 0.0011389092420958538 0 0.026106226965923966 0.00037234270345472937 0 0.026355382498277968 0.0011389092420958538 0 0.026799224907858833 0.0013188849559234628 0 0.026645236653002592 0.0016811103432052832 0 0.026355382498277968 0.0011389092420958538 0 0.026799224907858833 0.0013188849559234628 0 0.026645236653002592 0.0016811103432052832 0 0.026400547300812288 0.0015510174361608507 0 0.026355382498277968 0.0011389092420958538 0 0.026884721447040377 0.0020248630973946536 0 0.026645236653002592 0.0016811103432052832 0 0.026799224907858833 0.0013188849559234628 0 0.024140491669543275 0.0034607645481549423 0 0.022716115423648483 0.0029662436535251809 0 0.027112346082800897 0.0025225100033468254 0 0.026799224907858833 0.0013188849559234628 0 0.026992000406042143 0.002178334460438928 0 0.021545625183163785 0.0046013532355535522 0 0.018113145161795585 0.0047791448684154705 0 0.020129258135793075 0.0038130350554663448 0 0.02699133390348276 0.0022925724699383141 0 0.026884721447040377 0.0020248630973946536 0 0.026992000406042143 0.002178334460438928 0 0.026884721447040377 0.0020248630973946536 0 0.026799224907858833 0.0013188849559234628 0 0.026992000406042143 0.002178334460438928 0 0.018113145161795585 0.0047791448684154705 0 0.020129258135793075 0.0038130350554663448 0 0.018322483515083809 0.0033547841909483535 0 0.020129258135793075 0.0038130350554663448 0 0.018322483515083809 0.0033547841909483535 0 0.019466506300356047 0.0029786475398998506 0 0.018113145161795585 0.0047791448684154705 0 0.018322483515083809 0.0033547841909483535 0 0.016894094467285629 0.0038479328450658754 0 0.019124493530818073 0.0029697874666995802 0 0.022716115423648483 0.0029662436535251809 0 0.01551473360843187 0.004128117737165561 0 0.018113145161795585 0.0047791448684154705 0 0.016894094467285629 0.0038479328450658754 0 0.018322483515083809 0.0033547841909483535 0 0.016940508268182729 0.0028056654900313299 0 0.018217250008755775 0.0023379159095992478 0 0.018322483515083809 0.0033547841909483535 0 0.016894094467285629 0.0038479328450658754 0 0.016940508268182729 0.0028056654900313299 0 0.018322483515083809 0.0033547841909483535 0 0.019466506300356047 0.0029786475398998506 0 0.018217250008755775 0.0023379159095992478 0 0.019764536933472698 0.0020604584986199672 0 0.019466506300356047 0.0029786475398998506 0 0.018217250008755775 0.0023379159095992478 0 0.016242431241352561 0.0017452336082717235 0 0.018797547063333028 0.00047567819471415544 0 0.018217250008755775 0.0023379159095992478 0 0.018797547063333028 0.00047567819471415544 0 0.019764536933472698 0.0020604584986199672 0 0.018217250008755775 0.0023379159095992478 0 0.016242431241352561 0.0017452336082717235 0 0.016940508268182729 0.0028056654900313299 0 0.018217250008755775 0.0023379159095992478 0 0.016242431241352561 0.0017452336082717235 0 0.016940508268182729 0.0028056654900313299 0 0.01556170078794036 0.0025381188987056566 0 0.016242431241352561 0.0017452336082717235 0 0.01480310029157769 0.0021885606630478571 0 0.01556170078794036 0.0025381188987056566 0 0.013881941893764805 0.0020984194271799323 0 0.01480310029157769 0.0021885606630478571 0 0.014070124000647942 0.002628181210481985 0 0.01480310029157769 0.0021885606630478571 0 0.014734185234877311 0.0025573214280859881 0 0.014070124000647942 0.002628181210481985 0 0.01480310029157769 0.0021885606630478571 0 0.014734185234877311 0.0025573214280859881 0 0.01556170078794036 0.0025381188987056566 0 0.014734185234877311 0.0025573214280859881 0 0.014859314143658511 0.0028589971834984771 0 0.01556170078794036 0.0025381188987056566 0 0.014734185234877311 0.0025573214280859881 0 0.014368020983408329 0.0027043136531585349 0 0.014070124000647942 0.002628181210481985 0 0.014734185234877311 0.0025573214280859881 0 0.014368020983408329 0.0027043136531585349 0 0.014859314143658511 0.0028589971834984771 0 0.014334889407370351 0.0027820321014218876 0 0.014368020983408329 0.0027043136531585349 0 0.014859314143658511 0.0028589971834984771 0 0.014859314143658511 0.0028589971834984771 0 0.01565348716382051 0.0031705772970459941 0 0.01556170078794036 0.0025381188987056566 0 0.016894094467285629 0.0038479328450658754 0 0.016940508268182729 0.0028056654900313299 0 0.01565348716382051 0.0031705772970459941 0 0.016940508268182729 0.0028056654900313299 0 0.01565348716382051 0.0031705772970459941 0 0.01556170078794036 0.0025381188987056566 0 0.0138735055774542 0.00291375022812445 0 0.014010755856108127 0.0031356889109155242 0 0.014749266210791206 0.0018824301314070843 0 0.0138735055774542 0.00291375022812445 0 0.014010423774467465 0.0026451988136284516 0 0.014749266210791206 0.0018824301314070843 0 0.014368020983408329 0.0027043136531585349 0 0.014010423774467465 0.0026451988136284516 0 0.014070124000647942 0.002628181210481985 0 0.0138735055774542 0.00291375022812445 0 0.014010423774467465 0.0026451988136284516 0 0.014070124000647942 0.002628181210481985 0 0.014334889407370351 0.0027820321014218876 0 0.014368020983408329 0.0027043136531585349 0 0.014010423774467465 0.0026451988136284516 0 0.013881941893764805 0.0020984194271799323 0 0.014070124000647942 0.002628181210481985 0 0.01339196693977562 0.0025522053846998346 0 0.0138735055774542 0.00291375022812445 0 0.014070124000647942 0.002628181210481985 0 0.01339196693977562 0.0025522053846998346 0 0.0138735055774542 0.00291375022812445 0 0.013106917539000878 0.0028276993776791695 0 0.014010755856108127 0.0031356889109155242 0 0.0138735055774542 0.00291375022812445 0 0.01339196693977562 0.0025522053846998346 0 0.013106917539000878 0.0028276993776791695 0 0.012353655180968896 0.0023465376143747122 0 0.01339196693977562 0.0025522053846998346 0 0.013106917539000878 0.0028276993776791695 0 0.012353655180968896 0.0023465376143747122 0 0.013106917539000878 0.0028276993776791695 0 0.011926128061322766 0.0028556685131867839 0 0.013106917539000878 0.0028276993776791695 0 0.012341404184865627 0.0030095071153163747 0 0.011926128061322766 0.0028556685131867839 0 0.01127020906543209 0.0034794593839707353 0 0.010865934462056978 0.0034593456635313193 0 0.012341404184865627 0.0030095071153163747 0 0.012194844345115535 0.0033683509755264639 0 0.014010755856108127 0.0031356889109155242 0 0.014191624380361789 0.0028916219058559901 0 0.01403336770291044 0.0031634213204204445 0 0.012341404184865627 0.0030095071153163747 0 0.012194844345115535 0.0033683509755264639 0 0.01209457299378788 0.0026935831465608813 0 0.013106917539000878 0.0028276993776791695 0 0.012341404184865627 0.0030095071153163747 0 0.014010755856108127 0.0031356889109155242 0 0.01402525447102191 0.00037625842023106731 0 0.015404286469889585 0.0018288743668721363 0 0.014604166613857918 0.0022569220459059676 0 0.016358726951867984 0.0036189948098344239 0 0.0178288383912584 0.0035357497589469543 0 0.016305833186932329 0.0023646948254000158 0 0.015593834518773417 0.0025796824388388574 0 0.015404286469889585 0.0018288743668721363 0 0.014604166613857918 0.0022569220459059676 0 0.014191624380361789 0.0028916219058559901 0 0.016044388874927845 0.0028866784180783373 0 0.014191624380361789 0.0028916219058559901 0 0.010865934462056978 0.0034593456635313193 0 0.0178288383912584 0.0035357497589469543 0 0.018161892593572235 0.002009778553894487 0 0.019364081499034076 0.0021779038436276683 0 0.0178288383912584 0.0035357497589469543 0 0.018161892593572235 0.002009778553894487 0 0.016305833186932329 0.0023646948254000158 0 0.018161892593572235 0.002009778553894487 0 0.016305833186932329 0.0023646948254000158 0 0.016701578166619074 0.0015730945877125851 0 0.014010755856108127 0.0031356889109155242 0 0.016305833186932329 0.0023646948254000158 0 0.014749266210791206 0.0018824301314070843 0 0.016358726951867984 0.0036189948098344239 0 0.014010755856108127 0.0031356889109155242 0 0.016305833186932329 0.0023646948254000158 0 0.016305833186932329 0.0023646948254000158 0 0.014749266210791206 0.0018824301314070843 0 0.016701578166619074 0.0015730945877125851 0 0.014749266210791206 0.0018824301314070843 0 0.016701578166619074 0.0015730945877125851 0 0.015389242333880176 0.00018268436368777839 0 0.016701578166619074 0.0015730945877125851 0 0.018687453478193325 0.00072861133849048585 0 0.015389242333880176 0.00018268436368777839 0 0.018161892593572235 0.002009778553894487 0 0.016701578166619074 0.0015730945877125851 0 0.018687453478193325 0.00072861133849048585 0 0.022944308500044124 -0.00079742765618843006 0 0.021083177138055437 0.00030636726131062477 0 0.020007987790604372 -0.00076505857725259164 0 0.019125910071155439 -0.00020880842902300706 0 0.019978742306615272 -0.00073725215033498381 0 0.018687453478193325 0.00072861133849048585 0 0.015389242333880176 0.00018268436368777839 0 0.020007987790604372 -0.00076505857725259164 0 0.022944308500044124 -0.00079742765618843006 0 0.024410519533203973 0.00026195060703921598 0 0.023870617653471371 0.00084566655252619094 0 0.022944308500044124 -0.00079742765618843006 0 0.024890325445292877 -0.00025850587447640044 0 0.024410519533203973 0.00026195060703921598 0 0.019125910071155439 -0.00020880842902300706 0 0.019870698214795944 0.00084826444272858399 0 0.014010423774467465 0.0026451988136284516 0 0.014749266210791206 0.0018824301314070843 0 0.013932680016390276 0.0023142215242293205 0 0.014749266210791206 0.0018824301314070843 0 0.015389242333880176 0.00018268436368777839 0 0.013932680016390276 0.0023142215242293205 0 0.014334889407370351 0.0027820321014218876 0 0.014010423774467465 0.0026451988136284516 0 0.013932680016390276 0.0023142215242293205 0 0.025683411194310935 0.0005882696875549626 0 0.024890325445292877 -0.00025850587447640044 0 0.025167264389658182 0.0005166717872309985 0 0.024890325445292877 -0.00025850587447640044 0 0.024410519533203973 0.00026195060703921598 0 0.025167264389658182 0.0005166717872309985 0 0.025801458080196842 0.0011898180533833284 0 0.025167264389658182 0.0005166717872309985 0 0.025043847447855407 0.0010186415382384777 0 0.024410519533203973 0.00026195060703921598 0 0.025167264389658182 0.0005166717872309985 0 0.025043847447855407 0.0010186415382384777 0 0.024410519533203973 0.00026195060703921598 0 0.025043847447855407 0.0010186415382384777 0 0.023870617653471371 0.00084566655252619094 0 0.023870617653471371 0.00084566655252619094 0 0.025098938781364034 0.0018255166822781917 0 0.023308634368813554 0.0018461038846835671 0 0.025043847447855407 0.0010186415382384777 0 0.023870617653471371 0.00084566655252619094 0 0.025098938781364034 0.0018255166822781917 0 0.025905867812452344 0.0017394575380546133 0 0.025043847447855407 0.0010186415382384777 0 0.025098938781364034 0.0018255166822781917 0 0.026450266176866782 0.0023212011306894867 0 0.025098938781364034 0.0018255166822781917 0 0.027289200654088352 0.0021487034202499903 0 0.025310808358046156 0.0017877650499942808 0 0.025604754706538106 0.0023235162243875453 0 0.025098938781364034 0.0018255166822781917 0 0.027416793128085579 0.0022040341796901492 0 0.027289200654088352 0.0021487034202499903 0 0.025098938781364034 0.0018255166822781917 0 0.023308634368813554 0.0018461038846835671 0 0.02384515517485827 0.0026930954277262224 0 0.02384515517485827 0.0026930954277262224 0 0.024089115228336448 0.0033352499869882136 0 0.024170941335938376 0.003050778678993467 0 0.023308634368813554 0.0018461038846835671 0 0.02384515517485827 0.0026930954277262224 0 0.022691831432975235 0.0023115972840163251 0 0.023859368540409716 0.002563277641936194 0 0.023274645941535037 0.0028488244545445455 0 0.02384515517485827 0.0026930954277262224 0 0.024530206402457781 0.0029814820781593311 0 0.024170941335938376 0.003050778678993467 0 0.025098938781364034 0.0018255166822781917 0 0.02384515517485827 0.0026930954277262224 0 0.024530206402457781 0.0029814820781593311 0 0.027416793128085579 0.0022040341796901492 0 0.027289200654088352 0.0021487034202499903 0 0.028188163114044124 0.0024775614719140028 0 0.022691831432975235 0.0023115972840163251 0 0.022180548717752217 0.0018293869684918014 0 0.02189369020375255 0.001987794581939057 0 0.022180548717752217 0.0018293869684918014 0 0.021212265048039216 0.0015612413503218415 0 0.02189369020375255 0.001987794581939057 0 0.02384515517485827 0.0026930954277262224 0 0.022691831432975235 0.0023115972840163251 0 0.022451442430389594 0.0023704213157488799 0 0.023308634368813554 0.0018461038846835671 0 0.022180548717752217 0.0018293869684918014 0 0.022440635062968409 0.00099150545347118221 0 0.023308634368813554 0.0018461038846835671 0 0.022691831432975235 0.0023115972840163251 0 0.022180548717752217 0.0018293869684918014 0 0.022180548717752217 0.0018293869684918014 0 0.02143416013111317 0.0010477538265148681 0 0.021212265048039216 0.0015612413503218415 0 0.022944308500044124 -0.00079742765618843006 0 0.022440635062968409 0.00099150545347118221 0 0.021083177138055437 0.00030636726131062477 0 0.022180548717752217 0.0018293869684918014 0 0.02143416013111317 0.0010477538265148681 0 0.022440635062968409 0.00099150545347118221 0 0.02143416013111317 0.0010477538265148681 0 0.022440635062968409 0.00099150545347118221 0 0.021083177138055437 0.00030636726131062477 0 0.022944308500044124 -0.00079742765618843006 0 0.023870617653471371 0.00084566655252619094 0 0.022440635062968409 0.00099150545347118221 0 0.023870617653471371 0.00084566655252619094 0 0.023308634368813554 0.0018461038846835671 0 0.022440635062968409 0.00099150545347118221 0 0.021083177138055437 0.00030636726131062477 0 0.020406532292909004 -0.0002612057632843039 0 0.020007987790604372 -0.00076505857725259164 0 0.021083177138055437 0.00030636726131062477 0 0.020406532292909004 -0.0002612057632843039 0 0.020327069594967325 0.00038010696023589217 0 0.020406532292909004 -0.0002612057632843039 0 0.020327069594967325 0.00038010696023589217 0 0.020768091216244955 -0.00056986316031117426 0 0.021293378544821148 -0.00055091684443353875 0 0.022227086983759355 -0.00023378788080020122 0 0.020768091216244955 -0.00056986316031117426 0 0.021305573601194755 0.00012248505769270197 0 0.020868198194071368 -0.00043260401437031918 0 0.021293378544821148 -0.00055091684443353875 0 0.022227086983759355 -0.00023378788080020122 0 0.022259447890795685 0.00066168607285480648 0 0.021559243391483674 -0.00052070279949638517 0 0.022461162749080738 0.00060196782325835593 0 0.021794773271444395 -0.00059658358061474143 0 0.022649557794350104 0.00062615488773956835 0 0.021640221001529132 -1.2326696727601858e-05 0 0.02143416013111317 0.0010477538265148681 0 0.020327069594967325 0.00038010696023589217 0 0.021212265048039216 0.0015612413503218415 0 0.021305573601194755 0.00012248505769270197 0 0.022156023729483523 0.0012816690953192775 0 0.02143416013111317 0.0010477538265148681 0 0.021083177138055437 0.00030636726131062477 0 0.020327069594967325 0.00038010696023589217 0 0.022227086983759355 -0.00023378788080020122 0 0.023105092445723365 0.0010107463191033981 0 0.022259447890795685 0.00066168607285480648 0 0.023105092445723365 0.0010107463191033981 0 0.022259447890795685 0.00066168607285480648 0 0.023241977786168266 0.0010545588801396701 0 0.022649557794350104 0.00062615488773956835 0 0.023157304893059463 0.00065117792130192067 0 0.023241977786168266 0.0010545588801396701 0 0.022461162749080738 0.00060196782325835593 0 0.023110573460279255 0.0010349229420705272 0 0.023105092445723365 0.0010107463191033981 0 0.023241977786168266 0.0010545588801396701 0 0.023337973237550633 0.0014427649372318716 0 0.022156023729483523 0.0012816690953192775 0 0.02240478523992542 0.0015436522344165335 0 0.024829842606351016 2.0301034689872166e-06 0 0.023157304893059463 0.00065117792130192067 0 0.024032194107805372 0.00058774854083888737 0 0.024829842606351016 2.0301034689872166e-06 0 0.023157304893059463 0.00065117792130192067 0 0.022086457398750169 4.9651886543292665e-07 0 0.023157304893059463 0.00065117792130192067 0 0.024032194107805372 0.00058774854083888737 0 0.023241977786168266 0.0010545588801396701 0 0.022649557794350104 0.00062615488773956835 0 0.023157304893059463 0.00065117792130192067 0 0.022166764629388335 0.00036930450279751308 0 0.023157304893059463 0.00065117792130192067 0 0.022166764629388335 0.00036930450279751308 0 0.022086457398750169 4.9651886543292665e-07 0 0.022086457398750169 4.9651886543292665e-07 0 0.021281663422282212 0.00015978209530355525 0 0.019344874989520186 3.6821392398035194e-07 0 0.022166764629388335 0.00036930450279751308 0 0.022086457398750169 4.9651886543292665e-07 0 0.021281663422282212 0.00015978209530355525 0 0.022649557794350104 0.00062615488773956835 0 0.022166764629388335 0.00036930450279751308 0 0.021640221001529132 -1.2326696727601858e-05 0 0.022166764629388335 0.00036930450279751308 0 0.021281663422282212 0.00015978209530355525 0 0.021640221001529132 -1.2326696727601858e-05 0 0.021281663422282212 0.00015978209530355525 0 0.021640221001529132 -1.2326696727601858e-05 0 0.020427233259629817 0.00012572166186840519 0 0.021794773271444395 -0.00059658358061474143 0 0.021640221001529132 -1.2326696727601858e-05 0 0.021351647445232134 -0.00111574514588778 0 0.021355535449421391 6.2469786700434363e-06 0 0.020734953647977748 -1.2630021174512755e-05 0 0.021640221001529132 -1.2326696727601858e-05 0 0.020427233259629817 0.00012572166186840519 0 0.019232519838461755 0.00043481338965786499 0 0.021281663422282212 0.00015978209530355525 0 0.019344874989520186 3.6821392398035194e-07 0 0.020427233259629817 0.00012572166186840519 0 0.019344874989520186 3.6821392398035194e-07 0 0.020427233259629817 0.00012572166186840519 0 0.019232519838461755 0.00043481338965786499 0 0.019344874989520186 3.6821392398035194e-07 0 0.016601702006525446 1.2853047090700238e-06 0 0.019232519838461755 0.00043481338965786499 0 0.016601702006525446 1.2853047090700238e-06 0 0.016860727041376471 0.00033236539421589565 0 0.019232519838461755 0.00043481338965786499 0 0.015460645938189525 -9.2996266951268913e-05 0 0.020734953647977748 -1.2630021174512755e-05 0 0.015460645938189525 -9.2996266951268913e-05 0 0.013295897196934817 -0.00075162540453571928 0 0.016601702006525446 1.2853047090700238e-06 0 0.016860727041376471 0.00033236539421589565 0 0.016158025460756575 0.00012931843764529241 0 0.022063219415440219 -0.00031475805489928428 0 0.021351647445232134 -0.00111574514588778 0 0.021022482233896734 -0.00043221363819186218 0 0.022063219415440219 -0.00031475805489928428 0 0.021223882805345942 0.00038971756905288845 0 0.021022482233896734 -0.00043221363819186218 0 0.021794773271444395 -0.00059658358061474143 0 0.021351647445232134 -0.00111574514588778 0 0.021022482233896734 -0.00043221363819186218 0 0.021293378544821148 -0.00055091684443353875 0 0.020768091216244955 -0.00056986316031117426 0 0.021022482233896734 -0.00043221363819186218 0 0.021559243391483674 -0.00052070279949638517 0 0.021110231780068267 -0.00043476721210056613 0 0.020768091216244955 -0.00056986316031117426 0 0.021022482233896734 -0.00043221363819186218 0 0.020359043419140854 5.9141558700640624e-05 0 0.020768091216244955 -0.00056986316031117426 0 0.020007987790604372 -0.00076505857725259164 0 0.020359043419140854 5.9141558700640624e-05 0 0.020406532292909004 -0.0002612057632843039 0 0.020768091216244955 -0.00056986316031117426 0 0.020007987790604372 -0.00076505857725259164 0 0.018687453478193325 0.00072861133849048585 0 0.020007987790604372 -0.00076505857725259164 0 0.020359043419140854 5.9141558700640624e-05 0 0.018687453478193325 0.00072861133849048585 0 0.020359043419140854 5.9141558700640624e-05 0 0.019432873021146414 0.0011987029315171196 0 0.020359043419140854 5.9141558700640624e-05 0 0.020180403810469785 0.0011857177394981192 0 0.019432873021146414 0.0011987029315171196 0 0.018161892593572235 0.002009778553894487 0 0.018687453478193325 0.00072861133849048585 0 0.019432873021146414 0.0011987029315171196 0 0.021022482233896734 -0.00043221363819186218 0 0.020359043419140854 5.9141558700640624e-05 0 0.020746162376572438 0.00042346654618824931 0 0.020359043419140854 5.9141558700640624e-05 0 0.020746162376572438 0.00042346654618824931 0 0.020180403810469785 0.0011857177394981192 0 0.021223882805345942 0.00038971756905288845 0 0.021022482233896734 -0.00043221363819186218 0 0.020746162376572438 0.00042346654618824931 0 0.021223882805345942 0.00038971756905288845 0 0.020746162376572438 0.00042346654618824931 0 0.02074940570696486 0.0012510866178227764 0 0.020746162376572438 0.00042346654618824931 0 0.02074940570696486 0.0012510866178227764 0 0.020180403810469785 0.0011857177394981192 0 0.02074940570696486 0.0012510866178227764 0 0.020180403810469785 0.0011857177394981192 0 0.020253366801328328 0.0021484486914719048 0 0.020180403810469785 0.0011857177394981192 0 0.020253366801328328 0.0021484486914719048 0 0.019364081499034076 0.0021779038436276683 0 0.02074940570696486 0.0012510866178227764 0 0.020253366801328328 0.0021484486914719048 0 0.021008531386818335 0.0023946319291557805 0 0.018161892593572235 0.002009778553894487 0 0.019432873021146414 0.0011987029315171196 0 0.019364081499034076 0.0021779038436276683 0 0.020180403810469785 0.0011857177394981192 0 0.019432873021146414 0.0011987029315171196 0 0.019364081499034076 0.0021779038436276683 0 0.01402525447102191 0.00037625842023106731 0 0.014604166613857918 0.0022569220459059676 0 0.012569783579277249 0.0016255714146771532 0 0.016044388874927845 0.0028866784180783373 0 0.016904876864327716 0.0027101906785611972 0 0.0178288383912584 0.0035357497589469543 0 0.019364081499034076 0.0021779038436276683 0 0.019923264717094141 0.0032091278196485578 0 0.021650032320753337 0.0034113601804098173 0 0.019923264717094141 0.0032091278196485578 0 0.021008531386818335 0.0023946319291557805 0 0.013070936195060464 0.00033669927268618628 0 0.016904876864327716 0.0027101906785611972 0 0.020253366801328328 0.0021484486914719048 0 0.019923264717094141 0.0032091278196485578 0 0.021008531386818335 0.0023946319291557805 0 0.020253366801328328 0.0021484486914719048 0 0.019364081499034076 0.0021779038436276683 0 0.019923264717094141 0.0032091278196485578 0 0.013070936195060464 0.00033669927268618628 0 0.015321396540230627 0.00033268918925981366 0 0.0083069674798491415 -0.00082140774977843131 0 0.0085291511739921007 -0.0010056705975274279 0 0.008489716022665357 -0.0011558683567710994 0 0.021650032320753337 0.0034113601804098173 0 0.021008531386818335 0.0023946319291557805 0 0.022094419373552887 0.0018624221940200403 0 0.008398892446371764 -0.00078123765949538175 0 0.0083069674798491415 -0.00082140774977843131 0 0.0085291511739921007 -0.0010056705975274279 0 0.0085404446331958615 -0.00083273205958959257 0 0.0085291511739921007 -0.0010056705975274279 0 0.0087235341198616083 -0.00094968768093710006 0 0.01197420202635229 -1.2514996550228123e-09 0 0.012801809113928893 -2.286533133752776e-07 0 0.013857775120408479 -1.3683719262094564e-09 0 0.0085404446331958615 -0.00083273205958959257 0 0.008398892446371764 -0.00078123765949538175 0 0.0085291511739921007 -0.0010056705975274279 0 0.013422589321993717 -0.00035273171789368982 0 0.013861338995823253 -1.5633408577246983e-06 0 0.016158025460756575 0.00012931843764529241 0 0.0085291511739921007 -0.0010056705975274279 0 0.0087235341198616083 -0.00094968768093710006 0 0.0086461918062683621 -0.0013536281774629492 0 0.011761615495106226 -0.00032948543331353162 0 0.013857081891272625 -2.4946407308531296e-07 0 0.011761615495106226 -0.00032948543331353162 0 0.013295897196934817 -0.00075162540453571928 0 0.0085291511739921007 -0.0010056705975274279 0 0.0086461918062683621 -0.0013536281774629492 0 0.008489716022665357 -0.0011558683567710994 0 0.016601702006525446 1.2853047090700238e-06 0 0.013861338995823253 -1.5633408577246983e-06 0 0.016158025460756575 0.00012931843764529241 0 0.015460645938189525 -9.2996266951268913e-05 0 0.015321396540230627 0.00033268918925981366 0 0.0086476177372788714 -0.0014291817758115574 0 0.0086461918062683621 -0.0013536281774629492 0 0.008489716022665357 -0.0011558683567710994 0 0.022063219415440219 -0.00031475805489928428 0 0.021223882805345942 0.00038971756905288845 0 0.021423526061000672 0.0011761527697707705 0 0.022063219415440219 -0.00031475805489928428 0 0.021423526061000672 0.0011761527697707705 0 0.022094419373552887 0.0018624221940200403 0 0.021223882805345942 0.00038971756905288845 0 0.02074940570696486 0.0012510866178227764 0 0.021423526061000672 0.0011761527697707705 0 0.021008531386818335 0.0023946319291557805 0 0.021423526061000672 0.0011761527697707705 0 0.022094419373552887 0.0018624221940200403 0 0.02074940570696486 0.0012510866178227764 0 0.021008531386818335 0.0023946319291557805 0 0.021423526061000672 0.0011761527697707705 0 0.036567608998780587 0.00023501936681961493 0 0.036904636016961902 1.1330605852711211e-06 0 0.032771061364319898 2.9585237092379744e-07 0 0.036567608998780587 0.00023501936681961493 0 0.03700104831887218 0.00019835149152444792 0 0.038342507388812931 0.00055475731108558829 0 0.036567608998780587 0.00023501936681961493 0 0.03700104831887218 0.00019835149152444792 0 0.035471471909738914 -4.2913806964562989e-05 0 0.036567608998780587 0.00023501936681961493 0 0.036904636016961902 1.1330605852711211e-06 0 0.038342507388812931 0.00055475731108558829 0 0.036904636016961902 1.1330605852711211e-06 0 0.038342507388812931 0.00055475731108558829 0 0.039602321168354535 0.00040356387840699239 0 0.038342507388812931 0.00055475731108558829 0 0.039667468891637837 0.00077585490673658651 0 0.039602321168354535 0.00040356387840699239 0 0.038342507388812931 0.00055475731108558829 0 0.039667468891637837 0.00077585490673658651 0 0.039310903467859551 0.00087562972925174542 0 0.038342507388812931 0.00055475731108558829 0 0.039310903467859551 0.00087562972925174542 0 0.038340635206067702 0.00053345728759885737 0 0.039667468891637837 0.00077585490673658651 0 0.039310903467859551 0.00087562972925174542 0 0.040159207025738428 0.0011282354370959126 0 0.039779456126569322 0.0011288177510802874 0 0.040017328518881269 0.0013841649995800563 0 0.040159207025738428 0.0011282354370959126 0 0.039310903467859551 0.00087562972925174542 0 0.039779456126569322 0.0011288177510802874 0 0.040159207025738428 0.0011282354370959126 0 0.039310903467859551 0.00087562972925174542 0 0.039779456126569322 0.0011288177510802874 0 0.03918829049571261 0.00078670616346581963 0 0.039779456126569322 0.0011288177510802874 0 0.040019304528821548 0.0012780018103790893 0 0.040017328518881269 0.0013841649995800563 0 0.038918112624361546 0.00045138855696697725 0 0.03799467608766155 0.00014635736450579478 0 0.039714235775505452 -0.00028013793096989044 0 0.039779456126569322 0.0011288177510802874 0 0.039704670427186249 0.00078273098870970973 0 0.040019304528821548 0.0012780018103790893 0 0.039779456126569322 0.0011288177510802874 0 0.039704670427186249 0.00078273098870970973 0 0.03918829049571261 0.00078670616346581963 0 0.039704670427186249 0.00078273098870970973 0 0.03918829049571261 0.00078670616346581963 0 0.038918112624361546 0.00045138855696697725 0 0.039704670427186249 0.00078273098870970973 0 0.038918112624361546 0.00045138855696697725 0 0.039714235775505452 -0.00028013793096989044 0 0.039704670427186249 0.00078273098870970973 0 0.039714235775505452 -0.00028013793096989044 0 0.040351805444246894 0.00089010393633311136 0 0.03700104831887218 0.00019835149152444792 0 0.038342507388812931 0.00055475731108558829 0 0.038340635206067702 0.00053345728759885737 0 0.03918829049571261 0.00078670616346581963 0 0.038918112624361546 0.00045138855696697725 0 0.038340635206067702 0.00053345728759885737 0 0.039310903467859551 0.00087562972925174542 0 0.03918829049571261 0.00078670616346581963 0 0.038340635206067702 0.00053345728759885737 0 0.038918112624361546 0.00045138855696697725 0 0.038340635206067702 0.00053345728759885737 0 0.03799467608766155 0.00014635736450579478 0 0.03700104831887218 0.00019835149152444792 0 0.038340635206067702 0.00053345728759885737 0 0.03799467608766155 0.00014635736450579478 0 0.03698791801776833 0.0015378865778885563 0 0.037089500749220204 -0.00079908264246817686 0 0.03700104831887218 0.00019835149152444792 0 0.03799467608766155 0.00014635736450579478 0 0.036430831168818692 -0.00036202955321302827 0 0.03799467608766155 0.00014635736450579478 0 0.039714235775505452 -0.00028013793096989044 0 0.036430831168818692 -0.00036202955321302827 0 0.03698791801776833 0.0015378865778885563 0 0.032578216348792842 0.0014428055414354706 0 0.037024793779179575 -0.00018575964331118231 0 0.036307862389474033 -0.00069252933522865711 0 0.036430831168818692 -0.00036202955321302827 0 0.03335998881414539 0.004095460789692266 0 0.033349651730334037 0.0040625580452697489 0 0.033399593802654566 0.0041014220030618741 0 0.033248060992566573 0.0040739736132637773 0 0.03530670029314166 0.003257824560464397 0 0.03335998881414539 0.004095460789692266 0 0.033349651730334037 0.0040625580452697489 0 0.033297675691659083 0.0039408197411528578 0 0.03698791801776833 0.0015378865778885563 0 0.03530670029314166 0.003257824560464397 0 0.033349651730334037 0.0040625580452697489 0 0.033297675691659083 0.0039408197411528578 0 0.033356508760024835 0.0041115195491826344 0 0.033349651730334037 0.0040625580452697489 0 0.033356508760024835 0.0041115195491826344 0 0.033337085627067595 0.0041425139495583014 0 0.033264067093352313 0.0039477465867590877 0 0.033126655588671727 0.0039735521957967781 0 0.03335998881414539 0.004095460789692266 0 0.033297675691659083 0.0039408197411528578 0 0.033305324688855747 0.0039275341067199617 0 0.033297675691659083 0.0039408197411528578 0 0.033305324688855747 0.0039275341067199617 0 0.033079597009044774 0.0039640090130016832 0 0.032578216348792842 0.0014428055414354706 0 0.033400524180854103 0.00066462976067335961 0 0.035362653272550906 -0.00037873773885041713 0 0.036135397768512052 -0.00062212069794385602 0 0.033458053179540717 -0.00082398553425135654 0 0.032578216348792842 0.0014428055414354706 0 0.031064536747583006 -0.00062619931681739147 0 0.035362653272550906 -0.00037873773885041713 0 0.034346368256154398 -0.00028313478957674241 0 0.033458053179540717 -0.00082398553425135654 0 0.036237981171979503 -0.00075280254199824208 0 0.036135397768512052 -0.00062212069794385602 0 0.033458053179540717 -0.00082398553425135654 0 0.036307862389474033 -0.00069252933522865711 0 0.036135397768512052 -0.00062212069794385602 0 0.036430831168818692 -0.00036202955321302827 0 0.035362653272550906 -0.00037873773885041713 0 0.036135397768512052 -0.00062212069794385602 0 0.036430831168818692 -0.00036202955321302827 0 0.035362653272550906 -0.00037873773885041713 0 0.035471471909738914 -4.2913806964562989e-05 0 0.034346368256154398 -0.00028313478957674241 0 0.035362653272550906 -0.00037873773885041713 0 0.036430831168818692 -0.00036202955321302827 0 0.035471471909738914 -4.2913806964562989e-05 0 0.03700104831887218 0.00019835149152444792 0 0.036430831168818692 -0.00036202955321302827 0 0.035471471909738914 -4.2913806964562989e-05 0 0.036567608998780587 0.00023501936681961493 0 0.035471471909738914 -4.2913806964562989e-05 0 0.032771061364319898 2.9585237092379744e-07 0 0.035471471909738914 -4.2913806964562989e-05 0 0.032771061364319898 2.9585237092379744e-07 0 0.034346368256154398 -0.00028313478957674241 0 0.032771061364319898 2.9585237092379744e-07 0 0.034346368256154398 -0.00028313478957674241 0 0.033458053179540717 -0.00082398553425135654 0 0.029706654014145989 1.1281738481430952e-07 0 0.031064536747583006 -0.00062619931681739147 0 0.032771061364319898 2.9585237092379744e-07 0 0.029709361184579331 -3.4340090428422566e-06 0 0.033458053179540717 -0.00082398553425135654 0 0.029699658645741599 -1.7783724034824108e-07 0 0.028748890610689928 -0.00035128502047739518 0 0.028717523486258063 0.00019583013293314523 0 0.028748890610689928 -0.00035128502047739518 0 0.028483163996641081 -1.8362666273529107e-05 0 0.028717523486258063 0.00019583013293314523 0 0.028464113773624077 -0.00049652035869688369 0 0.028748890610689928 -0.00035128502047739518 0 0.028483163996641081 -1.8362666273529107e-05 0 0.028483163996641081 -1.8362666273529107e-05 0 0.028717523486258063 0.00019583013293314523 0 0.028657154848994369 0.00013117564280623771 0 0.029699658645741599 -1.7783724034824108e-07 0 0.028717523486258063 0.00019583013293314523 0 0.027577968974526586 3.592685609611865e-07 0 0.027566848456004246 -2.3165238657062703e-06 0 0.024291699830532362 -0.00026602656522426029 0 0.024032194107805372 0.00058774854083888737 0 0.028717523486258063 0.00019583013293314523 0 0.027577968974526586 3.592685609611865e-07 0 0.028657154848994369 0.00013117564280623771 0 0.027571847996340153 -5.1957414461816941e-08 0 0.026566134255828187 6.1487097458810153e-06 0 0.024291699830532362 -0.00026602656522426029 0 0.024032194107805372 0.00058774854083888737 0 0.023314437971463969 0.00063417883988002414 0 0.024829842606351016 2.0301034689872166e-06 0 0.027566848456004246 -2.3165238657062703e-06 0 0.024032194107805372 0.00058774854083888737 0 0.023241977786168266 0.0010545588801396701 0 0.023314437971463969 0.00063417883988002414 0 0.023245330742571291 0.0012129271886684092 0 0.023241977786168266 0.0010545588801396701 0 0.023245330742571291 0.0012129271886684092 0 0.023337973237550633 0.0014427649372318716 0 0.024032194107805372 0.00058774854083888737 0 0.023241977786168266 0.0010545588801396701 0 0.023314437971463969 0.00063417883988002414 0 0.026566134255828187 6.1487097458810153e-06 0 0.02546517408351932 0.00036520457168523203 0 0.02546517408351932 0.00036520457168523203 0 0.027190691337785219 0.00166828467759278 0 0.023314437971463969 0.00063417883988002414 0 0.023245330742571291 0.0012129271886684092 0 0.023191518344728525 0.0014393820546373445 0 0.033079597009044774 0.0039640090130016832 0 0.032611919341643529 0.0041352296207963872 0 0.032491610305976797 0.0046538347229207666 0 0.028207531739943136 0.00028379844322938606 0 0.02811428737575174 -6.9740719724834153e-05 0 0.027759110529046657 0.00032353797261153449 0 0.030761010417235064 0.002098013666130849 0 0.027190691337785219 0.00166828467759278 0 0.028483163996641081 -1.8362666273529107e-05 0 0.028207531739943136 0.00028379844322938606 0 0.02811428737575174 -6.9740719724834153e-05 0 0.028483163996641081 -1.8362666273529107e-05 0 0.028657154848994369 0.00013117564280623771 0 0.028207531739943136 0.00028379844322938606 0 0.032578216348792842 0.0014428055414354706 0 0.030761010417235064 0.002098013666130849 0 0.028464113773624077 -0.00049652035869688369 0 0.028483163996641081 -1.8362666273529107e-05 0 0.02811428737575174 -6.9740719724834153e-05 0 0.033297675691659083 0.0039408197411528578 0 0.033079597009044774 0.0039640090130016832 0 0.032943347709887362 0.00381552858253301 0 0.033079597009044774 0.0039640090130016832 0 0.032943347709887362 0.00381552858253301 0 0.032611919341643529 0.0041352296207963872 0 0.032943347709887362 0.00381552858253301 0 0.032187414464684358 0.0040207008286244385 0 0.032611919341643529 0.0041352296207963872 0 0.033356508760024835 0.0041115195491826344 0 0.033322876547681027 0.0042261785011574269 0 0.033337085627067595 0.0041425139495583014 0 0.033126655588671727 0.0039735521957967781 0 0.032754713799243822 0.0041666965746610498 0 0.033305006149449853 0.0042003236496031028 0 0.033322876547681027 0.0042261785011574269 0 0.033275946442456322 0.0042436161046577872 0 0.033305006149449853 0.0042003236496031028 0 0.033322876547681027 0.0042261785011574269 0 0.033337085627067595 0.0041425139495583014 0 0.033322876547681027 0.0042261785011574269 0 0.033256671840256442 0.0042894628465770888 0 0.033275946442456322 0.0042436161046577872 0 0.032754713799243822 0.0041666965746610498 0 0.032164984481251817 0.0040281123067705867 0 0.032166443783652049 0.0044315057664347009 0 0.031776802145987021 0.0046747081975427682 0 0.031338326848056021 0.0044354126632058849 0 0.032187414464684358 0.0040207008286244385 0 0.032166443783652049 0.0044315057664347009 0 0.031338326848056021 0.0044354126632058849 0 0.032166443783652049 0.0044315057664347009 0 0.032491610305976797 0.0046538347229207666 0 0.031776802145987021 0.0046747081975427682 0 0.032166443783652049 0.0044315057664347009 0 0.032611919341643529 0.0041352296207963872 0 0.032491610305976797 0.0046538347229207666 0 0.032187414464684358 0.0040207008286244385 0 0.032166443783652049 0.0044315057664347009 0 0.032611919341643529 0.0041352296207963872 0 0.023245330742571291 0.0012129271886684092 0 0.023191518344728525 0.0014393820546373445 0 0.023213473844093353 0.0015146863704318984 0 0.024923492799746039 0.0028170846003681589 0 0.024797462449155646 0.0029968928044895897 0 0.024232699314476299 0.0030787658500226306 0 0.027190691337785219 0.00166828467759278 0 0.023999716470701118 0.0021662223062814305 0 0.024797462449155646 0.0029968928044895897 0 0.024232699314476299 0.0030787658500226306 0 0.024442602355878491 0.0031151800428072429 0 0.024797462449155646 0.0029968928044895897 0 0.024442602355878491 0.0031151800428072429 0 0.024089115228336448 0.0033352499869882136 0 0.023999716470701118 0.0021662223062814305 0 0.023274645941535037 0.0028488244545445455 0 0.027190691337785219 0.00166828467759278 0 0.028102773198441715 0.0039178987078151576 0 0.024232699314476299 0.0030787658500226306 0 0.024225680405750634 0.0032063012722835585 0 0.024182694379658257 0.0032819415174752888 0 0.024232699314476299 0.0030787658500226306 0 0.024225680405750634 0.0032063012722835585 0 0.024442602355878491 0.0031151800428072429 0 0.024225680405750634 0.0032063012722835585 0 0.024089115228336448 0.0033352499869882136 0 0.024182694379658257 0.0032819415174752888 0 0.024225680405750634 0.0032063012722835585 0 0.024442602355878491 0.0031151800428072429 0 0.024089115228336448 0.0033352499869882136 0 0.022691831432975235 0.0023115972840163251 0 0.022451442430389594 0.0023704213157488799 0 0.02189369020375255 0.001987794581939057 0 0.023999716470701118 0.0021662223062814305 0 0.02240478523992542 0.0015436522344165335 0 0.023245330742571291 0.0012129271886684092 0 0.023213473844093353 0.0015146863704318984 0 0.023337973237550633 0.0014427649372318716 0 0.022042990651163628 0.0018280517650065625 0 0.022451442430389594 0.0023704213157488799 0 0.02189369020375255 0.001987794581939057 0 0.024530206402457781 0.0029814820781593311 0 0.024195196404603603 0.003266717327621205 0 0.024464869933366551 0.003560163713161557 0 0.027416793128085579 0.0022040341796901492 0 0.028866431082786671 0.0030315599869856769 0 0.02936416068994431 0.0035568481625544925 0 0.027416793128085579 0.0022040341796901492 0 0.028866431082786671 0.0030315599869856769 0 0.028188163114044124 0.0024775614719140028 0 0.025604754706538106 0.0023235162243875453 0 0.029361818265402649 0.0040501104117123257 0 0.028866431082786671 0.0030315599869856769 0 0.028188163114044124 0.0024775614719140028 0 0.028796332314058665 0.0028302652516310287 0 0.024530206402457781 0.0029814820781593311 0 0.024170941335938376 0.003050778678993467 0 0.024195196404603603 0.003266717327621205 0 0.024089115228336448 0.0033352499869882136 0 0.024195196404603603 0.003266717327621205 0 0.024182694379658257 0.0032819415174752888 0 0.024089115228336448 0.0033352499869882136 0 0.024170941335938376 0.003050778678993467 0 0.024195196404603603 0.003266717327621205 0 0.024232699314476299 0.0030787658500226306 0 0.024182694379658257 0.0032819415174752888 0 0.024252813642500624 0.0034160067498849606 0 0.024195196404603603 0.003266717327621205 0 0.024259174194653468 0.0033895288212477158 0 0.024182694379658257 0.0032819415174752888 0 0.028102773198441715 0.0039178987078151576 0 0.028936976987065981 0.0042641749262978552 0 0.024259174194653468 0.0033895288212477158 0 0.024182694379658257 0.0032819415174752888 0 0.024252813642500624 0.0034160067498849606 0 0.033224549304758023 0.004306475510484211 0 0.033171239052846455 0.0043231477096101478 0 0.033223235955520847 0.0042846583121203333 0 0.028936976987065981 0.0042641749262978552 0 0.029361818265402649 0.0040501104117123257 0 0.024259174194653468 0.0033895288212477158 0 0.024252813642500624 0.0034160067498849606 0 0.024464869933366551 0.003560163713161557 0 0.024195196404603603 0.003266717327621205 0 0.024259174194653468 0.0033895288212477158 0 0.024464869933366551 0.003560163713161557 0 0.028866431082786671 0.0030315599869856769 0 0.029287903268364859 0.0033721569679077716 0 0.02936416068994431 0.0035568481625544925 0 0.028866431082786671 0.0030315599869856769 0 0.029287903268364859 0.0033721569679077716 0 0.029449691854682169 0.0033567248508720453 0 0.029403111094168162 0.0040085360299284226 0 0.029361818265402649 0.0040501104117123257 0 0.029287903268364859 0.0033721569679077716 0 0.029465882879638149 0.0035580826069629614 0 0.02936416068994431 0.0035568481625544925 0 0.029287903268364859 0.0033721569679077716 0 0.029465882879638149 0.0035580826069629614 0 0.029449691854682169 0.0033567248508720453 0 0.029465882879638149 0.0035580826069629614 0 0.02945318533061294 0.0036157674968479219 0 0.030503141220990179 0.0039480236373802512 0 0.02945318533061294 0.0036157674968479219 0 0.030961178693505786 0.004425332210214912 0 0.030503141220990179 0.0039480236373802512 0 0.029361818265402649 0.0040501104117123257 0 0.03222347582781887 0.0042544703081331603 0 0.033221241193270919 0.004268416313183203 0 0.033223235955520847 0.0042846583121203333 0 0.0332467328899647 0.0042628314808922452 0 0.033171239052846455 0.0043231477096101478 0 0.033221241193270919 0.004268416313183203 0 0.033223235955520847 0.0042846583121203333 0 0.031776802145987021 0.0046747081975427682 0 0.030992012808231387 0.004631512567924238 0 0.031338326848056021 0.0044354126632058849 0 0.028936976987065981 0.0042641749262978552 0 0.032164984481251817 0.0040281123067705867 0 0.033224549304758023 0.004306475510484211 0 0.033223235955520847 0.0042846583121203333 0 0.033256671840256442 0.0042894628465770888 0 0.033223235955520847 0.0042846583121203333 0 0.033256671840256442 0.0042894628465770888 0 0.0332467328899647 0.0042628314808922452 0 0.033256671840256442 0.0042894628465770888 0 0.0332467328899647 0.0042628314808922452 0 0.033275946442456322 0.0042436161046577872 0 0.033305006149449853 0.0042003236496031028 0 0.033275946442456322 0.0042436161046577872 0 0.033264555052581586 0.0042512960176858275 0 0.0332467328899647 0.0042628314808922452 0 0.033275946442456322 0.0042436161046577872 0 0.033264555052581586 0.0042512960176858275 0 0.033221241193270919 0.004268416313183203 0 0.033264555052581586 0.0042512960176858275 0 0.03325571837282195 0.0043256113612130309 0 0.03222347582781887 0.0042544703081331603 0 0.032737291197219222 0.0043033830990193804 0 0.033221241193270919 0.004268416313183203 0 0.0332467328899647 0.0042628314808922452 0 0.033264555052581586 0.0042512960176858275 0 0.033264555052581586 0.0042512960176858275 0 0.03325571837282195 0.0043256113612130309 0 0.033306005889741572 0.0042002662004887422 0 0.03325571837282195 0.0043256113612130309 0 0.033306005889741572 0.0042002662004887422 0 0.033267290488305387 0.0041819002405915403 0 0.033306005889741572 0.0042002662004887422 0 0.033298426008316916 0.0041640214077829345 0 0.033267290488305387 0.0041819002405915403 0 0.033306005889741572 0.0042002662004887422 0 0.033309558668101126 0.0041910502192417289 0 0.033334960446132066 0.0041548629043304947 0 0.033306005889741572 0.0042002662004887422 0 0.033340996627305927 0.0041543220205587763 0 0.033298426008316916 0.0041640214077829345 0 0.033264555052581586 0.0042512960176858275 0 0.033306005889741572 0.0042002662004887422 0 0.033309558668101126 0.0041910502192417289 0 0.033305006149449853 0.0042003236496031028 0 0.033264555052581586 0.0042512960176858275 0 0.033309558668101126 0.0041910502192417289 0 0.033305006149449853 0.0042003236496031028 0 0.033328507158220583 0.004157814482077405 0 0.033309558668101126 0.0041910502192417289 0 0.033305006149449853 0.0042003236496031028 0 0.033328507158220583 0.004157814482077405 0 0.033337085627067595 0.0041425139495583014 0 0.033328507158220583 0.004157814482077405 0 0.033344581542979118 0.0041203875861707991 0 0.033334960446132066 0.0041548629043304947 0 0.033328507158220583 0.004157814482077405 0 0.033309558668101126 0.0041910502192417289 0 0.033334960446132066 0.0041548629043304947 0 0.033328507158220583 0.004157814482077405 0 0.033337085627067595 0.0041425139495583014 0 0.033344581542979118 0.0041203875861707991 0 0.033349651730334037 0.0040625580452697489 0 0.033337085627067595 0.0041425139495583014 0 0.033344581542979118 0.0041203875861707991 0 0.033344581542979118 0.0041203875861707991 0 0.033351693009798129 0.0041264233737130446 0 0.033334960446132066 0.0041548629043304947 0 0.033349651730334037 0.0040625580452697489 0 0.033344581542979118 0.0041203875861707991 0 0.033351693009798129 0.0041264233737130446 0 0.036249445125307631 0.0021241020870012739 0 0.037374075547235965 0.0023750684196309122 0 0.037888024521792137 0.0033628436873012072 0 0.033306005889741572 0.0042002662004887422 0 0.033334960446132066 0.0041548629043304947 0 0.033340996627305927 0.0041543220205587763 0 0.033351693009798129 0.0041264233737130446 0 0.033334960446132066 0.0041548629043304947 0 0.033340996627305927 0.0041543220205587763 0 0.036854801648255581 0.0031833735010105097 0 0.036736055781623513 0.0035350753319957997 0 0.03639942982728573 0.0032087190088921844 0 0.036854801648255581 0.0031833735010105097 0 0.036736055781623513 0.0035350753319957997 0 0.036978692596289484 0.0031707617168143663 0 0.03530670029314166 0.003257824560464397 0 0.034980607378061454 0.0038959917761718448 0 0.037021660321670549 0.0032256573878728326 0 0.036736055781623513 0.0035350753319957997 0 0.036978692596289484 0.0031707617168143663 0 0.03698791801776833 0.0015378865778885563 0 0.03800621462673423 0.0025927519431686715 0 0.03530670029314166 0.003257824560464397 0 0.03800621462673423 0.0025927519431686715 0 0.039704670427186249 0.00078273098870970973 0 0.040351805444246894 0.00089010393633311136 0 0.040019304528821548 0.0012780018103790893 0 0.040351805444246894 0.00089010393633311136 0 0.040019304528821548 0.0012780018103790893 0 0.039724023417607765 0.001882282231530954 0 0.040019304528821548 0.0012780018103790893 0 0.040017328518881269 0.0013841649995800563 0 0.039724023417607765 0.001882282231530954 0 0.03800621462673423 0.0025927519431686715 0 0.038397381666989513 0.0020636659732137944 0 0.037110920587613727 0.0027258340374295329 0 0.03639942982728573 0.0032087190088921844 0 0.036667499883879344 0.0024524110061375243 0 0.036854801648255581 0.0031833735010105097 0 0.036978692596289484 0.0031707617168143663 0 0.037110920587613727 0.0027258340374295329 0 0.036854801648255581 0.0031833735010105097 0 0.037110920587613727 0.0027258340374295329 0 0.03639942982728573 0.0032087190088921844 0 0.03639942982728573 0.0032087190088921844 0 0.035845592951852967 0.0027676436564732158 0 0.036667499883879344 0.0024524110061375243 0 0.03639942982728573 0.0032087190088921844 0 0.035845592951852967 0.0027676436564732158 0 0.035193954843148446 0.0033133328556413156 0 0.035845592951852967 0.0027676436564732158 0 0.035193954843148446 0.0033133328556413156 0 0.034695225485229284 0.0028408030149604828 0 0.03639942982728573 0.0032087190088921844 0 0.035193954843148446 0.0033133328556413156 0 0.03555960532205369 0.0039728110422664747 0 0.035193954843148446 0.0033133328556413156 0 0.03555960532205369 0.0039728110422664747 0 0.033783308424637781 0.0039439508528879164 0 0.036736055781623513 0.0035350753319957997 0 0.03639942982728573 0.0032087190088921844 0 0.03555960532205369 0.0039728110422664747 0 0.034980607378061454 0.0038959917761718448 0 0.034395096825365158 0.0040200590733240329 0 0.033783308424637781 0.0039439508528879164 0 0.033620946949297383 0.003808610111114523 0 0.03312410345908641 0.0042930362871811505 0 0.033298426008316916 0.0041640214077829345 0 0.033783308424637781 0.0039439508528879164 0 0.033267290488305387 0.0041819002405915403 0 0.033783308424637781 0.0039439508528879164 0 0.03312410345908641 0.0042930362871811505 0 0.033267290488305387 0.0041819002405915403 0 0.034395096825365158 0.0040200590733240329 0 0.03379065062626483 0.0039505602122608613 0 0.035193954843148446 0.0033133328556413156 0 0.033783308424637781 0.0039439508528879164 0 0.034695225485229284 0.0028408030149604828 0 0.033783308424637781 0.0039439508528879164 0 0.033921574201797568 0.0034935312557489683 0 0.034695225485229284 0.0028408030149604828 0 0.033783308424637781 0.0039439508528879164 0 0.033921574201797568 0.0034935312557489683 0 0.033620946949297383 0.003808610111114523 0 0.033921574201797568 0.0034935312557489683 0 0.033620946949297383 0.003808610111114523 0 0.034243278962737121 0.0034750979551089727 0 0.033620946949297383 0.003808610111114523 0 0.033327176969713206 0.0038493677418986972 0 0.033898923614685571 0.0036285129705565518 0 0.033620946949297383 0.003808610111114523 0 0.033898923614685571 0.0036285129705565518 0 0.034243278962737121 0.0034750979551089727 0 0.033620946949297383 0.003808610111114523 0 0.033208876227880872 0.0041922891275499212 0 0.033327176969713206 0.0038493677418986972 0 0.033620946949297383 0.003808610111114523 0 0.033208876227880872 0.0041922891275499212 0 0.03312410345908641 0.0042930362871811505 0 0.033208876227880872 0.0041922891275499212 0 0.032790513905542829 0.0045352296722886249 0 0.03312410345908641 0.0042930362871811505 0 0.033208876227880872 0.0041922891275499212 0 0.032905630819532995 0.004463529403066515 0 0.033327176969713206 0.0038493677418986972 0 0.033208876227880872 0.0041922891275499212 0 0.032905630819532995 0.004463529403066515 0 0.032790513905542829 0.0045352296722886249 0 0.032831080655480058 0.004445387204849314 0 0.032461516034660291 0.004721606581923006 0 0.032905630819532995 0.004463529403066515 0 0.032790513905542829 0.0045352296722886249 0 0.032717367679060375 0.0046543937946506332 0 0.032790513905542829 0.0045352296722886249 0 0.032425643447873818 0.0045348218344770305 0 0.03312410345908641 0.0042930362871811505 0 0.032425643447873818 0.0045348218344770305 0 0.03312410345908641 0.0042930362871811505 0 0.032725934149568522 0.004402046460834085 0 0.032737291197219222 0.0043033830990193804 0 0.033145872954511053 0.0041554794850829843 0 0.03312410345908641 0.0042930362871811505 0 0.033267290488305387 0.0041819002405915403 0 0.032725934149568522 0.004402046460834085 0 0.032270474280109589 0.0044244151623423923 0 0.033267290488305387 0.0041819002405915403 0 0.032725934149568522 0.004402046460834085 0 0.032270474280109589 0.0044244151623423923 0 0.032725934149568522 0.004402046460834085 0 0.031822327587927912 0.0044926131841359551 0 0.032425643447873818 0.0045348218344770305 0 0.032725934149568522 0.004402046460834085 0 0.031822327587927912 0.0044926131841359551 0 0.030961178693505786 0.004425332210214912 0 0.031822327587927912 0.0044926131841359551 0 0.031644553591044101 0.0043845211284537994 0 0.030961178693505786 0.004425332210214912 0 0.032270474280109589 0.0044244151623423923 0 0.031822327587927912 0.0044926131841359551 0 0.032425643447873818 0.0045348218344770305 0 0.031644553591044101 0.0043845211284537994 0 0.032326888610471172 0.0044947194141375458 0 0.032425643447873818 0.0045348218344770305 0 0.031822327587927912 0.0044926131841359551 0 0.031644553591044101 0.0043845211284537994 0 0.031644553591044101 0.0043845211284537994 0 0.03184477033967046 0.0041050029558337385 0 0.032326888610471172 0.0044947194141375458 0 0.031644553591044101 0.0043845211284537994 0 0.03184477033967046 0.0041050029558337385 0 0.031167711618811142 0.0039892979933903753 0 0.030961178693505786 0.004425332210214912 0 0.031644553591044101 0.0043845211284537994 0 0.030503141220990179 0.0039480236373802512 0 0.031644553591044101 0.0043845211284537994 0 0.030503141220990179 0.0039480236373802512 0 0.031167711618811142 0.0039892979933903753 0 0.029465882879638149 0.0035580826069629614 0 0.030503141220990179 0.0039480236373802512 0 0.030042349020205038 0.0036191123791424994 0 0.029465882879638149 0.0035580826069629614 0 0.030042349020205038 0.0036191123791424994 0 0.029449691854682169 0.0033567248508720453 0 0.030042349020205038 0.0036191123791424994 0 0.029670399318206593 0.0033240642744732495 0 0.029449691854682169 0.0033567248508720453 0 0.029670399318206593 0.0033240642744732495 0 0.029449691854682169 0.0033567248508720453 0 0.029274766347263146 0.0030331969191089705 0 0.030042349020205038 0.0036191123791424994 0 0.030596457736741241 0.0036909325047705345 0 0.030064993067842664 0.003228744298248599 0 0.030042349020205038 0.0036191123791424994 0 0.029670399318206593 0.0033240642744732495 0 0.030064993067842664 0.003228744298248599 0 0.030503141220990179 0.0039480236373802512 0 0.030596457736741241 0.0036909325047705345 0 0.031167711618811142 0.0039892979933903753 0 0.030503141220990179 0.0039480236373802512 0 0.030042349020205038 0.0036191123791424994 0 0.030596457736741241 0.0036909325047705345 0 0.030596457736741241 0.0036909325047705345 0 0.031167711618811142 0.0039892979933903753 0 0.031274497104341582 0.0036858134792470683 0 0.031274497104341582 0.0036858134792470683 0 0.030064993067842664 0.003228744298248599 0 0.031833313647108799 0.0029640548193856668 0 0.03184477033967046 0.0041050029558337385 0 0.031274497104341582 0.0036858134792470683 0 0.032074724050483568 0.0037529180548058578 0 0.03184477033967046 0.0041050029558337385 0 0.031167711618811142 0.0039892979933903753 0 0.031274497104341582 0.0036858134792470683 0 0.030596457736741241 0.0036909325047705345 0 0.031274497104341582 0.0036858134792470683 0 0.030064993067842664 0.003228744298248599 0 0.030607761693991341 0.0020980626776539819 0 0.029488528944206276 0.0022160850711116951 0 0.031513956981899384 0.002413816404342595 0 0.029488528944206276 0.0022160850711116951 0 0.030064993067842664 0.003228744298248599 0 0.031833313647108799 0.0029640548193856668 0 0.0297101982550728 0.0021504412176317081 0 0.031547024321215741 0.0027214204963559659 0 0.029488528944206276 0.0022160850711116951 0 0.030064993067842664 0.003228744298248599 0 0.029344860405365273 0.0028097997458471492 0 0.029488528944206276 0.0022160850711116951 0 0.028885421268017818 0.0026166735823167095 0 0.029344860405365273 0.0028097997458471492 0 0.028392464025885661 0.0023671858526536247 0 0.029488528944206276 0.0022160850711116951 0 0.028885421268017818 0.0026166735823167095 0 0.028392464025885661 0.0023671858526536247 0 0.028188163114044124 0.0024775614719140028 0 0.028885421268017818 0.0026166735823167095 0 0.028188163114044124 0.0024775614719140028 0 0.028885421268017818 0.0026166735823167095 0 0.028796332314058665 0.0028302652516310287 0 0.029670399318206593 0.0033240642744732495 0 0.029274766347263146 0.0030331969191089705 0 0.030064993067842664 0.003228744298248599 0 0.028885421268017818 0.0026166735823167095 0 0.029274766347263146 0.0030331969191089705 0 0.029344860405365273 0.0028097997458471492 0 0.028866431082786671 0.0030315599869856769 0 0.028796332314058665 0.0028302652516310287 0 0.029274766347263146 0.0030331969191089705 0 0.028885421268017818 0.0026166735823167095 0 0.028796332314058665 0.0028302652516310287 0 0.029274766347263146 0.0030331969191089705 0 0.028866431082786671 0.0030315599869856769 0 0.029449691854682169 0.0033567248508720453 0 0.029274766347263146 0.0030331969191089705 0 0.029274766347263146 0.0030331969191089705 0 0.030064993067842664 0.003228744298248599 0 0.029344860405365273 0.0028097997458471492 0 0.026871110434719757 0.0034563835937773111 0 0.026705345810378131 0.0032599258219052057 0 0.026829938406915194 0.0040371928821255352 0 0.026799673366138227 0.0034385010343569488 0 0.026876278997439235 0.0036939924093881381 0 0.026705345810378131 0.0032599258219052057 0 0.026792188880868616 0.0035881908850212019 0 0.027223502551769176 0.0036437547417760294 0 0.027040813212884936 0.0037068213161673114 0 0.026829938406915194 0.0040371928821255352 0 0.027197621023177528 0.0039753604037104694 0 0.027040813212884936 0.0037068213161673114 0 0.026871110434719757 0.0034563835937773111 0 0.026829938406915194 0.0040371928821255352 0 0.0269730765087304 0.0033425002046204009 0 0.027040813212884936 0.0037068213161673114 0 0.026871110434719757 0.0034563835937773111 0 0.0268309013862916 0.0031539992612556562 0 0.026871110434719757 0.0034563835937773111 0 0.026705345810378131 0.0032599258219052057 0 0.026705345810378131 0.0032599258219052057 0 0.026592782962835244 0.002978662235535856 0 0.026792188880868616 0.0035881908850212019 0 0.026423937120694532 0.0027879767830376327 0 0.026592782962835244 0.002978662235535856 0 0.026792188880868616 0.0035881908850212019 0 0.02853974060134885 0.0025171177019574277 0 0.029813564547423593 0.0030381876083437494 0 0.026693875796004258 0.002974368544326228 0 0.026705345810378131 0.0032599258219052057 0 0.026592782962835244 0.002978662235535856 0 0.030607761693991341 0.0020980626776539819 0 0.031513956981899384 0.002413816404342595 0 0.032524529998980742 0.0025677870895058062 0 0.031547024321215741 0.0027214204963559659 0 0.032384112331931288 0.0036018380146876647 0 0.031833313647108799 0.0029640548193856668 0 0.032074724050483568 0.0037529180548058578 0 0.032663269001862436 0.0037666063496901657 0 0.031513956981899384 0.002413816404342595 0 0.032524529998980742 0.0025677870895058062 0 0.032636869692617441 0.0026928562045637752 0 0.031274497104341582 0.0036858134792470683 0 0.031833313647108799 0.0029640548193856668 0 0.032074724050483568 0.0037529180548058578 0 0.03184477033967046 0.0041050029558337385 0 0.032074724050483568 0.0037529180548058578 0 0.032350540620903652 0.0041967994531955759 0 0.032074724050483568 0.0037529180548058578 0 0.032663269001862436 0.0037666063496901657 0 0.032350540620903652 0.0041967994531955759 0 0.032524529998980742 0.0025677870895058062 0 0.032688079240435555 0.0027933262810053761 0 0.03309700851467872 0.0031873576079804707 0 0.026792188880868616 0.0035881908850212019 0 0.027223502551769176 0.0036437547417760294 0 0.027786533036836793 0.0041711205531667506 0 0.032051521050772802 0.0040073611481977224 0 0.032218829362609572 0.004422476519541192 0 0.032383792733773738 0.0045988038879038661 0 0.029813564547423593 0.0030381876083437494 0 0.029505894440303541 0.004282148119740507 0 0.032567435621999367 0.0035039569261866607 0 0.031354941998693112 0.004955466582581885 0 0.031910037605290424 0.0039026368183560011 0 0.032051521050772802 0.0040073611481977224 0 0.032155029829082922 0.0043819435487427562 0 0.032524529998980742 0.0025677870895058062 0 0.032636869692617441 0.0026928562045637752 0 0.032688079240435555 0.0027933262810053761 0 0.032384112331931288 0.0036018380146876647 0 0.032567435621999367 0.0035039569261866607 0 0.032051521050772802 0.0040073611481977224 0 0.032155029829082922 0.0043819435487427562 0 0.032218829362609572 0.004422476519541192 0 0.032384112331931288 0.0036018380146876647 0 0.032461516034660291 0.004721606581923006 0 0.032155029829082922 0.0043819435487427562 0 0.032218829362609572 0.004422476519541192 0 0.032275377482318186 0.0046796530005531745 0 0.032663269001862436 0.0037666063496901657 0 0.032350540620903652 0.0041967994531955759 0 0.032717367679060375 0.0046543937946506332 0 0.031910037605290424 0.0039026368183560011 0 0.032155029829082922 0.0043819435487427562 0 0.032190673965277784 0.0047607137571537431 0 0.032155029829082922 0.0043819435487427562 0 0.032190673965277784 0.0047607137571537431 0 0.032275377482318186 0.0046796530005531745 0 0.032350540620903652 0.0041967994531955759 0 0.032326888610471172 0.0044947194141375458 0 0.032717367679060375 0.0046543937946506332 0 0.03184477033967046 0.0041050029558337385 0 0.032350540620903652 0.0041967994531955759 0 0.032326888610471172 0.0044947194141375458 0 0.032790513905542829 0.0045352296722886249 0 0.032326888610471172 0.0044947194141375458 0 0.032717367679060375 0.0046543937946506332 0 0.032790513905542829 0.0045352296722886249 0 0.032425643447873818 0.0045348218344770305 0 0.032326888610471172 0.0044947194141375458 0 0.032706870704354102 0.0045036531843713852 0 0.032190673965277784 0.0047607137571537431 0 0.032350514915716416 0.0047894206059076122 0 0.032190673965277784 0.0047607137571537431 0 0.032350514915716416 0.0047894206059076122 0 0.032289697591971867 0.0048550389148856281 0 0.032350514915716416 0.0047894206059076122 0 0.03216913311683612 0.0049687308764863923 0 0.03220918433602616 0.0047024811757394487 0 0.032213030399054703 0.0049598308426667256 0 0.032289697591971867 0.0048550389148856281 0 0.03216913311683612 0.0049687308764863923 0 0.032350514915716416 0.0047894206059076122 0 0.032289697591971867 0.0048550389148856281 0 0.03216913311683612 0.0049687308764863923 0 0.031815931665027268 0.0049630093708181808 0 0.032074907078073291 0.0051725045312368371 0 0.030798414220742927 0.0052037358307540499 0 0.031815931665027268 0.0049630093708181808 0 0.03216913311683612 0.0049687308764863923 0 0.03220918433602616 0.0047024811757394487 0 0.031815931665027268 0.0049630093708181808 0 0.03216913311683612 0.0049687308764863923 0 0.032074907078073291 0.0051725045312368371 0 0.032213030399054703 0.0049598308426667256 0 0.03216913311683612 0.0049687308764863923 0 0.032074907078073291 0.0051725045312368371 0 0.031502061928076912 0.0055267676058459152 0 0.030801722857212468 0.0051117996763697156 0 0.030877054661329072 0.0058652283591467992 0 0.030655377355912457 0.0056740034747914808 0 0.030798414220742927 0.0052037358307540499 0 0.030881778047901993 0.0060156694038699101 0 0.030877054661329072 0.0058652283591467992 0 0.030655377355912457 0.0056740034747914808 0 0.02851874061007548 0.0053014583261739821 0 0.02798987062233713 0.0053597404256801933 0 0.028852239660439559 0.0054190939471678874 0 0.030365132856037133 0.0056062371840762924 0 0.029857373379586539 0.0055407084115690255 0 0.02798987062233713 0.0053597404256801933 0 0.028852239660439559 0.0054190939471678874 0 0.029480654993670904 0.00573868372933071 0 0.0288676478826243 0.0051872560343161258 0 0.029857373379586539 0.0055407084115690255 0 0.029899658881570455 0.0052208118946150796 0 0.02989636128525857 0.0052001252511537539 0 0.029921355403217425 0.0053094607696804507 0 0.030881778047901993 0.0060156694038699101 0 0.030655377355912457 0.0056740034747914808 0 0.03030599591702075 0.0058049491887010377 0 0.02851874061007548 0.0053014583261739821 0 0.028852239660439559 0.0054190939471678874 0 0.028833069053214241 0.0052950280886359365 0 0.032213030399054703 0.0049598308426667256 0 0.032074907078073291 0.0051725045312368371 0 0.032272490048492516 0.0048485529706945541 0 0.031502061928076912 0.0055267676058459152 0 0.031354941998693112 0.004955466582581885 0 0.030881778047901993 0.0060156694038699101 0 0.030877054661329072 0.0058652283591467992 0 0.031321428071728802 0.0062272751331102017 0 0.030365132856037133 0.0056062371840762924 0 0.031354941998693112 0.004955466582581885 0 0.02798987062233713 0.0053597404256801933 0 0.02783480872546034 0.005081455622462496 0 0.027241635318900715 0.0047618678437275595 0 0.029899658881570455 0.0052208118946150796 0 0.02989636128525857 0.0052001252511537539 0 0.029874468712774993 0.0051202097823118721 0 0.027698025967736763 0.0049035025471189835 0 0.027853308616496784 0.004937837946072476 0 0.027881922921916935 0.0047778698529504643 0 0.027698025967736763 0.0049035025471189835 0 0.027853308616496784 0.004937837946072476 0 0.02783480872546034 0.005081455622462496 0 0.02783480872546034 0.005081455622462496 0 0.028005238740296909 0.0049990269854354574 0 0.028133878568964744 0.00516349535854269 0 0.027853308616496784 0.004937837946072476 0 0.02783480872546034 0.005081455622462496 0 0.028005238740296909 0.0049990269854354574 0 0.028005238740296909 0.0049990269854354574 0 0.028111488348255425 0.0048814837924083306 0 0.027881922921916935 0.0047778698529504643 0 0.027853308616496784 0.004937837946072476 0 0.028005238740296909 0.0049990269854354574 0 0.027881922921916935 0.0047778698529504643 0 0.02798987062233713 0.0053597404256801933 0 0.02783480872546034 0.005081455622462496 0 0.028133878568964744 0.00516349535854269 0 0.02851874061007548 0.0053014583261739821 0 0.02798987062233713 0.0053597404256801933 0 0.02827362301654561 0.0052599953110279716 0 0.02798987062233713 0.0053597404256801933 0 0.02827362301654561 0.0052599953110279716 0 0.028133878568964744 0.00516349535854269 0 0.02827362301654561 0.0052599953110279716 0 0.028395382387766298 0.0051717606459018841 0 0.028133878568964744 0.00516349535854269 0 0.02851874061007548 0.0053014583261739821 0 0.02827362301654561 0.0052599953110279716 0 0.028395382387766298 0.0051717606459018841 0 0.028395382387766298 0.0051717606459018841 0 0.028256557545726174 0.0050221861483393561 0 0.028441583515464827 0.0050458798328046313 0 0.028395382387766298 0.0051717606459018841 0 0.028133878568964744 0.00516349535854269 0 0.028256557545726174 0.0050221861483393561 0 0.028005238740296909 0.0049990269854354574 0 0.028111488348255425 0.0048814837924083306 0 0.028256557545726174 0.0050221861483393561 0 0.028005238740296909 0.0049990269854354574 0 0.028133878568964744 0.00516349535854269 0 0.028256557545726174 0.0050221861483393561 0 0.028111488348255425 0.0048814837924083306 0 0.028256557545726174 0.0050221861483393561 0 0.028328088896577105 0.0048761605997979206 0 0.028256557545726174 0.0050221861483393561 0 0.028441583515464827 0.0050458798328046313 0 0.028328088896577105 0.0048761605997979206 0 0.028441583515464827 0.0050458798328046313 0 0.028605754561579405 0.0050165027723209146 0 0.028328088896577105 0.0048761605997979206 0 0.028441583515464827 0.0050458798328046313 0 0.028605754561579405 0.0050165027723209146 0 0.028613500842238297 0.0051602731528756522 0 0.02851874061007548 0.0053014583261739821 0 0.028613500842238297 0.0051602731528756522 0 0.028833069053214241 0.0052950280886359365 0 0.028395382387766298 0.0051717606459018841 0 0.028441583515464827 0.0050458798328046313 0 0.028613500842238297 0.0051602731528756522 0 0.02851874061007548 0.0053014583261739821 0 0.028395382387766298 0.0051717606459018841 0 0.028613500842238297 0.0051602731528756522 0 0.032190673965277784 0.0047607137571537431 0 0.032289697591971867 0.0048550389148856281 0 0.032275377482318186 0.0046796530005531745 0 0.032289697591971867 0.0048550389148856281 0 0.032275377482318186 0.0046796530005531745 0 0.032272490048492516 0.0048485529706945541 0 0.032213030399054703 0.0049598308426667256 0 0.032289697591971867 0.0048550389148856281 0 0.032272490048492516 0.0048485529706945541 0 0.032074907078073291 0.0051725045312368371 0 0.032272490048492516 0.0048485529706945541 0 0.032383792733773738 0.0045988038879038661 0 0.0288676478826243 0.0051872560343161258 0 0.029505894440303541 0.004282148119740507 0 0.02989636128525857 0.0052001252511537539 0 0.029874468712774993 0.0051202097823118721 0 0.029870458021822675 0.0050937460080231816 0 0.032275377482318186 0.0046796530005531745 0 0.032272490048492516 0.0048485529706945541 0 0.032383792733773738 0.0045988038879038661 0 0.027698025967736763 0.0049035025471189835 0 0.02783480872546034 0.005081455622462496 0 0.027241635318900715 0.0047618678437275595 0 0.031354941998693112 0.004955466582581885 0 0.029505894440303541 0.004282148119740507 0 0.032218829362609572 0.004422476519541192 0 0.032275377482318186 0.0046796530005531745 0 0.032383792733773738 0.0045988038879038661 0 0.032688079240435555 0.0027933262810053761 0 0.033162402465924938 0.003296968799607892 0 0.03309700851467872 0.0031873576079804707 0 0.027241635318900715 0.0047618678437275595 0 0.027158783772567044 0.0042897935624797729 0 0.027350372657762405 0.0045081363865895879 0 0.026829938406915194 0.0040371928821255352 0 0.027241635318900715 0.0047618678437275595 0 0.027158783772567044 0.0042897935624797729 0 0.026876278997439235 0.0036939924093881381 0 0.029505894440303541 0.004282148119740507 0 0.026829938406915194 0.0040371928821255352 0 0.027158783772567044 0.0042897935624797729 0 0.027197621023177528 0.0039753604037104694 0 0.027158783772567044 0.0042897935624797729 0 0.027369410071333703 0.0042830301366447322 0 0.027350372657762405 0.0045081363865895879 0 0.027158783772567044 0.0042897935624797729 0 0.027369410071333703 0.0042830301366447322 0 0.027197621023177528 0.0039753604037104694 0 0.027593573598516139 0.0043031707971190577 0 0.027677406362104515 0.0041116000355023233 0 0.027458494542627148 0.004068588250647774 0 0.027369410071333703 0.0042830301366447322 0 0.027593573598516139 0.0043031707971190577 0 0.027458494542627148 0.004068588250647774 0 0.027369410071333703 0.0042830301366447322 0 0.027197621023177528 0.0039753604037104694 0 0.027458494542627148 0.004068588250647774 0 0.027593573598516139 0.0043031707971190577 0 0.027528346444934133 0.0045121293344172909 0 0.027728804266023376 0.0045158820952405634 0 0.027369410071333703 0.0042830301366447322 0 0.027593573598516139 0.0043031707971190577 0 0.027528346444934133 0.0045121293344172909 0 0.027528346444934133 0.0045121293344172909 0 0.027659854578403021 0.004671360260568724 0 0.027728804266023376 0.0045158820952405634 0 0.027698025967736763 0.0049035025471189835 0 0.027241635318900715 0.0047618678437275595 0 0.027495364477325784 0.0046801686371746448 0 0.027528346444934133 0.0045121293344172909 0 0.027659854578403021 0.004671360260568724 0 0.027495364477325784 0.0046801686371746448 0 0.027528346444934133 0.0045121293344172909 0 0.027350372657762405 0.0045081363865895879 0 0.027495364477325784 0.0046801686371746448 0 0.027369410071333703 0.0042830301366447322 0 0.027528346444934133 0.0045121293344172909 0 0.027350372657762405 0.0045081363865895879 0 0.027241635318900715 0.0047618678437275595 0 0.027350372657762405 0.0045081363865895879 0 0.027495364477325784 0.0046801686371746448 0 0.027698025967736763 0.0049035025471189835 0 0.027659854578403021 0.004671360260568724 0 0.027495364477325784 0.0046801686371746448 0 0.027698025967736763 0.0049035025471189835 0 0.027659854578403021 0.004671360260568724 0 0.027881922921916935 0.0047778698529504643 0 0.028111488348255425 0.0048814837924083306 0 0.027881922921916935 0.0047778698529504643 0 0.028094701082666446 0.0047438338698111574 0 0.027881922921916935 0.0047778698529504643 0 0.027934920565970463 0.0045453422597781876 0 0.027728804266023376 0.0045158820952405634 0 0.027881922921916935 0.0047778698529504643 0 0.027934920565970463 0.0045453422597781876 0 0.028094701082666446 0.0047438338698111574 0 0.027659854578403021 0.004671360260568724 0 0.027881922921916935 0.0047778698529504643 0 0.027728804266023376 0.0045158820952405634 0 0.028328088896577105 0.0048761605997979206 0 0.028201008531506807 0.0046371601750232298 0 0.028529675722657022 0.0048027997257958583 0 0.028605754561579405 0.0050165027723209146 0 0.028328088896577105 0.0048761605997979206 0 0.028529675722657022 0.0048027997257958583 0 0.028328088896577105 0.0048761605997979206 0 0.028094701082666446 0.0047438338698111574 0 0.028201008531506807 0.0046371601750232298 0 0.028111488348255425 0.0048814837924083306 0 0.028328088896577105 0.0048761605997979206 0 0.028094701082666446 0.0047438338698111574 0 0.027934920565970463 0.0045453422597781876 0 0.028094701082666446 0.0047438338698111574 0 0.028201008531506807 0.0046371601750232298 0 0.028201008531506807 0.0046371601750232298 0 0.028323644508415083 0.0045354420262872126 0 0.028529675722657022 0.0048027997257958583 0 0.028201008531506807 0.0046371601750232298 0 0.028323644508415083 0.0045354420262872126 0 0.028063760889799134 0.0044191229364541089 0 0.027934920565970463 0.0045453422597781876 0 0.028201008531506807 0.0046371601750232298 0 0.028063760889799134 0.0044191229364541089 0 0.028063760889799134 0.0044191229364541089 0 0.028168035319022337 0.0043338737196016849 0 0.027886604307032738 0.0041586149988047114 0 0.028063760889799134 0.0044191229364541089 0 0.027818547766131005 0.0043337058343203422 0 0.027886604307032738 0.0041586149988047114 0 0.028323644508415083 0.0045354420262872126 0 0.028063760889799134 0.0044191229364541089 0 0.028168035319022337 0.0043338737196016849 0 0.027593573598516139 0.0043031707971190577 0 0.027728804266023376 0.0045158820952405634 0 0.027818547766131005 0.0043337058343203422 0 0.027934920565970463 0.0045453422597781876 0 0.028063760889799134 0.0044191229364541089 0 0.027818547766131005 0.0043337058343203422 0 0.027934920565970463 0.0045453422597781876 0 0.027728804266023376 0.0045158820952405634 0 0.027818547766131005 0.0043337058343203422 0 0.027593573598516139 0.0043031707971190577 0 0.027818547766131005 0.0043337058343203422 0 0.027677406362104515 0.0041116000355023233 0 0.027677406362104515 0.0041116000355023233 0 0.027886604307032738 0.0041586149988047114 0 0.027657131956957747 0.0038728471499488411 0 0.027677406362104515 0.0041116000355023233 0 0.027657131956957747 0.0038728471499488411 0 0.027511467492973878 0.0039094973997217813 0 0.027818547766131005 0.0043337058343203422 0 0.027677406362104515 0.0041116000355023233 0 0.027886604307032738 0.0041586149988047114 0 0.027886604307032738 0.0041586149988047114 0 0.027838230761236329 0.0039340152509929806 0 0.027657131956957747 0.0038728471499488411 0 0.027886604307032738 0.0041586149988047114 0 0.028025248679754221 0.0041462237355523908 0 0.027838230761236329 0.0039340152509929806 0 0.028168035319022337 0.0043338737196016849 0 0.027886604307032738 0.0041586149988047114 0 0.028025248679754221 0.0041462237355523908 0 0.027527521998500851 0.0036139565940082412 0 0.027814815087369129 0.0038073222420329264 0 0.027838230761236329 0.0039340152509929806 0 0.028025248679754221 0.0041462237355523908 0 0.027838230761236329 0.0039340152509929806 0 0.028042174316253721 0.0040508649316598304 0 0.027814815087369129 0.0038073222420329264 0 0.027838230761236329 0.0039340152509929806 0 0.028042174316253721 0.0040508649316598304 0 0.027527521998500851 0.0036139565940082412 0 0.027838230761236329 0.0039340152509929806 0 0.027657131956957747 0.0038728471499488411 0 0.027527521998500851 0.0036139565940082412 0 0.027657131956957747 0.0038728471499488411 0 0.027427371491732584 0.0036923142287187058 0 0.027657131956957747 0.0038728471499488411 0 0.027427371491732584 0.0036923142287187058 0 0.027511467492973878 0.0039094973997217813 0 0.027261134357811908 0.0034601762803008768 0 0.027427371491732584 0.0036923142287187058 0 0.02717623941557613 0.0035611067169447081 0 0.027427371491732584 0.0036923142287187058 0 0.02717623941557613 0.0035611067169447081 0 0.027328925477186381 0.0038293132440865513 0 0.027427371491732584 0.0036923142287187058 0 0.027511467492973878 0.0039094973997217813 0 0.027328925477186381 0.0038293132440865513 0 0.027040813212884936 0.0037068213161673114 0 0.02717623941557613 0.0035611067169447081 0 0.027328925477186381 0.0038293132440865513 0 0.0269730765087304 0.0033425002046204009 0 0.027040813212884936 0.0037068213161673114 0 0.02717623941557613 0.0035611067169447081 0 0.027040813212884936 0.0037068213161673114 0 0.027197621023177528 0.0039753604037104694 0 0.027328925477186381 0.0038293132440865513 0 0.027197621023177528 0.0039753604037104694 0 0.027458494542627148 0.004068588250647774 0 0.027328925477186381 0.0038293132440865513 0 0.027677406362104515 0.0041116000355023233 0 0.027458494542627148 0.004068588250647774 0 0.027511467492973878 0.0039094973997217813 0 0.027458494542627148 0.004068588250647774 0 0.027511467492973878 0.0039094973997217813 0 0.027328925477186381 0.0038293132440865513 0 0.028577909325608976 0.0043854369098450825 0 0.028380134137936143 0.0042031857272103179 0 0.028561148759799228 0.0044261832087795069 0 0.028762592499495365 0.0045534614310065273 0 0.028840014492221726 0.0045653134412181407 0 0.028606177393575207 0.0043609236471392416 0 0.028577909325608976 0.0043854369098450825 0 0.028762592499495365 0.0045534614310065273 0 0.028606177393575207 0.0043609236471392416 0 0.028762592499495365 0.0045534614310065273 0 0.028561148759799228 0.0044261832087795069 0 0.028856426096307893 0.0046919188085825627 0 0.028577909325608976 0.0043854369098450825 0 0.028762592499495365 0.0045534614310065273 0 0.028561148759799228 0.0044261832087795069 0 0.028762592499495365 0.0045534614310065273 0 0.028840014492221726 0.0045653134412181407 0 0.028964589096525991 0.0047298117433081516 0 0.028840014492221726 0.0045653134412181407 0 0.02914106059505947 0.0048521257189896314 0 0.028966274206413137 0.0046224877820567915 0 0.028840014492221726 0.0045653134412181407 0 0.028966274206413137 0.0046224877820567915 0 0.028768154936174056 0.004424928469243904 0 0.028452112894501599 0.0041897507253591702 0 0.028606177393575207 0.0043609236471392416 0 0.028768154936174056 0.004424928469243904 0 0.028840014492221726 0.0045653134412181407 0 0.028606177393575207 0.0043609236471392416 0 0.028768154936174056 0.004424928469243904 0 0.028452112894501599 0.0041897507253591702 0 0.028606177393575207 0.0043609236471392416 0 0.028380134137936143 0.0042031857272103179 0 0.028577909325608976 0.0043854369098450825 0 0.028606177393575207 0.0043609236471392416 0 0.028380134137936143 0.0042031857272103179 0 0.028056552727076647 0.0039551625686315593 0 0.028380134137936143 0.0042031857272103179 0 0.02830866074830601 0.0042269890547538703 0 0.028056552727076647 0.0039551625686315593 0 0.028042174316253721 0.0040508649316598304 0 0.02830866074830601 0.0042269890547538703 0 0.028056552727076647 0.0039551625686315593 0 0.027814815087369129 0.0038073222420329264 0 0.028042174316253721 0.0040508649316598304 0 0.028025248679754221 0.0041462237355523908 0 0.028042174316253721 0.0040508649316598304 0 0.028252824168764224 0.0042766603686694559 0 0.028042174316253721 0.0040508649316598304 0 0.028252824168764224 0.0042766603686694559 0 0.02830866074830601 0.0042269890547538703 0 0.028252824168764224 0.0042766603686694559 0 0.02830866074830601 0.0042269890547538703 0 0.028547459566199817 0.0044816251310855568 0 0.028168035319022337 0.0043338737196016849 0 0.028025248679754221 0.0041462237355523908 0 0.028252824168764224 0.0042766603686694559 0 0.028380134137936143 0.0042031857272103179 0 0.02830866074830601 0.0042269890547538703 0 0.028561148759799228 0.0044261832087795069 0 0.02830866074830601 0.0042269890547538703 0 0.028561148759799228 0.0044261832087795069 0 0.028547459566199817 0.0044816251310855568 0 0.028561148759799228 0.0044261832087795069 0 0.028547459566199817 0.0044816251310855568 0 0.028856426096307893 0.0046919188085825627 0 0.028547459566199817 0.0044816251310855568 0 0.028738251147361903 0.0046830396655829923 0 0.028856426096307893 0.0046919188085825627 0 0.028547459566199817 0.0044816251310855568 0 0.028738251147361903 0.0046830396655829923 0 0.028449743337405988 0.0044986286397921058 0 0.028738251147361903 0.0046830396655829923 0 0.028969905189591739 0.0048413317879445403 0 0.028856426096307893 0.0046919188085825627 0 0.028323644508415083 0.0045354420262872126 0 0.028168035319022337 0.0043338737196016849 0 0.028449743337405988 0.0044986286397921058 0 0.028168035319022337 0.0043338737196016849 0 0.028252824168764224 0.0042766603686694559 0 0.028449743337405988 0.0044986286397921058 0 0.028252824168764224 0.0042766603686694559 0 0.028547459566199817 0.0044816251310855568 0 0.028449743337405988 0.0044986286397921058 0 0.028738251147361903 0.0046830396655829923 0 0.028449743337405988 0.0044986286397921058 0 0.028633461978179547 0.0047112626787611852 0 0.028323644508415083 0.0045354420262872126 0 0.028449743337405988 0.0044986286397921058 0 0.028633461978179547 0.0047112626787611852 0 0.028323644508415083 0.0045354420262872126 0 0.028633461978179547 0.0047112626787611852 0 0.028529675722657022 0.0048027997257958583 0 0.028633461978179547 0.0047112626787611852 0 0.028816895884440849 0.0048998256676277396 0 0.028898639828881433 0.0048583077611753971 0 0.028633461978179547 0.0047112626787611852 0 0.028816895884440849 0.0048998256676277396 0 0.028529675722657022 0.0048027997257958583 0 0.028816895884440849 0.0048998256676277396 0 0.028529675722657022 0.0048027997257958583 0 0.028817204189520912 0.0050159955853141891 0 0.028738251147361903 0.0046830396655829923 0 0.028969905189591739 0.0048413317879445403 0 0.028898639828881433 0.0048583077611753971 0 0.028738251147361903 0.0046830396655829923 0 0.028633461978179547 0.0047112626787611852 0 0.028898639828881433 0.0048583077611753971 0 0.028816895884440849 0.0048998256676277396 0 0.028898639828881433 0.0048583077611753971 0 0.029032263047327127 0.0049983892944496875 0 0.028898639828881433 0.0048583077611753971 0 0.029032263047327127 0.0049983892944496875 0 0.029159674104779983 0.0050318568539713931 0 0.028969905189591739 0.0048413317879445403 0 0.028898639828881433 0.0048583077611753971 0 0.029159674104779983 0.0050318568539713931 0 0.028969905189591739 0.0048413317879445403 0 0.029159674104779983 0.0050318568539713931 0 0.02918038416999626 0.0049665787447847436 0 0.029159674104779983 0.0050318568539713931 0 0.02918038416999626 0.0049665787447847436 0 0.02939277391555372 0.0051882237388000928 0 0.028969905189591739 0.0048413317879445403 0 0.02918038416999626 0.0049665787447847436 0 0.028856426096307893 0.0046919188085825627 0 0.02918038416999626 0.0049665787447847436 0 0.028856426096307893 0.0046919188085825627 0 0.028964589096525991 0.0047298117433081516 0 0.028762592499495365 0.0045534614310065273 0 0.028856426096307893 0.0046919188085825627 0 0.028964589096525991 0.0047298117433081516 0 0.02918038416999626 0.0049665787447847436 0 0.02914106059505947 0.0048521257189896314 0 0.028964589096525991 0.0047298117433081516 0 0.028840014492221726 0.0045653134412181407 0 0.02914106059505947 0.0048521257189896314 0 0.028964589096525991 0.0047298117433081516 0 0.02918038416999626 0.0049665787447847436 0 0.02914106059505947 0.0048521257189896314 0 0.029393129243808862 0.0051309930169779307 0 0.02918038416999626 0.0049665787447847436 0 0.029393129243808862 0.0051309930169779307 0 0.02939277391555372 0.0051882237388000928 0 0.029393129243808862 0.0051309930169779307 0 0.02939277391555372 0.0051882237388000928 0 0.029602362184225083 0.0053370664650673827 0 0.02939277391555372 0.0051882237388000928 0 0.029551794023058322 0.0053397000308424251 0 0.029602362184225083 0.0053370664650673827 0 0.029159674104779983 0.0050318568539713931 0 0.02939277391555372 0.0051882237388000928 0 0.029359135083742452 0.0052047533434836125 0 0.02939277391555372 0.0051882237388000928 0 0.029359135083742452 0.0052047533434836125 0 0.029551794023058322 0.0053397000308424251 0 0.029359135083742452 0.0052047533434836125 0 0.029551794023058322 0.0053397000308424251 0 0.029440213648253413 0.0053000308753237135 0 0.029551794023058322 0.0053397000308424251 0 0.029720298389085541 0.0054209477473130463 0 0.029602362184225083 0.0053370664650673827 0 0.029551794023058322 0.0053397000308424251 0 0.029440213648253413 0.0053000308753237135 0 0.029700051563492404 0.005472782950101231 0 0.029551794023058322 0.0053397000308424251 0 0.029720298389085541 0.0054209477473130463 0 0.029700051563492404 0.005472782950101231 0 0.029720298389085541 0.0054209477473130463 0 0.029602362184225083 0.0053370664650673827 0 0.0298398054552622 0.0054164757849660666 0 0.028613500842238297 0.0051602731528756522 0 0.028836043667158431 0.0051608634958356849 0 0.028833069053214241 0.0052950280886359365 0 0.028836043667158431 0.0051608634958356849 0 0.02906479970040542 0.005284250060871987 0 0.028833069053214241 0.0052950280886359365 0 0.028605754561579405 0.0050165027723209146 0 0.028613500842238297 0.0051602731528756522 0 0.028836043667158431 0.0051608634958356849 0 0.028605754561579405 0.0050165027723209146 0 0.028836043667158431 0.0051608634958356849 0 0.028817204189520912 0.0050159955853141891 0 0.028605754561579405 0.0050165027723209146 0 0.028529675722657022 0.0048027997257958583 0 0.028817204189520912 0.0050159955853141891 0 0.028816895884440849 0.0048998256676277396 0 0.028817204189520912 0.0050159955853141891 0 0.029028565254015419 0.0050652981628178991 0 0.028817204189520912 0.0050159955853141891 0 0.02906785077966496 0.0051793848672262765 0 0.029028565254015419 0.0050652981628178991 0 0.02906785077966496 0.0051793848672262765 0 0.029336911767079813 0.0053368563834833198 0 0.02906479970040542 0.005284250060871987 0 0.028836043667158431 0.0051608634958356849 0 0.028817204189520912 0.0050159955853141891 0 0.02906785077966496 0.0051793848672262765 0 0.028836043667158431 0.0051608634958356849 0 0.02906785077966496 0.0051793848672262765 0 0.02906479970040542 0.005284250060871987 0 0.029272091238545211 0.0052331188208560838 0 0.029028565254015419 0.0050652981628178991 0 0.029222033441098628 0.0051379957818642142 0 0.02906785077966496 0.0051793848672262765 0 0.029272091238545211 0.0052331188208560838 0 0.029028565254015419 0.0050652981628178991 0 0.02906785077966496 0.0051793848672262765 0 0.029272091238545211 0.0052331188208560838 0 0.029336911767079813 0.0053368563834833198 0 0.028816895884440849 0.0048998256676277396 0 0.029032263047327127 0.0049983892944496875 0 0.029028565254015419 0.0050652981628178991 0 0.029032263047327127 0.0049983892944496875 0 0.029028565254015419 0.0050652981628178991 0 0.029222033441098628 0.0051379957818642142 0 0.029159674104779983 0.0050318568539713931 0 0.029359135083742452 0.0052047533434836125 0 0.029222033441098628 0.0051379957818642142 0 0.029032263047327127 0.0049983892944496875 0 0.029159674104779983 0.0050318568539713931 0 0.029222033441098628 0.0051379957818642142 0 0.029272091238545211 0.0052331188208560838 0 0.029222033441098628 0.0051379957818642142 0 0.029440213648253413 0.0053000308753237135 0 0.029359135083742452 0.0052047533434836125 0 0.029222033441098628 0.0051379957818642142 0 0.029440213648253413 0.0053000308753237135 0 0.029440213648253413 0.0053000308753237135 0 0.029700051563492404 0.005472782950101231 0 0.029489279435176541 0.0053763387486033395 0 0.029272091238545211 0.0052331188208560838 0 0.029440213648253413 0.0053000308753237135 0 0.029489279435176541 0.0053763387486033395 0 0.029700051563492404 0.005472782950101231 0 0.029611046563809088 0.0054767200895555201 0 0.029489279435176541 0.0053763387486033395 0 0.029700051563492404 0.005472782950101231 0 0.029611046563809088 0.0054767200895555201 0 0.029787810433835361 0.005566391882574271 0 0.029611046563809088 0.0054767200895555201 0 0.029787810433835361 0.005566391882574271 0 0.029701453757539124 0.0055673774520941738 0 0.029611046563809088 0.0054767200895555201 0 0.029701453757539124 0.0055673774520941738 0 0.029456504677092137 0.005448855263422466 0 0.029611046563809088 0.0054767200895555201 0 0.029336911767079813 0.0053368563834833198 0 0.029456504677092137 0.005448855263422466 0 0.029611046563809088 0.0054767200895555201 0 0.029489279435176541 0.0053763387486033395 0 0.029336911767079813 0.0053368563834833198 0 0.029272091238545211 0.0052331188208560838 0 0.029489279435176541 0.0053763387486033395 0 0.029336911767079813 0.0053368563834833198 0 0.029336911767079813 0.0053368563834833198 0 0.02906479970040542 0.005284250060871987 0 0.029259603307045447 0.0053937433328991782 0 0.02906479970040542 0.005284250060871987 0 0.029259603307045447 0.0053937433328991782 0 0.029051669658602744 0.0053731886567638838 0 0.029259603307045447 0.0053937433328991782 0 0.02927599221476284 0.005482817608192532 0 0.029051669658602744 0.0053731886567638838 0 0.029336911767079813 0.0053368563834833198 0 0.029259603307045447 0.0053937433328991782 0 0.029456504677092137 0.005448855263422466 0 0.029701453757539124 0.0055673774520941738 0 0.029456504677092137 0.005448855263422466 0 0.02927599221476284 0.005482817608192532 0 0.029701453757539124 0.0055673774520941738 0 0.02927599221476284 0.005482817608192532 0 0.029480654993670904 0.00573868372933071 0 0.029259603307045447 0.0053937433328991782 0 0.029456504677092137 0.005448855263422466 0 0.02927599221476284 0.005482817608192532 0 0.02927599221476284 0.005482817608192532 0 0.028852239660439559 0.0054190939471678874 0 0.029480654993670904 0.00573868372933071 0 0.02927599221476284 0.005482817608192532 0 0.028852239660439559 0.0054190939471678874 0 0.029051669658602744 0.0053731886567638838 0 0.02906479970040542 0.005284250060871987 0 0.029051669658602744 0.0053731886567638838 0 0.028833069053214241 0.0052950280886359365 0 0.028852239660439559 0.0054190939471678874 0 0.029051669658602744 0.0053731886567638838 0 0.028833069053214241 0.0052950280886359365 0 0.030655377355912457 0.0056740034747914808 0 0.030447933810607064 0.0054966713507817681 0 0.030798414220742927 0.0052037358307540499 0 0.030655377355912457 0.0056740034747914808 0 0.03030599591702075 0.0058049491887010377 0 0.030068900873844326 0.0057128931050700734 0 0.029701453757539124 0.0055673774520941738 0 0.029480654993670904 0.00573868372933071 0 0.030068900873844326 0.0057128931050700734 0 0.029857373379586539 0.0055407084115690255 0 0.029860131634062745 0.0055473185976077999 0 0.030655377355912457 0.0056740034747914808 0 0.030068900873844326 0.0057128931050700734 0 0.030447933810607064 0.0054966713507817681 0 0.030068900873844326 0.0057128931050700734 0 0.029896090716056901 0.0055563784601595206 0 0.030271447066227683 0.0053912804717843 0 0.030068900873844326 0.0057128931050700734 0 0.030447933810607064 0.0054966713507817681 0 0.030271447066227683 0.0053912804717843 0 0.029787810433835361 0.005566391882574271 0 0.030068900873844326 0.0057128931050700734 0 0.029896090716056901 0.0055563784601595206 0 0.029787810433835361 0.005566391882574271 0 0.029701453757539124 0.0055673774520941738 0 0.030068900873844326 0.0057128931050700734 0 0.029700051563492404 0.005472782950101231 0 0.029896090716056901 0.0055563784601595206 0 0.029915254245940298 0.0054708815064851831 0 0.029700051563492404 0.005472782950101231 0 0.029787810433835361 0.005566391882574271 0 0.029896090716056901 0.0055563784601595206 0 0.029896090716056901 0.0055563784601595206 0 0.030271447066227683 0.0053912804717843 0 0.029915254245940298 0.0054708815064851831 0 0.030271447066227683 0.0053912804717843 0 0.030798414220742927 0.0052037358307540499 0 0.030709089674731849 0.0050285223761700392 0 0.030271447066227683 0.0053912804717843 0 0.030188067929362294 0.0052613573804632698 0 0.030709089674731849 0.0050285223761700392 0 0.030447933810607064 0.0054966713507817681 0 0.030271447066227683 0.0053912804717843 0 0.030798414220742927 0.0052037358307540499 0 0.029720298389085541 0.0054209477473130463 0 0.0298398054552622 0.0054164757849660666 0 0.029915254245940298 0.0054708815064851831 0 0.029720298389085541 0.0054209477473130463 0 0.029700051563492404 0.005472782950101231 0 0.029915254245940298 0.0054708815064851831 0 0.0298398054552622 0.0054164757849660666 0 0.029915254245940298 0.0054708815064851831 0 0.030188067929362294 0.0052613573804632698 0 0.030271447066227683 0.0053912804717843 0 0.029915254245940298 0.0054708815064851831 0 0.030188067929362294 0.0052613573804632698 0 0.0298398054552622 0.0054164757849660666 0 0.030188067929362294 0.0052613573804632698 0 0.030092871136555146 0.0051311458774783488 0 0.030092871136555146 0.0051311458774783488 0 0.030433787962730118 0.0042452027642849964 0 0.029763218322852048 0.0050598216852366477 0 0.030092871136555146 0.0051311458774783488 0 0.030602662680695294 0.0048541820862841051 0 0.030433787962730118 0.0042452027642849964 0 0.030188067929362294 0.0052613573804632698 0 0.030092871136555146 0.0051311458774783488 0 0.030602662680695294 0.0048541820862841051 0 0.030188067929362294 0.0052613573804632698 0 0.030602662680695294 0.0048541820862841051 0 0.030709089674731849 0.0050285223761700392 0 0.030602662680695294 0.0048541820862841051 0 0.030433787962730118 0.0042452027642849964 0 0.031084009371868299 0.0044476230901529497 0 0.030433787962730118 0.0042452027642849964 0 0.031195899125154664 0.0040795819768926983 0 0.031084009371868299 0.0044476230901529497 0 0.031583774291803202 0.004214328943555056 0 0.03157557340082507 0.004484012040868437 0 0.032155743583276782 0.0042419808860236861 0 0.031583774291803202 0.004214328943555056 0 0.032155743583276782 0.0042419808860236861 0 0.032020491705381883 0.0039989654522287164 0 0.031583774291803202 0.004214328943555056 0 0.031195899125154664 0.0040795819768926983 0 0.031084009371868299 0.0044476230901529497 0 0.031084009371868299 0.0044476230901529497 0 0.03157557340082507 0.004484012040868437 0 0.031088754734336102 0.0047177271666842841 0 0.031583774291803202 0.004214328943555056 0 0.031084009371868299 0.0044476230901529497 0 0.03157557340082507 0.004484012040868437 0 0.03157557340082507 0.004484012040868437 0 0.031088754734336102 0.0047177271666842841 0 0.031495026097076613 0.0047637356150106785 0 0.030602662680695294 0.0048541820862841051 0 0.031084009371868299 0.0044476230901529497 0 0.031088754734336102 0.0047177271666842841 0 0.030602662680695294 0.0048541820862841051 0 0.031088754734336102 0.0047177271666842841 0 0.030709089674731849 0.0050285223761700392 0 0.030798414220742927 0.0052037358307540499 0 0.030709089674731849 0.0050285223761700392 0 0.031495026097076613 0.0047637356150106785 0 0.031088754734336102 0.0047177271666842841 0 0.030709089674731849 0.0050285223761700392 0 0.031495026097076613 0.0047637356150106785 0 0.031815931665027268 0.0049630093708181808 0 0.030798414220742927 0.0052037358307540499 0 0.031495026097076613 0.0047637356150106785 0 0.031815931665027268 0.0049630093708181808 0 0.031495026097076613 0.0047637356150106785 0 0.03220918433602616 0.0047024811757394487 0 0.03157557340082507 0.004484012040868437 0 0.031495026097076613 0.0047637356150106785 0 0.031978419357738257 0.0044946939233306664 0 0.031495026097076613 0.0047637356150106785 0 0.03220918433602616 0.0047024811757394487 0 0.031978419357738257 0.0044946939233306664 0 0.032706870704354102 0.0045036531843713852 0 0.03220918433602616 0.0047024811757394487 0 0.032525560615247785 0.0043000433224181815 0 0.032706870704354102 0.0045036531843713852 0 0.032350514915716416 0.0047894206059076122 0 0.03220918433602616 0.0047024811757394487 0 0.032706870704354102 0.0045036531843713852 0 0.032525560615247785 0.0043000433224181815 0 0.033327176969713206 0.0038493677418986972 0 0.032831080655480058 0.004445387204849314 0 0.033230960140472464 0.003892660195014479 0 0.03220918433602616 0.0047024811757394487 0 0.032525560615247785 0.0043000433224181815 0 0.031978419357738257 0.0044946939233306664 0 0.03157557340082507 0.004484012040868437 0 0.031978419357738257 0.0044946939233306664 0 0.032155743583276782 0.0042419808860236861 0 0.032525560615247785 0.0043000433224181815 0 0.031978419357738257 0.0044946939233306664 0 0.032155743583276782 0.0042419808860236861 0 0.032525560615247785 0.0043000433224181815 0 0.032155743583276782 0.0042419808860236861 0 0.032613616392219227 0.0039570289515090725 0 0.032613616392219227 0.0039570289515090725 0 0.032020491705381883 0.0039989654522287164 0 0.032396738594546205 0.0037090264500102359 0 0.032155743583276782 0.0042419808860236861 0 0.032613616392219227 0.0039570289515090725 0 0.032020491705381883 0.0039989654522287164 0 0.032613616392219227 0.0039570289515090725 0 0.033195531846567053 0.0036694691739111241 0 0.032396738594546205 0.0037090264500102359 0 0.032525560615247785 0.0043000433224181815 0 0.032613616392219227 0.0039570289515090725 0 0.033327176969713206 0.0038493677418986972 0 0.032613616392219227 0.0039570289515090725 0 0.033327176969713206 0.0038493677418986972 0 0.033195531846567053 0.0036694691739111241 0 0.033327176969713206 0.0038493677418986972 0 0.033195531846567053 0.0036694691739111241 0 0.033898923614685571 0.0036285129705565518 0 0.033195531846567053 0.0036694691739111241 0 0.033462862234940716 0.003423788805177293 0 0.033898923614685571 0.0036285129705565518 0 0.033195531846567053 0.0036694691739111241 0 0.032396738594546205 0.0037090264500102359 0 0.033462862234940716 0.003423788805177293 0 0.034158272708999037 0.003267497665523313 0 0.034097605577426499 0.0026448443285139876 0 0.033462862234940716 0.003423788805177293 0 0.032796789047513625 0.0037569331588174788 0 0.033378327053132484 0.003198430278830476 0 0.032396738594546205 0.0037090264500102359 0 0.031589730512132166 0.0035778438432681721 0 0.033462862234940716 0.003423788805177293 0 0.034158272708999037 0.003267497665523313 0 0.034512147894642131 0.0030148930524933879 0 0.034097605577426499 0.0026448443285139876 0 0.034158272708999037 0.003267497665523313 0 0.034512147894642131 0.0030148930524933879 0 0.034398193888848128 0.0034328487934492877 0 0.034512147894642131 0.0030148930524933879 0 0.034398193888848128 0.0034328487934492877 0 0.034880793489984734 0.003315958159120354 0 0.032579677432203052 0.0028856654765935024 0 0.040234228220380773 0.001591493356015339 0 0.032579677432203052 0.0028856654765935024 0 0.032796789047513625 0.0037569331588174788 0 0.031577268846074244 0.003865363086494072 0 0.032036991904081338 0.0042266923643050295 0 0.03123833829214712 0.0042765850628487621 0 0.030433787962730118 0.0042452027642849964 0 0.031195899125154664 0.0040795819768926983 0 0.031589730512132166 0.0035778438432681721 0 0.031467820534817198 0.004843001116299683 0 0.032036991904081338 0.0042266923643050295 0 0.03123833829214712 0.0042765850628487621 0 0.030824906612961153 0.0046545183098392444 0 0.032796789047513625 0.0037569331588174788 0 0.031195899125154664 0.0040795819768926983 0 0.031545331475359518 0.0038974352280319283 0 0.031589730512132166 0.0035778438432681721 0 0.031583774291803202 0.004214328943555056 0 0.031195899125154664 0.0040795819768926983 0 0.031545331475359518 0.0038974352280319283 0 0.031583774291803202 0.004214328943555056 0 0.031545331475359518 0.0038974352280319283 0 0.032020491705381883 0.0039989654522287164 0 0.031545331475359518 0.0038974352280319283 0 0.032020491705381883 0.0039989654522287164 0 0.031946430061945447 0.003822392196514402 0 0.032020491705381883 0.0039989654522287164 0 0.032396738594546205 0.0037090264500102359 0 0.031946430061945447 0.003822392196514402 0 0.032396738594546205 0.0037090264500102359 0 0.031946430061945447 0.003822392196514402 0 0.031589730512132166 0.0035778438432681721 0 0.031545331475359518 0.0038974352280319283 0 0.031946430061945447 0.003822392196514402 0 0.031589730512132166 0.0035778438432681721 0 0.034226003479577612 0.0037781007758513163 0 0.034311918517611131 0.003806926576952667 0 0.034256167102582315 0.0036158942180335341 0 0.034226003479577612 0.0037781007758513163 0 0.034311918517611131 0.003806926576952667 0 0.034119611086768399 0.0036222717106496817 0 0.034226003479577612 0.0037781007758513163 0 0.034119611086768399 0.0036222717106496817 0 0.034045618050549536 0.0037090779271535734 0 0.034226003479577612 0.0037781007758513163 0 0.034254232654629409 0.0037798924501551367 0 0.034045618050549536 0.0037090779271535734 0 0.047399379692045329 -0.00021922949901003621 0 0.047762515923394859 1.9601519532606302e-05 0 0.047806540804817478 -0.0002391117378628005 0 0.047399379692045329 -0.00021922949901003621 0 0.047631474312631913 0.0002648403577174001 0 0.047762515923394859 1.9601519532606302e-05 0 0.034311918517611131 0.003806926576952667 0 0.034398193888848128 0.0034328487934492877 0 0.034119611086768399 0.0036222717106496817 0 0.034311918517611131 0.003806926576952667 0 0.034398193888848128 0.0034328487934492877 0 0.034880793489984734 0.003315958159120354 0 0.047399379692045329 -0.00021922949901003621 0 0.047806540804817478 -0.0002391117378628005 0 0.047771794304069436 -0.00055950325416425598 0 0.041127097201413262 0.0016442554753072097 0 0.040234228220380773 0.001591493356015339 0 0.034119611086768399 0.0036222717106496817 0 0.033462862234940716 0.003423788805177293 0 0.034045618050549536 0.0037090779271535734 0 0.034158272708999037 0.003267497665523313 0 0.034398193888848128 0.0034328487934492877 0 0.034119611086768399 0.0036222717106496817 0 0.034158272708999037 0.003267497665523313 0 0.034119611086768399 0.0036222717106496817 0 0.033462862234940716 0.003423788805177293 0 0.033462862234940716 0.003423788805177293 0 0.034201385547672498 0.0036939511638987713 0 0.034045618050549536 0.0037090779271535734 0 0.033462862234940716 0.003423788805177293 0 0.033898923614685571 0.0036285129705565518 0 0.034201385547672498 0.0036939511638987713 0 0.033898923614685571 0.0036285129705565518 0 0.034201385547672498 0.0036939511638987713 0 0.034845147433555476 0.003707617704666588 0 0.034201385547672498 0.0036939511638987713 0 0.034613357762228486 0.0036713206759973935 0 0.034845147433555476 0.003707617704666588 0 0.034201385547672498 0.0036939511638987713 0 0.034045618050549536 0.0037090779271535734 0 0.03424036369028137 0.0037042678910788459 0 0.034201385547672498 0.0036939511638987713 0 0.03424036369028137 0.0037042678910788459 0 0.034613357762228486 0.0036713206759973935 0 0.034254232654629409 0.0037798924501551367 0 0.034045618050549536 0.0037090779271535734 0 0.03424036369028137 0.0037042678910788459 0 0.03424036369028137 0.0037042678910788459 0 0.034372332250047419 0.0038299501689532858 0 0.034436364277809002 0.0034344373872178774 0 0.034254232654629409 0.0037798924501551367 0 0.03424036369028137 0.0037042678910788459 0 0.034372332250047419 0.0038299501689532858 0 0.034372332250047419 0.0038299501689532858 0 0.034436364277809002 0.0034344373872178774 0 0.034653074427117563 0.0021792816584060601 0 0.034656752565273348 0.0037256777392618572 0 0.037365373594862812 0.0023463200030505427 0 0.03424036369028137 0.0037042678910788459 0 0.034436364277809002 0.0034344373872178774 0 0.034613357762228486 0.0036713206759973935 0 0.034372332250047419 0.0038299501689532858 0 0.036809359102058986 0.0025999815827363708 0 0.034256167102582315 0.0036158942180335341 0 0.034436364277809002 0.0034344373872178774 0 0.034613357762228486 0.0036713206759973935 0 0.034653074427117563 0.0021792816584060601 0 0.034613357762228486 0.0036713206759973935 0 0.034653074427117563 0.0021792816584060601 0 0.03613446261970648 0.0040791343622749105 0 0.039913598866701157 0.0026966859847121095 0 0.038114161026201396 0.00050500740520361017 0 0.041127655470298417 0.00039109694751023386 0 0.039913598866701157 0.0026966859847121095 0 0.036809359102058986 0.0025999815827363708 0 0.038114161026201396 0.00050500740520361017 0 0.036809359102058986 0.0025999815827363708 0 0.034256167102582315 0.0036158942180335341 0 0.038114161026201396 0.00050500740520361017 0 0.047592940741705871 0.00065767571756948119 0 0.044841032697109352 0.0012055276463147357 0 0.039819570163026986 0.0023718341870194457 0 0.044841032697109352 0.0012055276463147357 0 0.046540123830388858 0.0011041388103715272 0 0.046400842452766163 0.00071517051130594918 0 0.04524278560230003 0.0019852700461856052 0 0.034372332250047419 0.0038299501689532858 0 0.039913598866701157 0.0026966859847121095 0 0.036809359102058986 0.0025999815827363708 0 0.047996471892353315 0.00043546818595188204 0 0.047912253770768617 0.00048170159536783664 0 0.048324801979990409 0.00050822418825611062 0 0.047853207366304162 0.00041393241229284938 0 0.047811205546503477 0.00039131818457375242 0 0.047924431487737923 0.00038080926325352452 0 0.047996471892353315 0.00043546818595188204 0 0.047853207366304162 0.00041393241229284938 0 0.047924431487737923 0.00038080926325352452 0 0.047853207366304162 0.00041393241229284938 0 0.047912253770768617 0.00048170159536783664 0 0.047768464297926111 0.00037138002705147476 0 0.047996471892353315 0.00043546818595188204 0 0.047853207366304162 0.00041393241229284938 0 0.047912253770768617 0.00048170159536783664 0 0.034226003479577612 0.0037781007758513163 0 0.034254232654629409 0.0037798924501551367 0 0.034256167102582315 0.0036158942180335341 0 0.041127097201413262 0.0016442554753072097 0 0.039819570163026986 0.0023718341870194457 0 0.047592940741705871 0.00065767571756948119 0 0.047504229809495903 0.0003768589007268226 0 0.046540123830388858 0.0011041388103715272 0 0.046400842452766163 0.00071517051130594918 0 0.047631474312631913 0.0002648403577174001 0 0.047399379692045329 -0.00021922949901003621 0 0.046400842452766163 0.00071517051130594918 0 0.047631474312631913 0.0002648403577174001 0 0.034254232654629409 0.0037798924501551367 0 0.034372332250047419 0.0038299501689532858 0 0.034256167102582315 0.0036158942180335341 0 0.047631474312631913 0.0002648403577174001 0 0.047768464297926111 0.00037138002705147476 0 0.047818100066157526 0.0002882674769672034 0 0.047912253770768617 0.00048170159536783664 0 0.047631474312631913 0.0002648403577174001 0 0.047768464297926111 0.00037138002705147476 0 0.047631474312631913 0.0002648403577174001 0 0.047762515923394859 1.9601519532606302e-05 0 0.047818100066157526 0.0002882674769672034 0 0.047768464297926111 0.00037138002705147476 0 0.047811205546503477 0.00039131818457375242 0 0.047818100066157526 0.0002882674769672034 0 0.047853207366304162 0.00041393241229284938 0 0.047768464297926111 0.00037138002705147476 0 0.047811205546503477 0.00039131818457375242 0 0.047811205546503477 0.00039131818457375242 0 0.047892940093616464 0.00030688546641758133 0 0.048157250648578183 0.0002775498265731478 0 0.047811205546503477 0.00039131818457375242 0 0.047892940093616464 0.00030688546641758133 0 0.047823954800003753 0.00039020242008242179 0 0.047924431487737923 0.00038080926325352452 0 0.047985824621789998 0.00022025062459629709 0 0.048055478792267653 0.00038151771058972931 0 0.047877393457038286 0.00037472106868865362 0 0.04795351257192277 0.00024922283974437826 0 0.047811205546503477 0.00039131818457375242 0 0.047924431487737923 0.00038080926325352452 0 0.047985824621789998 0.00022025062459629709 0 0.047996471892353315 0.00043546818595188204 0 0.047924431487737923 0.00038080926325352452 0 0.048055478792267653 0.00038151771058972931 0 0.048005700733289074 0.00021469410472531615 0 0.047870702931425459 0.00015214881343039163 0 0.048177797205888308 1.8016464690357311e-05 0 0.048830932600464491 -7.8805000020219668e-05 0 0.049064538066620554 7.6733180844894776e-05 0 0.047892940093616464 0.00030688546641758133 0 0.048157250648578183 0.0002775498265731478 0 0.048005700733289074 0.00021469410472531615 0 0.048157250648578183 0.0002775498265731478 0 0.048005700733289074 0.00021469410472531615 0 0.048177797205888308 1.8016464690357311e-05 0 0.048830932600464491 -7.8805000020219668e-05 0 0.048049817164955537 -9.3343605112789714e-05 0 0.047892940093616464 0.00030688546641758133 0 0.047870702931425459 0.00015214881343039163 0 0.047823954800003753 0.00039020242008242179 0 0.047892940093616464 0.00030688546641758133 0 0.048005700733289074 0.00021469410472531615 0 0.047870702931425459 0.00015214881343039163 0 0.048830932600464491 -7.8805000020219668e-05 0 0.049854392262003798 -0.0001184996278356789 0 0.04934664978631375 -0.00010260441545914295 0 0.049358453101004965 -0.00018791816841451381 0 0.049620677286928837 -0.00020273527382550947 0 0.049358453101004965 -0.00018791816841451381 0 0.049261589627281124 -0.00026169018224990546 0 0.049194176960333694 -0.00021709973714704287 0 0.04934664978631375 -0.00010260441545914295 0 0.049358453101004965 -0.00018791816841451381 0 0.049194176960333694 -0.00021709973714704287 0 0.049573826226993543 -0.00026258923822450905 0 0.049261589627281124 -0.00026169018224990546 0 0.049219660934635173 -0.0002860177596344864 0 0.049454243837872301 -0.00022739208490674232 0 0.049573826226993543 -0.00026258923822450905 0 0.049261589627281124 -0.00026169018224990546 0 0.049358453101004965 -0.00018791816841451381 0 0.049454243837872301 -0.00022739208490674232 0 0.049261589627281124 -0.00026169018224990546 0 0.049358453101004965 -0.00018791816841451381 0 0.049454243837872301 -0.00022739208490674232 0 0.049620677286928837 -0.00020273527382550947 0 0.049764344868260126 0.00016142942600569252 0 0.049941607186439842 9.4084728241179303e-05 0 0.04989232215765646 1.9646955857105243e-05 0 0.049941607186439842 9.4084728241179303e-05 0 0.04989232215765646 1.9646955857105243e-05 0 0.049979441995525543 1.164250778786537e-05 0 0.049620677286928837 -0.00020273527382550947 0 0.049999280164035188 -5.3696857864988502e-07 0 0.049573826226993543 -0.00026258923822450905 0 0.04989232215765646 1.9646955857105243e-05 0 0.049999892936205485 -7.0891666543198116e-08 0 0.049979441995525543 1.164250778786537e-05 0 0.049854392262003798 -0.0001184996278356789 0 0.049999878511736977 -5.7124123604112731e-08 0 0.049999834408111836 -3.8814768537695045e-08 0 0.049784409241234361 -0.00010312719295798018 0 0.049620677286928837 -0.00020273527382550947 0 0.049999280164035188 -5.3696857864988502e-07 0 0.05000054694832725 3.5094559674002231e-07 0 0.049999999604111292 -2.3069637565970861e-11 0 0.049999994354740895 -1.4166737068544948e-09 0 0.049998813876693395 -5.6087477479758483e-07 0 0.049999994354740895 -1.4166737068544948e-09 0 0.049998813876693395 -5.6087477479758483e-07 0 0.049996059569094579 -2.0472859870999659e-06 0 0.049784409241234361 -0.00010312719295798018 0 0.049459571389470498 -0.00025814874438226756 0 0.049454243837872301 -0.00022739208490674232 0 0.049620677286928837 -0.00020273527382550947 0 0.049573826226993543 -0.00026258923822450905 0 0.050000085997569145 -1.0054948084478682e-08 0 0.050001761538117112 -5.6780043879781653e-05 0 0.050011699062263007 -6.3357212778781556e-05 0 0.050008119702257707 -1.6592261118255839e-05 0 0.050000085997569145 -1.0054948084478682e-08 0 0.050011699062263007 -6.3357212778781556e-05 0 0.050008119702257707 -1.6592261118255839e-05 0 0.050000085997569145 -1.0054948084478682e-08 0 0.050000216985727791 -5.5486349422162158e-06 0 0.050000085997569145 -1.0054948084478682e-08 0 0.049999892936205485 -7.0891666543198116e-08 0 0.050000216985727791 -5.5486349422162158e-06 0 0.049999892936205485 -7.0891666543198116e-08 0 0.050000216985727791 -5.5486349422162158e-06 0 0.049979441995525543 1.164250778786537e-05 0 0.050008119702257707 -1.6592261118255839e-05 0 0.050000216985727791 -5.5486349422162158e-06 0 0.049979441995525543 1.164250778786537e-05 0 0.049941607186439842 9.4084728241179303e-05 0 0.049979441995525543 1.164250778786537e-05 0 0.050018692557820696 1.8302388420716545e-05 0 0.049064538066620554 7.6733180844894776e-05 0 0.049234852596682872 -7.2988568616876511e-05 0 0.050008119702257707 -1.6592261118255839e-05 0 0.049979441995525543 1.164250778786537e-05 0 0.050018692557820696 1.8302388420716545e-05 0 0.048845204075075359 -8.6324103932136317e-05 0 0.048967577989853191 0.00020913839174763456 0 0.049192761579307014 -0.00038496796010645203 0 0.050008119702257707 -1.6592261118255839e-05 0 0.050018692557820696 1.8302388420716545e-05 0 0.050011699062263007 -6.3357212778781556e-05 0 0.049954674916818827 -5.170501104298118e-05 0 0.05001049215114748 -8.1170940218180124e-05 0 0.050011699062263007 -6.3357212778781556e-05 0 0.049234852596682872 -7.2988568616876511e-05 0 0.050163602973776346 -0.00015200464609776669 0 0.049234852596682872 -7.2988568616876511e-05 0 0.04959133098315744 -0.00021941926710662726 0 0.048557835088132599 -0.00028183629035659303 0 0.048845204075075359 -8.6324103932136317e-05 0 0.049192761579307014 -0.00038496796010645203 0 0.048557835088132599 -0.00028183629035659303 0 0.048651425128624998 8.9886000931008769e-05 0 0.04839547006195663 0.00017774250547009459 0 0.048845204075075359 -8.6324103932136317e-05 0 0.048651425128624998 8.9886000931008769e-05 0 0.048967577989853191 0.00020913839174763456 0 0.048557835088132599 -0.00028183629035659303 0 0.048845204075075359 -8.6324103932136317e-05 0 0.048651425128624998 8.9886000931008769e-05 0 0.048651425128624998 8.9886000931008769e-05 0 0.048497883629442913 0.00026719373396167625 0 0.048967577989853191 0.00020913839174763456 0 0.048651425128624998 8.9886000931008769e-05 0 0.048497883629442913 0.00026719373396167625 0 0.04839547006195663 0.00017774250547009459 0 0.048157250648578183 0.0002775498265731478 0 0.048177797205888308 1.8016464690357311e-05 0 0.04861406660626668 -9.017878007355629e-05 0 0.047985824621789998 0.00022025062459629709 0 0.048557835088132599 -0.00028183629035659303 0 0.04839547006195663 0.00017774250547009459 0 0.047985824621789998 0.00022025062459629709 0 0.04839547006195663 0.00017774250547009459 0 0.04820531732541971 0.0003281616423177104 0 0.04795351257192277 0.00024922283974437826 0 0.049234852596682872 -7.2988568616876511e-05 0 0.047996471892353315 0.00043546818595188204 0 0.048324801979990409 0.00050822418825611062 0 0.048055478792267653 0.00038151771058972931 0 0.047985824621789998 0.00022025062459629709 0 0.04820531732541971 0.0003281616423177104 0 0.048055478792267653 0.00038151771058972931 0 0.048497883629442913 0.00026719373396167625 0 0.04839547006195663 0.00017774250547009459 0 0.04820531732541971 0.0003281616423177104 0 0.048497883629442913 0.00026719373396167625 0 0.04820531732541971 0.0003281616423177104 0 0.048324801979990409 0.00050822418825611062 0 0.04820531732541971 0.0003281616423177104 0 0.048324801979990409 0.00050822418825611062 0 0.048055478792267653 0.00038151771058972931 0 0.044841032697109352 0.0012055276463147357 0 0.049402069406969548 -2.9728852234835214e-05 0 0.038114161026201396 0.00050500740520361017 0 0.041127655470298417 0.00039109694751023386 0 0.042772687143102388 -0.0014480585254431201 0 0.047619907167350893 0.0014514968864790402 0 0.048790953740363061 0.00014187858216823087 0 0.049103275981028614 0.00037909261654644355 0 0.044841032697109352 0.0012055276463147357 0 0.045491378578228631 -0.00041000059660011598 0 0.048497883629442913 0.00026719373396167625 0 0.048324801979990409 0.00050822418825611062 0 0.048967577989853191 0.00020913839174763456 0 0.041127655470298417 0.00039109694751023386 0 0.043087385501946865 -0.00036726620835638205 0 0.044448703731360117 0.00043948083458770094 0 0.043831863098591287 -0.00065785928365571112 0 0.043087385501946865 -0.00036726620835638205 0 0.044448703731360117 0.00043948083458770094 0 0.043831863098591287 -0.00065785928365571112 0 0.043087385501946865 -0.00036726620835638205 0 0.042772687143102388 -0.0014480585254431201 0 0.041127655470298417 0.00039109694751023386 0 0.043087385501946865 -0.00036726620835638205 0 0.042772687143102388 -0.0014480585254431201 0 0.044448703731360117 0.00043948083458770094 0 0.044892838731595802 -0.0010483927109099006 0 0.046370075722241708 -0.0010318463878195715 0 0.042071812956095703 -4.614307792407949e-05 0 0.04589502167873994 -0.0010752443285147932 0 0.043831863098591287 -0.00065785928365571112 0 0.044448703731360117 0.00043948083458770094 0 0.044892838731595802 -0.0010483927109099006 0 0.045491378578228631 -0.00041000059660011598 0 0.047902163167200792 -0.00096029010775174073 0 0.049103275981028614 0.00037909261654644355 0 0.049543565133502387 -0.00024320264368071773 0 0.049837418967363392 -0.00036603294965009307 0 0.044892838731595802 -0.0010483927109099006 0 0.042772687143102388 -0.0014480585254431201 0 0.045956852765301093 -0.001748627598459134 0 0.044892838731595802 -0.0010483927109099006 0 0.045956852765301093 -0.001748627598459134 0 0.046370075722241708 -0.0010318463878195715 0 0.043831863098591287 -0.00065785928365571112 0 0.044892838731595802 -0.0010483927109099006 0 0.042772687143102388 -0.0014480585254431201 0 0.048790953740363061 0.00014187858216823087 0 0.049270391352950242 -7.2727551894202942e-05 0 0.049623522867050567 -0.000473466943170829 0 0.048790953740363061 0.00014187858216823087 0 0.049103275981028614 0.00037909261654644355 0 0.049270391352950242 -7.2727551894202942e-05 0 0.049103275981028614 0.00037909261654644355 0 0.049270391352950242 -7.2727551894202942e-05 0 0.049543565133502387 -0.00024320264368071773 0 0.048967577989853191 0.00020913839174763456 0 0.049192761579307014 -0.00038496796010645203 0 0.049870595845544541 -0.00027216974189172172 0 0.049402069406969548 -2.9728852234835214e-05 0 0.04964271510831797 -0.0002797513647209614 0 0.05001049215114748 -8.1170940218180124e-05 0 0.050011699062263007 -6.3357212778781556e-05 0 0.049983758464118379 -0.00011778609354433016 0 0.04959133098315744 -0.00021941926710662726 0 0.049812581491552509 -0.00024259880267372849 0 0.049192761579307014 -0.00038496796010645203 0 0.049870595845544541 -0.00027216974189172172 0 0.049900812710906461 -0.00023984695661024994 0 0.05001049215114748 -8.1170940218180124e-05 0 0.049900812710906461 -0.00023984695661024994 0 0.049983758464118379 -0.00011778609354433016 0 0.049270391352950242 -7.2727551894202942e-05 0 0.049543565133502387 -0.00024320264368071773 0 0.049623522867050567 -0.000473466943170829 0 0.049543565133502387 -0.00024320264368071773 0 0.049837418967363392 -0.00036603294965009307 0 0.049724154669840336 -0.00039991019813076349 0 0.049543565133502387 -0.00024320264368071773 0 0.049623522867050567 -0.000473466943170829 0 0.049724154669840336 -0.00039991019813076349 0 0.049837418967363392 -0.00036603294965009307 0 0.049724154669840336 -0.00039991019813076349 0 0.04977900388973544 -0.00037355894487597473 0 0.049623522867050567 -0.000473466943170829 0 0.049724154669840336 -0.00039991019813076349 0 0.04977900388973544 -0.00037355894487597473 0 0.049999923948526405 -6.490410526047226e-08 0 0.049970072959653881 -8.697510228327774e-05 0 0.050000041341960795 -2.2057426236199663e-07 0 0.049623522867050567 -0.000473466943170829 0 0.04977900388973544 -0.00037355894487597473 0 0.049999570816186542 -1.2762672903845665e-07 0 0.049900812710906461 -0.00023984695661024994 0 0.049970072959653881 -8.697510228327774e-05 0 0.050000041341960795 -2.2057426236199663e-07 0 0.049870595845544541 -0.00027216974189172172 0 0.049900812710906461 -0.00023984695661024994 0 0.050000041341960795 -2.2057426236199663e-07 0 0.04964271510831797 -0.0002797513647209614 0 0.04999997963798411 -2.2029106164518932e-07 0 0.049999923948526405 -6.490410526047226e-08 0 0.050001761538117112 -5.6780043879781653e-05 0 0.049970072959653881 -8.697510228327774e-05 0 0.050000085997569145 -1.0054948084478682e-08 0 0.049999923948526405 -6.490410526047226e-08 0 0.050001761538117112 -5.6780043879781653e-05 0 0.050001761538117112 -5.6780043879781653e-05 0 0.050011699062263007 -6.3357212778781556e-05 0 0.049983758464118379 -0.00011778609354433016 0 0.049900812710906461 -0.00023984695661024994 0 0.049960087889930969 -0.00013768835793038882 0 0.049970072959653881 -8.697510228327774e-05 0 0.050001761538117112 -5.6780043879781653e-05 0 0.049983758464118379 -0.00011778609354433016 0 0.049960087889930969 -0.00013768835793038882 0 0.049900812710906461 -0.00023984695661024994 0 0.049983758464118379 -0.00011778609354433016 0 0.049960087889930969 -0.00013768835793038882 0 0.050001761538117112 -5.6780043879781653e-05 0 0.049960087889930969 -0.00013768835793038882 0 0.049970072959653881 -8.697510228327774e-05 0 0.049998074839854016 -7.7644216623638271e-07 0 0.049241487134798312 -0.00062324347447175246 0 0.0492482898694801 -0.00055813879722362231 0 0.049998074839854016 -7.7644216623638271e-07 0 0.049241487134798312 -0.00062324347447175246 0 0.049999570816186542 -1.2762672903845665e-07 0 0.04977900388973544 -0.00037355894487597473 0 0.049241487134798312 -0.00062324347447175246 0 0.049999570816186542 -1.2762672903845665e-07 0 0.049837418967363392 -0.00036603294965009307 0 0.04977900388973544 -0.00037355894487597473 0 0.049241487134798312 -0.00062324347447175246 0 0.045956852765301093 -0.001748627598459134 0 0.049241487134798312 -0.00062324347447175246 0 0.047648087147724581 -0.0010955268137288485 0 0.047902163167200792 -0.00096029010775174073 0 0.048919718741742765 -0.00065076522128124103 0 0.049241487134798312 -0.00062324347447175246 0 0.048656684859263014 -0.00081878338911459624 0 0.0492482898694801 -0.00055813879722362231 0 0.047648087147724581 -0.0010955268137288485 0 0.048656684859263014 -0.00081878338911459624 0 0.04850159749417185 -0.00067586700727012398 0 0.049241487134798312 -0.00062324347447175246 0 0.047648087147724581 -0.0010955268137288485 0 0.048656684859263014 -0.00081878338911459624 0 0.048656684859263014 -0.00081878338911459624 0 0.04850159749417185 -0.00067586700727012398 0 0.0492482898694801 -0.00055813879722362231 0 0.047648087147724581 -0.0010955268137288485 0 0.046370075722241708 -0.0010318463878195715 0 0.04850159749417185 -0.00067586700727012398 0 0.046370075722241708 -0.0010318463878195715 0 0.048063413930192533 3.6685848524514959e-05 0 0.04850159749417185 -0.00067586700727012398 0 0.045956852765301093 -0.001748627598459134 0 0.047648087147724581 -0.0010955268137288485 0 0.046370075722241708 -0.0010318463878195715 0 0.039668362348462376 -0.00086276499783959299 0 0.046370075722241708 -0.0010318463878195715 0 0.044291908563173478 0.00077824368542324569 0 0.046370075722241708 -0.0010318463878195715 0 0.046795042282552074 0.00054689841616879418 0 0.044291908563173478 0.00077824368542324569 0 0.046370075722241708 -0.0010318463878195715 0 0.046795042282552074 0.00054689841616879418 0 0.048063413930192533 3.6685848524514959e-05 0 0.046795042282552074 0.00054689841616879418 0 0.046487125106512948 0.0018331146995167621 0 0.044291908563173478 0.00077824368542324569 0 0.046795042282552074 0.00054689841616879418 0 0.046487125106512948 0.0018331146995167621 0 0.047862377610899211 0.001127344992276929 0 0.046487125106512948 0.0018331146995167621 0 0.044292398071516192 0.004323373184058261 0 0.047921092021378946 0.0022055102672558012 0 0.034298798851412675 0.0034098276239830699 0 0.034800923764408777 0.0031706090188282454 0 0.035477019368916743 0.0023955239919712162 0 0.039254597219104161 0.0037634557777247134 0 0.041580101970601878 0.0023317823242489303 0 0.046487125106512948 0.0018331146995167621 0 0.044292398071516192 0.004323373184058261 0 0.044291908563173478 0.00077824368542324569 0 0.044292398071516192 0.004323373184058261 0 0.044291908563173478 0.00077824368542324569 0 0.040312487021715644 0.0019875453439898928 0 0.039668362348462376 -0.00086276499783959299 0 0.040312487021715644 0.0019875453439898928 0 0.037604980446069275 0.0018591645121768165 0 0.039668362348462376 -0.00086276499783959299 0 0.044291908563173478 0.00077824368542324569 0 0.040312487021715644 0.0019875453439898928 0 0.037365373594862812 0.0023463200030505427 0 0.042071812956095703 -4.614307792407949e-05 0 0.034653074427117563 0.0021792816584060601 0 0.039668362348462376 -0.00086276499783959299 0 0.037604980446069275 0.0018591645121768165 0 0.039913598866701157 0.0026966859847121095 0 0.041127655470298417 0.00039109694751023386 0 0.044448703731360117 0.00043948083458770094 0 0.034653074427117563 0.0021792816584060601 0 0.037604980446069275 0.0018591645121768165 0 0.03613446261970648 0.0040791343622749105 0 0.040312487021715644 0.0019875453439898928 0 0.037604980446069275 0.0018591645121768165 0 0.03613446261970648 0.0040791343622749105 0 0.034298798851412675 0.0034098276239830699 0 0.03613446261970648 0.0040791343622749105 0 0.034732607990356629 0.003398293279046062 0 0.039254597219104161 0.0037634557777247134 0 0.036335704695470268 0.0040753750393822301 0 0.044292398071516192 0.004323373184058261 0 0.040312487021715644 0.0019875453439898928 0 0.03613446261970648 0.0040791343622749105 0 0.034613357762228486 0.0036713206759973935 0 0.03613446261970648 0.0040791343622749105 0 0.034845147433555476 0.003707617704666588 0 0.03613446261970648 0.0040791343622749105 0 0.034732607990356629 0.003398293279046062 0 0.034845147433555476 0.003707617704666588 0 0.034732607990356629 0.003398293279046062 0 0.034845147433555476 0.003707617704666588 0 0.034243278962737121 0.0034750979551089727 0 0.033898923614685571 0.0036285129705565518 0 0.034845147433555476 0.003707617704666588 0 0.034243278962737121 0.0034750979551089727 0 0.034732607990356629 0.003398293279046062 0 0.034243278962737121 0.0034750979551089727 0 0.034230393082613587 0.003184712887904517 0 0.033921574201797568 0.0034935312557489683 0 0.034243278962737121 0.0034750979551089727 0 0.034230393082613587 0.003184712887904517 0 0.034230393082613587 0.003184712887904517 0 0.034695225485229284 0.0028408030149604828 0 0.035151628120961079 0.0014855396061418786 0 0.033921574201797568 0.0034935312557489683 0 0.034230393082613587 0.003184712887904517 0 0.034695225485229284 0.0028408030149604828 0 0.034341166854962579 0.0031125919771891179 0 0.035637627211354869 0.0025414710349588054 0 0.034230393082613587 0.003184712887904517 0 0.034800923764408777 0.0031706090188282454 0 0.035791240380469651 0.0036743596947916915 0 0.034298798851412675 0.0034098276239830699 0 0.034732607990356629 0.003398293279046062 0 0.034230393082613587 0.003184712887904517 0 0.034298798851412675 0.0034098276239830699 0 0.034230393082613587 0.003184712887904517 0 0.034800923764408777 0.0031706090188282454 0 0.035151628120961079 0.0014855396061418786 0 0.037507297865276422 0.0011560992841212702 0 0.038026968013934973 -3.7571890709329837e-05 0 0.037189626090458991 0.0028039116756925792 0 0.035791240380469651 0.0036743596947916915 0 0.038927658970556507 0.0030446901153916811 0 0.035151628120961079 0.0014855396061418786 0 0.036036966403645058 0.0020451771107417873 0 0.037507297865276422 0.0011560992841212702 0 0.035637627211354869 0.0025414710349588054 0 0.038216621123114858 0.0015698643401839863 0 0.037189626090458991 0.0028039116756925792 0 0.035791240380469651 0.0036743596947916915 0 0.035477019368916743 0.0023955239919712162 0 0.034800923764408777 0.0031706090188282454 0 0.035791240380469651 0.0036743596947916915 0 0.035477019368916743 0.0023955239919712162 0 0.035845592951852967 0.0027676436564732158 0 0.034695225485229284 0.0028408030149604828 0 0.036036966403645058 0.0020451771107417873 0 0.034695225485229284 0.0028408030149604828 0 0.035151628120961079 0.0014855396061418786 0 0.036036966403645058 0.0020451771107417873 0 0.036036966403645058 0.0020451771107417873 0 0.036667499883879344 0.0024524110061375243 0 0.037507297865276422 0.0011560992841212702 0 0.035845592951852967 0.0027676436564732158 0 0.036036966403645058 0.0020451771107417873 0 0.036667499883879344 0.0024524110061375243 0 0.038397381666989513 0.0020636659732137944 0 0.037528275660748005 0.0011256094087735431 0 0.039724023417607765 0.001882282231530954 0 0.037507297865276422 0.0011560992841212702 0 0.039032061078026287 0.00099634285141255493 0 0.037110920587613727 0.0027258340374295329 0 0.036667499883879344 0.0024524110061375243 0 0.037507297865276422 0.0011560992841212702 0 0.039724023417607765 0.001882282231530954 0 0.04009481365663347 0.0012335623999298411 0 0.039032061078026287 0.00099634285141255493 0 0.040017328518881269 0.0013841649995800563 0 0.039724023417607765 0.001882282231530954 0 0.04009481365663347 0.0012335623999298411 0 0.04009481365663347 0.0012335623999298411 0 0.040545454203139715 0.00062505720795908424 0 0.040708709550996522 0.00085231006029527041 0 0.04009481365663347 0.0012335623999298411 0 0.040545454203139715 0.00062505720795908424 0 0.039804083849165596 0.00049133027609111828 0 0.039804083849165596 0.00049133027609111828 0 0.039032061078026287 0.00099634285141255493 0 0.039173605536170608 0.00031455324587723358 0 0.04009481365663347 0.0012335623999298411 0 0.039804083849165596 0.00049133027609111828 0 0.039032061078026287 0.00099634285141255493 0 0.039804083849165596 0.00049133027609111828 0 0.039736588754921934 -2.1588083658474785e-05 0 0.039173605536170608 0.00031455324587723358 0 0.040545454203139715 0.00062505720795908424 0 0.039804083849165596 0.00049133027609111828 0 0.040580790003513972 -3.6360595518953605e-05 0 0.039804083849165596 0.00049133027609111828 0 0.039736588754921934 -2.1588083658474785e-05 0 0.040580790003513972 -3.6360595518953605e-05 0 0.037507297865276422 0.0011560992841212702 0 0.039032061078026287 0.00099634285141255493 0 0.038026968013934973 -3.7571890709329837e-05 0 0.039032061078026287 0.00099634285141255493 0 0.039173605536170608 0.00031455324587723358 0 0.038026968013934973 -3.7571890709329837e-05 0 0.039736588754921934 -2.1588083658474785e-05 0 0.039173605536170608 0.00031455324587723358 0 0.038026968013934973 -3.7571890709329837e-05 0 0.048003826810298127 0.00020013092083893461 0 0.047035010234003999 0.00013357222536094276 0 0.046119999002628718 -0.00042139718361939123 0 0.038927658970556507 0.0030446901153916811 0 0.038691328699451431 0.0019869163353478389 0 0.042657947891114288 0.0019066569205199206 0 0.048003826810298127 0.00020013092083893461 0 0.047035010234003999 0.00013357222536094276 0 0.047576729830089884 0.00044188203228757712 0 0.048003826810298127 0.00020013092083893461 0 0.047576729830089884 0.00044188203228757712 0 0.047953373656810148 0.00061547133322347066 0 0.048003826810298127 0.00020013092083893461 0 0.046119999002628718 -0.00042139718361939123 0 0.045453270084397 -0.00093296363935669159 0 0.043485175535075984 0.0011599233492020436 0 0.043095645473660342 0.00029807372864693363 0 0.039736588754921934 -2.1588083658474785e-05 0 0.038026968013934973 -3.7571890709329837e-05 0 0.041091918704056145 -0.00092445231495649359 0 0.038216621123114858 0.0015698643401839863 0 0.043095645473660342 0.00029807372864693363 0 0.039736588754921934 -2.1588083658474785e-05 0 0.040580790003513972 -3.6360595518953605e-05 0 0.041091918704056145 -0.00092445231495649359 0 0.047035010234003999 0.00013357222536094276 0 0.046119999002628718 -0.00042139718361939123 0 0.046472569267611251 0.00028766488979652637 0 0.046119999002628718 -0.00042139718361939123 0 0.046472569267611251 0.00028766488979652637 0 0.04556674212502522 -3.4038335492544236e-05 0 0.046119999002628718 -0.00042139718361939123 0 0.04561016352065686 -0.00043574372457148554 0 0.04556674212502522 -3.4038335492544236e-05 0 0.046119999002628718 -0.00042139718361939123 0 0.04561016352065686 -0.00043574372457148554 0 0.045453270084397 -0.00093296363935669159 0 0.045898378807884006 0.00042049900451866004 0 0.046929044167489983 0.00076480293519752497 0 0.045519006472151728 0.00048024796143694178 0 0.045898378807884006 0.00042049900451866004 0 0.046472569267611251 0.00028766488979652637 0 0.04556674212502522 -3.4038335492544236e-05 0 0.047035010234003999 0.00013357222536094276 0 0.046472569267611251 0.00028766488979652637 0 0.047142609844419786 0.00046400022041133757 0 0.046472569267611251 0.00028766488979652637 0 0.047142609844419786 0.00046400022041133757 0 0.046929044167489983 0.00076480293519752497 0 0.045898378807884006 0.00042049900451866004 0 0.046472569267611251 0.00028766488979652637 0 0.046929044167489983 0.00076480293519752497 0 0.047576729830089884 0.00044188203228757712 0 0.047953373656810148 0.00061547133322347066 0 0.047687944666118143 0.00065272087031771348 0 0.047576729830089884 0.00044188203228757712 0 0.047142609844419786 0.00046400022041133757 0 0.047687944666118143 0.00065272087031771348 0 0.047035010234003999 0.00013357222536094276 0 0.047576729830089884 0.00044188203228757712 0 0.047142609844419786 0.00046400022041133757 0 0.047142609844419786 0.00046400022041133757 0 0.047687944666118143 0.00065272087031771348 0 0.046929044167489983 0.00076480293519752497 0 0.047953373656810148 0.00061547133322347066 0 0.048116366763023916 0.0010485849415106598 0 0.048349943216133881 0.00073977320130394248 0 0.047953373656810148 0.00061547133322347066 0 0.047687944666118143 0.00065272087031771348 0 0.048349943216133881 0.00073977320130394248 0 0.048003826810298127 0.00020013092083893461 0 0.047953373656810148 0.00061547133322347066 0 0.048116366763023916 0.0010485849415106598 0 0.037189626090458991 0.0028039116756925792 0 0.038691328699451431 0.0019869163353478389 0 0.035477019368916743 0.0023955239919712162 0 0.043485175535075984 0.0011599233492020436 0 0.041580101970601878 0.0023317823242489303 0 0.048003826810298127 0.00020013092083893461 0 0.048116366763023916 0.0010485849415106598 0 0.047921092021378946 0.0022055102672558012 0 0.037189626090458991 0.0028039116756925792 0 0.038927658970556507 0.0030446901153916811 0 0.038691328699451431 0.0019869163353478389 0 0.048116366763023916 0.0010485849415106598 0 0.047921092021378946 0.0022055102672558012 0 0.047862377610899211 0.001127344992276929 0 0.046487125106512948 0.0018331146995167621 0 0.047921092021378946 0.0022055102672558012 0 0.047862377610899211 0.001127344992276929 0 0.048116366763023916 0.0010485849415106598 0 0.047862377610899211 0.001127344992276929 0 0.048349943216133881 0.00073977320130394248 0 0.047862377610899211 0.001127344992276929 0 0.048063413930192533 3.6685848524514959e-05 0 0.048349943216133881 0.00073977320130394248 0 0.046795042282552074 0.00054689841616879418 0 0.047862377610899211 0.001127344992276929 0 0.048063413930192533 3.6685848524514959e-05 0 0.04839295058056655 0.00066480137669782551 0 0.048609798527343387 0.0003340847256950981 0 0.048063413930192533 3.6685848524514959e-05 0 0.048349943216133881 0.00073977320130394248 0 0.049296421548330971 -0.00020197276798230372 0 0.047687944666118143 0.00065272087031771348 0 0.048349943216133881 0.00073977320130394248 0 0.047689923251967595 0.00085980509848820983 0 0.048349943216133881 0.00073977320130394248 0 0.047873571425579152 0.00089056315637472733 0 0.047689923251967595 0.00085980509848820983 0 0.049296421548330971 -0.00020197276798230372 0 0.04850159749417185 -0.00067586700727012398 0 0.049336410499721858 -0.00047639846116964501 0 0.048063413930192533 3.6685848524514959e-05 0 0.049296421548330971 -0.00020197276798230372 0 0.04850159749417185 -0.00067586700727012398 0 0.04850159749417185 -0.00067586700727012398 0 0.0492482898694801 -0.00055813879722362231 0 0.049336410499721858 -0.00047639846116964501 0 0.049296421548330971 -0.00020197276798230372 0 0.049336410499721858 -0.00047639846116964501 0 0.049649071569099097 -0.00034236500059743916 0 0.049336410499721858 -0.00047639846116964501 0 0.049999355006277557 -4.9635864751385248e-07 0 0.049649071569099097 -0.00034236500059743916 0 0.0492482898694801 -0.00055813879722362231 0 0.049336410499721858 -0.00047639846116964501 0 0.049999355006277557 -4.9635864751385248e-07 0 0.049998074839854016 -7.7644216623638271e-07 0 0.0492482898694801 -0.00055813879722362231 0 0.049999355006277557 -4.9635864751385248e-07 0 0.049992518030018508 1.3189130275298921e-06 0 0.047754186177603394 0.00076474971248416 0 0.046729617781838685 0.00070151942845792978 0 0.049992518030018508 1.3189130275298921e-06 0 0.04834818130133705 0.00048984734535475756 0 0.047754186177603394 0.00076474971248416 0 0.049999355006277557 -4.9635864751385248e-07 0 0.049999654572727543 5.0187673670825296e-08 0 0.049649071569099097 -0.00034236500059743916 0 0.04999951068456672 7.7088239073098681e-08 0 0.049045094987213746 0.00013245878062197961 0 0.048609798527343387 0.0003340847256950981 0 0.049045094987213746 0.00013245878062197961 0 0.047873571425579152 0.00089056315637472733 0 0.04834818130133705 0.00048984734535475756 0 0.047754186177603394 0.00076474971248416 0 0.047873571425579152 0.00089056315637472733 0 0.047754186177603394 0.00076474971248416 0 0.047689923251967595 0.00085980509848820983 0 0.047754186177603394 0.00076474971248416 0 0.047689923251967595 0.00085980509848820983 0 0.046929044167489983 0.00076480293519752497 0 0.047687944666118143 0.00065272087031771348 0 0.047689923251967595 0.00085980509848820983 0 0.046929044167489983 0.00076480293519752497 0 0.047754186177603394 0.00076474971248416 0 0.046929044167489983 0.00076480293519752497 0 0.046729617781838685 0.00070151942845792978 0 0.049992518030018508 1.3189130275298921e-06 0 0.049996706317940683 4.6681212363116772e-07 0 0.046729617781838685 0.00070151942845792978 0 0.049996706317940683 4.6681212363116772e-07 0 0.046729617781838685 0.00070151942845792978 0 0.042480984120964231 7.6763983410603459e-07 0 0.046929044167489983 0.00076480293519752497 0 0.046729617781838685 0.00070151942845792978 0 0.045519006472151728 0.00048024796143694178 0 0.042480984120964231 7.6763983410603459e-07 0 0.04325289457129898 0.00012182882886176889 0 0.041832805690030991 0.00020377904485589142 0 0.046729617781838685 0.00070151942845792978 0 0.042480984120964231 7.6763983410603459e-07 0 0.04325289457129898 0.00012182882886176889 0 0.046729617781838685 0.00070151942845792978 0 0.04325289457129898 0.00012182882886176889 0 0.045519006472151728 0.00048024796143694178 0 0.04325289457129898 0.00012182882886176889 0 0.045519006472151728 0.00048024796143694178 0 0.04364482107351534 -4.3771473454632051e-05 0 0.045519006472151728 0.00048024796143694178 0 0.045002110636639232 0.00021843550581831774 0 0.04364482107351534 -4.3771473454632051e-05 0 0.045898378807884006 0.00042049900451866004 0 0.045519006472151728 0.00048024796143694178 0 0.045002110636639232 0.00021843550581831774 0 0.045898378807884006 0.00042049900451866004 0 0.045002110636639232 0.00021843550581831774 0 0.04556674212502522 -3.4038335492544236e-05 0 0.045254680247274415 -0.00042389114479332492 0 0.04556674212502522 -3.4038335492544236e-05 0 0.044433954093625473 -0.00014705573488835242 0 0.04561016352065686 -0.00043574372457148554 0 0.045254680247274415 -0.00042389114479332492 0 0.04556674212502522 -3.4038335492544236e-05 0 0.04561016352065686 -0.00043574372457148554 0 0.045254680247274415 -0.00042389114479332492 0 0.045453270084397 -0.00093296363935669159 0 0.045002110636639232 0.00021843550581831774 0 0.04556674212502522 -3.4038335492544236e-05 0 0.044433954093625473 -0.00014705573488835242 0 0.045254680247274415 -0.00042389114479332492 0 0.044433954093625473 -0.00014705573488835242 0 0.044838257204175787 -0.00084039900374356115 0 0.045002110636639232 0.00021843550581831774 0 0.044433954093625473 -0.00014705573488835242 0 0.04364482107351534 -4.3771473454632051e-05 0 0.044433954093625473 -0.00014705573488835242 0 0.04364482107351534 -4.3771473454632051e-05 0 0.043069952704719326 -0.00055591139825147766 0 0.042428515134946672 -0.00010596582005806496 0 0.043069952704719326 -0.00055591139825147766 0 0.041862768942041176 -0.00013986856047152878 0 0.04364482107351534 -4.3771473454632051e-05 0 0.042428515134946672 -0.00010596582005806496 0 0.043069952704719326 -0.00055591139825147766 0 0.043069952704719326 -0.00055591139825147766 0 0.041766403539591011 -0.00043373604249475348 0 0.041091918704056145 -0.00092445231495649359 0 0.043069952704719326 -0.00055591139825147766 0 0.045394237959711273 -0.0011349785216152571 0 0.044838257204175787 -0.00084039900374356115 0 0.043158005049352167 -0.00017104821622220486 0 0.043095645473660342 0.00029807372864693363 0 0.044433954093625473 -0.00014705573488835242 0 0.043069952704719326 -0.00055591139825147766 0 0.044838257204175787 -0.00084039900374356115 0 0.041862768942041176 -0.00013986856047152878 0 0.041766403539591011 -0.00043373604249475348 0 0.041168122227097023 -0.00023648668479565806 0 0.043069952704719326 -0.00055591139825147766 0 0.041862768942041176 -0.00013986856047152878 0 0.041766403539591011 -0.00043373604249475348 0 0.040580790003513972 -3.6360595518953605e-05 0 0.041168122227097023 -0.00023648668479565806 0 0.041091918704056145 -0.00092445231495649359 0 0.041766403539591011 -0.00043373604249475348 0 0.041168122227097023 -0.00023648668479565806 0 0.041091918704056145 -0.00092445231495649359 0 0.043095645473660342 0.00029807372864693363 0 0.043403409511933291 0.00018075116825526702 0 0.045254680247274415 -0.00042389114479332492 0 0.045453270084397 -0.00093296363935669159 0 0.044838257204175787 -0.00084039900374356115 0 0.04325289457129898 0.00012182882886176889 0 0.042789379122900324 2.3939678647364395e-05 0 0.041832805690030991 0.00020377904485589142 0 0.04325289457129898 0.00012182882886176889 0 0.04364482107351534 -4.3771473454632051e-05 0 0.042789379122900324 2.3939678647364395e-05 0 0.042428515134946672 -0.00010596582005806496 0 0.042789379122900324 2.3939678647364395e-05 0 0.041832805690030991 0.00020377904485589142 0 0.04364482107351534 -4.3771473454632051e-05 0 0.042428515134946672 -0.00010596582005806496 0 0.042789379122900324 2.3939678647364395e-05 0 0.041832805690030991 0.00020377904485589142 0 0.040694927697609788 0.00068026129000014893 0 0.039602321168354535 0.00040356387840699239 0 0.041832805690030991 0.00020377904485589142 0 0.041434823783304139 0.00044034697388967148 0 0.040694927697609788 0.00068026129000014893 0 0.042428515134946672 -0.00010596582005806496 0 0.041832805690030991 0.00020377904485589142 0 0.041434823783304139 0.00044034697388967148 0 0.040545454203139715 0.00062505720795908424 0 0.040580790003513972 -3.6360595518953605e-05 0 0.0412630306693327 0.00030220105370992018 0 0.040580790003513972 -3.6360595518953605e-05 0 0.041168122227097023 -0.00023648668479565806 0 0.0412630306693327 0.00030220105370992018 0 0.041862768942041176 -0.00013986856047152878 0 0.041168122227097023 -0.00023648668479565806 0 0.0412630306693327 0.00030220105370992018 0 0.042428515134946672 -0.00010596582005806496 0 0.041862768942041176 -0.00013986856047152878 0 0.0412630306693327 0.00030220105370992018 0 0.042428515134946672 -0.00010596582005806496 0 0.0412630306693327 0.00030220105370992018 0 0.041434823783304139 0.00044034697388967148 0 0.041434823783304139 0.00044034697388967148 0 0.040708709550996522 0.00085231006029527041 0 0.040694927697609788 0.00068026129000014893 0 0.0412630306693327 0.00030220105370992018 0 0.041434823783304139 0.00044034697388967148 0 0.040708709550996522 0.00085231006029527041 0 0.040545454203139715 0.00062505720795908424 0 0.0412630306693327 0.00030220105370992018 0 0.040708709550996522 0.00085231006029527041 0 0.04009481365663347 0.0012335623999298411 0 0.040708709550996522 0.00085231006029527041 0 0.040159207025738428 0.0011282354370959126 0 0.040708709550996522 0.00085231006029527041 0 0.040159207025738428 0.0011282354370959126 0 0.040694927697609788 0.00068026129000014893 0 0.040017328518881269 0.0013841649995800563 0 0.04009481365663347 0.0012335623999298411 0 0.040159207025738428 0.0011282354370959126 0 0.039667468891637837 0.00077585490673658651 0 0.040694927697609788 0.00068026129000014893 0 0.039602321168354535 0.00040356387840699239 0 0.039667468891637837 0.00077585490673658651 0 0.040159207025738428 0.0011282354370959126 0 0.040694927697609788 0.00068026129000014893 0 0.036904636016961902 1.1330605852711211e-06 0 0.042480984120964231 7.6763983410603459e-07 0 0.039602321168354535 0.00040356387840699239 0 0.042480984120964231 7.6763983410603459e-07 0 0.041832805690030991 0.00020377904485589142 0 0.039602321168354535 0.00040356387840699239 0 0.040148437607224897 0.00053347643318325257 0 0.040149671432736712 -0.0010255041610042477 0 0.038470506268923545 -0.00085013316673707173 0 0.039254471010497519 -8.3911028899781226e-05 0 0.039325804387266301 -0.0015651656389957384 0 0.041023228369519445 0.00092364535279268413 0 0.042117798859635625 0.00055268262869912594 0 0.041706891559122827 -0.00016501867240920041 0 0.038470506268923545 -0.00085013316673707173 0 0.039254471010497519 -8.3911028899781226e-05 0 0.03824651151415525 0.00076719383758341484 0 0.038470506268923545 -0.00085013316673707173 0 0.03697110789113299 8.6951170593107364e-05 0 0.03824651151415525 0.00076719383758341484 0 0.041023228369519445 0.00092364535279268413 0 0.041652387519020055 0.001180116204950007 0 0.039470996069474025 0.0018711495651203729 0 0.041023228369519445 0.00092364535279268413 0 0.041652387519020055 0.001180116204950007 0 0.042117798859635625 0.00055268262869912594 0 0.041652387519020055 0.001180116204950007 0 0.042335590084710203 0.0012514055433189683 0 0.042978235163982435 0.00072774768989781753 0 0.04377544488622729 0.0016967738841133784 0 0.042978235163982435 0.00072774768989781753 0 0.044641592800796701 0.00087427207056379921 0 0.043022984107554764 0.00136303093274065 0 0.042922698327837593 0.00075900781326439053 0 0.041652387519020055 0.001180116204950007 0 0.042978235163982435 0.00072774768989781753 0 0.042117798859635625 0.00055268262869912594 0 0.042978235163982435 0.00072774768989781753 0 0.042117798859635625 0.00055268262869912594 0 0.043264789952622319 -0.000146582006098007 0 0.043264789952622319 -0.000146582006098007 0 0.042846500545889656 -0.00079871848192255017 0 0.041706891559122827 -0.00016501867240920041 0 0.042117798859635625 0.00055268262869912594 0 0.043264789952622319 -0.000146582006098007 0 0.041706891559122827 -0.00016501867240920041 0 0.043264789952622319 -0.000146582006098007 0 0.044483728440836964 2.4641402468037508e-05 0 0.044826118742633543 -0.00053381742864981509 0 0.042978235163982435 0.00072774768989781753 0 0.043264789952622319 -0.000146582006098007 0 0.044483728440836964 2.4641402468037508e-05 0 0.043264789952622319 -0.000146582006098007 0 0.044436516577384275 -0.00090164642153155975 0 0.044826118742633543 -0.00053381742864981509 0 0.044436516577384275 -0.00090164642153155975 0 0.044826118742633543 -0.00053381742864981509 0 0.045220899890142788 -0.00071033237838729767 0 0.043264789952622319 -0.000146582006098007 0 0.044436516577384275 -0.00090164642153155975 0 0.042846500545889656 -0.00079871848192255017 0 0.044346355870711084 -0.00098558484191861736 0 0.043933784322812947 -0.0012071902559925309 0 0.044436516577384275 -0.00090164642153155975 0 0.042846500545889656 -0.00079871848192255017 0 0.042916756699143084 -0.0016800053251284997 0 0.042846500545889656 -0.00079871848192255017 0 0.042324581499440267 -0.0011426439695517204 0 0.042916756699143084 -0.0016800053251284997 0 0.040149671432736712 -0.0010255041610042477 0 0.043336132825279226 -0.0017874643071837258 0 0.042324581499440267 -0.0011426439695517204 0 0.041900094536035874 -0.0019782595450675337 0 0.042916756699143084 -0.0016800053251284997 0 0.042846500545889656 -0.00079871848192255017 0 0.042324581499440267 -0.0011426439695517204 0 0.041706891559122827 -0.00016501867240920041 0 0.039095994733098674 -0.0024612714037429151 0 0.039325804387266301 -0.0015651656389957384 0 0.039439938917070191 -0.0030553183448339123 0 0.042324581499440267 -0.0011426439695517204 0 0.041706891559122827 -0.00016501867240920041 0 0.041900094536035874 -0.0019782595450675337 0 0.038470506268923545 -0.00085013316673707173 0 0.039325804387266301 -0.0015651656389957384 0 0.038287462586922887 -0.002127624237178155 0 0.039095994733098674 -0.0024612714037429151 0 0.039325804387266301 -0.0015651656389957384 0 0.038287462586922887 -0.002127624237178155 0 0.039095994733098674 -0.0024612714037429151 0 0.038287462586922887 -0.002127624237178155 0 0.039330328904980186 -0.003097290194778759 0 0.040456029833151858 -0.0010046495504956838 0 0.044144027912404182 -0.0012501034234359213 0 0.043340775001053614 0.00010529501685488323 0 0.042444209174717404 0.00098485340181576789 0 0.042356283510730966 -0.00047329713583261205 0 0.041557654661318943 0.00042985099981837117 0 0.041383604467948677 -0.00064281909531956397 0 0.042356283510730966 -0.00047329713583261205 0 0.042444209174717404 0.00098485340181576789 0 0.041557654661318943 0.00042985099981837117 0 0.042356283510730966 -0.00047329713583261205 0 0.038470506268923545 -0.00085013316673707173 0 0.038287462586922887 -0.002127624237178155 0 0.037226257593993194 -0.0010907502531774299 0 0.040456029833151858 -0.0010046495504956838 0 0.039864882831402049 -4.0880941889113479e-05 0 0.045765914994124357 0.00081018065130644408 0 0.045782363219949829 0.0009060103511645645 0 0.04556566454841221 0.0010221067779053281 0 0.045765914994124357 0.00081018065130644408 0 0.045761927862205856 0.00081248249933129734 0 0.045782363219949829 0.0009060103511645645 0 0.045761927862205856 0.00081248249933129734 0 0.045782363219949829 0.0009060103511645645 0 0.045853881252956502 0.00089297065760454632 0 0.045782363219949829 0.0009060103511645645 0 0.045783035394489469 0.0010281280419702052 0 0.045853881252956502 0.00089297065760454632 0 0.043704580967862526 0.00023023208551184519 0 0.042846973011463632 0.00043790177399651741 0 0.040528295107675458 0.00022495204844169859 0 0.041557654661318943 0.00042985099981837117 0 0.041383604467948677 -0.00064281909531956397 0 0.040528295107675458 0.00022495204844169859 0 0.041557654661318943 0.00042985099981837117 0 0.040777359414455892 0.0011513102888241946 0 0.040528295107675458 0.00022495204844169859 0 0.040777359414455892 0.0011513102888241946 0 0.039674363549441177 0.0011095080380791836 0 0.040777359414455892 0.0011513102888241946 0 0.040144768763697047 0.0019320965539171564 0 0.039674363549441177 0.0011095080380791836 0 0.040777359414455892 0.0011513102888241946 0 0.041531198356484673 0.0018722528400883821 0 0.040144768763697047 0.0019320965539171564 0 0.041557654661318943 0.00042985099981837117 0 0.040777359414455892 0.0011513102888241946 0 0.041531198356484673 0.0018722528400883821 0 0.03593956916412621 0.00032681544204843176 0 0.034616268422304024 0.0019375621066085112 0 0.035624229873516114 0.0016036065381418228 0 0.03593956916412621 0.00032681544204843176 0 0.036479997631847762 0.0022191216931170235 0 0.035624229873516114 0.0016036065381418228 0 0.038892014084882985 0.00098868285872056347 0 0.036812717864351557 0.0027691672591118812 0 0.041531198356484673 0.0018722528400883821 0 0.040144768763697047 0.0019320965539171564 0 0.040610282105457883 0.0027578008928421096 0 0.037505856553329074 0.0024835830499092379 0 0.036812717864351557 0.0027691672591118812 0 0.035015722399163438 0.0030373005124488791 0 0.035398688373524542 0.0034953135165729679 0 0.034722669128403348 0.003632180717313931 0 0.038470506268923545 -0.00085013316673707173 0 0.037226257593993194 -0.0010907502531774299 0 0.037630590587659246 0.00061798294035097774 0 0.038366244936061632 -0.00074813073192221398 0 0.037286906440422839 0.00037350243232806999 0 0.037226257593993194 -0.0010907502531774299 0 0.03593956916412621 0.00032681544204843176 0 0.037630590587659246 0.00061798294035097774 0 0.039864882831402049 -4.0880941889113479e-05 0 0.038892014084882985 0.00098868285872056347 0 0.042444209174717404 0.00098485340181576789 0 0.041557654661318943 0.00042985099981837117 0 0.041531198356484673 0.0018722528400883821 0 0.03593956916412621 0.00032681544204843176 0 0.037630590587659246 0.00061798294035097774 0 0.036479997631847762 0.0022191216931170235 0 0.03697110789113299 8.6951170593107364e-05 0 0.035436135409930875 0.0013774822350110978 0 0.037226670559447297 0.002032319620477271 0 0.03697110789113299 8.6951170593107364e-05 0 0.037226670559447297 0.002032319620477271 0 0.03824651151415525 0.00076719383758341484 0 0.037286906440422839 0.00037350243232806999 0 0.035957097864499396 0.0018037341571774236 0 0.035436135409930875 0.0013774822350110978 0 0.037226670559447297 0.002032319620477271 0 0.035624511071135026 0.0029321488859622826 0 0.035436135409930875 0.0013774822350110978 0 0.034188588772637515 0.0027552115033646699 0 0.035624511071135026 0.0029321488859622826 0 0.037226670559447297 0.002032319620477271 0 0.036610138653873046 0.0035014485354344692 0 0.035624511071135026 0.0029321488859622826 0 0.036812717864351557 0.0027691672591118812 0 0.0342393251593767 0.0037882374233085053 0 0.034519306442949635 0.0019953565678641856 0 0.034236331381789178 0.0029681875078662288 0 0.033645040979587454 0.0032207617650295904 0 0.034519306442949635 0.0019953565678641856 0 0.034550403157690451 0.0030037804391446722 0 0.034236331381789178 0.0029681875078662288 0 0.034519306442949635 0.0019953565678641856 0 0.034960923757655984 0.0025221204717860777 0 0.034550403157690451 0.0030037804391446722 0 0.036812717864351557 0.0027691672591118812 0 0.035424658568044685 0.0019611124792801027 0 0.036479997631847762 0.0022191216931170235 0 0.034960923757655984 0.0025221204717860777 0 0.035194305853643623 0.0030072171007658444 0 0.036479997631847762 0.0022191216931170235 0 0.034960923757655984 0.0025221204717860777 0 0.035624229873516114 0.0016036065381418228 0 0.034616268422304024 0.0019375621066085112 0 0.034960923757655984 0.0025221204717860777 0 0.035624229873516114 0.0016036065381418228 0 0.035957097864499396 0.0018037341571774236 0 0.03472466302478025 0.0032382594282418225 0 0.036479997631847762 0.0022191216931170235 0 0.035278340568433285 0.0036460405346634707 0 0.035194305853643623 0.0030072171007658444 0 0.035278340568433285 0.0036460405346634707 0 0.035194305853643623 0.0030072171007658444 0 0.034751230343139414 0.0034450726515877061 0 0.034227465931097885 0.0036067609905519452 0 0.034321860467751292 0.0048545692967822112 0 0.033645040979587454 0.0032207617650295904 0 0.034550403157690451 0.0030037804391446722 0 0.034751230343139414 0.0034450726515877061 0 0.034227465931097885 0.0036067609905519452 0 0.034960923757655984 0.0025221204717860777 0 0.035194305853643623 0.0030072171007658444 0 0.034550403157690451 0.0030037804391446722 0 0.035194305853643623 0.0030072171007658444 0 0.034550403157690451 0.0030037804391446722 0 0.034751230343139414 0.0034450726515877061 0 0.035278340568433285 0.0036460405346634707 0 0.034751230343139414 0.0034450726515877061 0 0.034528643609762662 0.0039160890292963494 0 0.034751230343139414 0.0034450726515877061 0 0.034528643609762662 0.0039160890292963494 0 0.034227465931097885 0.0036067609905519452 0 0.034550403157690451 0.0030037804391446722 0 0.034227465931097885 0.0036067609905519452 0 0.034236331381789178 0.0029681875078662288 0 0.034227465931097885 0.0036067609905519452 0 0.034236331381789178 0.0029681875078662288 0 0.033645040979587454 0.0032207617650295904 0 0.035278340568433285 0.0036460405346634707 0 0.034528643609762662 0.0039160890292963494 0 0.034321860467751292 0.0048545692967822112 0 0.034188588772637515 0.0027552115033646699 0 0.033460874038252472 0.0039042853679813203 0 0.034216613971298611 0.0037108782825929407 0 0.03472466302478025 0.0032382594282418225 0 0.033999382434250616 0.0041585916459539038 0 0.034528643609762662 0.0039160890292963494 0 0.034227465931097885 0.0036067609905519452 0 0.034321860467751292 0.0048545692967822112 0 0.034188588772637515 0.0027552115033646699 0 0.034846991137361991 0.0034760282736468326 0 0.035624511071135026 0.0029321488859622826 0 0.034188588772637515 0.0027552115033646699 0 0.034846991137361991 0.0034760282736468326 0 0.034216613971298611 0.0037108782825929407 0 0.034846991137361991 0.0034760282736468326 0 0.034216613971298611 0.0037108782825929407 0 0.034662268268745959 0.0042090982174108711 0 0.034216613971298611 0.0037108782825929407 0 0.034662268268745959 0.0042090982174108711 0 0.03414896719938959 0.0043023170919411421 0 0.033905870361522747 0.0044351468264384273 0 0.033999382434250616 0.0041585916459539038 0 0.033924092605283167 0.0046341350233369862 0 0.033460874038252472 0.0039042853679813203 0 0.03414896719938959 0.0043023170919411421 0 0.034002762870669848 0.0043635571001290879 0 0.034030099745649363 0.0040282835848135462 0 0.03398143951835312 0.0041211152668014246 0 0.033460874038252472 0.0039042853679813203 0 0.034216613971298611 0.0037108782825929407 0 0.03414896719938959 0.0043023170919411421 0 0.036610138653873046 0.0035014485354344692 0 0.035624511071135026 0.0029321488859622826 0 0.03560066111671642 0.003943280481746623 0 0.034846991137361991 0.0034760282736468326 0 0.035624511071135026 0.0029321488859622826 0 0.03560066111671642 0.003943280481746623 0 0.034846991137361991 0.0034760282736468326 0 0.034662268268745959 0.0042090982174108711 0 0.03560066111671642 0.003943280481746623 0 0.035236303055582265 0.0048184739778600614 0 0.034662268268745959 0.0042090982174108711 0 0.03560066111671642 0.003943280481746623 0 0.035236303055582265 0.0048184739778600614 0 0.03560066111671642 0.003943280481746623 0 0.036699245865597911 0.0044684536317707042 0 0.036610138653873046 0.0035014485354344692 0 0.03560066111671642 0.003943280481746623 0 0.036699245865597911 0.0044684536317707042 0 0.038874381028680724 0.0051226275155702057 0 0.036699245865597911 0.0044684536317707042 0 0.038540782031670252 0.0034810060120515026 0 0.036610138653873046 0.0035014485354344692 0 0.036699245865597911 0.0044684536317707042 0 0.038540782031670252 0.0034810060120515026 0 0.038874381028680724 0.0051226275155702057 0 0.038540782031670252 0.0034810060120515026 0 0.039712967393050407 0.0040014154067011297 0 0.038540782031670252 0.0034810060120515026 0 0.040319534931611292 0.0030306259627681433 0 0.039712967393050407 0.0040014154067011297 0 0.037226670559447297 0.002032319620477271 0 0.036610138653873046 0.0035014485354344692 0 0.038540782031670252 0.0034810060120515026 0 0.037226670559447297 0.002032319620477271 0 0.038540782031670252 0.0034810060120515026 0 0.039470996069474025 0.0018711495651203729 0 0.038540782031670252 0.0034810060120515026 0 0.039470996069474025 0.0018711495651203729 0 0.040319534931611292 0.0030306259627681433 0 0.039254471010497519 -8.3911028899781226e-05 0 0.039470996069474025 0.0018711495651203729 0 0.03824651151415525 0.00076719383758341484 0 0.040148437607224897 0.00053347643318325257 0 0.03956503940731132 0.0018738298095487939 0 0.037226670559447297 0.002032319620477271 0 0.039470996069474025 0.0018711495651203729 0 0.03824651151415525 0.00076719383758341484 0 0.041652387519020055 0.001180116204950007 0 0.042335590084710203 0.0012514055433189683 0 0.041261562004908256 0.0019818831880323512 0 0.042335590084710203 0.0012514055433189683 0 0.041261562004908256 0.0019818831880323512 0 0.042483435047434216 0.0020621972321917697 0 0.041652387519020055 0.001180116204950007 0 0.039470996069474025 0.0018711495651203729 0 0.041261562004908256 0.0019818831880323512 0 0.039470996069474025 0.0018711495651203729 0 0.041261562004908256 0.0019818831880323512 0 0.040319534931611292 0.0030306259627681433 0 0.041261562004908256 0.0019818831880323512 0 0.041676239807083147 0.0028405361248799842 0 0.040319534931611292 0.0030306259627681433 0 0.041261562004908256 0.0019818831880323512 0 0.041676239807083147 0.0028405361248799842 0 0.042483435047434216 0.0020621972321917697 0 0.041676239807083147 0.0028405361248799842 0 0.040319534931611292 0.0030306259627681433 0 0.041276364499782829 0.0042045374900986998 0 0.041676239807083147 0.0028405361248799842 0 0.041276364499782829 0.0042045374900986998 0 0.042954456075188087 0.0031620204538673913 0 0.040319534931611292 0.0030306259627681433 0 0.039712967393050407 0.0040014154067011297 0 0.041276364499782829 0.0042045374900986998 0 0.036559993792513734 0.0051650504791804974 0 0.036932507982437079 0.0048724603232902525 0 0.038874381028680724 0.0051226275155702057 0 0.039712967393050407 0.0040014154067011297 0 0.041276364499782829 0.0042045374900986998 0 0.03244330091434524 0.0046955774060981111 0 0.032716577641263289 0.0054435222999928033 0 0.03226148489996352 0.0051644659488459055 0 0.032104922310645483 0.0046416025945870071 0 0.03226148489996352 0.0051644659488459055 0 0.031835680173268238 0.0049904723985170832 0 0.032716577641263289 0.0054435222999928033 0 0.03226148489996352 0.0051644659488459055 0 0.032130811159571636 0.0055913536127209064 0 0.03226148489996352 0.0051644659488459055 0 0.032130811159571636 0.0055913536127209064 0 0.031835680173268238 0.0049904723985170832 0 0.036932507982437079 0.0048724603232902525 0 0.037938373731006884 0.0041247232409735435 0 0.032372928607006746 0.0046525166110694413 0 0.033504556171026378 0.004728502999916482 0 0.034702082935394063 0.0023588259113220978 0 0.032372928607006746 0.0046525166110694413 0 0.033504556171026378 0.004728502999916482 0 0.03288841019654222 0.005472917571905535 0 0.032372928607006746 0.0046525166110694413 0 0.03288841019654222 0.005472917571905535 0 0.032784103797206518 0.0054052433240389854 0 0.037938373731006884 0.0041247232409735435 0 0.03152690399315506 0.0051502112299122282 0 0.03288841019654222 0.005472917571905535 0 0.032784103797206518 0.0054052433240389854 0 0.032150483700423262 0.0050771242881573744 0 0.031569611257953496 0.0048841235738822583 0 0.032150483700423262 0.0050771242881573744 0 0.031870001213263756 0.0052195613013332831 0 0.03288841019654222 0.005472917571905535 0 0.032150483700423262 0.0050771242881573744 0 0.031870001213263756 0.0052195613013332831 0 0.031569611257953496 0.0048841235738822583 0 0.031870001213263756 0.0052195613013332831 0 0.031215642826851214 0.0052218488990420876 0 0.031870001213263756 0.0052195613013332831 0 0.031215642826851214 0.0052218488990420876 0 0.031651547158144701 0.0054995721723679501 0 0.03288841019654222 0.005472917571905535 0 0.031870001213263756 0.0052195613013332831 0 0.031651547158144701 0.0054995721723679501 0 0.031569611257953496 0.0048841235738822583 0 0.031173611597646509 0.0049054502184441764 0 0.031215642826851214 0.0052218488990420876 0 0.030805716468398473 0.004911948299974064 0 0.031173611597646509 0.0049054502184441764 0 0.031215642826851214 0.0052218488990420876 0 0.030805716468398473 0.004911948299974064 0 0.031215642826851214 0.0052218488990420876 0 0.030634885212645943 0.0051722052090152071 0 0.031215642826851214 0.0052218488990420876 0 0.030834130129503583 0.0054436161742871152 0 0.030634885212645943 0.0051722052090152071 0 0.031215642826851214 0.0052218488990420876 0 0.031141214813697228 0.0055844284248137655 0 0.031651547158144701 0.0054995721723679501 0 0.031215642826851214 0.0052218488990420876 0 0.030834130129503583 0.0054436161742871152 0 0.031141214813697228 0.0055844284248137655 0 0.031141214813697228 0.0055844284248137655 0 0.031165284738229965 0.0058888574424167265 0 0.030806874973453073 0.0056630114708032296 0 0.030834130129503583 0.0054436161742871152 0 0.030806874973453073 0.0056630114708032296 0 0.030606263188645278 0.0055122908774918548 0 0.030834130129503583 0.0054436161742871152 0 0.031141214813697228 0.0055844284248137655 0 0.030806874973453073 0.0056630114708032296 0 0.031141214813697228 0.0055844284248137655 0 0.031651547158144701 0.0054995721723679501 0 0.031165284738229965 0.0058888574424167265 0 0.033094309381463169 0.0054075744637711214 0 0.034444681294045043 0.0049340792416544509 0 0.03288841019654222 0.005472917571905535 0 0.031651547158144701 0.0054995721723679501 0 0.031165284738229965 0.0058888574424167265 0 0.033504556171026378 0.004728502999916482 0 0.03288841019654222 0.005472917571905535 0 0.037383348315074554 0.0043155017213878022 0 0.032719109868692191 0.0054105718770226571 0 0.040308826984870316 0.0021291007672840467 0 0.037383348315074554 0.0043155017213878022 0 0.035725531011527444 0.002903153043084613 0 0.039838088048346057 0.0011801372413796747 0 0.033504556171026378 0.004728502999916482 0 0.037383348315074554 0.0043155017213878022 0 0.035725531011527444 0.002903153043084613 0 0.031165284738229965 0.0058888574424167265 0 0.030650685601648953 0.0057335259971575021 0 0.03037960285450067 0.0056981985706926318 0 0.034444681294045043 0.0049340792416544509 0 0.037385143447715749 0.0031671481504512247 0 0.030806874973453073 0.0056630114708032296 0 0.030650685601648953 0.0057335259971575021 0 0.030493783053739437 0.0056221279840929757 0 0.031165284738229965 0.0058888574424167265 0 0.030806874973453073 0.0056630114708032296 0 0.030650685601648953 0.0057335259971575021 0 0.044525869254459949 0.00097438963047933734 0 0.044734094852224876 0.00065037259646873375 0 0.044635732096867387 0.00049654194318432695 0 0.037383348315074554 0.0043155017213878022 0 0.039838088048346057 0.0011801372413796747 0 0.044446851636186328 0.00080905561634913095 0 0.042117115318791136 0.0012428554916618735 0 0.044164536997256525 0.00060480064370875509 0 0.039838088048346057 0.0011801372413796747 0 0.044734094852224876 0.00065037259646873375 0 0.044446851636186328 0.00080905561634913095 0 0.04576443631268888 0.0025557811400695862 0 0.045702195657784786 0.0016201135508687172 0 0.045348183120765329 0.0021186963553446523 0 0.04576443631268888 0.0025557811400695862 0 0.045702195657784786 0.0016201135508687172 0 0.04635148920962303 0.0010958466653857336 0 0.043969091326611122 0.0012876903303943028 0 0.044525869254459949 0.00097438963047933734 0 0.044635732096867387 0.00049654194318432695 0 0.040308826984870316 0.0021291007672840467 0 0.046275161567055682 0.00061696014994478722 0 0.040308826984870316 0.0021291007672840467 0 0.042117115318791136 0.0012428554916618735 0 0.045702195657784786 0.0016201135508687172 0 0.045348183120765329 0.0021186963553446523 0 0.045275398459836545 0.0013838987426550424 0 0.045348183120765329 0.0021186963553446523 0 0.044696816364101839 0.0018395473868068866 0 0.044912760949263664 0.0024819688009472271 0 0.045348183120765329 0.0021186963553446523 0 0.044696816364101839 0.0018395473868068866 0 0.045275398459836545 0.0013838987426550424 0 0.043022984107554764 0.00136303093274065 0 0.043723544907296089 0.0024282843846090436 0 0.04377544488622729 0.0016967738841133784 0 0.044696816364101839 0.0018395473868068866 0 0.04421681178803577 0.0024476944059446696 0 0.044696816364101839 0.0018395473868068866 0 0.04421681178803577 0.0024476944059446696 0 0.044912760949263664 0.0024819688009472271 0 0.037938373731006884 0.0041247232409735435 0 0.043723544907296089 0.0024282843846090436 0 0.041676239807083147 0.0028405361248799842 0 0.042954456075188087 0.0031620204538673913 0 0.042483435047434216 0.0020621972321917697 0 0.044549095239604874 0.003342167289835355 0 0.04421681178803577 0.0024476944059446696 0 0.044912760949263664 0.0024819688009472271 0 0.04576443631268888 0.0025557811400695862 0 0.045348183120765329 0.0021186963553446523 0 0.044912760949263664 0.0024819688009472271 0 0.044549095239604874 0.003342167289835355 0 0.04576443631268888 0.0025557811400695862 0 0.044912760949263664 0.0024819688009472271 0 0.037938373731006884 0.0041247232409735435 0 0.040308826984870316 0.0021291007672840467 0 0.02914106059505947 0.0048521257189896314 0 0.029393129243808862 0.0051309930169779307 0 0.029416290791843269 0.0050792077991092342 0 0.029416290791843269 0.0050792077991092342 0 0.02948095671942072 0.0050187082566757512 0 0.029705453496485054 0.005279079266654471 0 0.029416290791843269 0.0050792077991092342 0 0.029175812785718149 0.004787831908715387 0 0.02948095671942072 0.0050187082566757512 0 0.02914106059505947 0.0048521257189896314 0 0.029416290791843269 0.0050792077991092342 0 0.029175812785718149 0.004787831908715387 0 0.029175812785718149 0.004787831908715387 0 0.028966274206413137 0.0046224877820567915 0 0.028977108012599263 0.0045540718957948799 0 0.02914106059505947 0.0048521257189896314 0 0.029175812785718149 0.004787831908715387 0 0.028966274206413137 0.0046224877820567915 0 0.028966274206413137 0.0046224877820567915 0 0.028768154936174056 0.004424928469243904 0 0.028977108012599263 0.0045540718957948799 0 0.028857322255529491 0.0043878603816107373 0 0.028768154936174056 0.004424928469243904 0 0.028977108012599263 0.0045540718957948799 0 0.028857322255529491 0.0043878603816107373 0 0.028977108012599263 0.0045540718957948799 0 0.029198406667859996 0.0046687616859747384 0 0.029082741897061198 0.0044216437481861296 0 0.028857322255529491 0.0043878603816107373 0 0.029198406667859996 0.0046687616859747384 0 0.029175812785718149 0.004787831908715387 0 0.029198406667859996 0.0046687616859747384 0 0.02948095671942072 0.0050187082566757512 0 0.029175812785718149 0.004787831908715387 0 0.028977108012599263 0.0045540718957948799 0 0.029198406667859996 0.0046687616859747384 0 0.029198406667859996 0.0046687616859747384 0 0.029653982788169459 0.0049661203861698202 0 0.02948095671942072 0.0050187082566757512 0 0.029198406667859996 0.0046687616859747384 0 0.029391136830528995 0.0046528816562023123 0 0.029653982788169459 0.0049661203861698202 0 0.029082741897061198 0.0044216437481861296 0 0.029198406667859996 0.0046687616859747384 0 0.029391136830528995 0.0046528816562023123 0 0.029391136830528995 0.0046528816562023123 0 0.029653982788169459 0.0049661203861698202 0 0.029684466239221514 0.0047000328597667706 0 0.029361350600042677 0.0044755956528535045 0 0.029391136830528995 0.0046528816562023123 0 0.029684466239221514 0.0047000328597667706 0 0.029653982788169459 0.0049661203861698202 0 0.02948095671942072 0.0050187082566757512 0 0.029765852373110128 0.0051927198124011387 0 0.02948095671942072 0.0050187082566757512 0 0.029765852373110128 0.0051927198124011387 0 0.029705453496485054 0.005279079266654471 0 0.029765852373110128 0.0051927198124011387 0 0.030059559486586715 0.0052356600647528815 0 0.030023170563707013 0.0054143214167295776 0 0.030059559486586715 0.0052356600647528815 0 0.030284972540862896 0.0054486732809170112 0 0.030023170563707013 0.0054143214167295776 0 0.029653982788169459 0.0049661203861698202 0 0.029765852373110128 0.0051927198124011387 0 0.030059559486586715 0.0052356600647528815 0 0.029653982788169459 0.0049661203861698202 0 0.030059559486586715 0.0052356600647528815 0 0.029990560939900514 0.0049622907837713216 0 0.029653982788169459 0.0049661203861698202 0 0.029684466239221514 0.0047000328597667706 0 0.029990560939900514 0.0049622907837713216 0 0.030022667825224787 0.0046487984889170301 0 0.029684466239221514 0.0047000328597667706 0 0.029990560939900514 0.0049622907837713216 0 0.030059559486586715 0.0052356600647528815 0 0.029990560939900514 0.0049622907837713216 0 0.030289435154750684 0.0051316836079341541 0 0.029990560939900514 0.0049622907837713216 0 0.030289435154750684 0.0051316836079341541 0 0.030375390546338494 0.0049069893926037278 0 0.030022667825224787 0.0046487984889170301 0 0.029990560939900514 0.0049622907837713216 0 0.030375390546338494 0.0049069893926037278 0 0.030532274921683838 0.0046454125872197292 0 0.030805716468398473 0.004911948299974064 0 0.030375390546338494 0.0049069893926037278 0 0.030805716468398473 0.004911948299974064 0 0.030375390546338494 0.0049069893926037278 0 0.030634885212645943 0.0051722052090152071 0 0.030289435154750684 0.0051316836079341541 0 0.030375390546338494 0.0049069893926037278 0 0.030634885212645943 0.0051722052090152071 0 0.030289435154750684 0.0051316836079341541 0 0.030634885212645943 0.0051722052090152071 0 0.030415089642891784 0.005344114964195984 0 0.030834130129503583 0.0054436161742871152 0 0.030634885212645943 0.0051722052090152071 0 0.030415089642891784 0.005344114964195984 0 0.030059559486586715 0.0052356600647528815 0 0.030289435154750684 0.0051316836079341541 0 0.030415089642891784 0.005344114964195984 0 0.030415089642891784 0.005344114964195984 0 0.030284972540862896 0.0054486732809170112 0 0.030606263188645278 0.0055122908774918548 0 0.030059559486586715 0.0052356600647528815 0 0.030415089642891784 0.005344114964195984 0 0.030284972540862896 0.0054486732809170112 0 0.030834130129503583 0.0054436161742871152 0 0.030415089642891784 0.005344114964195984 0 0.030606263188645278 0.0055122908774918548 0 0.030806874973453073 0.0056630114708032296 0 0.030606263188645278 0.0055122908774918548 0 0.030493783053739437 0.0056221279840929757 0 0.030284972540862896 0.0054486732809170112 0 0.030606263188645278 0.0055122908774918548 0 0.030493783053739437 0.0056221279840929757 0 0.030284972540862896 0.0054486732809170112 0 0.030493783053739437 0.0056221279840929757 0 0.030260133213780318 0.0055532376533407703 0 0.030493783053739437 0.0056221279840929757 0 0.030260133213780318 0.0055532376533407703 0 0.030389491340332662 0.0056394579821409368 0 0.030260133213780318 0.0055532376533407703 0 0.030389491340332662 0.0056394579821409368 0 0.030292718339261171 0.0056183503285968063 0 0.030493783053739437 0.0056221279840929757 0 0.030389491340332662 0.0056394579821409368 0 0.030466460661342256 0.0056892994743691335 0 0.030650685601648953 0.0057335259971575021 0 0.030493783053739437 0.0056221279840929757 0 0.030466460661342256 0.0056892994743691335 0 0.030466460661342256 0.0056892994743691335 0 0.03037960285450067 0.0056981985706926318 0 0.030373659945275629 0.0056667534605247295 0 0.030650685601648953 0.0057335259971575021 0 0.030466460661342256 0.0056892994743691335 0 0.03037960285450067 0.0056981985706926318 0 0.03037960285450067 0.0056981985706926318 0 0.030291321816269094 0.0056299700928317481 0 0.030187437075183409 0.0055289143971317149 0 0.03037960285450067 0.0056981985706926318 0 0.030291321816269094 0.0056299700928317481 0 0.030373659945275629 0.0056667534605247295 0 0.030389491340332662 0.0056394579821409368 0 0.030466460661342256 0.0056892994743691335 0 0.030373659945275629 0.0056667534605247295 0 0.030291321816269094 0.0056299700928317481 0 0.030373659945275629 0.0056667534605247295 0 0.030292718339261171 0.0056183503285968063 0 0.030389491340332662 0.0056394579821409368 0 0.030373659945275629 0.0056667534605247295 0 0.030292718339261171 0.0056183503285968063 0 0.030291321816269094 0.0056299700928317481 0 0.030292718339261171 0.0056183503285968063 0 0.030186610500488827 0.0055820493251852272 0 0.030186610500488827 0.0055820493251852272 0 0.030055905357654608 0.0055304462841631093 0 0.030187437075183409 0.0055289143971317149 0 0.030291321816269094 0.0056299700928317481 0 0.030186610500488827 0.0055820493251852272 0 0.030187437075183409 0.0055289143971317149 0 0.030186610500488827 0.0055820493251852272 0 0.030023170563707013 0.0054143214167295776 0 0.029959667400863671 0.0054526642628359712 0 0.030260133213780318 0.0055532376533407703 0 0.030186610500488827 0.0055820493251852272 0 0.030023170563707013 0.0054143214167295776 0 0.030260133213780318 0.0055532376533407703 0 0.030292718339261171 0.0056183503285968063 0 0.030186610500488827 0.0055820493251852272 0 0.030284972540862896 0.0054486732809170112 0 0.030260133213780318 0.0055532376533407703 0 0.030023170563707013 0.0054143214167295776 0 0.030023170563707013 0.0054143214167295776 0 0.029705453496485054 0.005279079266654471 0 0.029959667400863671 0.0054526642628359712 0 0.029765852373110128 0.0051927198124011387 0 0.030023170563707013 0.0054143214167295776 0 0.029705453496485054 0.005279079266654471 0 0.029705453496485054 0.005279079266654471 0 0.029959667400863671 0.0054526642628359712 0 0.029764656391425195 0.0054005972033009161 0 0.030186610500488827 0.0055820493251852272 0 0.029959667400863671 0.0054526642628359712 0 0.030055905357654608 0.0055304462841631093 0 0.029959667400863671 0.0054526642628359712 0 0.030055905357654608 0.0055304462841631093 0 0.029764656391425195 0.0054005972033009161 0 0.030055905357654608 0.0055304462841631093 0 0.029764656391425195 0.0054005972033009161 0 0.029836076950377783 0.0053648656037382208 0 0.0298398054552622 0.0054164757849660666 0 0.030092871136555146 0.0051311458774783488 0 0.029836076950377783 0.0053648656037382208 0 0.0298398054552622 0.0054164757849660666 0 0.029764656391425195 0.0054005972033009161 0 0.029836076950377783 0.0053648656037382208 0 0.029602362184225083 0.0053370664650673827 0 0.0298398054552622 0.0054164757849660666 0 0.029764656391425195 0.0054005972033009161 0 0.029602362184225083 0.0053370664650673827 0 0.029764656391425195 0.0054005972033009161 0 0.029579536895015513 0.0052691826790769716 0 0.029705453496485054 0.005279079266654471 0 0.029764656391425195 0.0054005972033009161 0 0.029579536895015513 0.0052691826790769716 0 0.029416290791843269 0.0050792077991092342 0 0.029705453496485054 0.005279079266654471 0 0.029579536895015513 0.0052691826790769716 0 0.029393129243808862 0.0051309930169779307 0 0.029416290791843269 0.0050792077991092342 0 0.029579536895015513 0.0052691826790769716 0 0.029393129243808862 0.0051309930169779307 0 0.029602362184225083 0.0053370664650673827 0 0.029579536895015513 0.0052691826790769716 0 0.031467820534817198 0.004843001116299683 0 0.030848736597262262 0.0048411581724827546 0 0.03080016627134605 0.0053510268736050902 0 0.030848736597262262 0.0048411581724827546 0 0.03080016627134605 0.0053510268736050902 0 0.030361528501775842 0.0052529808920937582 0 0.030824906612961153 0.0046545183098392444 0 0.030349885821943135 0.0051514733577431296 0 0.030055905357654608 0.0055304462841631093 0 0.029836076950377783 0.0053648656037382208 0 0.029763218322852048 0.0050598216852366477 0 0.030095988770018296 0.0054653323873235472 0 0.030349885821943135 0.0051514733577431296 0 0.030092871136555146 0.0051311458774783488 0 0.029836076950377783 0.0053648656037382208 0 0.029763218322852048 0.0050598216852366477 0 0.030055905357654608 0.0055304462841631093 0 0.03080016627134605 0.0053510268736050902 0 0.030361528501775842 0.0052529808920937582 0 0.030055905357654608 0.0055304462841631093 0 0.030361528501775842 0.0052529808920937582 0 0.030187437075183409 0.0055289143971317149 0 0.030848736597262262 0.0048411581724827546 0 0.030361528501775842 0.0052529808920937582 0 0.030448127876426555 0.0044031195717049772 0 0.030361528501775842 0.0052529808920937582 0 0.030102267992887094 0.0052532301279724046 0 0.030448127876426555 0.0044031195717049772 0 0.038281287550799153 0.0026595103463377396 0 0.038421681642673573 0.0021732604736469582 0 0.030361528501775842 0.0052529808920937582 0 0.030102267992887094 0.0052532301279724046 0 0.030187437075183409 0.0055289143971317149 0 0.044734094852224876 0.00065037259646873375 0 0.046354953325127762 0.00019284647503187399 0 0.045468137423880207 0.00032589597138370029 0 0.03037960285450067 0.0056981985706926318 0 0.030102267992887094 0.0052532301279724046 0 0.030187437075183409 0.0055289143971317149 0 0.044734094852224876 0.00065037259646873375 0 0.044446851636186328 0.00080905561634913095 0 0.046354953325127762 0.00019284647503187399 0 0.037385143447715749 0.0031671481504512247 0 0.038281287550799153 0.0026595103463377396 0 0.046354953325127762 0.00019284647503187399 0 0.045468137423880207 0.00032589597138370029 0 0.046216728003542443 -3.5856912924284742e-05 0 0.046354953325127762 0.00019284647503187399 0 0.046216728003542443 -3.5856912924284742e-05 0 0.046630344143730504 -0.0002554483162821659 0 0.046216728003542443 -3.5856912924284742e-05 0 0.046630344143730504 -0.0002554483162821659 0 0.046483719006732413 -0.00023608375540079332 0 0.046630344143730504 -0.0002554483162821659 0 0.046888012593852356 -0.00045727123953284341 0 0.046800318798293633 -0.00043584392213110714 0 0.046630344143730504 -0.0002554483162821659 0 0.046483719006732413 -0.00023608375540079332 0 0.046800318798293633 -0.00043584392213110714 0 0.046630344143730504 -0.0002554483162821659 0 0.046806091874045982 -0.00015540607676243202 0 0.046839376300512429 -0.00035768247750054513 0 0.046630344143730504 -0.0002554483162821659 0 0.046839376300512429 -0.00035768247750054513 0 0.046888012593852356 -0.00045727123953284341 0 0.046354953325127762 0.00019284647503187399 0 0.046630344143730504 -0.0002554483162821659 0 0.046806091874045982 -0.00015540607676243202 0 0.046806091874045982 -0.00015540607676243202 0 0.046839376300512429 -0.00035768247750054513 0 0.046911112572009236 -0.00036051299932353756 0 0.038421681642673573 0.0021732604736469582 0 0.040234228220380773 0.001591493356015339 0 0.031577268846074244 0.003865363086494072 0 0.03123833829214712 0.0042765850628487621 0 0.03115876926733236 0.003491532141342458 0 0.030448127876426555 0.0044031195717049772 0 0.03123833829214712 0.0042765850628487621 0 0.03115876926733236 0.003491532141342458 0 0.031467820534817198 0.004843001116299683 0 0.030848736597262262 0.0048411581724827546 0 0.03123833829214712 0.0042765850628487621 0 0.030848736597262262 0.0048411581724827546 0 0.030448127876426555 0.0044031195717049772 0 0.03123833829214712 0.0042765850628487621 0 0.045393638604171664 0.00073698996146043152 0 0.044641592800796701 0.00087427207056379921 0 0.045525391524472214 0.00011090588047719843 0 0.045393638604171664 0.00073698996146043152 0 0.046064767941250563 0.00035063911119638275 0 0.045525391524472214 0.00011090588047719843 0 0.042978235163982435 0.00072774768989781753 0 0.044641592800796701 0.00087427207056379921 0 0.044483728440836964 2.4641402468037508e-05 0 0.044641592800796701 0.00087427207056379921 0 0.045525391524472214 0.00011090588047719843 0 0.044483728440836964 2.4641402468037508e-05 0 0.04377544488622729 0.0016967738841133784 0 0.044696816364101839 0.0018395473868068866 0 0.044641592800796701 0.00087427207056379921 0 0.044696816364101839 0.0018395473868068866 0 0.044641592800796701 0.00087427207056379921 0 0.045275398459836545 0.0013838987426550424 0 0.045393638604171664 0.00073698996146043152 0 0.044641592800796701 0.00087427207056379921 0 0.045275398459836545 0.0013838987426550424 0 0.045393638604171664 0.00073698996146043152 0 0.045275398459836545 0.0013838987426550424 0 0.0457763408709271 0.0010170905047715722 0 0.045702195657784786 0.0016201135508687172 0 0.045275398459836545 0.0013838987426550424 0 0.0457763408709271 0.0010170905047715722 0 0.0457763408709271 0.0010170905047715722 0 0.04635148920962303 0.0010958466653857336 0 0.046064767941250563 0.00035063911119638275 0 0.045702195657784786 0.0016201135508687172 0 0.0457763408709271 0.0010170905047715722 0 0.04635148920962303 0.0010958466653857336 0 0.044734094852224876 0.00065037259646873375 0 0.045468137423880207 0.00032589597138370029 0 0.044635732096867387 0.00049654194318432695 0 0.046216728003542443 -3.5856912924284742e-05 0 0.04635148920962303 0.0010958466653857336 0 0.046064767941250563 0.00035063911119638275 0 0.045853437710992387 0.00020356657173061822 0 0.046275161567055682 0.00061696014994478722 0 0.045468137423880207 0.00032589597138370029 0 0.046216728003542443 -3.5856912924284742e-05 0 0.044635732096867387 0.00049654194318432695 0 0.045393638604171664 0.00073698996146043152 0 0.0457763408709271 0.0010170905047715722 0 0.046064767941250563 0.00035063911119638275 0 0.046064767941250563 0.00035063911119638275 0 0.046242794219137191 -9.6706311396758726e-05 0 0.045525391524472214 0.00011090588047719843 0 0.046242794219137191 -9.6706311396758726e-05 0 0.046002862196279429 -0.00036525547788553782 0 0.045525391524472214 0.00011090588047719843 0 0.046216728003542443 -3.5856912924284742e-05 0 0.046242794219137191 -9.6706311396758726e-05 0 0.046483719006732413 -0.00023608375540079332 0 0.046216728003542443 -3.5856912924284742e-05 0 0.046064767941250563 0.00035063911119638275 0 0.046242794219137191 -9.6706311396758726e-05 0 0.046242794219137191 -9.6706311396758726e-05 0 0.046483719006732413 -0.00023608375540079332 0 0.04657995230105838 -0.00041661856265538978 0 0.046483719006732413 -0.00023608375540079332 0 0.04657995230105838 -0.00041661856265538978 0 0.046800318798293633 -0.00043584392213110714 0 0.04657995230105838 -0.00041661856265538978 0 0.046002862196279429 -0.00036525547788553782 0 0.046412270771335008 -0.00056421522160017611 0 0.046242794219137191 -9.6706311396758726e-05 0 0.04657995230105838 -0.00041661856265538978 0 0.046002862196279429 -0.00036525547788553782 0 0.046002862196279429 -0.00036525547788553782 0 0.045348669894146924 -0.00043511028119170469 0 0.045865449716369133 -0.00062556410398470215 0 0.046002862196279429 -0.00036525547788553782 0 0.045525391524472214 0.00011090588047719843 0 0.045348669894146924 -0.00043511028119170469 0 0.045525391524472214 0.00011090588047719843 0 0.044483728440836964 2.4641402468037508e-05 0 0.045348669894146924 -0.00043511028119170469 0 0.044483728440836964 2.4641402468037508e-05 0 0.044826118742633543 -0.00053381742864981509 0 0.045348669894146924 -0.00043511028119170469 0 0.045348669894146924 -0.00043511028119170469 0 0.045220899890142788 -0.00071033237838729767 0 0.045865449716369133 -0.00062556410398470215 0 0.044826118742633543 -0.00053381742864981509 0 0.045348669894146924 -0.00043511028119170469 0 0.045220899890142788 -0.00071033237838729767 0 0.045220899890142788 -0.00071033237838729767 0 0.045781423250489381 -0.0007900698119700394 0 0.045068156127629828 -0.00077841432005459259 0 0.045220899890142788 -0.00071033237838729767 0 0.045781423250489381 -0.0007900698119700394 0 0.045865449716369133 -0.00062556410398470215 0 0.045781423250489381 -0.0007900698119700394 0 0.046496080966468033 -0.00099369796415404608 0 0.045553678855839982 -0.00093239106558809124 0 0.045781423250489381 -0.0007900698119700394 0 0.0463817902958178 -0.00075155218397338617 0 0.046496080966468033 -0.00099369796415404608 0 0.0463817902958178 -0.00075155218397338617 0 0.046496080966468033 -0.00099369796415404608 0 0.046894746081243034 -0.0008632766706841798 0 0.0463817902958178 -0.00075155218397338617 0 0.046819857095137536 -0.00069521341535348346 0 0.046894746081243034 -0.0008632766706841798 0 0.045781423250489381 -0.0007900698119700394 0 0.0463817902958178 -0.00075155218397338617 0 0.045865449716369133 -0.00062556410398470215 0 0.046002862196279429 -0.00036525547788553782 0 0.045865449716369133 -0.00062556410398470215 0 0.046412270771335008 -0.00056421522160017611 0 0.0463817902958178 -0.00075155218397338617 0 0.045865449716369133 -0.00062556410398470215 0 0.046412270771335008 -0.00056421522160017611 0 0.04657995230105838 -0.00041661856265538978 0 0.046412270771335008 -0.00056421522160017611 0 0.047034652639569151 -0.00059301891658831388 0 0.04657995230105838 -0.00041661856265538978 0 0.047034652639569151 -0.00059301891658831388 0 0.046800318798293633 -0.00043584392213110714 0 0.047034652639569151 -0.00059301891658831388 0 0.046819857095137536 -0.00069521341535348346 0 0.047466486101240858 -0.00075277792078833896 0 0.046412270771335008 -0.00056421522160017611 0 0.047034652639569151 -0.00059301891658831388 0 0.046819857095137536 -0.00069521341535348346 0 0.0463817902958178 -0.00075155218397338617 0 0.046412270771335008 -0.00056421522160017611 0 0.046819857095137536 -0.00069521341535348346 0 0.046819857095137536 -0.00069521341535348346 0 0.047466486101240858 -0.00075277792078833896 0 0.046894746081243034 -0.0008632766706841798 0 0.047466486101240858 -0.00075277792078833896 0 0.047308830228395791 -0.0010716953711724822 0 0.046894746081243034 -0.0008632766706841798 0 0.047034652639569151 -0.00059301891658831388 0 0.047466486101240858 -0.00075277792078833896 0 0.047659181429879217 -0.00052049551888767539 0 0.047466486101240858 -0.00075277792078833896 0 0.04785444865920864 -0.00095545548114651176 0 0.04819396410818394 -0.00077148801399214899 0 0.047466486101240858 -0.00075277792078833896 0 0.047659181429879217 -0.00052049551888767539 0 0.04819396410818394 -0.00077148801399214899 0 0.047466486101240858 -0.00075277792078833896 0 0.04785444865920864 -0.00095545548114651176 0 0.047308830228395791 -0.0010716953711724822 0 0.047308830228395791 -0.0010716953711724822 0 0.047471640835395089 -0.0012325610197460287 0 0.046496080966468033 -0.00099369796415404608 0 0.047358830856227156 -0.0012348603560641234 0 0.046971946619740336 -0.0012457332679544485 0 0.047471640835395089 -0.0012325610197460287 0 0.048208062696261121 -0.001013653489451501 0 0.048190619171678981 -0.0014286218720361628 0 0.046496080966468033 -0.00099369796415404608 0 0.04587774795259765 -0.0012429123616858008 0 0.045553678855839982 -0.00093239106558809124 0 0.047471640835395089 -0.0012325610197460287 0 0.046496080966468033 -0.00099369796415404608 0 0.04587774795259765 -0.0012429123616858008 0 0.047308830228395791 -0.0010716953711724822 0 0.046496080966468033 -0.00099369796415404608 0 0.046894746081243034 -0.0008632766706841798 0 0.047957107520181147 -5.6594013492544153e-05 0 0.047806540804817478 -0.0002391117378628005 0 0.048119249991113763 -0.00030202911180317961 0 0.047762515923394859 1.9601519532606302e-05 0 0.047957107520181147 -5.6594013492544153e-05 0 0.047806540804817478 -0.0002391117378628005 0 0.047806540804817478 -0.0002391117378628005 0 0.047771794304069436 -0.00055950325416425598 0 0.048119249991113763 -0.00030202911180317961 0 0.040234228220380773 0.001591493356015339 0 0.04838495191442449 -0.00011209203605792452 0 0.046839376300512429 -0.00035768247750054513 0 0.046883637299790691 -0.00043327975562444063 0 0.046888012593852356 -0.00045727123953284341 0 0.046839376300512429 -0.00035768247750054513 0 0.046911112572009236 -0.00036051299932353756 0 0.046883637299790691 -0.00043327975562444063 0 0.04838495191442449 -0.00011209203605792452 0 0.047450358898427275 -0.00041629362339855915 0 0.048119249991113763 -0.00030202911180317961 0 0.048158412924017797 -0.0001323652005325533 0 0.048211487518018348 -8.3206144944264235e-05 0 0.047957107520181147 -5.6594013492544153e-05 0 0.048119249991113763 -0.00030202911180317961 0 0.048158412924017797 -0.0001323652005325533 0 0.047957107520181147 -5.6594013492544153e-05 0 0.048158412924017797 -0.0001323652005325533 0 0.048034980070377056 4.1057224596904351e-05 0 0.046883637299790691 -0.00043327975562444063 0 0.047003428710930342 -0.00047051375137317883 0 0.046888012593852356 -0.00045727123953284341 0 0.047003428710930342 -0.00047051375137317883 0 0.046888012593852356 -0.00045727123953284341 0 0.047103136749827253 -0.00053446161012606563 0 0.048158412924017797 -0.0001323652005325533 0 0.048211487518018348 -8.3206144944264235e-05 0 0.048272814480050018 -0.00016146606630328681 0 0.046888012593852356 -0.00045727123953284341 0 0.046800318798293633 -0.00043584392213110714 0 0.047103136749827253 -0.00053446161012606563 0 0.047034652639569151 -0.00059301891658831388 0 0.046800318798293633 -0.00043584392213110714 0 0.047103136749827253 -0.00053446161012606563 0 0.047034652639569151 -0.00059301891658831388 0 0.047103136749827253 -0.00053446161012606563 0 0.047659181429879217 -0.00052049551888767539 0 0.047003428710930342 -0.00047051375137317883 0 0.047103136749827253 -0.00053446161012606563 0 0.047659181429879217 -0.00052049551888767539 0 0.047659181429879217 -0.00052049551888767539 0 0.04819396410818394 -0.00077148801399214899 0 0.048254745607457482 -0.00066766053691363263 0 0.048254745607457482 -0.00066766053691363263 0 0.048308993012677916 -0.00055748440685627482 0 0.048430824662239483 -0.00064864744850219418 0 0.048254745607457482 -0.00066766053691363263 0 0.048308993012677916 -0.00055748440685627482 0 0.048120970491273493 -0.00042500288085732703 0 0.048308993012677916 -0.00055748440685627482 0 0.048120970491273493 -0.00042500288085732703 0 0.048272814480050018 -0.00016146606630328681 0 0.047450358898427275 -0.00041629362339855915 0 0.047664036793865987 -0.00044210533351352586 0 0.047659181429879217 -0.00052049551888767539 0 0.048254745607457482 -0.00066766053691363263 0 0.048120970491273493 -0.00042500288085732703 0 0.048211487518018348 -8.3206144944264235e-05 0 0.047659181429879217 -0.00052049551888767539 0 0.048120970491273493 -0.00042500288085732703 0 0.048211487518018348 -8.3206144944264235e-05 0 0.048120970491273493 -0.00042500288085732703 0 0.048272814480050018 -0.00016146606630328681 0 0.048259912317919818 -0.00014916377999783719 0 0.048232884119097055 -0.00014160194406877104 0 0.048272814480050018 -0.00016146606630328681 0 0.048034980070377056 4.1057224596904351e-05 0 0.0479890886034628 0.00033428631974650135 0 0.048308993012677916 -0.00055748440685627482 0 0.048272814480050018 -0.00016146606630328681 0 0.048474282768910477 -0.0006006036912480395 0 0.048158412924017797 -0.0001323652005325533 0 0.048272814480050018 -0.00016146606630328681 0 0.048034980070377056 4.1057224596904351e-05 0 0.048308993012677916 -0.00055748440685627482 0 0.048474282768910477 -0.0006006036912480395 0 0.048430824662239483 -0.00064864744850219418 0 0.047811205546503477 0.00039131818457375242 0 0.047818100066157526 0.0002882674769672034 0 0.047823954800003753 0.00039020242008242179 0 0.048232884119097055 -0.00014160194406877104 0 0.048049817164955537 -9.3343605112789714e-05 0 0.0479890886034628 0.00033428631974650135 0 0.047818100066157526 0.0002882674769672034 0 0.047823954800003753 0.00039020242008242179 0 0.047957107520181147 -5.6594013492544153e-05 0 0.048034980070377056 4.1057224596904351e-05 0 0.047818100066157526 0.0002882674769672034 0 0.047762515923394859 1.9601519532606302e-05 0 0.047957107520181147 -5.6594013492544153e-05 0 0.047818100066157526 0.0002882674769672034 0 0.048034980070377056 4.1057224596904351e-05 0 0.0479890886034628 0.00033428631974650135 0 0.047818100066157526 0.0002882674769672034 0 0.048384980158365523 -0.00056743952051784171 0 0.04840399168046839 -0.00060502347585791286 0 0.048410474995092344 -0.0005729132275522265 0 0.04934664978631375 -0.00010260441545914295 0 0.049019622837542312 -0.00023179923739072387 0 0.049194176960333694 -0.00021709973714704287 0 0.048830932600464491 -7.8805000020219668e-05 0 0.048745481461880909 -0.00045233147091634334 0 0.049019622837542312 -0.00023179923739072387 0 0.049020604383196706 -0.00029362777422977835 0 0.049194176960333694 -0.00021709973714704287 0 0.048430824662239483 -0.00064864744850219418 0 0.048410474995092344 -0.0005729132275522265 0 0.048613783198036963 -0.00058041999903240204 0 0.04840399168046839 -0.00060502347585791286 0 0.048430824662239483 -0.00064864744850219418 0 0.048410474995092344 -0.0005729132275522265 0 0.048474282768910477 -0.0006006036912480395 0 0.04840399168046839 -0.00060502347585791286 0 0.048430824662239483 -0.00064864744850219418 0 0.049019622837542312 -0.00023179923739072387 0 0.048870701487243394 -0.00042701237523428396 0 0.048613783198036963 -0.00058041999903240204 0 0.048745481461880909 -0.00045233147091634334 0 0.048642107261810723 -0.00054090933282126036 0 0.049019622837542312 -0.00023179923739072387 0 0.048870701487243394 -0.00042701237523428396 0 0.049020604383196706 -0.00029362777422977835 0 0.048905928756730679 -0.00039335480719831308 0 0.048961222569934744 -0.00033618312133517605 0 0.048870701487243394 -0.00042701237523428396 0 0.04889164133595357 -0.00048528450867712548 0 0.048964823746585048 -0.00041265407287664741 0 0.048870701487243394 -0.00042701237523428396 0 0.04889164133595357 -0.00048528450867712548 0 0.048613783198036963 -0.00058041999903240204 0 0.048254745607457482 -0.00066766053691363263 0 0.048430824662239483 -0.00064864744850219418 0 0.048613783198036963 -0.00058041999903240204 0 0.04819396410818394 -0.00077148801399214899 0 0.048254745607457482 -0.00066766053691363263 0 0.048613783198036963 -0.00058041999903240204 0 0.04819396410818394 -0.00077148801399214899 0 0.048613783198036963 -0.00058041999903240204 0 0.048682667279590905 -0.00061449088600973941 0 0.04889164133595357 -0.00048528450867712548 0 0.048613783198036963 -0.00058041999903240204 0 0.048682667279590905 -0.00061449088600973941 0 0.04889164133595357 -0.00048528450867712548 0 0.048682667279590905 -0.00061449088600973941 0 0.049152593621423296 -0.00039375565649853948 0 0.049997397307159519 -5.2173833417348521e-09 0 0.049230114669527446 -0.00036248277548321759 0 0.049152593621423296 -0.00039375565649853948 0 0.04889164133595357 -0.00048528450867712548 0 0.049230114669527446 -0.00036248277548321759 0 0.049152593621423296 -0.00039375565649853948 0 0.050000000064602992 5.8604149319066051e-10 0 0.049998442233450374 -1.0480864189774648e-06 0 0.049999994224387639 -1.9084564573441995e-09 0 0.049997397307159519 -5.2173833417348521e-09 0 0.049230114669527446 -0.00036248277548321759 0 0.048931618409452676 -0.00025994821125615902 0 0.049999807228585234 -3.7245210974456555e-08 0 0.049500957909104693 -0.00013227831724458035 0 0.049230114669527446 -0.00036248277548321759 0 0.048964823746585048 -0.00041265407287664741 0 0.048931618409452676 -0.00025994821125615902 0 0.04889164133595357 -0.00048528450867712548 0 0.049230114669527446 -0.00036248277548321759 0 0.048964823746585048 -0.00041265407287664741 0 0.048964823746585048 -0.00041265407287664741 0 0.048994214376350743 -0.00040968316883216693 0 0.048931618409452676 -0.00025994821125615902 0 0.048994214376350743 -0.00040968316883216693 0 0.048931618409452676 -0.00025994821125615902 0 0.049064670998364084 -0.00044849554688448858 0 0.048870701487243394 -0.00042701237523428396 0 0.048964823746585048 -0.00041265407287664741 0 0.048994214376350743 -0.00040968316883216693 0 0.049998442233450374 -1.0480864189774648e-06 0 0.049999994224387639 -1.9084564573441995e-09 0 0.049998731287702894 -6.4974326887348615e-07 0 0.049500957909104693 -0.00013227831724458035 0 0.049459571389470498 -0.00025814874438226756 0 0.049999994354740895 -1.4166737068544948e-09 0 0.049998731287702894 -6.4974326887348615e-07 0 0.049996059569094579 -2.0472859870999659e-06 0 0.049999994354740895 -1.4166737068544948e-09 0 0.049999994224387639 -1.9084564573441995e-09 0 0.049998731287702894 -6.4974326887348615e-07 0 0.049998442233450374 -1.0480864189774648e-06 0 0.049998731287702894 -6.4974326887348615e-07 0 0.049996059569094579 -2.0472859870999659e-06 0 0.049261589627281124 -0.00026169018224990546 0 0.049205136950940725 -0.00027590257600949776 0 0.049194176960333694 -0.00021709973714704287 0 0.049416080110729156 -0.0002702172861392719 0 0.049459571389470498 -0.00025814874438226756 0 0.049020604383196706 -0.00029362777422977835 0 0.049205136950940725 -0.00027590257600949776 0 0.049194176960333694 -0.00021709973714704287 0 0.048961222569934744 -0.00033618312133517605 0 0.049459571389470498 -0.00025814874438226756 0 0.048366944827453566 -0.00074094513130529976 0 0.047691331533657136 -0.0010293640219239625 0 0.048367192983303137 -0.00048489810745406582 0 0.04843222389990872 -0.00077067015042093004 0 0.049098757279608787 -0.00040260574686073856 0 0.047471640835395089 -0.0012325610197460287 0 0.048366944827453566 -0.00074094513130529976 0 0.048208062696261121 -0.001013653489451501 0 0.047471640835395089 -0.0012325610197460287 0 0.048366944827453566 -0.00074094513130529976 0 0.047691331533657136 -0.0010293640219239625 0 0.047308830228395791 -0.0010716953711724822 0 0.047471640835395089 -0.0012325610197460287 0 0.047691331533657136 -0.0010293640219239625 0 0.047979850551335107 -0.00091411709263817165 0 0.04843222389990872 -0.00077067015042093004 0 0.04785444865920864 -0.00095545548114651176 0 0.047308830228395791 -0.0010716953711724822 0 0.047691331533657136 -0.0010293640219239625 0 0.04785444865920864 -0.00095545548114651176 0 0.04852261923781151 -0.00075059732035977981 0 0.049170261666965115 -0.00061383722878680699 0 0.04819396410818394 -0.00077148801399214899 0 0.048682667279590905 -0.00061449088600973941 0 0.04852261923781151 -0.00075059732035977981 0 0.04785444865920864 -0.00095545548114651176 0 0.04819396410818394 -0.00077148801399214899 0 0.04852261923781151 -0.00075059732035977981 0 0.04852261923781151 -0.00075059732035977981 0 0.049170261666965115 -0.00061383722878680699 0 0.049152593621423296 -0.00039375565649853948 0 0.048682667279590905 -0.00061449088600973941 0 0.04852261923781151 -0.00075059732035977981 0 0.049152593621423296 -0.00039375565649853948 0 0.049170261666965115 -0.00061383722878680699 0 0.049605194769377262 -0.00019108718490535659 0 0.049152593621423296 -0.00039375565649853948 0 0.049170261666965115 -0.00061383722878680699 0 0.049605194769377262 -0.00019108718490535659 0 0.04981750574667599 -0.00019813086292351655 0 0.049997397307159519 -5.2173833417348521e-09 0 0.049605194769377262 -0.00019108718490535659 0 0.049152593621423296 -0.00039375565649853948 0 0.049997397307159519 -5.2173833417348521e-09 0 0.049605194769377262 -0.00019108718490535659 0 0.049999867807830577 -8.104161351686156e-08 0 0.049605194769377262 -0.00019108718490535659 0 0.049999867807830577 -8.104161351686156e-08 0 0.04981750574667599 -0.00019813086292351655 0 0.049999867807830577 -8.104161351686156e-08 0 0.04981750574667599 -0.00019813086292351655 0 0.049999988882859822 -8.1304345413534778e-08 0 0.048367192983303137 -0.00048489810745406582 0 0.049068885726179935 -0.00035315326252195018 0 0.049999153110859007 3.2886510767598157e-07 0 0.049098757279608787 -0.00040260574686073856 0 0.049999582688405514 -2.1832073918916762e-07 0 0.048366944827453566 -0.00074094513130529976 0 0.049068885726179935 -0.00035315326252195018 0 0.048644131220054565 -0.0005363241025130276 0 0.048366944827453566 -0.00074094513130529976 0 0.048367192983303137 -0.00048489810745406582 0 0.049068885726179935 -0.00035315326252195018 0 0.049068885726179935 -0.00035315326252195018 0 0.049998992278145894 -5.7451991928693126e-07 0 0.048644131220054565 -0.0005363241025130276 0 0.049068885726179935 -0.00035315326252195018 0 0.049998992278145894 -5.7451991928693126e-07 0 0.049999153110859007 3.2886510767598157e-07 0 0.049999604572964505 4.6887653190169036e-08 0 0.049327977469251022 -0.00019317420665583402 0 0.050000005000283898 -7.2592717102647915e-09 0 0.05000003006137347 2.4781082711837428e-08 0 0.050015096653337365 1.975882790745494e-05 0 0.05000003006137347 2.4781082711837428e-08 0 0.050020533685671914 2.5424922851214232e-05 0 0.050015096653337365 1.975882790745494e-05 0 0.05000003006137347 2.4781082711837428e-08 0 0.050020533685671914 2.5424922851214232e-05 0 0.050000040952930945 2.2127156442422031e-08 0 0.050020533685671914 2.5424922851214232e-05 0 0.050015096653337365 1.975882790745494e-05 0 0.050048976300728666 6.36490644400313e-05 0 0.050000040952930945 2.2127156442422031e-08 0 0.05003354931452339 4.7005925159753157e-05 0 0.050000029786103781 2.6600549737621866e-08 0 0.050020533685671914 2.5424922851214232e-05 0 0.050000040952930945 2.2127156442422031e-08 0 0.05003354931452339 4.7005925159753157e-05 0 0.050020533685671914 2.5424922851214232e-05 0 0.05003354931452339 4.7005925159753157e-05 0 0.050048976300728666 6.36490644400313e-05 0 0.05003354931452339 4.7005925159753157e-05 0 0.050056469442144383 8.8528375248294057e-05 0 0.050050346163531989 0.00010806514296999708 0 0.05003354931452339 4.7005925159753157e-05 0 0.050056469442144383 8.8528375248294057e-05 0 0.050048976300728666 6.36490644400313e-05 0 0.050056469442144383 8.8528375248294057e-05 0 0.050048976300728666 6.36490644400313e-05 0 0.050084846065582153 0.00013891272472387403 0 0.048539228867685053 -0.00085901398849101153 0 0.048602508855359758 -0.0011554150489241238 0 0.048491823891737583 -0.0012401634226920069 0 0.049288335661084752 -0.00041971532582631263 0 0.049387910458391408 -0.00034858168192790411 0 0.050056469442144383 8.8528375248294057e-05 0 0.050084846065582153 0.00013891272472387403 0 0.050050346163531989 0.00010806514296999708 0 0.049387910458391408 -0.00034858168192790411 0 0.050176034450733424 0.00026139969237100411 0 0.050026120478854803 0.00020924833281378414 0 0.050009885032598449 0.00025164968574663683 0 0.049996126706732306 0.00017300895024577361 0 0.048366944827453566 -0.00074094513130529976 0 0.048539228867685053 -0.00085901398849101153 0 0.048208062696261121 -0.001013653489451501 0 0.048366944827453566 -0.00074094513130529976 0 0.048644131220054565 -0.0005363241025130276 0 0.048539228867685053 -0.00085901398849101153 0 0.049327977469251022 -0.00019317420665583402 0 0.049288335661084752 -0.00041971532582631263 0 0.048539228867685053 -0.00085901398849101153 0 0.048377078074517424 -0.0011550385088927419 0 0.048491823891737583 -0.0012401634226920069 0 0.048539228867685053 -0.00085901398849101153 0 0.048208062696261121 -0.001013653489451501 0 0.048377078074517424 -0.0011550385088927419 0 0.048208062696261121 -0.001013653489451501 0 0.048190619171678981 -0.0014286218720361628 0 0.048377078074517424 -0.0011550385088927419 0 0.04587774795259765 -0.0012429123616858008 0 0.045553678855839982 -0.00093239106558809124 0 0.045039126588540306 -0.00093539151850664348 0 0.046971946619740336 -0.0012457332679544485 0 0.046982950095101797 -0.0011646510486541931 0 0.048190619171678981 -0.0014286218720361628 0 0.04841162417383716 -0.0013030698860298801 0 0.04836848074402901 -0.0013353241083215656 0 0.04841162417383716 -0.0013030698860298801 0 0.048387959466547871 -0.0012797274295380336 0 0.04836848074402901 -0.0013353241083215656 0 0.04841162417383716 -0.0013030698860298801 0 0.048377078074517424 -0.0011550385088927419 0 0.048491823891737583 -0.0012401634226920069 0 0.048190619171678981 -0.0014286218720361628 0 0.04841162417383716 -0.0013030698860298801 0 0.048377078074517424 -0.0011550385088927419 0 0.04841162417383716 -0.0013030698860298801 0 0.048491823891737583 -0.0012401634226920069 0 0.048422526514255944 -0.0012613397182836411 0 0.048444350488608616 -0.0012785709191750867 0 0.048491823891737583 -0.0012401634226920069 0 0.048422526514255944 -0.0012613397182836411 0 0.049387910458391408 -0.00034858168192790411 0 0.048361242926905815 -0.0012979650363219796 0 0.049387910458391408 -0.00034858168192790411 0 0.049475159219107834 -0.00061111242924728184 0 0.050026120478854803 0.00020924833281378414 0 0.050032342803704007 0.00032687769400982134 0 0.050009885032598449 0.00025164968574663683 0 0.048444350488608616 -0.0012785709191750867 0 0.048422526514255944 -0.0012613397182836411 0 0.048332427261617468 -0.0012686683275738928 0 0.048364420315700166 -0.0012553253710669823 0 0.048422526514255944 -0.0012613397182836411 0 0.048332427261617468 -0.0012686683275738928 0 0.04841162417383716 -0.0013030698860298801 0 0.048422526514255944 -0.0012613397182836411 0 0.048387959466547871 -0.0012797274295380336 0 0.048364420315700166 -0.0012553253710669823 0 0.048422526514255944 -0.0012613397182836411 0 0.048387959466547871 -0.0012797274295380336 0 0.048387959466547871 -0.0012797274295380336 0 0.048366490068860936 -0.0012647356882229746 0 0.04836848074402901 -0.0013353241083215656 0 0.048366490068860936 -0.0012647356882229746 0 0.048358525912863409 -0.0012316690249496579 0 0.04836848074402901 -0.0013353241083215656 0 0.048387959466547871 -0.0012797274295380336 0 0.048366490068860936 -0.0012647356882229746 0 0.048358685061321433 -0.0012573250726012268 0 0.048366490068860936 -0.0012647356882229746 0 0.048358685061321433 -0.0012573250726012268 0 0.048339661976576589 -0.0012314693885321915 0 0.048366490068860936 -0.0012647356882229746 0 0.048339661976576589 -0.0012314693885321915 0 0.048353115217037362 -0.0012384486505421339 0 0.048364420315700166 -0.0012553253710669823 0 0.048333105015053987 -0.001244377802054475 0 0.04829917423378887 -0.0012297369732156866 0 0.048364420315700166 -0.0012553253710669823 0 0.048358685061321433 -0.0012573250726012268 0 0.048333105015053987 -0.001244377802054475 0 0.048364420315700166 -0.0012553253710669823 0 0.048387959466547871 -0.0012797274295380336 0 0.048358685061321433 -0.0012573250726012268 0 0.048358685061321433 -0.0012573250726012268 0 0.048333105015053987 -0.001244377802054475 0 0.048339661976576589 -0.0012314693885321915 0 0.048333105015053987 -0.001244377802054475 0 0.048290841081078589 -0.0011938336211895181 0 0.048339661976576589 -0.0012314693885321915 0 0.045726895095423659 -0.0012557581214157451 0 0.044144027912404182 -0.0012501034234359213 0 0.043340775001053614 0.00010529501685488323 0 0.043239876040319397 -0.0011278809165510995 0 0.044221051028357723 -0.00076149710350582195 0 0.048290841081078589 -0.0011938336211895181 0 0.048339661976576589 -0.0012314693885321915 0 0.048352575575052112 -0.0012281796498479342 0 0.048366490068860936 -0.0012647356882229746 0 0.048358525912863409 -0.0012316690249496579 0 0.048353115217037362 -0.0012384486505421339 0 0.048339661976576589 -0.0012314693885321915 0 0.048353115217037362 -0.0012384486505421339 0 0.048352575575052112 -0.0012281796498479342 0 0.048358525912863409 -0.0012316690249496579 0 0.048353115217037362 -0.0012384486505421339 0 0.048352575575052112 -0.0012281796498479342 0 0.044144027912404182 -0.0012501034234359213 0 0.043336132825279226 -0.0017874643071837258 0 0.044627933093399914 -0.00151936249060175 0 0.044144027912404182 -0.0012501034234359213 0 0.039095994733098674 -0.0024612714037429151 0 0.039330328904980186 -0.003097290194778759 0 0.039439938917070191 -0.0030553183448339123 0 0.044820279499847931 -0.00083968798657810652 0 0.04481774791472664 -0.00082463082228521564 0 0.04488496659134808 -0.00078439370449008756 0 0.044359527897162208 -0.0014507934342900544 0 0.043843039400335113 -0.00093882483596391788 0 0.044332717362446865 -0.00075611024561540935 0 0.044627933093399914 -0.00151936249060175 0 0.043336132825279226 -0.0017874643071837258 0 0.04488496659134808 -0.00078439370449008756 0 0.045068156127629828 -0.00077841432005459259 0 0.045039126588540306 -0.00093539151850664348 0 0.043336132825279226 -0.0017874643071837258 0 0.043933784322812947 -0.0012071902559925309 0 0.044820279499847931 -0.00083968798657810652 0 0.04488496659134808 -0.00078439370449008756 0 0.045039126588540306 -0.00093539151850664348 0 0.044436516577384275 -0.00090164642153155975 0 0.045220899890142788 -0.00071033237838729767 0 0.045068156127629828 -0.00077841432005459259 0 0.044436516577384275 -0.00090164642153155975 0 0.04488496659134808 -0.00078439370449008756 0 0.045068156127629828 -0.00077841432005459259 0 0.045781423250489381 -0.0007900698119700394 0 0.045068156127629828 -0.00077841432005459259 0 0.045553678855839982 -0.00093239106558809124 0 0.045068156127629828 -0.00077841432005459259 0 0.045553678855839982 -0.00093239106558809124 0 0.045039126588540306 -0.00093539151850664348 0 0.044627933093399914 -0.00151936249060175 0 0.046982950095101797 -0.0011646510486541931 0 0.045678226095863729 0.0012011882741798099 0 0.04556566454841221 0.0010221067779053281 0 0.045447536858343421 0.0011702932003232179 0 0.04982053597316409 0.00076915049542525672 0 0.049848443320761264 0.00076893130444512551 0 0.049656559569451642 0.00068804098508537775 0 0.047826352582486222 0.0011399034417573521 0 0.04723952734418372 -0.00017663500423965181 0 0.04982053597316409 0.00076915049542525672 0 0.049848443320761264 0.00076893130444512551 0 0.049793964876961271 0.00063355372177910038 0 0.045678226095863729 0.0012011882741798099 0 0.045783035394489469 0.0010281280419702052 0 0.04556566454841221 0.0010221067779053281 0 0.045782363219949829 0.0009060103511645645 0 0.045783035394489469 0.0010281280419702052 0 0.04556566454841221 0.0010221067779053281 0 0.045678226095863729 0.0012011882741798099 0 0.045783035394489469 0.0010281280419702052 0 0.045913710619544856 0.0010952400463724379 0 0.041383604467948677 -0.00064281909531956397 0 0.042356283510730966 -0.00047329713583261205 0 0.042246348776422631 -0.0015042779608877084 0 0.042846973011463632 0.00043790177399651741 0 0.04723952734418372 -0.00017663500423965181 0 0.043340775001053614 0.00010529501685488323 0 0.043239876040319397 -0.0011278809165510995 0 0.042356283510730966 -0.00047329713583261205 0 0.043239876040319397 -0.0011278809165510995 0 0.042356283510730966 -0.00047329713583261205 0 0.042246348776422631 -0.0015042779608877084 0 0.04829917423378887 -0.0012297369732156866 0 0.048248407661042457 -0.0011939617327155563 0 0.048332427261617468 -0.0012686683275738928 0 0.048713043806648759 -0.0014763668786869589 0 0.04723952734418372 -0.00017663500423965181 0 0.048333105015053987 -0.001244377802054475 0 0.04829917423378887 -0.0012297369732156866 0 0.048248407661042457 -0.0011939617327155563 0 0.048333105015053987 -0.001244377802054475 0 0.048290841081078589 -0.0011938336211895181 0 0.048080748430003956 -0.001242165886850836 0 0.045726895095423659 -0.0012557581214157451 0 0.04723952734418372 -0.00017663500423965181 0 0.049932074668916658 0.0004706793602008372 0 0.049977911543405237 0.00043266077791441287 0 0.049963059915472757 0.00041774367625083163 0 0.050406074357482365 0.00080136396277135627 0 0.04723952734418372 -0.00017663500423965181 0 0.049977911543405237 0.00043266077791441287 0 0.049963059915472757 0.00041774367625083163 0 0.049988190771544823 0.00038539185582733853 0 0.049963059915472757 0.00041774367625083163 0 0.049988190771544823 0.00038539185582733853 0 0.049977182144870541 0.00036040427831919786 0 0.049963059915472757 0.00041774367625083163 0 0.049977182144870541 0.00036040427831919786 0 0.049943873431310799 0.00042426561481343086 0 0.049988190771544823 0.00038539185582733853 0 0.049977182144870541 0.00036040427831919786 0 0.050032342803704007 0.00032687769400982134 0 0.048364420315700166 -0.0012553253710669823 0 0.04829917423378887 -0.0012297369732156866 0 0.048332427261617468 -0.0012686683275738928 0 0.04723952734418372 -0.00017663500423965181 0 0.049475159219107834 -0.00061111242924728184 0 0.049977911543405237 0.00043266077791441287 0 0.049988190771544823 0.00038539185582733853 0 0.050032342803704007 0.00032687769400982134 0 0.049977182144870541 0.00036040427831919786 0 0.050032342803704007 0.00032687769400982134 0 0.050009885032598449 0.00025164968574663683 0 0.049977182144870541 0.00036040427831919786 0 0.049935710087000144 0.00036791858049883011 0 0.04997680163703197 0.0002588731244860551 0 0.049977182144870541 0.00036040427831919786 0 0.050009885032598449 0.00025164968574663683 0 0.04997680163703197 0.0002588731244860551 0 0.049935710087000144 0.00036791858049883011 0 0.049912127199987673 0.00025489087223297109 0 0.04997680163703197 0.0002588731244860551 0 0.049977182144870541 0.00036040427831919786 0 0.049935710087000144 0.00036791858049883011 0 0.049943873431310799 0.00042426561481343086 0 0.049935710087000144 0.00036791858049883011 0 0.049943873431310799 0.00042426561481343086 0 0.049903522509438261 0.00046847284350663617 0 0.049932074668916658 0.0004706793602008372 0 0.049943873431310799 0.00042426561481343086 0 0.049903522509438261 0.00046847284350663617 0 0.049932074668916658 0.0004706793602008372 0 0.049963059915472757 0.00041774367625083163 0 0.049943873431310799 0.00042426561481343086 0 0.050406074357482365 0.00080136396277135627 0 0.049569815515523752 0.00054228661202090607 0 0.049932074668916658 0.0004706793602008372 0 0.049903522509438261 0.00046847284350663617 0 0.049793964876961271 0.00063355372177910038 0 0.049903522509438261 0.00046847284350663617 0 0.049848205555618294 0.00041201135463706694 0 0.049793964876961271 0.00063355372177910038 0 0.049935710087000144 0.00036791858049883011 0 0.049848205555618294 0.00041201135463706694 0 0.049912127199987673 0.00025489087223297109 0 0.049935710087000144 0.00036791858049883011 0 0.049903522509438261 0.00046847284350663617 0 0.049848205555618294 0.00041201135463706694 0 0.049848205555618294 0.00041201135463706694 0 0.049912127199987673 0.00025489087223297109 0 0.049770598712513082 0.00024905507996615347 0 0.049912127199987673 0.00025489087223297109 0 0.049928160569076181 9.4670519892255236e-05 0 0.049770598712513082 0.00024905507996615347 0 0.049912127199987673 0.00025489087223297109 0 0.049961525101447399 0.00017346725751629652 0 0.04997680163703197 0.0002588731244860551 0 0.049912127199987673 0.00025489087223297109 0 0.049961525101447399 0.00017346725751629652 0 0.049928160569076181 9.4670519892255236e-05 0 0.049961525101447399 0.00017346725751629652 0 0.049928160569076181 9.4670519892255236e-05 0 0.049971051726236539 9.5187426411397926e-05 0 0.050009885032598449 0.00025164968574663683 0 0.04997680163703197 0.0002588731244860551 0 0.049996126706732306 0.00017300895024577361 0 0.049961525101447399 0.00017346725751629652 0 0.04997680163703197 0.0002588731244860551 0 0.049996126706732306 0.00017300895024577361 0 0.049961525101447399 0.00017346725751629652 0 0.049996126706732306 0.00017300895024577361 0 0.049971051726236539 9.5187426411397926e-05 0 0.050176034450733424 0.00026139969237100411 0 0.049951213077752098 4.2138139167524369e-05 0 0.050050346163531989 0.00010806514296999708 0 0.050021740050447405 4.3619152880202716e-05 0 0.050004798769045164 5.4767490169464201e-05 0 0.05003354931452339 4.7005925159753157e-05 0 0.050050346163531989 0.00010806514296999708 0 0.050021740050447405 4.3619152880202716e-05 0 0.050021740050447405 4.3619152880202716e-05 0 0.050004798769045164 5.4767490169464201e-05 0 0.050006712634796252 2.2753626589452806e-05 0 0.050004798769045164 5.4767490169464201e-05 0 0.050006712634796252 2.2753626589452806e-05 0 0.049999993728930776 1.3619490698969921e-08 0 0.050006712634796252 2.2753626589452806e-05 0 0.050000029786103781 2.6600549737621866e-08 0 0.049999993728930776 1.3619490698969921e-08 0 0.05003354931452339 4.7005925159753157e-05 0 0.050021740050447405 4.3619152880202716e-05 0 0.050000029786103781 2.6600549737621866e-08 0 0.050021740050447405 4.3619152880202716e-05 0 0.050006712634796252 2.2753626589452806e-05 0 0.050000029786103781 2.6600549737621866e-08 0 0.049928160569076181 9.4670519892255236e-05 0 0.049981610421236104 9.1575177661012665e-06 0 0.049922594663821679 2.1209350620918017e-05 0 0.049928160569076181 9.4670519892255236e-05 0 0.049971051726236539 9.5187426411397926e-05 0 0.049981610421236104 9.1575177661012665e-06 0 0.049951213077752098 4.2138139167524369e-05 0 0.049992517512676256 2.7769154244294178e-05 0 0.050004798769045164 5.4767490169464201e-05 0 0.049999993728930776 1.3619490698969921e-08 0 0.049981610421236104 9.1575177661012665e-06 0 0.049999993728930776 1.3619490698969921e-08 0 0.049981610421236104 9.1575177661012665e-06 0 0.049999905953923993 1.017162051947624e-08 0 0.049981610421236104 9.1575177661012665e-06 0 0.049999905953923993 1.017162051947624e-08 0 0.049922594663821679 2.1209350620918017e-05 0 0.049999905953923993 1.017162051947624e-08 0 0.049946376218224953 -2.0152641972427686e-06 0 0.049922594663821679 2.1209350620918017e-05 0 0.049946376218224953 -2.0152641972427686e-06 0 0.049922594663821679 2.1209350620918017e-05 0 0.049880338044689783 -3.1501084235815646e-06 0 0.049999905953923993 1.017162051947624e-08 0 0.049946376218224953 -2.0152641972427686e-06 0 0.049999628077437276 -5.150026700362049e-08 0 0.049928160569076181 9.4670519892255236e-05 0 0.049922594663821679 2.1209350620918017e-05 0 0.049811347850575047 6.7798392864285188e-05 0 0.049922594663821679 2.1209350620918017e-05 0 0.049880338044689783 -3.1501084235815646e-06 0 0.049811347850575047 6.7798392864285188e-05 0 0.049880338044689783 -3.1501084235815646e-06 0 0.049732227254771395 1.6390331499335297e-05 0 0.049811347850575047 6.7798392864285188e-05 0 0.049880338044689783 -3.1501084235815646e-06 0 0.04984232434593016 -2.0149485315015483e-05 0 0.049732227254771395 1.6390331499335297e-05 0 0.049880338044689783 -3.1501084235815646e-06 0 0.049999628077437276 -5.150026700362049e-08 0 0.04984232434593016 -2.0149485315015483e-05 0 0.049946376218224953 -2.0152641972427686e-06 0 0.049880338044689783 -3.1501084235815646e-06 0 0.049999628077437276 -5.150026700362049e-08 0 0.049980672839095637 -6.6221803023795214e-06 0 0.04984232434593016 -2.0149485315015483e-05 0 0.049400914861833581 -2.0311927830087147e-05 0 0.049999628077437276 -5.150026700362049e-08 0 0.049980672839095637 -6.6221803023795214e-06 0 0.04984232434593016 -2.0149485315015483e-05 0 0.049999628077437276 -5.150026700362049e-08 0 0.049980672839095637 -6.6221803023795214e-06 0 0.049999999642135862 -1.2174169769007643e-08 0 0.049999999642135862 -1.2174169769007643e-08 0 0.050099649211004224 9.4628579209454395e-05 0 0.050016180605940382 3.6311062698292005e-05 0 0.049980672839095637 -6.6221803023795214e-06 0 0.049999999642135862 -1.2174169769007643e-08 0 0.050099649211004224 9.4628579209454395e-05 0 0.049939912444071685 1.55352792067598e-05 0 0.049747052916619683 6.545367862162268e-05 0 0.04984232434593016 -2.0149485315015483e-05 0 0.049400914861833581 -2.0311927830087147e-05 0 0.049732227254771395 1.6390331499335297e-05 0 0.049400914861833581 -2.0311927830087147e-05 0 0.049732227254771395 1.6390331499335297e-05 0 0.049567390114010325 0.00014557696215123034 0 0.049400914861833581 -2.0311927830087147e-05 0 0.049236918296103355 0.00023400815271161016 0 0.049567390114010325 0.00014557696215123034 0 0.049747052916619683 6.545367862162268e-05 0 0.049444323499696109 0.00031802036083727414 0 0.049400914861833581 -2.0311927830087147e-05 0 0.049236918296103355 0.00023400815271161016 0 0.048798486015846139 0.00023942448834947329 0 0.049236918296103355 0.00023400815271161016 0 0.049567390114010325 0.00014557696215123034 0 0.04944199364782572 0.00040374432509959784 0 0.049770598712513082 0.00024905507996615347 0 0.049567390114010325 0.00014557696215123034 0 0.04944199364782572 0.00040374432509959784 0 0.049928160569076181 9.4670519892255236e-05 0 0.049770598712513082 0.00024905507996615347 0 0.049811347850575047 6.7798392864285188e-05 0 0.049770598712513082 0.00024905507996615347 0 0.049811347850575047 6.7798392864285188e-05 0 0.049567390114010325 0.00014557696215123034 0 0.049732227254771395 1.6390331499335297e-05 0 0.049811347850575047 6.7798392864285188e-05 0 0.049567390114010325 0.00014557696215123034 0 0.049821471175727078 8.130114832195365e-05 0 0.049999856143175689 -5.4984133469127602e-09 0 0.049869379446654073 2.3540420707947143e-05 0 0.049821471175727078 8.130114832195365e-05 0 0.049999856143175689 -5.4984133469127602e-09 0 0.049951785039530065 3.3723319669549338e-05 0 0.049999856143175689 -5.4984133469127602e-09 0 0.049951785039530065 3.3723319669549338e-05 0 0.049999994691796522 2.7837462341040447e-08 0 0.049821471175727078 8.130114832195365e-05 0 0.049951785039530065 3.3723319669549338e-05 0 0.049967996609996096 0.00012128433094534451 0 0.049951785039530065 3.3723319669549338e-05 0 0.050016180605940382 3.6311062698292005e-05 0 0.049967996609996096 0.00012128433094534451 0 0.049951785039530065 3.3723319669549338e-05 0 0.049999994691796522 2.7837462341040447e-08 0 0.050016180605940382 3.6311062698292005e-05 0 0.049999999642135862 -1.2174169769007643e-08 0 0.049999994691796522 2.7837462341040447e-08 0 0.050016180605940382 3.6311062698292005e-05 0 0.050099649211004224 9.4628579209454395e-05 0 0.050016180605940382 3.6311062698292005e-05 0 0.049967996609996096 0.00012128433094534451 0 0.050099649211004224 9.4628579209454395e-05 0 0.050126311097377835 0.00033581969882642295 0 0.049967996609996096 0.00012128433094534451 0 0.050126311097377835 0.00033581969882642295 0 0.049943476950673714 0.0003290797210366505 0 0.049986525815445416 0.00049787065957825288 0 0.049943476950673714 0.0003290797210366505 0 0.049967996609996096 0.00012128433094534451 0 0.04976216371541959 0.00030069854405203217 0 0.050126311097377835 0.00033581969882642295 0 0.049943476950673714 0.0003290797210366505 0 0.049967996609996096 0.00012128433094534451 0 0.049821471175727078 8.130114832195365e-05 0 0.049967996609996096 0.00012128433094534451 0 0.04976216371541959 0.00030069854405203217 0 0.049943476950673714 0.0003290797210366505 0 0.04976216371541959 0.00030069854405203217 0 0.04985152764661642 0.00047220607533837689 0 0.04976216371541959 0.00030069854405203217 0 0.04944365481000839 0.00046010528190002783 0 0.049588078205563622 0.00022764339626704419 0 0.049821471175727078 8.130114832195365e-05 0 0.04976216371541959 0.00030069854405203217 0 0.049588078205563622 0.00022764339626704419 0 0.049370554445263205 0.00073771169563130641 0 0.049623530814038079 0.00085327904101125383 0 0.049319187720490383 0.0010872864607585416 0 0.049370554445263205 0.00073771169563130641 0 0.049630788699705691 0.0005769222063567468 0 0.049623530814038079 0.00085327904101125383 0 0.04976216371541959 0.00030069854405203217 0 0.049630788699705691 0.0005769222063567468 0 0.04944365481000839 0.00046010528190002783 0 0.049370554445263205 0.00073771169563130641 0 0.049630788699705691 0.0005769222063567468 0 0.04944365481000839 0.00046010528190002783 0 0.049630788699705691 0.0005769222063567468 0 0.049885765363966994 0.00069442041776834613 0 0.04985152764661642 0.00047220607533837689 0 0.04976216371541959 0.00030069854405203217 0 0.049630788699705691 0.0005769222063567468 0 0.04985152764661642 0.00047220607533837689 0 0.049630788699705691 0.0005769222063567468 0 0.049623530814038079 0.00085327904101125383 0 0.049885765363966994 0.00069442041776834613 0 0.049623530814038079 0.00085327904101125383 0 0.049885765363966994 0.00069442041776834613 0 0.049868557993345997 0.0009396177344801732 0 0.049885765363966994 0.00069442041776834613 0 0.049986525815445416 0.00049787065957825288 0 0.050104182599550059 0.0007388056989601706 0 0.049885765363966994 0.00069442041776834613 0 0.050104182599550059 0.0007388056989601706 0 0.049868557993345997 0.0009396177344801732 0 0.049885765363966994 0.00069442041776834613 0 0.04985152764661642 0.00047220607533837689 0 0.049986525815445416 0.00049787065957825288 0 0.049943476950673714 0.0003290797210366505 0 0.04985152764661642 0.00047220607533837689 0 0.049986525815445416 0.00049787065957825288 0 0.048798486015846139 0.00023942448834947329 0 0.04855333706472708 0.00073502840072591131 0 0.048108337319577345 0.00088887547763653234 0 0.049444323499696109 0.00031802036083727414 0 0.049160364015051826 0.00082838044436426216 0 0.050126311097377835 0.00033581969882642295 0 0.049986525815445416 0.00049787065957825288 0 0.050104182599550059 0.0007388056989601706 0 0.04855333706472708 0.00073502840072591131 0 0.048108337319577345 0.00088887547763653234 0 0.048172410848510712 0.0010784010804100648 0 0.047948754745539252 0.0012924441404579174 0 0.048172410848510712 0.0010784010804100648 0 0.04870021847646059 0.00094750545980751191 0 0.047899448782700978 0.0011851107437063711 0 0.048660697066840855 0.0012946542107693665 0 0.048108337319577345 0.00088887547763653234 0 0.048172410848510712 0.0010784010804100648 0 0.047933582980830405 0.0013855709699498373 0 0.047948754745539252 0.0012924441404579174 0 0.048172410848510712 0.0010784010804100648 0 0.047813495581238395 0.0012841573288776382 0 0.047948754745539252 0.0012924441404579174 0 0.047557103383181101 0.0010012748163270556 0 0.047813495581238395 0.0012841573288776382 0 0.047948754745539252 0.0012924441404579174 0 0.047557103383181101 0.0010012748163270556 0 0.047299792676374491 0.0011455344982951908 0 0.047557103383181101 0.0010012748163270556 0 0.047813495581238395 0.0012841573288776382 0 0.047719448888604417 0.00091136460800460251 0 0.047813495581238395 0.0012841573288776382 0 0.047719448888604417 0.00091136460800460251 0 0.048060715930772199 0.00078681848905210535 0 0.048660697066840855 0.0012946542107693665 0 0.047835875962190938 0.00096856365567513114 0 0.049975341376735441 0.0012820573672274354 0 0.049732896389580464 0.0013447674923726498 0 0.049728590977560251 0.0016077908485774323 0 0.048660697066840855 0.0012946542107693665 0 0.049255724631013971 0.0013889481472677159 0 0.049975341376735441 0.0012820573672274354 0 0.049803334115797182 0.0011688481842097422 0 0.049732896389580464 0.0013447674923726498 0 0.050104182599550059 0.0007388056989601706 0 0.049975341376735441 0.0012820573672274354 0 0.049868557993345997 0.0009396177344801732 0 0.049975341376735441 0.0012820573672274354 0 0.049868557993345997 0.0009396177344801732 0 0.049803334115797182 0.0011688481842097422 0 0.049160364015051826 0.00082838044436426216 0 0.048660697066840855 0.0012946542107693665 0 0.049623530814038079 0.00085327904101125383 0 0.049868557993345997 0.0009396177344801732 0 0.049613697822642223 0.0011567757171606064 0 0.049623530814038079 0.00085327904101125383 0 0.049613697822642223 0.0011567757171606064 0 0.049319187720490383 0.0010872864607585416 0 0.049868557993345997 0.0009396177344801732 0 0.049613697822642223 0.0011567757171606064 0 0.049803334115797182 0.0011688481842097422 0 0.049613697822642223 0.0011567757171606064 0 0.049732896389580464 0.0013447674923726498 0 0.049427476449333714 0.001502281542126183 0 0.049613697822642223 0.0011567757171606064 0 0.049803334115797182 0.0011688481842097422 0 0.049732896389580464 0.0013447674923726498 0 0.049732896389580464 0.0013447674923726498 0 0.049427476449333714 0.001502281542126183 0 0.049728590977560251 0.0016077908485774323 0 0.049427476449333714 0.001502281542126183 0 0.049319187720490383 0.0010872864607585416 0 0.049024993026095788 0.0013783605577899667 0 0.049613697822642223 0.0011567757171606064 0 0.049427476449333714 0.001502281542126183 0 0.049319187720490383 0.0010872864607585416 0 0.049296002267777687 0.0014916707063267799 0 0.04903439406783959 0.0013854792095382251 0 0.049370554445263205 0.00073771169563130641 0 0.049319187720490383 0.0010872864607585416 0 0.049059707450339309 0.00099161012937136971 0 0.049645569658740257 0.00051719865665375575 0 0.049332483864750851 0.00076196878977365025 0 0.049626740650093835 0.00095919382666221828 0 0.049793964876961271 0.00063355372177910038 0 0.049645569658740257 0.00051719865665375575 0 0.049626740650093835 0.00095919382666221828 0 0.049848205555618294 0.00041201135463706694 0 0.049793964876961271 0.00063355372177910038 0 0.049645569658740257 0.00051719865665375575 0 0.049848205555618294 0.00041201135463706694 0 0.049770598712513082 0.00024905507996615347 0 0.049645569658740257 0.00051719865665375575 0 0.049770598712513082 0.00024905507996615347 0 0.049645569658740257 0.00051719865665375575 0 0.04944199364782572 0.00040374432509959784 0 0.049645569658740257 0.00051719865665375575 0 0.04944199364782572 0.00040374432509959784 0 0.049332483864750851 0.00076196878977365025 0 0.04944199364782572 0.00040374432509959784 0 0.048969772068579186 0.00058280828454675268 0 0.049332483864750851 0.00076196878977365025 0 0.049236918296103355 0.00023400815271161016 0 0.04944199364782572 0.00040374432509959784 0 0.048969772068579186 0.00058280828454675268 0 0.048798486015846139 0.00023942448834947329 0 0.04855333706472708 0.00073502840072591131 0 0.048969772068579186 0.00058280828454675268 0 0.049236918296103355 0.00023400815271161016 0 0.048798486015846139 0.00023942448834947329 0 0.048969772068579186 0.00058280828454675268 0 0.04855333706472708 0.00073502840072591131 0 0.048969772068579186 0.00058280828454675268 0 0.04870021847646059 0.00094750545980751191 0 0.04855333706472708 0.00073502840072591131 0 0.048172410848510712 0.0010784010804100648 0 0.04870021847646059 0.00094750545980751191 0 0.048969772068579186 0.00058280828454675268 0 0.04870021847646059 0.00094750545980751191 0 0.049332483864750851 0.00076196878977365025 0 0.04870021847646059 0.00094750545980751191 0 0.049332483864750851 0.00076196878977365025 0 0.049069942134777243 0.0012495720498648429 0 0.047948754745539252 0.0012924441404579174 0 0.04870021847646059 0.00094750545980751191 0 0.049069942134777243 0.0012495720498648429 0 0.047948754745539252 0.0012924441404579174 0 0.046658527764043188 0.0014512920341400197 0 0.047299792676374491 0.0011455344982951908 0 0.047936615332778716 0.0013073728423710366 0 0.047863558100557375 0.0013283652462979109 0 0.047557103383181101 0.0010012748163270556 0 0.047299792676374491 0.0011455344982951908 0 0.046940596957512078 0.0009253345682412121 0 0.046658527764043188 0.0014512920341400197 0 0.047299792676374491 0.0011455344982951908 0 0.046940596957512078 0.0009253345682412121 0 0.046658527764043188 0.0014512920341400197 0 0.046940596957512078 0.0009253345682412121 0 0.046232589843756645 0.0008539878938417394 0 0.046007952376389605 0.0013037244262351809 0 0.045913710619544856 0.0010952400463724379 0 0.046232589843756645 0.0008539878938417394 0 0.045913710619544856 0.0010952400463724379 0 0.045957390614754456 0.00092532279069918236 0 0.046232589843756645 0.0008539878938417394 0 0.046658527764043188 0.0014512920341400197 0 0.046007952376389605 0.0013037244262351809 0 0.046232589843756645 0.0008539878938417394 0 0.049332483864750851 0.00076196878977365025 0 0.049069942134777243 0.0012495720498648429 0 0.049626740650093835 0.00095919382666221828 0 0.047863558100557375 0.0013283652462979109 0 0.047798281590609094 0.0011199465651003733 0 0.045678226095863729 0.0012011882741798099 0 0.046007952376389605 0.0013037244262351809 0 0.045913710619544856 0.0010952400463724379 0 0.049848443320761264 0.00076893130444512551 0 0.049793964876961271 0.00063355372177910038 0 0.049626740650093835 0.00095919382666221828 0 0.047826352582486222 0.0011399034417573521 0 0.047798281590609094 0.0011199465651003733 0 0.045783035394489469 0.0010281280419702052 0 0.045913710619544856 0.0010952400463724379 0 0.045957390614754456 0.00092532279069918236 0 0.045783035394489469 0.0010281280419702052 0 0.045853881252956502 0.00089297065760454632 0 0.045957390614754456 0.00092532279069918236 0 0.045853881252956502 0.00089297065760454632 0 0.045957390614754456 0.00092532279069918236 0 0.045963050898203066 0.00083187008816500662 0 0.045761927862205856 0.00081248249933129734 0 0.045853881252956502 0.00089297065760454632 0 0.045963050898203066 0.00083187008816500662 0 0.046232589843756645 0.0008539878938417394 0 0.046445224694355913 0.00048561410728882809 0 0.046215358962116336 0.000444067073672645 0 0.045963050898203066 0.00083187008816500662 0 0.046232589843756645 0.0008539878938417394 0 0.046024323317690283 0.0007364967266922449 0 0.046911512703446956 0.00096269728826741232 0 0.043800672334579883 0.00090318882087252173 0 0.045957390614754456 0.00092532279069918236 0 0.045963050898203066 0.00083187008816500662 0 0.046232589843756645 0.0008539878938417394 0 0.043800672334579883 0.00090318882087252173 0 0.041385485316408184 0.0019734862046441536 0 0.046445224694355913 0.00048561410728882809 0 0.046004787404960598 0.001428863642895589 0 0.046215358962116336 0.000444067073672645 0 0.038898219771271246 0.001478036658201409 0 0.039282657667424559 0.0021568023776172116 0 0.038182495025398278 0.0025051183574836184 0 0.046322428499568608 0.00054084605452821592 0 0.043800672334579883 0.00090318882087252173 0 0.045765914994124357 0.00081018065130644408 0 0.045761927862205856 0.00081248249933129734 0 0.045636163305141864 0.00094795859758443695 0 0.045761927862205856 0.00081248249933129734 0 0.045585934804939041 0.00087071314363498841 0 0.045636163305141864 0.00094795859758443695 0 0.043704580967862526 0.00023023208551184519 0 0.039870995600150651 0.0015319019999032453 0 0.045761927862205856 0.00081248249933129734 0 0.045963050898203066 0.00083187008816500662 0 0.046024323317690283 0.0007364967266922449 0 0.043800672334579883 0.00090318882087252173 0 0.039870995600150651 0.0015319019999032453 0 0.037505856553329074 0.0024835830499092379 0 0.039870995600150651 0.0015319019999032453 0 0.035015722399163438 0.0030373005124488791 0 0.034707056582365267 0.0024763426122575206 0 0.034588232685173498 0.0029932502847823334 0 0.038898219771271246 0.001478036658201409 0 0.038182495025398278 0.0025051183574836184 0 0.03731345432884859 0.0023847385588693392 0 0.034707056582365267 0.0024763426122575206 0 0.034129884503344282 0.0031135629462966091 0 0.034588232685173498 0.0029932502847823334 0 0.039282657667424559 0.0021568023776172116 0 0.038182495025398278 0.0025051183574836184 0 0.038081517637821367 0.0033516511674654419 0 0.039870995600150651 0.0015319019999032453 0 0.035559981323456384 0.0035912011655669616 0 0.038182495025398278 0.0025051183574836184 0 0.038081517637821367 0.0033516511674654419 0 0.037380740216874868 0.0030968394775409492 0 0.034129884503344282 0.0031135629462966091 0 0.03450274973083018 0.0033406735822009985 0 0.034588232685173498 0.0029932502847823334 0 0.034129884503344282 0.0031135629462966091 0 0.03417146818096567 0.0036255120987959914 0 0.03376405425587229 0.0038547007333132712 0 0.034129884503344282 0.0031135629462966091 0 0.03450274973083018 0.0033406735822009985 0 0.03417146818096567 0.0036255120987959914 0 0.035015722399163438 0.0030373005124488791 0 0.03450274973083018 0.0033406735822009985 0 0.034722669128403348 0.003632180717313931 0 0.035015722399163438 0.0030373005124488791 0 0.03450274973083018 0.0033406735822009985 0 0.034588232685173498 0.0029932502847823334 0 0.036384373603118816 0.0037141247082532226 0 0.036726728808683433 0.0033726169134504439 0 0.036678335625045272 0.0038362946015572967 0 0.036143701838480626 0.0032701537074834113 0 0.036384373603118816 0.0037141247082532226 0 0.03599829363346569 0.0038553553687811458 0 0.036143701838480626 0.0032701537074834113 0 0.036384373603118816 0.0037141247082532226 0 0.036726728808683433 0.0033726169134504439 0 0.036726728808683433 0.0033726169134504439 0 0.037380740216874868 0.0030968394775409492 0 0.036984183004064496 0.0044603075158203918 0 0.038081517637821367 0.0033516511674654419 0 0.037380740216874868 0.0030968394775409492 0 0.036984183004064496 0.0044603075158203918 0 0.035559981323456384 0.0035912011655669616 0 0.035971750195083987 0.0038177825274907521 0 0.036748994002088406 0.0036241904224606704 0 0.035971750195083987 0.0038177825274907521 0 0.036726728808683433 0.0033726169134504439 0 0.037380740216874868 0.0030968394775409492 0 0.03731345432884859 0.0023847385588693392 0 0.038182495025398278 0.0025051183574836184 0 0.037380740216874868 0.0030968394775409492 0 0.03731345432884859 0.0023847385588693392 0 0.036143701838480626 0.0032701537074834113 0 0.036726728808683433 0.0033726169134504439 0 0.03731345432884859 0.0023847385588693392 0 0.039759714860734922 0.0030199532456791564 0 0.041385485316408184 0.0019734862046441536 0 0.043213323315665887 0.0028844054395297625 0 0.046004787404960598 0.001428863642895589 0 0.04320674282458703 0.00088068212328989038 0 0.046754605528293844 0.00039428559499467118 0 0.046556127645127392 0.0004271656033253315 0 0.046215358962116336 0.000444067073672645 0 0.046556127645127392 0.0004271656033253315 0 0.046642538792095928 0.00064418879099505273 0 0.047446621776809077 0.00052919547107183572 0 0.046681441815097854 0.00043710954990282188 0 0.046881590488414594 0.000391873900105997 0 0.045017213371327205 0.00070455540914227555 0 0.046064773737172979 0.00042892229333410883 0 0.046754605528293844 0.00039428559499467118 0 0.046556127645127392 0.0004271656033253315 0 0.04667043056068243 0.00038337213197663171 0 0.046004787404960598 0.001428863642895589 0 0.04320674282458703 0.00088068212328989038 0 0.046215358962116336 0.000444067073672645 0 0.046556127645127392 0.0004271656033253315 0 0.046215358962116336 0.000444067073672645 0 0.046642538792095928 0.00064418879099505273 0 0.046232589843756645 0.0008539878938417394 0 0.046215358962116336 0.000444067073672645 0 0.046642538792095928 0.00064418879099505273 0 0.046940596957512078 0.0009253345682412121 0 0.046232589843756645 0.0008539878938417394 0 0.046642538792095928 0.00064418879099505273 0 0.046940596957512078 0.0009253345682412121 0 0.046642538792095928 0.00064418879099505273 0 0.047446621776809077 0.00052919547107183572 0 0.047557103383181101 0.0010012748163270556 0 0.047719448888604417 0.00091136460800460251 0 0.047446621776809077 0.00052919547107183572 0 0.047557103383181101 0.0010012748163270556 0 0.046940596957512078 0.0009253345682412121 0 0.047446621776809077 0.00052919547107183572 0 0.048871938001199558 0.0013892009218177299 0 0.048890669286147402 0.001355322148219636 0 0.048906010748121419 0.0013617973754730774 0 0.047835875962190938 0.00096856365567513114 0 0.046881590488414594 0.000391873900105997 0 0.047719448888604417 0.00091136460800460251 0 0.048060715930772199 0.00078681848905210535 0 0.047446621776809077 0.00052919547107183572 0 0.04627429964000309 0.00021842034381926387 0 0.046393715427214786 0.00046142332101848976 0 0.04667043056068243 0.00038337213197663171 0 0.04627429964000309 0.00021842034381926387 0 0.046393715427214786 0.00046142332101848976 0 0.046084868183333585 0.0006054267147915937 0 0.046393715427214786 0.00046142332101848976 0 0.046305165525813895 0.00064448257802879186 0 0.046084868183333585 0.0006054267147915937 0 0.046393715427214786 0.00046142332101848976 0 0.046305165525813895 0.00064448257802879186 0 0.046531058015146537 0.00053364576640141674 0 0.046754605528293844 0.00039428559499467118 0 0.046531058015146537 0.00053364576640141674 0 0.04667043056068243 0.00038337213197663171 0 0.046393715427214786 0.00046142332101848976 0 0.046531058015146537 0.00053364576640141674 0 0.04667043056068243 0.00038337213197663171 0 0.049080792366629121 0.0014631263425204418 0 0.048890865414306713 0.0016233176245551571 0 0.049024993026095788 0.0013783605577899667 0 0.049080792366629121 0.0014631263425204418 0 0.048890865414306713 0.0016233176245551571 0 0.049058900111547635 0.0016177471925389354 0 0.048890865414306713 0.0016233176245551571 0 0.049058900111547635 0.0016177471925389354 0 0.04897975445058813 0.0018482290050899648 0 0.049068702365518024 0.0011567713519504059 0 0.048914559879074414 0.0011066775521745252 0 0.048895809930639043 0.0016663703866731973 0 0.049058900111547635 0.0016177471925389354 0 0.049311853485640364 0.0015396558237609388 0 0.04897975445058813 0.0018482290050899648 0 0.049255724631013971 0.0013889481472677159 0 0.048757190349376603 0.0017078214706481654 0 0.049296002267777687 0.0014916707063267799 0 0.049255724631013971 0.0013889481472677159 0 0.049080792366629121 0.0014631263425204418 0 0.049058900111547635 0.0016177471925389354 0 0.049311853485640364 0.0015396558237609388 0 0.047835875962190938 0.00096856365567513114 0 0.049255724631013971 0.0013889481472677159 0 0.048914559879074414 0.0011066775521745252 0 0.048895809930639043 0.0016663703866731973 0 0.048571040257687235 0.0016005516918066408 0 0.048895809930639043 0.0016663703866731973 0 0.048571040257687235 0.0016005516918066408 0 0.048574690149263758 0.0019219897631049319 0 0.047835875962190938 0.00096856365567513114 0 0.047710741685815697 0.00091710272908608961 0 0.048890865414306713 0.0016233176245551571 0 0.04897975445058813 0.0018482290050899648 0 0.048599354916413595 0.0018515366237903206 0 0.048574690149263758 0.0019219897631049319 0 0.048398229380501506 0.00215674354550728 0 0.048419394661055784 0.0020421493865051955 0 0.048571040257687235 0.0016005516918066408 0 0.048574690149263758 0.0019219897631049319 0 0.048419394661055784 0.0020421493865051955 0 0.048757190349376603 0.0017078214706481654 0 0.048471214545430234 0.0020087277903711241 0 0.044969924045692722 0.0020592391651545706 0 0.043505779552921391 0.0016349220314776701 0 0.047710741685815697 0.00091710272908608961 0 0.044969924045692722 0.0020592391651545706 0 0.048895809930639043 0.0016663703866731973 0 0.048574690149263758 0.0019219897631049319 0 0.048716463574706922 0.0020687953465908697 0 0.046305165525813895 0.00064448257802879186 0 0.046084868183333585 0.0006054267147915937 0 0.045880303337728544 0.0011155479346606583 0 0.041641454381757391 0.0020259026130792753 0 0.042257211746712486 0.003016787305025307 0 0.041283005736057386 0.0025341703802706341 0 0.041641454381757391 0.0020259026130792753 0 0.042257211746712486 0.003016787305025307 0 0.043252482268549095 0.0018126422367588789 0 0.044969924045692722 0.0020592391651545706 0 0.043116321203549419 0.0024725705422501856 0 0.048574690149263758 0.0019219897631049319 0 0.048716463574706922 0.0020687953465908697 0 0.048398229380501506 0.00215674354550728 0 0.042795068266402191 0.0032086209457811957 0 0.043252482268549095 0.0018126422367588789 0 0.045032924397583975 0.0027591283321430089 0 0.044969924045692722 0.0020592391651545706 0 0.04688608953761754 0.0023954270389039073 0 0.043252482268549095 0.0018126422367588789 0 0.045158313916237362 0.0015372723952748726 0 0.045032924397583975 0.0027591283321430089 0 0.04320674282458703 0.00088068212328989038 0 0.041919142032606986 0.002195579961221 0 0.040743465944256416 0.0024361626977183587 0 0.043213323315665887 0.0028844054395297625 0 0.04320674282458703 0.00088068212328989038 0 0.041919142032606986 0.002195579961221 0 0.045017213371327205 0.00070455540914227555 0 0.043505779552921391 0.0016349220314776701 0 0.046754605528293844 0.00039428559499467118 0 0.046531058015146537 0.00053364576640141674 0 0.046426383502812564 0.00082340118747131329 0 0.043213323315665887 0.0028844054395297625 0 0.041919142032606986 0.002195579961221 0 0.040832774430840643 0.0026746044455555115 0 0.041919142032606986 0.002195579961221 0 0.040743465944256416 0.0024361626977183587 0 0.040832774430840643 0.0026746044455555115 0 0.046305165525813895 0.00064448257802879186 0 0.045880303337728544 0.0011155479346606583 0 0.046426383502812564 0.00082340118747131329 0 0.046305165525813895 0.00064448257802879186 0 0.046531058015146537 0.00053364576640141674 0 0.046426383502812564 0.00082340118747131329 0 0.042257211746712486 0.003016787305025307 0 0.040743465944256416 0.0024361626977183587 0 0.041283005736057386 0.0025341703802706341 0 0.040743465944256416 0.0024361626977183587 0 0.041283005736057386 0.0025341703802706341 0 0.040832774430840643 0.0026746044455555115 0 0.039255371886281636 0.0028603132130178063 0 0.040628854403953418 0.0025963773337957831 0 0.036923976551423141 0.0034388404365436613 0 0.039948168172125445 0.0039199885891138134 0 0.040832774430840643 0.0026746044455555115 0 0.041641454381757391 0.0020259026130792753 0 0.041283005736057386 0.0025341703802706341 0 0.040832774430840643 0.0026746044455555115 0 0.036143701838480626 0.0032701537074834113 0 0.035702835600964745 0.0038622766546940711 0 0.03599829363346569 0.0038553553687811458 0 0.039759714860734922 0.0030199532456791564 0 0.037843559341482168 0.0038262332520527481 0 0.043213323315665887 0.0028844054395297625 0 0.039948168172125445 0.0039199885891138134 0 0.040832774430840643 0.0026746044455555115 0 0.03599829363346569 0.0038553553687811458 0 0.035867044468628165 0.0040651706199711654 0 0.036283455474294075 0.0040523829406844524 0 0.03599829363346569 0.0038553553687811458 0 0.035771522575882841 0.0040234851413359796 0 0.035867044468628165 0.0040651706199711654 0 0.035702835600964745 0.0038622766546940711 0 0.03599829363346569 0.0038553553687811458 0 0.035771522575882841 0.0040234851413359796 0 0.035702835600964745 0.0038622766546940711 0 0.035763251413101632 0.0041129365860941231 0 0.035771522575882841 0.0040234851413359796 0 0.035702835600964745 0.0038622766546940711 0 0.035763251413101632 0.0041129365860941231 0 0.036004569693772956 0.0042489482234441493 0 0.037843559341482168 0.0038262332520527481 0 0.036260168273146001 0.0042433365871761657 0 0.035763251413101632 0.0041129365860941231 0 0.035771522575882841 0.0040234851413359796 0 0.03573051106339644 0.0041230808267249926 0 0.035771522575882841 0.0040234851413359796 0 0.03573051106339644 0.0041230808267249926 0 0.035867044468628165 0.0040651706199711654 0 0.03573051106339644 0.0041230808267249926 0 0.035588734222385121 0.0042783635022172785 0 0.035559309878953005 0.0043367665439253871 0 0.03573051106339644 0.0041230808267249926 0 0.035765027420071559 0.0041692378654529065 0 0.035559309878953005 0.0043367665439253871 0 0.035763251413101632 0.0041129365860941231 0 0.03573051106339644 0.0041230808267249926 0 0.035588734222385121 0.0042783635022172785 0 0.035765027420071559 0.0041692378654529065 0 0.035886695222437509 0.0040932061253381733 0 0.035752025852230827 0.0042908863519593044 0 0.035765027420071559 0.0041692378654529065 0 0.035886695222437509 0.0040932061253381733 0 0.035867044468628165 0.0040651706199711654 0 0.03573051106339644 0.0041230808267249926 0 0.035765027420071559 0.0041692378654529065 0 0.035867044468628165 0.0040651706199711654 0 0.044229904210295684 0.00065953273320086873 0 0.043252482268549095 0.0018126422367588789 0 0.045158313916237362 0.0015372723952748726 0 0.035180538294972905 0.0042922021563170237 0 0.036004569693772956 0.0042489482234441493 0 0.035498048804211244 0.0043988802804228906 0 0.039255371886281636 0.0028603132130178063 0 0.04018136222367049 0.0021567090505152332 0 0.036923976551423141 0.0034388404365436613 0 0.039948168172125445 0.0039199885891138134 0 0.036004569693772956 0.0042489482234441493 0 0.036923976551423141 0.0034388404365436613 0 0.035180538294972905 0.0042922021563170237 0 0.036004569693772956 0.0042489482234441493 0 0.041641454381757391 0.0020259026130792753 0 0.044229904210295684 0.00065953273320086873 0 0.043252482268549095 0.0018126422367588789 0 0.035763251413101632 0.0041129365860941231 0 0.036004569693772956 0.0042489482234441493 0 0.035588734222385121 0.0042783635022172785 0 0.035588734222385121 0.0042783635022172785 0 0.035498048804211244 0.0043988802804228906 0 0.035323811946498328 0.0044666062952044535 0 0.036004569693772956 0.0042489482234441493 0 0.035588734222385121 0.0042783635022172785 0 0.035498048804211244 0.0043988802804228906 0 0.035498048804211244 0.0043988802804228906 0 0.035271465969296541 0.0044548511892978414 0 0.035323811946498328 0.0044666062952044535 0 0.035271465969296541 0.0044548511892978414 0 0.035323811946498328 0.0044666062952044535 0 0.035276816409296641 0.0044905243326330566 0 0.035180538294972905 0.0042922021563170237 0 0.035498048804211244 0.0043988802804228906 0 0.035271465969296541 0.0044548511892978414 0 0.035254618168221265 0.004523199114176933 0 0.035323811946498328 0.0044666062952044535 0 0.034999068002889495 0.004570888205242052 0 0.035254618168221265 0.004523199114176933 0 0.035323811946498328 0.0044666062952044535 0 0.035276816409296641 0.0044905243326330566 0 0.035323811946498328 0.0044666062952044535 0 0.035353346207479222 0.0044183353309908014 0 0.034999068002889495 0.004570888205242052 0 0.035588734222385121 0.0042783635022172785 0 0.035323811946498328 0.0044666062952044535 0 0.035353346207479222 0.0044183353309908014 0 0.035588734222385121 0.0042783635022172785 0 0.035353346207479222 0.0044183353309908014 0 0.035559309878953005 0.0043367665439253871 0 0.035353346207479222 0.0044183353309908014 0 0.034999068002889495 0.004570888205242052 0 0.035354864697843477 0.0045324358981971569 0 0.034999068002889495 0.004570888205242052 0 0.035448153828283639 0.0048329014545925326 0 0.034493937108575227 0.0051931962543061401 0 0.034999068002889495 0.004570888205242052 0 0.035253850767864602 0.0044740295324490614 0 0.035280894560999969 0.0043898119646765023 0 0.035254618168221265 0.004523199114176933 0 0.034999068002889495 0.004570888205242052 0 0.035253850767864602 0.0044740295324490614 0 0.035752025852230827 0.0042908863519593044 0 0.035632727966276222 0.004504632564924017 0 0.035920365613696825 0.0043998854821843342 0 0.035886695222437509 0.0040932061253381733 0 0.035752025852230827 0.0042908863519593044 0 0.035920365613696825 0.0043998854821843342 0 0.035752025852230827 0.0042908863519593044 0 0.035559309878953005 0.0043367665439253871 0 0.035632727966276222 0.004504632564924017 0 0.035765027420071559 0.0041692378654529065 0 0.035752025852230827 0.0042908863519593044 0 0.035559309878953005 0.0043367665439253871 0 0.035353346207479222 0.0044183353309908014 0 0.035559309878953005 0.0043367665439253871 0 0.035354864697843477 0.0045324358981971569 0 0.035559309878953005 0.0043367665439253871 0 0.035486270351016341 0.0046152670073358517 0 0.035354864697843477 0.0045324358981971569 0 0.035559309878953005 0.0043367665439253871 0 0.035486270351016341 0.0046152670073358517 0 0.035632727966276222 0.004504632564924017 0 0.034999068002889495 0.004570888205242052 0 0.035354864697843477 0.0045324358981971569 0 0.035448153828283639 0.0048329014545925326 0 0.035486270351016341 0.0046152670073358517 0 0.035354864697843477 0.0045324358981971569 0 0.035448153828283639 0.0048329014545925326 0 0.035486270351016341 0.0046152670073358517 0 0.035448153828283639 0.0048329014545925326 0 0.035632727966276222 0.004504632564924017 0 0.034011830136434162 0.0045718216966209348 0 0.034501850519354567 0.0042044581258191063 0 0.03446797418482038 0.0045867847206722389 0 0.034345225809852539 0.0048614267069682134 0 0.035465155880627569 0.0042115531185065612 0 0.035448153828283639 0.0048329014545925326 0 0.035632727966276222 0.004504632564924017 0 0.035920365613696825 0.0043998854821843342 0 0.034501850519354567 0.0042044581258191063 0 0.034893553432508564 0.0044122845422706527 0 0.03446797418482038 0.0045867847206722389 0 0.035886695222437509 0.0040932061253381733 0 0.035920365613696825 0.0043998854821843342 0 0.035978801463404805 0.0040198906062446837 0 0.035465155880627569 0.0042115531185065612 0 0.03471795111991053 0.0039647092310856197 0 0.035920365613696825 0.0043998854821843342 0 0.036244079825365719 0.0039330455997829191 0 0.035978801463404805 0.0040198906062446837 0 0.034501850519354567 0.0042044581258191063 0 0.035082433937678154 0.0039314764444160905 0 0.035046054227327261 0.0037903555953538995 0 0.034058226546972915 0.0040581121183316162 0 0.033973447233312554 0.0041630884365950289 0 0.03390056088892119 0.0041782371762447952 0 0.033843914090740931 0.0041464054193151448 0 0.033932072260189516 0.0041435914127220877 0 0.034058226546972915 0.0040581121183316162 0 0.03471795111991053 0.0039647092310856197 0 0.034501850519354567 0.0042044581258191063 0 0.035082433937678154 0.0039314764444160905 0 0.034893553432508564 0.0044122845422706527 0 0.034058226546972915 0.0040581121183316162 0 0.0335492305901509 0.0043471873267170464 0 0.034058226546972915 0.0040581121183316162 0 0.034090872844520843 0.0043613785772146927 0 0.033368972853684106 0.0041164672013706445 0 0.033263439287799526 0.0043421871499689773 0 0.033422978561003867 0.0043672727658828287 0 0.033739939402339027 0.0042871282571494834 0 0.0338467417209578 0.0042689525091590052 0 0.033784650740987902 0.004400530390138325 0 0.033885252875027159 0.0041715440283110802 0 0.033739939402339027 0.0042871282571494834 0 0.03390142462262432 0.004183300681351994 0 0.033739939402339027 0.0042871282571494834 0 0.033876595070360505 0.0042108660859859169 0 0.0338467417209578 0.0042689525091590052 0 0.033739939402339027 0.0042871282571494834 0 0.033876595070360505 0.0042108660859859169 0 0.03390142462262432 0.004183300681351994 0 0.034002762870669848 0.0043635571001290879 0 0.033902333981562907 0.0042576452971307211 0 0.03398143951835312 0.0041211152668014246 0 0.033902333981562907 0.0042576452971307211 0 0.0338467417209578 0.0042689525091590052 0 0.033784650740987902 0.004400530390138325 0 0.033902333981562907 0.0042576452971307211 0 0.0338467417209578 0.0042689525091590052 0 0.033934860824909541 0.0041704750111610641 0 0.033876595070360505 0.0042108660859859169 0 0.033934860824909541 0.0041704750111610641 0 0.033974426495613372 0.004136143376407506 0 0.033876595070360505 0.0042108660859859169 0 0.0338467417209578 0.0042689525091590052 0 0.033934860824909541 0.0041704750111610641 0 0.033934860824909541 0.0041704750111610641 0 0.03398143951835312 0.0041211152668014246 0 0.034028348323480173 0.004087663071521197 0 0.033902333981562907 0.0042576452971307211 0 0.033934860824909541 0.0041704750111610641 0 0.03398143951835312 0.0041211152668014246 0 0.033999382434250616 0.0041585916459539038 0 0.034017035648969476 0.0041178911400435916 0 0.033999382434250616 0.0041585916459539038 0 0.0342393251593767 0.0037882374233085053 0 0.034043391004601131 0.0040408284052717265 0 0.034106101311553998 0.0040333144606217166 0 0.034231174740703717 0.003964896524394905 0 0.034043391004601131 0.0040408284052717265 0 0.034040419025635406 0.0040662990278530165 0 0.034106101311553998 0.0040333144606217166 0 0.034043391004601131 0.0040408284052717265 0 0.03398143951835312 0.0041211152668014246 0 0.034040419025635406 0.0040662990278530165 0 0.03398143951835312 0.0041211152668014246 0 0.034040419025635406 0.0040662990278530165 0 0.034028348323480173 0.004087663071521197 0 0.034040419025635406 0.0040662990278530165 0 0.034028348323480173 0.004087663071521197 0 0.034106101311553998 0.0040333144606217166 0 0.034028348323480173 0.004087663071521197 0 0.033974426495613372 0.004136143376407506 0 0.034055436908104038 0.0040841044955139188 0 0.033934860824909541 0.0041704750111610641 0 0.034028348323480173 0.004087663071521197 0 0.033974426495613372 0.004136143376407506 0 0.034028348323480173 0.004087663071521197 0 0.034055436908104038 0.0040841044955139188 0 0.034082354339091493 0.0040593912948952053 0 0.033974426495613372 0.004136143376407506 0 0.034055436908104038 0.0040841044955139188 0 0.03404571335654033 0.0041069119539929163 0 0.034055436908104038 0.0040841044955139188 0 0.03404571335654033 0.0041069119539929163 0 0.034135528254619955 0.0040719891090458468 0 0.034055436908104038 0.0040841044955139188 0 0.03414092568988978 0.0040368384249010692 0 0.034135528254619955 0.0040719891090458468 0 0.034055436908104038 0.0040841044955139188 0 0.034082354339091493 0.0040593912948952053 0 0.03414092568988978 0.0040368384249010692 0 0.034106101311553998 0.0040333144606217166 0 0.03414092568988978 0.0040368384249010692 0 0.03418897490147231 0.004012745964856913 0 0.034028348323480173 0.004087663071521197 0 0.034082354339091493 0.0040593912948952053 0 0.034106101311553998 0.0040333144606217166 0 0.034082354339091493 0.0040593912948952053 0 0.034106101311553998 0.0040333144606217166 0 0.03414092568988978 0.0040368384249010692 0 0.033885252875027159 0.0041715440283110802 0 0.03390142462262432 0.004183300681351994 0 0.033945507141452246 0.0041546179399213944 0 0.03390142462262432 0.004183300681351994 0 0.033973934056387614 0.0041434992871582184 0 0.033945507141452246 0.0041546179399213944 0 0.033974426495613372 0.004136143376407506 0 0.03390142462262432 0.004183300681351994 0 0.033973934056387614 0.0041434992871582184 0 0.033876595070360505 0.0042108660859859169 0 0.033974426495613372 0.004136143376407506 0 0.03390142462262432 0.004183300681351994 0 0.033973934056387614 0.0041434992871582184 0 0.03404571335654033 0.0041069119539929163 0 0.034025688081262773 0.0041242095217980633 0 0.033974426495613372 0.004136143376407506 0 0.033973934056387614 0.0041434992871582184 0 0.03404571335654033 0.0041069119539929163 0 0.03404571335654033 0.0041069119539929163 0 0.034025688081262773 0.0041242095217980633 0 0.034135528254619955 0.0040719891090458468 0 0.033885252875027159 0.0041715440283110802 0 0.033945507141452246 0.0041546179399213944 0 0.033932072260189516 0.0041435914127220877 0 0.034025688081262773 0.0041242095217980633 0 0.033945507141452246 0.0041546179399213944 0 0.033932072260189516 0.0041435914127220877 0 0.033973934056387614 0.0041434992871582184 0 0.034025688081262773 0.0041242095217980633 0 0.033945507141452246 0.0041546179399213944 0 0.03471795111991053 0.0039647092310856197 0 0.033882100237506776 0.0043129249964967654 0 0.034028154298120145 0.0044404620386940888 0 0.034110765666535953 0.0041185282359601019 0 0.034147747905513483 0.0039729504193765416 0 0.033843914090740931 0.0041464054193151448 0 0.034110765666535953 0.0041185282359601019 0 0.033932072260189516 0.0041435914127220877 0 0.034025688081262773 0.0041242095217980633 0 0.034110765666535953 0.0041185282359601019 0 0.033932072260189516 0.0041435914127220877 0 0.034025688081262773 0.0041242095217980633 0 0.034110765666535953 0.0041185282359601019 0 0.034135528254619955 0.0040719891090458468 0 0.034110765666535953 0.0041185282359601019 0 0.034135528254619955 0.0040719891090458468 0 0.034240958932396114 0.0040331979023112375 0 0.034240958932396114 0.0040331979023112375 0 0.034352623334950406 0.0038870308938608526 0 0.034147747905513483 0.0039729504193765416 0 0.034110765666535953 0.0041185282359601019 0 0.034240958932396114 0.0040331979023112375 0 0.034147747905513483 0.0039729504193765416 0 0.034106101311553998 0.0040333144606217166 0 0.03418897490147231 0.004012745964856913 0 0.034231174740703717 0.003964896524394905 0 0.03418897490147231 0.004012745964856913 0 0.034193713582246682 0.0040361293286995852 0 0.034275062776234051 0.0040175258498973384 0 0.034193713582246682 0.0040361293286995852 0 0.034240958932396114 0.0040331979023112375 0 0.034275062776234051 0.0040175258498973384 0 0.03414092568988978 0.0040368384249010692 0 0.03418897490147231 0.004012745964856913 0 0.034193713582246682 0.0040361293286995852 0 0.03414092568988978 0.0040368384249010692 0 0.034193713582246682 0.0040361293286995852 0 0.034135528254619955 0.0040719891090458468 0 0.034193713582246682 0.0040361293286995852 0 0.034135528254619955 0.0040719891090458468 0 0.034240958932396114 0.0040331979023112375 0 0.034240958932396114 0.0040331979023112375 0 0.034398554114075046 0.0039432949009491061 0 0.034352623334950406 0.0038870308938608526 0 0.034240958932396114 0.0040331979023112375 0 0.034398554114075046 0.0039432949009491061 0 0.034275062776234051 0.0040175258498973384 0 0.03418897490147231 0.004012745964856913 0 0.034275062776234051 0.0040175258498973384 0 0.034231174740703717 0.003964896524394905 0 0.034242715426339783 0.0038506626245656712 0 0.0342393251593767 0.0037882374233085053 0 0.034398554114075046 0.0039432949009491061 0 0.034275062776234051 0.0040175258498973384 0 0.034472002009718151 0.0039903143140214018 0 0.035398688373524542 0.0034953135165729679 0 0.034930781343383628 0.0039043592818871998 0 0.034722669128403348 0.003632180717313931 0 0.0342393251593767 0.0037882374233085053 0 0.03460976828458609 0.0037174387008796707 0 0.034398554114075046 0.0039432949009491061 0 0.034472002009718151 0.0039903143140214018 0 0.034722669128403348 0.003632180717313931 0 0.034352623334950406 0.0038870308938608526 0 0.034722669128403348 0.003632180717313931 0 0.034354491574338751 0.0037050622085831155 0 0.034398554114075046 0.0039432949009491061 0 0.034352623334950406 0.0038870308938608526 0 0.034722669128403348 0.003632180717313931 0 0.03450274973083018 0.0033406735822009985 0 0.034722669128403348 0.003632180717313931 0 0.034354491574338751 0.0037050622085831155 0 0.034147747905513483 0.0039729504193765416 0 0.03417146818096567 0.0036255120987959914 0 0.03376405425587229 0.0038547007333132712 0 0.034352623334950406 0.0038870308938608526 0 0.034147747905513483 0.0039729504193765416 0 0.034354491574338751 0.0037050622085831155 0 0.034147747905513483 0.0039729504193765416 0 0.034354491574338751 0.0037050622085831155 0 0.03417146818096567 0.0036255120987959914 0 0.03450274973083018 0.0033406735822009985 0 0.034354491574338751 0.0037050622085831155 0 0.03417146818096567 0.0036255120987959914 0 0.036384373603118816 0.0037141247082532226 0 0.03599829363346569 0.0038553553687811458 0 0.036283455474294075 0.0040523829406844524 0 0.036384373603118816 0.0037141247082532226 0 0.036678335625045272 0.0038362946015572967 0 0.036283455474294075 0.0040523829406844524 0 0.035971750195083987 0.0038177825274907521 0 0.036151709214447929 0.0037717630046178751 0 0.035886695222437509 0.0040932061253381733 0 0.035867044468628165 0.0040651706199711654 0 0.036283455474294075 0.0040523829406844524 0 0.035926911789668128 0.0040363755609802614 0 0.036151709214447929 0.0037717630046178751 0 0.035886695222437509 0.0040932061253381733 0 0.035868119599991095 0.0036621470343486799 0 0.035978801463404805 0.0040198906062446837 0 0.034028154298120145 0.0044404620386940888 0 0.034147747905513483 0.0039729504193765416 0 0.03376405425587229 0.0038547007333132712 0 0.036244079825365719 0.0039330455997829191 0 0.036031436601312417 0.0032284889047778016 0 0.035868119599991095 0.0036621470343486799 0 0.03471795111991053 0.0039647092310856197 0 0.035971750195083987 0.0038177825274907521 0 0.036244079825365719 0.0039330455997829191 0 0.035868119599991095 0.0036621470343486799 0 0.035978801463404805 0.0040198906062446837 0 0.048521222679290807 0.0038231811648667272 0 0.048459717613547143 0.0033743128304853575 0 0.048070184364761584 0.0037830447485905964 0 0.048521222679290807 0.0038231811648667272 0 0.048070184364761584 0.0037830447485905964 0 0.048177966830723132 0.0041700086322871135 0 0.048746610331174722 0.0035894724378639897 0 0.048772854575943929 0.0044000156908236597 0 0.049019016586055453 0.0039017334299032871 0 0.048521222679290807 0.0038231811648667272 0 0.048998672189734582 0.0036077557049824247 0 0.048772854575943929 0.0044000156908236597 0 0.048861965329667731 0.0036078557555770264 0 0.048788775815187646 0.004327336011068229 0 0.048521222679290807 0.0038231811648667272 0 0.048998672189734582 0.0036077557049824247 0 0.048707123033751173 0.0035358610726784539 0 0.048998672189734582 0.0036077557049824247 0 0.048816315676562937 0.0032759304616655129 0 0.049160700150363036 0.0028704051970081159 0 0.048861965329667731 0.0036078557555770264 0 0.049068713280283366 0.0028262723564518974 0 0.048998672189734582 0.0036077557049824247 0 0.048707123033751173 0.0035358610726784539 0 0.048816315676562937 0.0032759304616655129 0 0.048746610331174722 0.0035894724378639897 0 0.049051515157423543 0.0034393760660696064 0 0.048774829514066441 0.0028424185974699643 0 0.048459717613547143 0.0033743128304853575 0 0.047989410604564776 0.0033277089384346238 0 0.048377437088535521 0.0028748229099485991 0 0.048816315676562937 0.0032759304616655129 0 0.048459717613547143 0.0033743128304853575 0 0.048741865676076544 0.0030049714961806863 0 0.048521222679290807 0.0038231811648667272 0 0.048707123033751173 0.0035358610726784539 0 0.048459717613547143 0.0033743128304853575 0 0.048707123033751173 0.0035358610726784539 0 0.048816315676562937 0.0032759304616655129 0 0.048459717613547143 0.0033743128304853575 0 0.048459717613547143 0.0033743128304853575 0 0.047989410604564776 0.0033277089384346238 0 0.048070184364761584 0.0037830447485905964 0 0.047989410604564776 0.0033277089384346238 0 0.047469724315033712 0.0032361278312524077 0 0.047654717859298742 0.0037034869579761686 0 0.047989410604564776 0.0033277089384346238 0 0.047469724315033712 0.0032361278312524077 0 0.047961759356470422 0.0029738405221524768 0 0.047989410604564776 0.0033277089384346238 0 0.048070184364761584 0.0037830447485905964 0 0.047654717859298742 0.0037034869579761686 0 0.047469724315033712 0.0032361278312524077 0 0.047091260089577536 0.0039407817728747546 0 0.046640246353207397 0.0035312905817110108 0 0.047469724315033712 0.0032361278312524077 0 0.047091260089577536 0.0039407817728747546 0 0.047654717859298742 0.0037034869579761686 0 0.047091260089577536 0.0039407817728747546 0 0.047654717859298742 0.0037034869579761686 0 0.047664280521336561 0.0042611738760286065 0 0.048070184364761584 0.0037830447485905964 0 0.047654717859298742 0.0037034869579761686 0 0.047664280521336561 0.0042611738760286065 0 0.048070184364761584 0.0037830447485905964 0 0.047664280521336561 0.0042611738760286065 0 0.048177966830723132 0.0041700086322871135 0 0.047664280521336561 0.0042611738760286065 0 0.048095648731290894 0.0046477879612914141 0 0.048177966830723132 0.0041700086322871135 0 0.047664280521336561 0.0042611738760286065 0 0.047561020258714289 0.0050041420191529098 0 0.048095648731290894 0.0046477879612914141 0 0.047664280521336561 0.0042611738760286065 0 0.047045456697912838 0.0046528989499879572 0 0.047561020258714289 0.0050041420191529098 0 0.047091260089577536 0.0039407817728747546 0 0.047664280521336561 0.0042611738760286065 0 0.047045456697912838 0.0046528989499879572 0 0.047091260089577536 0.0039407817728747546 0 0.047045456697912838 0.0046528989499879572 0 0.046511612848686983 0.0043882239476769024 0 0.047045456697912838 0.0046528989499879572 0 0.046289105805895917 0.0050400657703897119 0 0.047086686739657761 0.0054133275696203031 0 0.047045456697912838 0.0046528989499879572 0 0.047561020258714289 0.0050041420191529098 0 0.047086686739657761 0.0054133275696203031 0 0.047561020258714289 0.0050041420191529098 0 0.048095648731290894 0.0046477879612914141 0 0.048009034926082994 0.0053642993689566668 0 0.048095648731290894 0.0046477879612914141 0 0.048483866454412577 0.0049947709855544921 0 0.048009034926082994 0.0053642993689566668 0 0.048095648731290894 0.0046477879612914141 0 0.048772854575943929 0.0044000156908236597 0 0.048483866454412577 0.0049947709855544921 0 0.048095648731290894 0.0046477879612914141 0 0.048177966830723132 0.0041700086322871135 0 0.048772854575943929 0.0044000156908236597 0 0.048521222679290807 0.0038231811648667272 0 0.048177966830723132 0.0041700086322871135 0 0.048772854575943929 0.0044000156908236597 0 0.048772854575943929 0.0044000156908236597 0 0.048483866454412577 0.0049947709855544921 0 0.048953648101772607 0.0050267770527986705 0 0.048953648101772607 0.0050267770527986705 0 0.049293981718521063 0.0048870473256420362 0 0.049271736607746766 0.0052166234422392887 0 0.048772854575943929 0.0044000156908236597 0 0.048953648101772607 0.0050267770527986705 0 0.049143485537209514 0.0045924870725661425 0 0.048953648101772607 0.0050267770527986705 0 0.049293981718521063 0.0048870473256420362 0 0.049143485537209514 0.0045924870725661425 0 0.049366695596284295 0.0047029959441045694 0 0.049293981718521063 0.0048870473256420362 0 0.049143485537209514 0.0045924870725661425 0 0.049366695596284295 0.0047029959441045694 0 0.049607989431895233 0.0048039636524621118 0 0.049299942136502968 0.0044862219854029375 0 0.049366695596284295 0.0047029959441045694 0 0.049293981718521063 0.0048870473256420362 0 0.049422827691219404 0.0048686108597043587 0 0.049293981718521063 0.0048870473256420362 0 0.049422827691219404 0.0048686108597043587 0 0.049423120700033317 0.0050786596096567757 0 0.049293981718521063 0.0048870473256420362 0 0.049423120700033317 0.0050786596096567757 0 0.049271736607746766 0.0052166234422392887 0 0.035453184002302005 0.0044663332821187618 0 0.035485025323828252 0.0045180245577015705 0 0.035506251835568298 0.0043512487489500637 0 0.049423120700033317 0.0050786596096567757 0 0.049607989431895233 0.0048039636524621118 0 0.049477904603007293 0.0056323822743350078 0 0.035453184002302005 0.0044663332821187618 0 0.035468199879437938 0.004497122492657487 0 0.035485025323828252 0.0045180245577015705 0 0.035453184002302005 0.0044663332821187618 0 0.03541218791155034 0.0044554456670053188 0 0.035422405856838743 0.0044244809023015839 0 0.035453184002302005 0.0044663332821187618 0 0.035450266472447603 0.0044849107076245362 0 0.035468199879437938 0.004497122492657487 0 0.035453184002302005 0.0044663332821187618 0 0.03541218791155034 0.0044554456670053188 0 0.035450266472447603 0.0044849107076245362 0 0.03541218791155034 0.0044554456670053188 0 0.035450266472447603 0.0044849107076245362 0 0.035419574415787337 0.0044708162392608384 0 0.035479041580586172 0.0044961722263407635 0 0.035485025323828252 0.0045180245577015705 0 0.035523466115754417 0.0044977299623683393 0 0.035479041580586172 0.0044961722263407635 0 0.035419574415787337 0.0044708162392608384 0 0.035438358467424158 0.0044791563146586184 0 0.035450266472447603 0.0044849107076245362 0 0.035479041580586172 0.0044961722263407635 0 0.035419574415787337 0.0044708162392608384 0 0.035450266472447603 0.0044849107076245362 0 0.035474832983551065 0.004501727650905828 0 0.035479041580586172 0.0044961722263407635 0 0.035450266472447603 0.0044849107076245362 0 0.035474832983551065 0.004501727650905828 0 0.035468199879437938 0.004497122492657487 0 0.035474832983551065 0.004501727650905828 0 0.035479041580586172 0.0044961722263407635 0 0.035485025323828252 0.0045180245577015705 0 0.049422827691219404 0.0048686108597043587 0 0.049423120700033317 0.0050786596096567757 0 0.049607989431895233 0.0048039636524621118 0 0.049366695596284295 0.0047029959441045694 0 0.049422827691219404 0.0048686108597043587 0 0.049607989431895233 0.0048039636524621118 0 0.035468199879437938 0.004497122492657487 0 0.035477890800449274 0.004508313916240402 0 0.035485025323828252 0.0045180245577015705 0 0.035474832983551065 0.004501727650905828 0 0.035477890800449274 0.004508313916240402 0 0.035485025323828252 0.0045180245577015705 0 0.035474832983551065 0.004501727650905828 0 0.035468199879437938 0.004497122492657487 0 0.035477890800449274 0.004508313916240402 0 0.044955218196243159 0.0049033122145237589 0 0.049672324835382371 0.0043415613949203471 0 0.049457369175513265 0.0048539108360873776 0 0.049255873080411239 0.0041550667238922619 0 0.049646402037711812 0.0039185629895348252 0 0.035485025323828252 0.0045180245577015705 0 0.035523466115754417 0.0044977299623683393 0 0.035596818507333261 0.0044175609059868767 0 0.035523466115754417 0.0044977299623683393 0 0.03556596163436776 0.0044954140244161606 0 0.035596818507333261 0.0044175609059868767 0 0.044955218196243159 0.0049033122145237589 0 0.042001263376951113 0.0042603813484904073 0 0.035479041580586172 0.0044961722263407635 0 0.035523466115754417 0.0044977299623683393 0 0.035438358467424158 0.0044791563146586184 0 0.035523466115754417 0.0044977299623683393 0 0.03556596163436776 0.0044954140244161606 0 0.035464209282982835 0.0044849646436501255 0 0.04935528809036914 0.0041047658924757216 0 0.049113584336616736 0.0042985434472963078 0 0.049299942136502968 0.0044862219854029375 0 0.049607989431895233 0.0048039636524621118 0 0.04935528809036914 0.0041047658924757216 0 0.049299942136502968 0.0044862219854029375 0 0.04935528809036914 0.0041047658924757216 0 0.049113584336616736 0.0042985434472963078 0 0.049019016586055453 0.0039017334299032871 0 0.048772854575943929 0.0044000156908236597 0 0.049113584336616736 0.0042985434472963078 0 0.049019016586055453 0.0039017334299032871 0 0.048772854575943929 0.0044000156908236597 0 0.049113584336616736 0.0042985434472963078 0 0.049143485537209514 0.0045924870725661425 0 0.049113584336616736 0.0042985434472963078 0 0.049143485537209514 0.0045924870725661425 0 0.049299942136502968 0.0044862219854029375 0 0.049366695596284295 0.0047029959441045694 0 0.049143485537209514 0.0045924870725661425 0 0.049299942136502968 0.0044862219854029375 0 0.035254618168221265 0.004523199114176933 0 0.035253850767864602 0.0044740295324490614 0 0.035308671403563863 0.0044727775470312812 0 0.035253850767864602 0.0044740295324490614 0 0.035308671403563863 0.0044727775470312812 0 0.035307771060405405 0.0044272426853274888 0 0.035308671403563863 0.0044727775470312812 0 0.035339275233538407 0.004442409363942963 0 0.035307771060405405 0.0044272426853274888 0 0.035308671403563863 0.0044727775470312812 0 0.035367572725055613 0.0044656089459264746 0 0.035339275233538407 0.004442409363942963 0 0.035308671403563863 0.0044727775470312812 0 0.035367572725055613 0.0044656089459264746 0 0.035321369518868322 0.0044926413057262849 0 0.035367572725055613 0.0044656089459264746 0 0.035339275233538407 0.004442409363942963 0 0.035369123844002273 0.0044418366331553868 0 0.03541218791155034 0.0044554456670053188 0 0.035369123844002273 0.0044418366331553868 0 0.035419574415787337 0.0044708162392608384 0 0.035367572725055613 0.0044656089459264746 0 0.035369123844002273 0.0044418366331553868 0 0.035419574415787337 0.0044708162392608384 0 0.035367572725055613 0.0044656089459264746 0 0.035419574415787337 0.0044708162392608384 0 0.035438358467424158 0.0044791563146586184 0 0.035438358467424158 0.0044791563146586184 0 0.035464209282982835 0.0044849646436501255 0 0.035396433622096317 0.0044820033086112442 0 0.035523466115754417 0.0044977299623683393 0 0.035438358467424158 0.0044791563146586184 0 0.035464209282982835 0.0044849646436501255 0 0.03556596163436776 0.0044954140244161606 0 0.035464209282982835 0.0044849646436501255 0 0.035396791127401177 0.0044942805711908366 0 0.035396791127401177 0.0044942805711908366 0 0.035396433622096317 0.0044820033086112442 0 0.035321369518868322 0.0044926413057262849 0 0.035367572725055613 0.0044656089459264746 0 0.035438358467424158 0.0044791563146586184 0 0.035396433622096317 0.0044820033086112442 0 0.035367572725055613 0.0044656089459264746 0 0.035396433622096317 0.0044820033086112442 0 0.035321369518868322 0.0044926413057262849 0 0.035464209282982835 0.0044849646436501255 0 0.035396791127401177 0.0044942805711908366 0 0.035396433622096317 0.0044820033086112442 0 0.035396791127401177 0.0044942805711908366 0 0.035321369518868322 0.0044926413057262849 0 0.035333692961915991 0.0045029254706573114 0 0.035321369518868322 0.0044926413057262849 0 0.035333692961915991 0.0045029254706573114 0 0.035307847155120337 0.0044977293368176309 0 0.035321369518868322 0.0044926413057262849 0 0.035276816409296641 0.0044905243326330566 0 0.035307847155120337 0.0044977293368176309 0 0.035254618168221265 0.004523199114176933 0 0.035308671403563863 0.0044727775470312812 0 0.035321369518868322 0.0044926413057262849 0 0.035254618168221265 0.004523199114176933 0 0.035321369518868322 0.0044926413057262849 0 0.035276816409296641 0.0044905243326330566 0 0.035180538294972905 0.0042922021563170237 0 0.035271465969296541 0.0044548511892978414 0 0.035336055405553915 0.0045243843231229895 0 0.04018136222367049 0.0021567090505152332 0 0.039218995046124326 0.0036448778279266894 0 0.035271465969296541 0.0044548511892978414 0 0.035307847155120337 0.0044977293368176309 0 0.035336055405553915 0.0045243843231229895 0 0.035271465969296541 0.0044548511892978414 0 0.035276816409296641 0.0044905243326330566 0 0.035307847155120337 0.0044977293368176309 0 0.036571972950769305 0.0033488894358992298 0 0.039218995046124326 0.0036448778279266894 0 0.035333692961915991 0.0045029254706573114 0 0.035307847155120337 0.0044977293368176309 0 0.035317303834402049 0.0045415076173802226 0 0.034316113473360513 0.0050315975830707198 0 0.039218995046124326 0.0036448778279266894 0 0.03556596163436776 0.0044954140244161606 0 0.035396791127401177 0.0044942805711908366 0 0.035317303834402049 0.0045415076173802226 0 0.03556596163436776 0.0044954140244161606 0 0.036093283134749687 0.0043599846418279206 0 0.035767673170250758 0.0043373770831530208 0 0.036093283134749687 0.0043599846418279206 0 0.035767673170250758 0.0043373770831530208 0 0.035892844754496819 0.0041317057581389495 0 0.039218995046124326 0.0036448778279266894 0 0.041787027299956807 0.0022705262672560625 0 0.035396791127401177 0.0044942805711908366 0 0.035333692961915991 0.0045029254706573114 0 0.035317303834402049 0.0045415076173802226 0 0.035767673170250758 0.0043373770831530208 0 0.035892844754496819 0.0041317057581389495 0 0.03575917952280868 0.0042011723289014629 0 0.04827220286325485 0.00095638572727470262 0 0.047897726956019154 0.0018900840480136716 0 0.048571570238142223 0.0020090014678627575 0 0.035892844754496819 0.0041317057581389495 0 0.03575917952280868 0.0042011723289014629 0 0.035773755297177225 0.003912086950244021 0 0.041787027299956807 0.0022705262672560625 0 0.045575064851642116 0.0030637536195223239 0 0.04827220286325485 0.00095638572727470262 0 0.047897726956019154 0.0018900840480136716 0 0.047375189051708989 0.00073720674194973821 0 0.047058002694616442 -0.00075124500473188339 0 0.04827220286325485 0.00095638572727470262 0 0.047375189051708989 0.00073720674194973821 0 0.044229904210295684 0.00065953273320086873 0 0.047058002694616442 -0.00075124500473188339 0 0.046219325802281677 0.00077224355461419521 0 0.047897726956019154 0.0018900840480136716 0 0.046219325802281677 0.00077224355461419521 0 0.045158313916237362 0.0015372723952748726 0 0.047058002694616442 -0.00075124500473188339 0 0.047375189051708989 0.00073720674194973821 0 0.046219325802281677 0.00077224355461419521 0 0.047897726956019154 0.0018900840480136716 0 0.047375189051708989 0.00073720674194973821 0 0.046219325802281677 0.00077224355461419521 0 0.044229904210295684 0.00065953273320086873 0 0.046219325802281677 0.00077224355461419521 0 0.045158313916237362 0.0015372723952748726 0 0.049255873080411239 0.0041550667238922619 0 0.049338736059016002 0.0037222339495485753 0 0.049065057493531329 0.0034235047885856316 0 0.04935528809036914 0.0041047658924757216 0 0.049019016586055453 0.0039017334299032871 0 0.049051515157423543 0.0034393760660696064 0 0.049672324835382371 0.0043415613949203471 0 0.049013439361356721 0.0033802575742562691 0 0.048746610331174722 0.0035894724378639897 0 0.049019016586055453 0.0039017334299032871 0 0.049051515157423543 0.0034393760660696064 0 0.049255873080411239 0.0041550667238922619 0 0.049338736059016002 0.0037222339495485753 0 0.049646402037711812 0.0039185629895348252 0 0.03556596163436776 0.0044954140244161606 0 0.035767673170250758 0.0043373770831530208 0 0.035596818507333261 0.0044175609059868767 0 0.035767673170250758 0.0043373770831530208 0 0.035596818507333261 0.0044175609059868767 0 0.03575917952280868 0.0042011723289014629 0 0.049338736059016002 0.0037222339495485753 0 0.049646402037711812 0.0039185629895348252 0 0.04940610929778045 0.0034000968309574426 0 0.049646402037711812 0.0039185629895348252 0 0.04940610929778045 0.0034000968309574426 0 0.049705714080028794 0.0029493171139630494 0 0.035596818507333261 0.0044175609059868767 0 0.03575917952280868 0.0042011723289014629 0 0.035773755297177225 0.003912086950244021 0 0.042001263376951113 0.0042603813484904073 0 0.045575064851642116 0.0030637536195223239 0 0.04940610929778045 0.0034000968309574426 0 0.049307216527051091 0.0029968809558700766 0 0.049705714080028794 0.0029493171139630494 0 0.049013439361356721 0.0033802575742562691 0 0.049068713280283366 0.0028262723564518974 0 0.049065057493531329 0.0034235047885856316 0 0.049307216527051091 0.0029968809558700766 0 0.048976362270659324 0.0027720593956090211 0 0.04940610929778045 0.0034000968309574426 0 0.049065057493531329 0.0034235047885856316 0 0.049307216527051091 0.0029968809558700766 0 0.049338736059016002 0.0037222339495485753 0 0.04940610929778045 0.0034000968309574426 0 0.049065057493531329 0.0034235047885856316 0 0.049401311761539772 0.0025723744475002826 0 0.049307216527051091 0.0029968809558700766 0 0.048976362270659324 0.0027720593956090211 0 0.0499382676358677 0.002782483944462438 0 0.045575064851642116 0.0030637536195223239 0 0.049775213157380711 0.0023856249783934945 0 0.050045687342157856 0.0024841742164881317 0 0.049986393094561765 0.0020855620312580903 0 0.049401311761539772 0.0025723744475002826 0 0.049307216527051091 0.0029968809558700766 0 0.049705714080028794 0.0029493171139630494 0 0.045575064851642116 0.0030637536195223239 0 0.049615127065149783 0.0018934232059822503 0 0.049775213157380711 0.0023856249783934945 0 0.049986393094561765 0.0020855620312580903 0 0.049686805540503177 0.0021575836516620809 0 0.049401311761539772 0.0025723744475002826 0 0.049316320918486097 0.0022388123897309677 0 0.048976362270659324 0.0027720593956090211 0 0.049316320918486097 0.0022388123897309677 0 0.049501211915784521 0.0020521743825673965 0 0.049259629938865825 0.0021350830703177688 0 0.049686805540503177 0.0021575836516620809 0 0.049316320918486097 0.0022388123897309677 0 0.049501211915784521 0.0020521743825673965 0 0.0499382676358677 0.002782483944462438 0 0.04921627715022435 0.0021136532135712467 0 0.049775213157380711 0.0023856249783934945 0 0.049686805540503177 0.0021575836516620809 0 0.049316320918486097 0.0022388123897309677 0 0.047897726956019154 0.0018900840480136716 0 0.048398229380501506 0.00215674354550728 0 0.048181982370888554 0.0020568236199370632 0 0.047897726956019154 0.0018900840480136716 0 0.045158313916237362 0.0015372723952748726 0 0.045032924397583975 0.0027591283321430089 0 0.047796858666559076 0.0019546357015558162 0 0.04688608953761754 0.0023954270389039073 0 0.048398229380501506 0.00215674354550728 0 0.048181982370888554 0.0020568236199370632 0 0.048419394661055784 0.0020421493865051955 0 0.048181982370888554 0.0020568236199370632 0 0.048287880012796935 0.0020959865187042907 0 0.048419394661055784 0.0020421493865051955 0 0.048571570238142223 0.0020090014678627575 0 0.048252143088834049 0.0021771270218643888 0 0.048248220247900812 0.0020946570612880811 0 0.047897726956019154 0.0018900840480136716 0 0.048571570238142223 0.0020090014678627575 0 0.048248220247900812 0.0020946570612880811 0 0.048181982370888554 0.0020568236199370632 0 0.048248220247900812 0.0020946570612880811 0 0.048287880012796935 0.0020959865187042907 0 0.047897726956019154 0.0018900840480136716 0 0.048181982370888554 0.0020568236199370632 0 0.048248220247900812 0.0020946570612880811 0 0.048252143088834049 0.0021771270218643888 0 0.048248220247900812 0.0020946570612880811 0 0.048287880012796935 0.0020959865187042907 0 0.048252143088834049 0.0021771270218643888 0 0.048393391142129177 0.0020389727140395211 0 0.048287880012796935 0.0020959865187042907 0 0.048393391142129177 0.0020389727140395211 0 0.048419394661055784 0.0020421493865051955 0 0.048599354916413595 0.0018515366237903206 0 0.048393391142129177 0.0020389727140395211 0 0.048287880012796935 0.0020959865187042907 0 0.048419394661055784 0.0020421493865051955 0 0.04897975445058813 0.0018482290050899648 0 0.048419394661055784 0.0020421493865051955 0 0.048599354916413595 0.0018515366237903206 0 0.048252143088834049 0.0021771270218643888 0 0.048393391142129177 0.0020389727140395211 0 0.048599354916413595 0.0018515366237903206 0 0.049615127065149783 0.0018934232059822503 0 0.049139397528483238 0.0017291802862626215 0 0.048252143088834049 0.0021771270218643888 0 0.048599354916413595 0.0018515366237903206 0 0.048396040514483901 0.0016525150211623466 0 0.048599354916413595 0.0018515366237903206 0 0.048396040514483901 0.0016525150211623466 0 0.048707909183322136 0.0015318398744692927 0 0.048890865414306713 0.0016233176245551571 0 0.048707909183322136 0.0015318398744692927 0 0.049024993026095788 0.0013783605577899667 0 0.048890865414306713 0.0016233176245551571 0 0.048599354916413595 0.0018515366237903206 0 0.048707909183322136 0.0015318398744692927 0 0.049495904334523402 0.0018808917520117907 0 0.049458444795919369 0.00164502914238171 0 0.049259629938865825 0.0021350830703177688 0 0.049712417628470854 0.001875534188901858 0 0.049495904334523402 0.0018808917520117907 0 0.049501211915784521 0.0020521743825673965 0 0.049712417628470854 0.001875534188901858 0 0.049495904334523402 0.0018808917520117907 0 0.049580623433177304 0.0017612987925628982 0 0.049495904334523402 0.0018808917520117907 0 0.049501211915784521 0.0020521743825673965 0 0.049259629938865825 0.0021350830703177688 0 0.049686805540503177 0.0021575836516620809 0 0.049712417628470854 0.001875534188901858 0 0.049501211915784521 0.0020521743825673965 0 0.049986393094561765 0.0020855620312580903 0 0.049686805540503177 0.0021575836516620809 0 0.049712417628470854 0.001875534188901858 0 0.049986393094561765 0.0020855620312580903 0 0.050002776712754049 0.0016716594584572026 0 0.049712417628470854 0.001875534188901858 0 0.050002776712754049 0.0016716594584572026 0 0.049670486119929254 0.0016533817895961673 0 0.04980256184866623 0.0013938577439967853 0 0.050002776712754049 0.0016716594584572026 0 0.049712417628470854 0.001875534188901858 0 0.049670486119929254 0.0016533817895961673 0 0.049712417628470854 0.001875534188901858 0 0.049670486119929254 0.0016533817895961673 0 0.049580623433177304 0.0017612987925628982 0 0.049495904334523402 0.0018808917520117907 0 0.049580623433177304 0.0017612987925628982 0 0.049458444795919369 0.00164502914238171 0 0.049670486119929254 0.0016533817895961673 0 0.049580623433177304 0.0017612987925628982 0 0.049458444795919369 0.00164502914238171 0 0.049670486119929254 0.0016533817895961673 0 0.049458444795919369 0.00164502914238171 0 0.049541924838079281 0.0015238146711825725 0 0.049458444795919369 0.00164502914238171 0 0.049394724079712078 0.001537567194753079 0 0.049541924838079281 0.0015238146711825725 0 0.049458444795919369 0.00164502914238171 0 0.049247848621299162 0.001658134769391115 0 0.049394724079712078 0.001537567194753079 0 0.049247848621299162 0.001658134769391115 0 0.049394724079712078 0.001537567194753079 0 0.049252234320841547 0.0014584645178727642 0 0.049247848621299162 0.001658134769391115 0 0.048956282057598596 0.0017038602050280735 0 0.049208133777007071 0.0018860357158650776 0 0.049458444795919369 0.00164502914238171 0 0.049247848621299162 0.001658134769391115 0 0.049208133777007071 0.0018860357158650776 0 0.049247848621299162 0.001658134769391115 0 0.048956282057598596 0.0017038602050280735 0 0.049252234320841547 0.0014584645178727642 0 0.048956282057598596 0.0017038602050280735 0 0.048933733713133067 0.0020402739000575207 0 0.04851297917543216 0.0020264780600911182 0 0.048933733713133067 0.0020402739000575207 0 0.048616167133394228 0.0023924284514790142 0 0.04851297917543216 0.0020264780600911182 0 0.048956282057598596 0.0017038602050280735 0 0.048933733713133067 0.0020402739000575207 0 0.049208133777007071 0.0018860357158650776 0 0.049458444795919369 0.00164502914238171 0 0.049208133777007071 0.0018860357158650776 0 0.049372420316697148 0.0021432644721738454 0 0.049431718496121019 0.0016822814701237287 0 0.04932590224936894 0.0021403813885334075 0 0.048933733713133067 0.0020402739000575207 0 0.049208133777007071 0.0018860357158650776 0 0.049147558289377176 0.0020778922832825524 0 0.048933733713133067 0.0020402739000575207 0 0.049147558289377176 0.0020778922832825524 0 0.04908198229775914 0.0022463794015914855 0 0.049208133777007071 0.0018860357158650776 0 0.049147558289377176 0.0020778922832825524 0 0.049372420316697148 0.0021432644721738454 0 0.049147558289377176 0.0020778922832825524 0 0.049372420316697148 0.0021432644721738454 0 0.04908198229775914 0.0022463794015914855 0 0.049316320918486097 0.0022388123897309677 0 0.049259629938865825 0.0021350830703177688 0 0.048976362270659324 0.0027720593956090211 0 0.04908198229775914 0.0022463794015914855 0 0.048794710637085417 0.0026581752789780551 0 0.049160700150363036 0.0028704051970081159 0 0.049372420316697148 0.0021432644721738454 0 0.04908198229775914 0.0022463794015914855 0 0.049340182048830228 0.0027984438126094561 0 0.049115878340191869 0.002292753737270968 0 0.049068713280283366 0.0028262723564518974 0 0.04932590224936894 0.0021403813885334075 0 0.049068713280283366 0.0028262723564518974 0 0.048933733713133067 0.0020402739000575207 0 0.04908198229775914 0.0022463794015914855 0 0.048616167133394228 0.0023924284514790142 0 0.048616167133394228 0.0023924284514790142 0 0.048794710637085417 0.0026581752789780551 0 0.048377437088535521 0.0028748229099485991 0 0.04908198229775914 0.0022463794015914855 0 0.048616167133394228 0.0023924284514790142 0 0.048794710637085417 0.0026581752789780551 0 0.048459717613547143 0.0033743128304853575 0 0.048377437088535521 0.0028748229099485991 0 0.048741865676076544 0.0030049714961806863 0 0.048794710637085417 0.0026581752789780551 0 0.048377437088535521 0.0028748229099485991 0 0.048741865676076544 0.0030049714961806863 0 0.048816315676562937 0.0032759304616655129 0 0.048741865676076544 0.0030049714961806863 0 0.049160700150363036 0.0028704051970081159 0 0.048794710637085417 0.0026581752789780551 0 0.048741865676076544 0.0030049714961806863 0 0.049160700150363036 0.0028704051970081159 0 0.047469724315033712 0.0032361278312524077 0 0.047961759356470422 0.0029738405221524768 0 0.047969205495896727 0.0025948386039551128 0 0.047469724315033712 0.0032361278312524077 0 0.047969205495896727 0.0025948386039551128 0 0.047058919160887204 0.0029027052683192043 0 0.048377437088535521 0.0028748229099485991 0 0.047961759356470422 0.0029738405221524768 0 0.047969205495896727 0.0025948386039551128 0 0.047989410604564776 0.0033277089384346238 0 0.048377437088535521 0.0028748229099485991 0 0.047961759356470422 0.0029738405221524768 0 0.048616167133394228 0.0023924284514790142 0 0.048377437088535521 0.0028748229099485991 0 0.047969205495896727 0.0025948386039551128 0 0.048616167133394228 0.0023924284514790142 0 0.047969205495896727 0.0025948386039551128 0 0.04851297917543216 0.0020264780600911182 0 0.047969205495896727 0.0025948386039551128 0 0.048096021452005769 0.0020032893702500438 0 0.047345867424927961 0.0023841779469728568 0 0.047969205495896727 0.0025948386039551128 0 0.047058919160887204 0.0029027052683192043 0 0.047345867424927961 0.0023841779469728568 0 0.047969205495896727 0.0025948386039551128 0 0.048096021452005769 0.0020032893702500438 0 0.04851297917543216 0.0020264780600911182 0 0.048096021452005769 0.0020032893702500438 0 0.04851297917543216 0.0020264780600911182 0 0.048588596264375152 0.0016416628307463334 0 0.048956282057598596 0.0017038602050280735 0 0.048588596264375152 0.0016416628307463334 0 0.048994502615459096 0.0013935231547663684 0 0.048956282057598596 0.0017038602050280735 0 0.04851297917543216 0.0020264780600911182 0 0.048588596264375152 0.0016416628307463334 0 0.048096021452005769 0.0020032893702500438 0 0.048588596264375152 0.0016416628307463334 0 0.048223340820454423 0.0016143306063469663 0 0.048588596264375152 0.0016416628307463334 0 0.048223340820454423 0.0016143306063469663 0 0.048616306421968639 0.0014421205003439213 0 0.048616306421968639 0.0014421205003439213 0 0.049032937278670599 0.0011233601781882939 0 0.04874595389161087 0.0012693476015422885 0 0.048616306421968639 0.0014421205003439213 0 0.048994502615459096 0.0013935231547663684 0 0.049032937278670599 0.0011233601781882939 0 0.048588596264375152 0.0016416628307463334 0 0.048616306421968639 0.0014421205003439213 0 0.048994502615459096 0.0013935231547663684 0 0.048994502615459096 0.0013935231547663684 0 0.049252234320841547 0.0014584645178727642 0 0.049414253410762561 0.0011624461034249695 0 0.048956282057598596 0.0017038602050280735 0 0.048994502615459096 0.0013935231547663684 0 0.049252234320841547 0.0014584645178727642 0 0.048994502615459096 0.0013935231547663684 0 0.049414253410762561 0.0011624461034249695 0 0.049032937278670599 0.0011233601781882939 0 0.049252234320841547 0.0014584645178727642 0 0.04952462620118752 0.0013205280905679356 0 0.049414253410762561 0.0011624461034249695 0 0.049394724079712078 0.001537567194753079 0 0.04952462620118752 0.0013205280905679356 0 0.049541924838079281 0.0015238146711825725 0 0.049394724079712078 0.001537567194753079 0 0.049252234320841547 0.0014584645178727642 0 0.04952462620118752 0.0013205280905679356 0 0.04952462620118752 0.0013205280905679356 0 0.049414253410762561 0.0011624461034249695 0 0.049754764841863607 0.0011416175014314985 0 0.049414253410762561 0.0011624461034249695 0 0.049643585104616673 0.00089993503708421421 0 0.049754764841863607 0.0011416175014314985 0 0.049414253410762561 0.0011624461034249695 0 0.049444955857411509 0.00086005099339336237 0 0.049032937278670599 0.0011233601781882939 0 0.049414253410762561 0.0011624461034249695 0 0.049444955857411509 0.00086005099339336237 0 0.049643585104616673 0.00089993503708421421 0 0.049444955857411509 0.00086005099339336237 0 0.049643585104616673 0.00089993503708421421 0 0.049744143046502348 0.00057787918815424728 0 0.049643585104616673 0.00089993503708421421 0 0.049931651940705674 0.00076515896126108716 0 0.049744143046502348 0.00057787918815424728 0 0.049444955857411509 0.00086005099339336237 0 0.049542803380565555 0.00057869067885192506 0 0.049744143046502348 0.00057787918815424728 0 0.049284893825940375 0.00082853395674343069 0 0.04934528534876377 0.00064678198878601804 0 0.049542803380565555 0.00057869067885192506 0 0.049444955857411509 0.00086005099339336237 0 0.049284893825940375 0.00082853395674343069 0 0.049542803380565555 0.00057869067885192506 0 0.049284893825940375 0.00082853395674343069 0 0.049071341926657616 0.00095640228820652578 0 0.04934528534876377 0.00064678198878601804 0 0.049284893825940375 0.00082853395674343069 0 0.049071341926657616 0.00095640228820652578 0 0.049032937278670599 0.0011233601781882939 0 0.049071341926657616 0.00095640228820652578 0 0.049032937278670599 0.0011233601781882939 0 0.04874595389161087 0.0012693476015422885 0 0.049444955857411509 0.00086005099339336237 0 0.049284893825940375 0.00082853395674343069 0 0.049032937278670599 0.0011233601781882939 0 0.049319187720490383 0.0010872864607585416 0 0.049059707450339309 0.00099161012937136971 0 0.049024993026095788 0.0013783605577899667 0 0.049059707450339309 0.00099161012937136971 0 0.049024993026095788 0.0013783605577899667 0 0.048642272209852469 0.0011566856422843771 0 0.048707909183322136 0.0015318398744692927 0 0.049024993026095788 0.0013783605577899667 0 0.048642272209852469 0.0011566856422843771 0 0.048396040514483901 0.0016525150211623466 0 0.048707909183322136 0.0015318398744692927 0 0.048642272209852469 0.0011566856422843771 0 0.049139397528483238 0.0017291802862626215 0 0.049357363168146422 0.0011931559438095468 0 0.049059707450339309 0.00099161012937136971 0 0.048642272209852469 0.0011566856422843771 0 0.048955034955449075 0.00067599341491106065 0 0.050053382057076663 0.0012368480448280439 0 0.04980256184866623 0.0013938577439967853 0 0.049852382379299447 0.00097228902353242665 0 0.04980256184866623 0.0013938577439967853 0 0.049593621502360762 0.0011225549552644379 0 0.049852382379299447 0.00097228902353242665 0 0.050002776712754049 0.0016716594584572026 0 0.050053382057076663 0.0012368480448280439 0 0.04980256184866623 0.0013938577439967853 0 0.04952462620118752 0.0013205280905679356 0 0.049541924838079281 0.0015238146711825725 0 0.049754764841863607 0.0011416175014314985 0 0.049562724444448425 0.0014923942608017508 0 0.049671950937646467 0.0011303511815697141 0 0.049670486119929254 0.0016533817895961673 0 0.04980256184866623 0.0013938577439967853 0 0.049541924838079281 0.0015238146711825725 0 0.04980256184866623 0.0013938577439967853 0 0.049541924838079281 0.0015238146711825725 0 0.049593621502360762 0.0011225549552644379 0 0.049671950937646467 0.0011303511815697141 0 0.049797163560358022 0.00074577207958232154 0 0.049593621502360762 0.0011225549552644379 0 0.049663617963362695 0.00073412741275708003 0 0.049852382379299447 0.00097228902353242665 0 0.049643585104616673 0.00089993503708421421 0 0.049754764841863607 0.0011416175014314985 0 0.049931651940705674 0.00076515896126108716 0 0.049663617963362695 0.00073412741275708003 0 0.049906343734839737 0.00057618457135979583 0 0.049753297896696969 0.00038827953401008523 0 0.049663617963362695 0.00073412741275708003 0 0.049906343734839737 0.00057618457135979583 0 0.049852382379299447 0.00097228902353242665 0 0.049906343734839737 0.00057618457135979583 0 0.049852382379299447 0.00097228902353242665 0 0.05009795966374609 0.00080743342523775504 0 0.049357363168146422 0.0011931559438095468 0 0.049523541706112784 0.00076009954519542762 0 0.050053382057076663 0.0012368480448280439 0 0.049852382379299447 0.00097228902353242665 0 0.05009795966374609 0.00080743342523775504 0 0.049523541706112784 0.00076009954519542762 0 0.049697024333400272 0.00038240645563368466 0 0.049906343734839737 0.00057618457135979583 0 0.05009795966374609 0.00080743342523775504 0 0.050114687566762774 0.00041914755187456474 0 0.048955034955449075 0.00067599341491106065 0 0.04944365481000839 0.00046010528190002783 0 0.049283709548689554 0.00031457817342967777 0 0.049370554445263205 0.00073771169563130641 0 0.048955034955449075 0.00067599341491106065 0 0.04944365481000839 0.00046010528190002783 0 0.049370554445263205 0.00073771169563130641 0 0.049059707450339309 0.00099161012937136971 0 0.048955034955449075 0.00067599341491106065 0 0.049821471175727078 8.130114832195365e-05 0 0.049588078205563622 0.00022764339626704419 0 0.049629138011001953 7.5904473805902739e-05 0 0.049588078205563622 0.00022764339626704419 0 0.049283709548689554 0.00031457817342967777 0 0.049629138011001953 7.5904473805902739e-05 0 0.04944365481000839 0.00046010528190002783 0 0.049588078205563622 0.00022764339626704419 0 0.049283709548689554 0.00031457817342967777 0 0.049906343734839737 0.00057618457135979583 0 0.050114687566762774 0.00041914755187456474 0 0.049959273425180077 0.00025455145598747081 0 0.050114687566762774 0.00041914755187456474 0 0.049959273425180077 0.00025455145598747081 0 0.050081362307090926 0.00012475902676506944 0 0.049697024333400272 0.00038240645563368466 0 0.049852611430407291 0.00012865414765832271 0 0.049959273425180077 0.00025455145598747081 0 0.049753297896696969 0.00038827953401008523 0 0.049864325416527785 0.00012427080631898993 0 0.049906343734839737 0.00057618457135979583 0 0.049959273425180077 0.00025455145598747081 0 0.049753297896696969 0.00038827953401008523 0 0.050050179333733145 0.00042407858023939569 0 0.049744143046502348 0.00057787918815424728 0 0.049917170220813725 0.00030421321779069006 0 0.049931651940705674 0.00076515896126108716 0 0.050050179333733145 0.00042407858023939569 0 0.049744143046502348 0.00057787918815424728 0 0.049797163560358022 0.00074577207958232154 0 0.049899327846210817 0.00040792315361591294 0 0.050050179333733145 0.00042407858023939569 0 0.050077511386676862 0.0001488121007451931 0 0.049917170220813725 0.00030421321779069006 0 0.049899327846210817 0.00040792315361591294 0 0.049967196337236348 0.00015017203927398853 0 0.050077511386676862 0.0001488121007451931 0 0.049917170220813725 0.00030421321779069006 0 0.049939500404651282 0.00013932824629686222 0 0.050006803996351268 5.7269698696323187e-05 0 0.050077511386676862 0.0001488121007451931 0 0.049939500404651282 0.00013932824629686222 0 0.050006803996351268 5.7269698696323187e-05 0 0.050000183078269547 3.1253650509269584e-08 0 0.050077511386676862 0.0001488121007451931 0 0.050006803996351268 5.7269698696323187e-05 0 0.050000183078269547 3.1253650509269584e-08 0 0.049999917259667813 5.3658837061503137e-08 0 0.04999986585145702 -1.0765503069282465e-09 0 0.049864325416527785 0.00012427080631898993 0 0.049972916667437597 7.1153264295324356e-05 0 0.04999986585145702 -1.0765503069282465e-09 0 0.049972916667437597 7.1153264295324356e-05 0 0.049999969497644327 -3.8000439494404992e-09 0 0.049999988736603621 5.9823399179530139e-08 0 0.049967196337236348 0.00015017203927398853 0 0.049959273425180077 0.00025455145598747081 0 0.049864325416527785 0.00012427080631898993 0 0.049972916667437597 7.1153264295324356e-05 0 0.049959273425180077 0.00025455145598747081 0 0.049972916667437597 7.1153264295324356e-05 0 0.050081362307090926 0.00012475902676506944 0 0.050081362307090926 0.00012475902676506944 0 0.049999969497644327 -3.8000439494404992e-09 0 0.050000162317849525 4.3657137875327592e-08 0 0.049972916667437597 7.1153264295324356e-05 0 0.050081362307090926 0.00012475902676506944 0 0.049999969497644327 -3.8000439494404992e-09 0 0.049629138011001953 7.5904473805902739e-05 0 0.049999533583049566 -1.2501864816733857e-08 0 0.049869379446654073 2.3540420707947143e-05 0 0.049852611430407291 0.00012865414765832271 0 0.049999940219831319 8.3050994459709303e-08 0 0.049999856143175689 -5.4984133469127602e-09 0 0.049999533583049566 -1.2501864816733857e-08 0 0.049869379446654073 2.3540420707947143e-05 0 0.049821471175727078 8.130114832195365e-05 0 0.049629138011001953 7.5904473805902739e-05 0 0.049869379446654073 2.3540420707947143e-05 0 0.049566787761470131 0.00040321644375698084 0 0.04977123736764559 0.00030250328969900234 0 0.049806326505155527 0.00014702635904504752 0 0.049566787761470131 0.00040321644375698084 0 0.049542803380565555 0.00057869067885192506 0 0.04977123736764559 0.00030250328969900234 0 0.049566787761470131 0.00040321644375698084 0 0.049806326505155527 0.00014702635904504752 0 0.049576363199170297 0.00028592896320456116 0 0.049566787761470131 0.00040321644375698084 0 0.04934528534876377 0.00064678198878601804 0 0.049351734404345281 0.00052980551724020125 0 0.049566787761470131 0.00040321644375698084 0 0.04934528534876377 0.00064678198878601804 0 0.049542803380565555 0.00057869067885192506 0 0.049542803380565555 0.00057869067885192506 0 0.049744143046502348 0.00057787918815424728 0 0.04977123736764559 0.00030250328969900234 0 0.049744143046502348 0.00057787918815424728 0 0.049917170220813725 0.00030421321779069006 0 0.04977123736764559 0.00030250328969900234 0 0.049917170220813725 0.00030421321779069006 0 0.04977123736764559 0.00030250328969900234 0 0.049939500404651282 0.00013932824629686222 0 0.04977123736764559 0.00030250328969900234 0 0.049910208332177783 0.00010280693915122087 0 0.049939500404651282 0.00013932824629686222 0 0.04977123736764559 0.00030250328969900234 0 0.049910208332177783 0.00010280693915122087 0 0.049806326505155527 0.00014702635904504752 0 0.049910208332177783 0.00010280693915122087 0 0.049939500404651282 0.00013932824629686222 0 0.049999917259667813 5.3658837061503137e-08 0 0.050006803996351268 5.7269698696323187e-05 0 0.049939500404651282 0.00013932824629686222 0 0.049999917259667813 5.3658837061503137e-08 0 0.049910208332177783 0.00010280693915122087 0 0.049999917259667813 5.3658837061503137e-08 0 0.049999808520212151 6.2395198629818734e-08 0 0.049910208332177783 0.00010280693915122087 0 0.049999808520212151 6.2395198629818734e-08 0 0.049806326505155527 0.00014702635904504752 0 0.049999808520212151 6.2395198629818734e-08 0 0.049806326505155527 0.00014702635904504752 0 0.049999750124999076 1.0847123015814818e-07 0 0.049806326505155527 0.00014702635904504752 0 0.049999750124999076 1.0847123015814818e-07 0 0.049824944028665372 9.2271944233421091e-05 0 0.049999750124999076 1.0847123015814818e-07 0 0.049824944028665372 9.2271944233421091e-05 0 0.049999415075410947 -3.4176097070814339e-08 0 0.049824944028665372 9.2271944233421091e-05 0 0.049999415075410947 -3.4176097070814339e-08 0 0.049654323186719487 0.00014507862635145357 0 0.049824944028665372 9.2271944233421091e-05 0 0.049654323186719487 0.00014507862635145357 0 0.049576363199170297 0.00028592896320456116 0 0.049806326505155527 0.00014702635904504752 0 0.049824944028665372 9.2271944233421091e-05 0 0.049576363199170297 0.00028592896320456116 0 0.049576363199170297 0.00028592896320456116 0 0.049351734404345281 0.00052980551724020125 0 0.049186558916964669 0.00049484209692675927 0 0.049566787761470131 0.00040321644375698084 0 0.049576363199170297 0.00028592896320456116 0 0.049351734404345281 0.00052980551724020125 0 0.049654323186719487 0.00014507862635145357 0 0.049576363199170297 0.00028592896320456116 0 0.049186558916964669 0.00049484209692675927 0 0.049351734404345281 0.00052980551724020125 0 0.049186558916964669 0.00049484209692675927 0 0.048987033491140884 0.00086835789589163577 0 0.049186558916964669 0.00049484209692675927 0 0.048987033491140884 0.00086835789589163577 0 0.0487105449380918 0.0009159512735223181 0 0.04934528534876377 0.00064678198878601804 0 0.049351734404345281 0.00052980551724020125 0 0.048987033491140884 0.00086835789589163577 0 0.048652985132747149 0.00072629053213106869 0 0.049186558916964669 0.00049484209692675927 0 0.0487105449380918 0.0009159512735223181 0 0.048652985132747149 0.00072629053213106869 0 0.049186558916964669 0.00049484209692675927 0 0.049271919974193452 0.0002201537269145189 0 0.049654323186719487 0.00014507862635145357 0 0.049186558916964669 0.00049484209692675927 0 0.049271919974193452 0.0002201537269145189 0 0.049654323186719487 0.00014507862635145357 0 0.049271919974193452 0.0002201537269145189 0 0.050000087817203089 5.0274847667453866e-07 0 0.049999415075410947 -3.4176097070814339e-08 0 0.049654323186719487 0.00014507862635145357 0 0.050000087817203089 5.0274847667453866e-07 0 0.049271919974193452 0.0002201537269145189 0 0.050000087817203089 5.0274847667453866e-07 0 0.049996409569696247 -1.690349840608905e-06 0 0.049271919974193452 0.0002201537269145189 0 0.049996409569696247 -1.690349840608905e-06 0 0.04896069537142151 0.0001994978242110429 0 0.049999993764172065 -7.4176705544101199e-09 0 0.049997936031761392 1.0956954869618974e-07 0 0.04999999883161823 1.2407906104662148e-08 0 0.049996409569696247 -1.690349840608905e-06 0 0.04896069537142151 0.0001994978242110429 0 0.048085550707663488 -0.00044272742134370414 0 0.049999721947352492 -1.2270379116364808e-07 0 0.048918086419331389 -0.00019118192800056746 0 0.04896069537142151 0.0001994978242110429 0 0.048085550707663488 -0.00044272742134370414 0 0.048000337250823109 0.00029566156828845835 0 0.04896069537142151 0.0001994978242110429 0 0.048000337250823109 0.00029566156828845835 0 0.04830469261778992 0.00061374397454464424 0 0.049271919974193452 0.0002201537269145189 0 0.04896069537142151 0.0001994978242110429 0 0.04830469261778992 0.00061374397454464424 0 0.049996290685927855 1.3906903278781413e-06 0 0.04999999883161823 1.2407906104662148e-08 0 0.04999995880796268 -4.0272524687811294e-08 0 0.049994484930896602 4.0360757518837324e-06 0 0.049996290685927855 1.3906903278781413e-06 0 0.049997936031761392 1.0956954869618974e-07 0 0.048988770246126558 9.6274939406385085e-05 0 0.049143697687549046 9.6885337870878571e-06 0 0.04999955621997295 4.8306224240402874e-06 0 0.049996290685927855 1.3906903278781413e-06 0 0.049991637089318523 -2.6876462910409335e-06 0 0.049996290685927855 1.3906903278781413e-06 0 0.04999995880796268 -4.0272524687811294e-08 0 0.049991637089318523 -2.6876462910409335e-06 0 0.046894916451264909 -0.00034513843818718135 0 0.048085550707663488 -0.00044272742134370414 0 0.047526760595171719 -0.00011876805489539361 0 0.048988770246126558 9.6274939406385085e-05 0 0.048918086419331389 -0.00019118192800056746 0 0.049996290685927855 1.3906903278781413e-06 0 0.049997936031761392 1.0956954869618974e-07 0 0.04999999883161823 1.2407906104662148e-08 0 0.048000337250823109 0.00029566156828845835 0 0.047526760595171719 -0.00011876805489539361 0 0.047386170275048017 0.00037130005541596991 0 0.048085550707663488 -0.00044272742134370414 0 0.048000337250823109 0.00029566156828845835 0 0.047526760595171719 -0.00011876805489539361 0 0.047526760595171719 -0.00011876805489539361 0 0.047015069821603743 0.00019341471592636476 0 0.047386170275048017 0.00037130005541596991 0 0.047526760595171719 -0.00011876805489539361 0 0.047137738443797858 -7.4268020201725073e-05 0 0.047015069821603743 0.00019341471592636476 0 0.046894916451264909 -0.00034513843818718135 0 0.047526760595171719 -0.00011876805489539361 0 0.047137738443797858 -7.4268020201725073e-05 0 0.047137738443797858 -7.4268020201725073e-05 0 0.047015069821603743 0.00019341471592636476 0 0.046814265403145629 0.00019278101769188026 0 0.046984050519228111 -0.00015216012284786364 0 0.047018252082823932 -0.00030427484945985174 0 0.046894916451264909 -0.00034513843818718135 0 0.047137738443797858 -7.4268020201725073e-05 0 0.046814265403145629 0.00019278101769188026 0 0.048988770246126558 9.6274939406385085e-05 0 0.047018252082823932 -0.00030427484945985174 0 0.047018252082823932 -0.00030427484945985174 0 0.045359781595200543 0.0006619771490991522 0 0.046801065629027361 0.0001577938615749588 0 0.046974557245353744 0.00053010492227141407 0 0.046364322995088449 0.00081951709607644126 0 0.047015069821603743 0.00019341471592636476 0 0.046801065629027361 0.0001577938615749588 0 0.046974557245353744 0.00053010492227141407 0 0.047015069821603743 0.00019341471592636476 0 0.046974557245353744 0.00053010492227141407 0 0.047386170275048017 0.00037130005541596991 0 0.048000337250823109 0.00029566156828845835 0 0.047386170275048017 0.00037130005541596991 0 0.04745735890419684 0.00064738951218529131 0 0.046974557245353744 0.00053010492227141407 0 0.04745735890419684 0.00064738951218529131 0 0.046904456271055064 0.00087462742243463469 0 0.046974557245353744 0.00053010492227141407 0 0.047386170275048017 0.00037130005541596991 0 0.04745735890419684 0.00064738951218529131 0 0.046904456271055064 0.00087462742243463469 0 0.046552164158355634 0.0012573447011085524 0 0.047351841747166445 0.0010658572125098306 0 0.04745735890419684 0.00064738951218529131 0 0.046904456271055064 0.00087462742243463469 0 0.047351841747166445 0.0010658572125098306 0 0.046974557245353744 0.00053010492227141407 0 0.046904456271055064 0.00087462742243463469 0 0.046364322995088449 0.00081951709607644126 0 0.046904456271055064 0.00087462742243463469 0 0.046552164158355634 0.0012573447011085524 0 0.046364322995088449 0.00081951709607644126 0 0.048652985132747149 0.00072629053213106869 0 0.049271919974193452 0.0002201537269145189 0 0.04830469261778992 0.00061374397454464424 0 0.048000337250823109 0.00029566156828845835 0 0.04745735890419684 0.00064738951218529131 0 0.04830469261778992 0.00061374397454464424 0 0.04745735890419684 0.00064738951218529131 0 0.04830469261778992 0.00061374397454464424 0 0.047351841747166445 0.0010658572125098306 0 0.04830469261778992 0.00061374397454464424 0 0.047956961685793199 0.0010808181490865919 0 0.047351841747166445 0.0010658572125098306 0 0.048652985132747149 0.00072629053213106869 0 0.04830469261778992 0.00061374397454464424 0 0.047956961685793199 0.0010808181490865919 0 0.047956961685793199 0.0010808181490865919 0 0.04732253521934332 0.0014291194657186309 0 0.047351841747166445 0.0010658572125098306 0 0.04732253521934332 0.0014291194657186309 0 0.047351841747166445 0.0010658572125098306 0 0.046880337905061902 0.0015109924544195871 0 0.04732253521934332 0.0014291194657186309 0 0.047737513021391516 0.0014481490316251794 0 0.047149703073509075 0.001694200730007718 0 0.04732253521934332 0.0014291194657186309 0 0.046798550809810963 0.0017614753288737457 0 0.047149703073509075 0.001694200730007718 0 0.047956961685793199 0.0010808181490865919 0 0.04732253521934332 0.0014291194657186309 0 0.047737513021391516 0.0014481490316251794 0 0.047956961685793199 0.0010808181490865919 0 0.047737513021391516 0.0014481490316251794 0 0.048228198879981601 0.0011880065784435237 0 0.046552164158355634 0.0012573447011085524 0 0.046364322995088449 0.00081951709607644126 0 0.045741963234146865 0.0014902592206179049 0 0.046552164158355634 0.0012573447011085524 0 0.047351841747166445 0.0010658572125098306 0 0.046880337905061902 0.0015109924544195871 0 0.046552164158355634 0.0012573447011085524 0 0.046880337905061902 0.0015109924544195871 0 0.046427887767409103 0.0019078025900069679 0 0.04732253521934332 0.0014291194657186309 0 0.046880337905061902 0.0015109924544195871 0 0.046798550809810963 0.0017614753288737457 0 0.046880337905061902 0.0015109924544195871 0 0.046427887767409103 0.0019078025900069679 0 0.046798550809810963 0.0017614753288737457 0 0.046552164158355634 0.0012573447011085524 0 0.045445294560684329 0.0018618858055094035 0 0.045741963234146865 0.0014902592206179049 0 0.046552164158355634 0.0012573447011085524 0 0.045445294560684329 0.0018618858055094035 0 0.045526777336251281 0.0018694436034499371 0 0.046454199503231493 0.0012475596226961562 0 0.045979800455909221 0.0018482971591243238 0 0.045150004849441636 0.0020713890247503666 0 0.045526777336251281 0.0018694436034499371 0 0.044678460079858547 0.0025074470265830776 0 0.045150004849441636 0.0020713890247503666 0 0.044733536363708776 0.0023187497327622083 0 0.045300780679458565 0.0019644850482674892 0 0.044647631729388459 0.0027842604144520684 0 0.042992394641561099 0.0011554725372514448 0 0.045445294560684329 0.0018618858055094035 0 0.045150004849441636 0.0020713890247503666 0 0.045300780679458565 0.0019644850482674892 0 0.045445294560684329 0.0018618858055094035 0 0.045150004849441636 0.0020713890247503666 0 0.045526777336251281 0.0018694436034499371 0 0.043307238750720442 0.0011474357464114171 0 0.042992394641561099 0.0011554725372514448 0 0.046427887767409103 0.0019078025900069679 0 0.046798550809810963 0.0017614753288737457 0 0.046563094854892739 0.0020323089676254767 0 0.046427887767409103 0.0019078025900069679 0 0.046563094854892739 0.0020323089676254767 0 0.045953588555548278 0.0024205209867106821 0 0.046563094854892739 0.0020323089676254767 0 0.045953588555548278 0.0024205209867106821 0 0.046231069131357765 0.0023341448880862263 0 0.045979800455909221 0.0018482971591243238 0 0.045331796912302214 0.0024642854539968641 0 0.045150004849441636 0.0020713890247503666 0 0.044733536363708776 0.0023187497327622083 0 0.044678460079858547 0.0025074470265830776 0 0.044678460079858547 0.0025074470265830776 0 0.044505798481687821 0.0025348422158969729 0 0.044357005319506426 0.0026490600514528662 0 0.044733536363708776 0.0023187497327622083 0 0.044678460079858547 0.0025074470265830776 0 0.044505798481687821 0.0025348422158969729 0 0.047737513021391516 0.0014481490316251794 0 0.047016699807472667 0.0019468145128152445 0 0.047833294715247179 0.0016361255260723131 0 0.047737513021391516 0.0014481490316251794 0 0.047149703073509075 0.001694200730007718 0 0.047016699807472667 0.0019468145128152445 0 0.046563094854892739 0.0020323089676254767 0 0.047149703073509075 0.001694200730007718 0 0.047016699807472667 0.0019468145128152445 0 0.046798550809810963 0.0017614753288737457 0 0.046563094854892739 0.0020323089676254767 0 0.047149703073509075 0.001694200730007718 0 0.046563094854892739 0.0020323089676254767 0 0.047016699807472667 0.0019468145128152445 0 0.046231069131357765 0.0023341448880862263 0 0.047016699807472667 0.0019468145128152445 0 0.047833294715247179 0.0016361255260723131 0 0.047438602070549632 0.0021755194564824728 0 0.047833294715247179 0.0016361255260723131 0 0.04808742270609196 0.0017599935326626931 0 0.047438602070549632 0.0021755194564824728 0 0.047833294715247179 0.0016361255260723131 0 0.04808742270609196 0.0017599935326626931 0 0.04845807868098858 0.0013328503677922236 0 0.04808742270609196 0.0017599935326626931 0 0.048453050689684488 0.0016873466139394173 0 0.04845807868098858 0.0013328503677922236 0 0.04808742270609196 0.0017599935326626931 0 0.048453050689684488 0.0016873466139394173 0 0.04807299865421661 0.0021002739876512513 0 0.048223340820454423 0.0016143306063469663 0 0.048616306421968639 0.0014421205003439213 0 0.048453050689684488 0.0016873466139394173 0 0.048616306421968639 0.0014421205003439213 0 0.048453050689684488 0.0016873466139394173 0 0.04874595389161087 0.0012693476015422885 0 0.048453050689684488 0.0016873466139394173 0 0.04874595389161087 0.0012693476015422885 0 0.04845807868098858 0.0013328503677922236 0 0.04874595389161087 0.0012693476015422885 0 0.048987033491140884 0.00086835789589163577 0 0.04845807868098858 0.0013328503677922236 0 0.049071341926657616 0.00095640228820652578 0 0.04874595389161087 0.0012693476015422885 0 0.048987033491140884 0.00086835789589163577 0 0.049071341926657616 0.00095640228820652578 0 0.04934528534876377 0.00064678198878601804 0 0.048987033491140884 0.00086835789589163577 0 0.048987033491140884 0.00086835789589163577 0 0.0487105449380918 0.0009159512735223181 0 0.04845807868098858 0.0013328503677922236 0 0.048652985132747149 0.00072629053213106869 0 0.0487105449380918 0.0009159512735223181 0 0.048228198879981601 0.0011880065784435237 0 0.048652985132747149 0.00072629053213106869 0 0.047956961685793199 0.0010808181490865919 0 0.048228198879981601 0.0011880065784435237 0 0.047737513021391516 0.0014481490316251794 0 0.047833294715247179 0.0016361255260723131 0 0.048228198879981601 0.0011880065784435237 0 0.047833294715247179 0.0016361255260723131 0 0.048228198879981601 0.0011880065784435237 0 0.04845807868098858 0.0013328503677922236 0 0.0487105449380918 0.0009159512735223181 0 0.048228198879981601 0.0011880065784435237 0 0.04845807868098858 0.0013328503677922236 0 0.046020042835845085 -3.5576104231576494e-05 0 0.048803310694262858 3.2645616955545365e-06 0 0.04243440010625122 3.4505749091766167e-08 0 0.048803310694262858 3.2645616955545365e-06 0 0.04999799933961975 2.3972241988798733e-07 0 0.04243440010625122 3.4505749091766167e-08 0 0.046020042835845085 -3.5576104231576494e-05 0 0.043413812750429714 3.9936265197696429e-05 0 0.04243440010625122 3.4505749091766167e-08 0 0.041286936269243714 0.001158170879182592 0 0.042445812196770176 0.00063511209370040926 0 0.046020042835845085 -3.5576104231576494e-05 0 0.045983795711454098 -3.3428720980681955e-05 0 0.043413812750429714 3.9936265197696429e-05 0 0.043932780963840429 0.0011593978968069199 0 0.043765761558739458 0.00091818696760135503 0 0.043527621357696923 0.0015374781285354558 0 0.044641741180427269 0.00038717610450853695 0 0.042445812196770176 0.00063511209370040926 0 0.043932780963840429 0.0011593978968069199 0 0.044051607584034723 0.00083927039080374964 0 0.043765761558739458 0.00091818696760135503 0 0.044051607584034723 0.00083927039080374964 0 0.043765761558739458 0.00091818696760135503 0 0.044159682572665025 0.0005355156506527247 0 0.041286936269243714 0.001158170879182592 0 0.04067312189921396 0.0011232657951652804 0 0.043932780963840429 0.0011593978968069199 0 0.044051607584034723 0.00083927039080374964 0 0.044348091721545899 0.00077174244890507052 0 0.046020042835845085 -3.5576104231576494e-05 0 0.045983795711454098 -3.3428720980681955e-05 0 0.046032546634935105 7.6746545329656825e-05 0 0.045948059509219603 -0.00018978976828811102 0 0.048297112832799222 0.00023648041087546423 0 0.046020042835845085 -3.5576104231576494e-05 0 0.048803310694262858 3.2645616955545365e-06 0 0.04830853576422374 3.5669885818655393e-05 0 0.048890300385276295 0.00014136607338890436 0 0.048297112832799222 0.00023648041087546423 0 0.048803310694262858 3.2645616955545365e-06 0 0.049512059716964353 0.00019203323042764391 0 0.05000024765217731 -7.894277636562944e-07 0 0.048297112832799222 0.00023648041087546423 0 0.049999448963710801 -2.331228699636109e-07 0 0.048803310694262858 3.2645616955545365e-06 0 0.05000024765217731 -7.894277636562944e-07 0 0.04999799933961975 2.3972241988798733e-07 0 0.049999784775806903 1.5377220942020669e-07 0 0.049909141870653234 0.00010386628813334021 0 0.049982377811754929 4.746200101100847e-05 0 0.050000355441930454 -1.9757636197313917e-07 0 0.049992752190733666 9.8838507644513643e-05 0 0.050045656944016803 0.00014961043112512201 0 0.049999892063978334 -7.2815307966904593e-07 0 0.047185873211907613 0.00030061221048863679 0 0.049999600346305413 3.6142166190519955e-07 0 0.050000355441930454 -1.9757636197313917e-07 0 0.049992752190733666 9.8838507644513643e-05 0 0.04986422980087267 0.00025570736792496766 0 0.049999600346305413 3.6142166190519955e-07 0 0.049992752190733666 9.8838507644513643e-05 0 0.04986422980087267 0.00025570736792496766 0 0.049992752190733666 9.8838507644513643e-05 0 0.050045656944016803 0.00014961043112512201 0 0.048297112832799222 0.00023648041087546423 0 0.047185873211907613 0.00030061221048863679 0 0.043765761558739458 0.00091818696760135503 0 0.044014262652146759 0.00027535540916312181 0 0.044159682572665025 0.0005355156506527247 0 0.045983795711454098 -3.3428720980681955e-05 0 0.046032546634935105 7.6746545329656825e-05 0 0.045991397670639596 7.2370426313894356e-05 0 0.044641741180427269 0.00038717610450853695 0 0.047185873211907613 0.00030061221048863679 0 0.044159682572665025 0.0005355156506527247 0 0.044388076093417009 0.00031785745684292336 0 0.044348091721545899 0.00077174244890507052 0 0.044014262652146759 0.00027535540916312181 0 0.044159682572665025 0.0005355156506527247 0 0.044388076093417009 0.00031785745684292336 0 0.044388076093417009 0.00031785745684292336 0 0.044775581807798066 0.00036220273027638277 0 0.044348091721545899 0.00077174244890507052 0 0.049999784775806903 1.5377220942020669e-07 0 0.049982377811754929 4.746200101100847e-05 0 0.050000031415565305 -4.4423633131444651e-09 0 0.047185873211907613 0.00030061221048863679 0 0.047427300013898416 0.00022705514432289539 0 0.050000031415565305 -4.4423633131444651e-09 0 0.049981213275186294 3.0536067314122647e-05 0 0.049999978741767162 1.1514381015816928e-08 0 0.049982377811754929 4.746200101100847e-05 0 0.050000031415565305 -4.4423633131444651e-09 0 0.049981213275186294 3.0536067314122647e-05 0 0.047427300013898416 0.00022705514432289539 0 0.045498479457052203 0.00040770254053026559 0 0.045498479457052203 0.00040770254053026559 0 0.04067312189921396 0.0011232657951652804 0 0.038015071572970183 0.0010506920868821002 0 0.037886915783717272 0.00078266090770826209 0 0.038197940198341829 0.00095136487670652238 0 0.037886915783717272 0.00078266090770826209 0 0.038197940198341829 0.00095136487670652238 0 0.038092833270152726 0.00076302528161164239 0 0.038617868402444772 0.0010659864174684425 0 0.038197940198341829 0.00095136487670652238 0 0.038092833270152726 0.00076302528161164239 0 0.044051607584034723 0.00083927039080374964 0 0.044159682572665025 0.0005355156506527247 0 0.044348091721545899 0.00077174244890507052 0 0.038617868402444772 0.0010659864174684425 0 0.038092833270152726 0.00076302528161164239 0 0.038121841372391427 0.00050509431278605074 0 0.038092833270152726 0.00076302528161164239 0 0.037766185828057679 0.00043098982428828536 0 0.038121841372391427 0.00050509431278605074 0 0.037886915783717272 0.00078266090770826209 0 0.038092833270152726 0.00076302528161164239 0 0.037766185828057679 0.00043098982428828536 0 0.037886915783717272 0.00078266090770826209 0 0.037766185828057679 0.00043098982428828536 0 0.03754763160550488 0.00049526197576052738 0 0.037766185828057679 0.00043098982428828536 0 0.03754763160550488 0.00049526197576052738 0 0.037505267727344527 4.9210602943815852e-05 0 0.03754763160550488 0.00049526197576052738 0 0.037704181920880597 0.00096910211756354571 0 0.037351009621023536 0.00088198681951784299 0 0.037886915783717272 0.00078266090770826209 0 0.03754763160550488 0.00049526197576052738 0 0.037704181920880597 0.00096910211756354571 0 0.038015071572970183 0.0010506920868821002 0 0.037886915783717272 0.00078266090770826209 0 0.037704181920880597 0.00096910211756354571 0 0.045498479457052203 0.00040770254053026559 0 0.043176816855695167 0.00051804727286081304 0 0.049822590212483642 4.3238090412767451e-05 0 0.049999775463599148 -5.870289787568926e-08 0 0.049941996656940948 1.8301720708965705e-05 0 0.045498479457052203 0.00040770254053026559 0 0.050004529298748122 -2.6700046270562593e-06 0 0.049941996656940948 1.8301720708965705e-05 0 0.04989604529978027 -2.9168711725227225e-05 0 0.049999945518108435 1.5333694451653484e-08 0 0.049999775463599148 -5.870289787568926e-08 0 0.049941996656940948 1.8301720708965705e-05 0 0.049999945518108435 1.5333694451653484e-08 0 0.043176816855695167 0.00051804727286081304 0 0.045268858525850171 -0.0001255665801127743 0 0.049940301744401436 -2.00093921992024e-05 0 0.049999961910759755 9.8876691816463022e-08 0 0.049976775337771284 -8.8363843932149899e-06 0 0.049940301744401436 -2.00093921992024e-05 0 0.049931842072195497 -4.0008078517406458e-05 0 0.049999961910759755 9.8876691816463022e-08 0 0.045268858525850171 -0.0001255665801127743 0 0.050002413831368532 1.4334061523016782e-06 0 0.04999955621997295 4.8306224240402874e-06 0 0.049940301744401436 -2.00093921992024e-05 0 0.049976775337771284 -8.8363843932149899e-06 0 0.049999961910759755 9.8876691816463022e-08 0 0.04999995880796268 -4.0272524687811294e-08 0 0.049976775337771284 -8.8363843932149899e-06 0 0.04999995880796268 -4.0272524687811294e-08 0 0.049976775337771284 -8.8363843932149899e-06 0 0.049991637089318523 -2.6876462910409335e-06 0 0.04999955621997295 4.8306224240402874e-06 0 0.049976775337771284 -8.8363843932149899e-06 0 0.049991637089318523 -2.6876462910409335e-06 0 0.047018252082823932 -0.00030427484945985174 0 0.045268858525850171 -0.0001255665801127743 0 0.049373468217407838 -0.0001588092850166368 0 0.049940301744401436 -2.00093921992024e-05 0 0.049931842072195497 -4.0008078517406458e-05 0 0.048988770246126558 9.6274939406385085e-05 0 0.050206417259083515 -4.6408410040943277e-05 0 0.049320090264746298 0.00016648484865078027 0 0.049373468217407838 -0.0001588092850166368 0 0.049940301744401436 -2.00093921992024e-05 0 0.044067865909421196 -0.00027707346750192386 0 0.043666585934598851 -0.00032208018207397106 0 0.043764621932720335 0.00011636124632734324 0 0.044067865909421196 -0.00027707346750192386 0 0.043964856668263885 0.00014038528448915495 0 0.043764621932720335 0.00011636124632734324 0 0.03754763160550488 0.00049526197576052738 0 0.037351009621023536 0.00088198681951784299 0 0.037187280838027498 0.0004042665420632919 0 0.045268858525850171 -0.0001255665801127743 0 0.039752433776963428 0.00017696869865138564 0 0.03754763160550488 0.00049526197576052738 0 0.037187280838027498 0.0004042665420632919 0 0.037323097471540424 4.1820846880339228e-05 0 0.043964856668263885 0.00014038528448915495 0 0.043764621932720335 0.00011636124632734324 0 0.043845450814628165 0.00054970911410884195 0 0.039752433776963428 0.00017696869865138564 0 0.04120776460954742 0.00035440324896554695 0 0.045359781595200543 0.0006619771490991522 0 0.04120776460954742 0.00035440324896554695 0 0.037187280838027498 0.0004042665420632919 0 0.037147146568010846 -0.00021209047641788253 0 0.037323097471540424 4.1820846880339228e-05 0 0.037147146568010846 -0.00021209047641788253 0 0.037323097471540424 4.1820846880339228e-05 0 0.037374804213560271 -0.000290377605501739 0 0.037323097471540424 4.1820846880339228e-05 0 0.037374804213560271 -0.000290377605501739 0 0.037395206224669839 -0.00020701705186833516 0 0.037374804213560271 -0.000290377605501739 0 0.037395206224669839 -0.00020701705186833516 0 0.037469443838011936 -0.00055247237845687232 0 0.037395206224669839 -0.00020701705186833516 0 0.037469443838011936 -0.00055247237845687232 0 0.03770404670809184 -0.0008692212112601887 0 0.045445294560684329 0.0018618858055094035 0 0.045375603481384724 0.0019198858552989461 0 0.045741963234146865 0.0014902592206179049 0 0.037338109281666199 -0.00088524646802780424 0 0.037234787575203002 -0.00019835898345617494 0 0.037350443236046492 -0.00056514727186612239 0 0.037374804213560271 -0.000290377605501739 0 0.037469443838011936 -0.00055247237845687232 0 0.037350443236046492 -0.00056514727186612239 0 0.042992394641561099 0.0011554725372514448 0 0.04120776460954742 0.00035440324896554695 0 0.037147146568010846 -0.00021209047641788253 0 0.037374804213560271 -0.000290377605501739 0 0.037350443236046492 -0.00056514727186612239 0 0.04120776460954742 0.00035440324896554695 0 0.038425360640334694 -0.00029012424547785549 0 0.037338109281666199 -0.00088524646802780424 0 0.03751639991214805 -0.00082548969917029837 0 0.0376419080700661 -0.0010723951271423711 0 0.042992394641561099 0.0011554725372514448 0 0.040888210522758678 0.00082210181153010928 0 0.044733536363708776 0.0023187497327622083 0 0.044361104852744949 0.0022467001916931535 0 0.044254479736104517 0.0025824593514129244 0 0.037338109281666199 -0.00088524646802780424 0 0.037350443236046492 -0.00056514727186612239 0 0.03751639991214805 -0.00082548969917029837 0 0.03751639991214805 -0.00082548969917029837 0 0.0376419080700661 -0.0010723951271423711 0 0.03770404670809184 -0.0008692212112601887 0 0.037469443838011936 -0.00055247237845687232 0 0.037350443236046492 -0.00056514727186612239 0 0.03751639991214805 -0.00082548969917029837 0 0.040888210522758678 0.00082210181153010928 0 0.039073417020755535 9.4411112750334515e-05 0 0.044733536363708776 0.0023187497327622083 0 0.044505798481687821 0.0025348422158969729 0 0.044254479736104517 0.0025824593514129244 0 0.044505798481687821 0.0025348422158969729 0 0.044254479736104517 0.0025824593514129244 0 0.044357005319506426 0.0026490600514528662 0 0.0376419080700661 -0.0010723951271423711 0 0.03770404670809184 -0.0008692212112601887 0 0.037719263356398101 -0.00099895886863570426 0 0.037171426546949597 -0.0010602612108741604 0 0.039073417020755535 9.4411112750334515e-05 0 0.037102494978260632 -0.00072260553611122136 0 0.037218833822362823 -0.00081123363430177285 0 0.037318714424896642 -0.00090133081951242948 0 0.037473552397035703 -0.00015965199066021957 0 0.037171426546949597 -0.0010602612108741604 0 0.037469443838011936 -0.00055247237845687232 0 0.03751639991214805 -0.00082548969917029837 0 0.03770404670809184 -0.0008692212112601887 0 0.037395206224669839 -0.00020701705186833516 0 0.037230949465781447 -0.00065405951370125029 0 0.03736005073602057 -0.00036699640664737443 0 0.037395206224669839 -0.00020701705186833516 0 0.037102494978260632 -0.00072260553611122136 0 0.037230949465781447 -0.00065405951370125029 0 0.037102494978260632 -0.00072260553611122136 0 0.037230949465781447 -0.00065405951370125029 0 0.037218833822362823 -0.00081123363430177285 0 0.037230949465781447 -0.00065405951370125029 0 0.037218833822362823 -0.00081123363430177285 0 0.037138908638398742 -0.00080746475466202713 0 0.037230949465781447 -0.00065405951370125029 0 0.037129702057959194 -0.00069530458900433239 0 0.037138908638398742 -0.00080746475466202713 0 0.037230949465781447 -0.00065405951370125029 0 0.037129702057959194 -0.00069530458900433239 0 0.03736005073602057 -0.00036699640664737443 0 0.037129702057959194 -0.00069530458900433239 0 0.03736005073602057 -0.00036699640664737443 0 0.037337095907376397 -0.00045539284989265587 0 0.03736005073602057 -0.00036699640664737443 0 0.037505267727344527 4.9210602943815852e-05 0 0.037619094471700053 -1.1809315297310889e-05 0 0.037395206224669839 -0.00020701705186833516 0 0.03736005073602057 -0.00036699640664737443 0 0.037505267727344527 4.9210602943815852e-05 0 0.03754763160550488 0.00049526197576052738 0 0.037323097471540424 4.1820846880339228e-05 0 0.037505267727344527 4.9210602943815852e-05 0 0.037323097471540424 4.1820846880339228e-05 0 0.037395206224669839 -0.00020701705186833516 0 0.037505267727344527 4.9210602943815852e-05 0 0.037766185828057679 0.00043098982428828536 0 0.037505267727344527 4.9210602943815852e-05 0 0.037619094471700053 -1.1809315297310889e-05 0 0.037766185828057679 0.00043098982428828536 0 0.038121841372391427 0.00050509431278605074 0 0.037619094471700053 -1.1809315297310889e-05 0 0.038121841372391427 0.00050509431278605074 0 0.03787895652076044 -8.5573043875265402e-05 0 0.037619094471700053 -1.1809315297310889e-05 0 0.038121841372391427 0.00050509431278605074 0 0.03787895652076044 -8.5573043875265402e-05 0 0.038782950045238067 0.00026791552492483691 0 0.03787895652076044 -8.5573043875265402e-05 0 0.037619094471700053 -1.1809315297310889e-05 0 0.037337095907376397 -0.00045539284989265587 0 0.03736005073602057 -0.00036699640664737443 0 0.037619094471700053 -1.1809315297310889e-05 0 0.037337095907376397 -0.00045539284989265587 0 0.037129702057959194 -0.00069530458900433239 0 0.037337095907376397 -0.00045539284989265587 0 0.036849341548568969 -0.00072264704450806616 0 0.037337095907376397 -0.00045539284989265587 0 0.037459230818325071 -0.00050695689495174436 0 0.036849341548568969 -0.00072264704450806616 0 0.03787895652076044 -8.5573043875265402e-05 0 0.037337095907376397 -0.00045539284989265587 0 0.037459230818325071 -0.00050695689495174436 0 0.03787895652076044 -8.5573043875265402e-05 0 0.037459230818325071 -0.00050695689495174436 0 0.038857508066069357 -0.00023588196308180922 0 0.037459230818325071 -0.00050695689495174436 0 0.038670219891553809 -1.3365050230506263e-06 0 0.036835011898895993 -0.00040726225652321785 0 0.037459230818325071 -0.00050695689495174436 0 0.038670219891553809 -1.3365050230506263e-06 0 0.038857508066069357 -0.00023588196308180922 0 0.038670219891553809 -1.3365050230506263e-06 0 0.038857508066069357 -0.00023588196308180922 0 0.04121774435103838 1.293533733844587e-06 0 0.04121774435103838 1.293533733844587e-06 0 0.038782950045238067 0.00026791552492483691 0 0.03983374647330961 0.0010546965585706903 0 0.038857508066069357 -0.00023588196308180922 0 0.04121774435103838 1.293533733844587e-06 0 0.038782950045238067 0.00026791552492483691 0 0.041224136671907358 -3.0003484124857432e-07 0 0.042445812196770176 0.00063511209370040926 0 0.03787895652076044 -8.5573043875265402e-05 0 0.038857508066069357 -0.00023588196308180922 0 0.038782950045238067 0.00026791552492483691 0 0.038617868402444772 0.0010659864174684425 0 0.038768868095039578 0.00075968874154042597 0 0.03983374647330961 0.0010546965585706903 0 0.038121841372391427 0.00050509431278605074 0 0.038782950045238067 0.00026791552492483691 0 0.038768868095039578 0.00075968874154042597 0 0.038617868402444772 0.0010659864174684425 0 0.038121841372391427 0.00050509431278605074 0 0.038768868095039578 0.00075968874154042597 0 0.038782950045238067 0.00026791552492483691 0 0.038768868095039578 0.00075968874154042597 0 0.03983374647330961 0.0010546965585706903 0 0.041225768292266311 -1.3979012921921557e-08 0 0.043033973448968726 2.3837496234416517e-06 0 0.042428782736594978 2.0911164270584083e-08 0 0.042445812196770176 0.00063511209370040926 0 0.042431267026170491 1.2764583431274077e-07 0 0.033270798375012907 -0.00016635163677737586 0 0.033561530743096181 -8.7144929207989544e-07 0 0.03100736751165031 8.8688649904591318e-07 0 0.033270798375012907 -0.00016635163677737586 0 0.035251817943757674 -0.00046408679575010746 0 0.03452117273500608 0.00022358254017332092 0 0.033270798375012907 -0.00016635163677737586 0 0.03452117273500608 0.00022358254017332092 0 0.031198670771206981 0.00038646881474490224 0 0.033270798375012907 -0.00016635163677737586 0 0.03516786597496404 -0.00038035894194850462 0 0.035251817943757674 -0.00046408679575010746 0 0.033270798375012907 -0.00016635163677737586 0 0.033561530743096181 -8.7144929207989544e-07 0 0.03516786597496404 -0.00038035894194850462 0 0.033561530743096181 -8.7144929207989544e-07 0 0.036115055156447813 -6.0278254736843009e-07 0 0.03516786597496404 -0.00038035894194850462 0 0.038670219891553809 -1.3365050230506263e-06 0 0.036115055156447813 -6.0278254736843009e-07 0 0.036835011898895993 -0.00040726225652321785 0 0.036115055156447813 -6.0278254736843009e-07 0 0.036835011898895993 -0.00040726225652321785 0 0.03516786597496404 -0.00038035894194850462 0 0.036835011898895993 -0.00040726225652321785 0 0.03516786597496404 -0.00038035894194850462 0 0.036283520255705227 -0.00063526809170216456 0 0.037459230818325071 -0.00050695689495174436 0 0.036835011898895993 -0.00040726225652321785 0 0.036283520255705227 -0.00063526809170216456 0 0.03516786597496404 -0.00038035894194850462 0 0.036283520255705227 -0.00063526809170216456 0 0.035251817943757674 -0.00046408679575010746 0 0.036283520255705227 -0.00063526809170216456 0 0.036320685131479589 -0.00070745173450926526 0 0.035251817943757674 -0.00046408679575010746 0 0.036283520255705227 -0.00063526809170216456 0 0.036849341548568969 -0.00072264704450806616 0 0.036320685131479589 -0.00070745173450926526 0 0.037459230818325071 -0.00050695689495174436 0 0.036283520255705227 -0.00063526809170216456 0 0.036849341548568969 -0.00072264704450806616 0 0.036849341548568969 -0.00072264704450806616 0 0.036320685131479589 -0.00070745173450926526 0 0.036837661725720755 -0.00077371630925267244 0 0.037129702057959194 -0.00069530458900433239 0 0.036849341548568969 -0.00072264704450806616 0 0.036837661725720755 -0.00077371630925267244 0 0.036320685131479589 -0.00070745173450926526 0 0.036652369663742239 -0.00056164043145260647 0 0.036837661725720755 -0.00077371630925267244 0 0.036320685131479589 -0.00070745173450926526 0 0.036005159769923176 -0.0001819587189743868 0 0.036652369663742239 -0.00056164043145260647 0 0.036320685131479589 -0.00070745173450926526 0 0.036005159769923176 -0.0001819587189743868 0 0.035251817943757674 -0.00046408679575010746 0 0.036005159769923176 -0.0001819587189743868 0 0.035251817943757674 -0.00046408679575010746 0 0.03452117273500608 0.00022358254017332092 0 0.036005159769923176 -0.0001819587189743868 0 0.03452117273500608 0.00022358254017332092 0 0.036143392787630929 0.00077537686272551433 0 0.036005159769923176 -0.0001819587189743868 0 0.036966896049205882 0.00042307192880528406 0 0.037008000700967762 -0.00021534707781820829 0 0.036005159769923176 -0.0001819587189743868 0 0.036966896049205882 0.00042307192880528406 0 0.036143392787630929 0.00077537686272551433 0 0.036966896049205882 0.00042307192880528406 0 0.037669314046088621 0.0003062683078302447 0 0.037008000700967762 -0.00021534707781820829 0 0.036966896049205882 0.00042307192880528406 0 0.037669314046088621 0.0003062683078302447 0 0.03754794987948256 0.00081353099312501205 0 0.037669314046088621 0.0003062683078302447 0 0.038039473397341872 0.00082988210538579524 0 0.03754794987948256 0.00081353099312501205 0 0.037669314046088621 0.0003062683078302447 0 0.037650509965711919 -0.00019670165402979235 0 0.038236496423792364 0.00029299795436149432 0 0.037669314046088621 0.0003062683078302447 0 0.037650509965711919 -0.00019670165402979235 0 0.037008000700967762 -0.00021534707781820829 0 0.037650509965711919 -0.00019670165402979235 0 0.037008000700967762 -0.00021534707781820829 0 0.03714673073568147 -0.00069597822966297829 0 0.036005159769923176 -0.0001819587189743868 0 0.037008000700967762 -0.00021534707781820829 0 0.036652369663742239 -0.00056164043145260647 0 0.037008000700967762 -0.00021534707781820829 0 0.036652369663742239 -0.00056164043145260647 0 0.03714673073568147 -0.00069597822966297829 0 0.036652369663742239 -0.00056164043145260647 0 0.036837661725720755 -0.00077371630925267244 0 0.03714673073568147 -0.00069597822966297829 0 0.037129702057959194 -0.00069530458900433239 0 0.036837661725720755 -0.00077371630925267244 0 0.037138908638398742 -0.00080746475466202713 0 0.036837661725720755 -0.00077371630925267244 0 0.037138908638398742 -0.00080746475466202713 0 0.03714673073568147 -0.00069597822966297829 0 0.037138908638398742 -0.00080746475466202713 0 0.037292296645476758 -0.00082459751377764743 0 0.03714673073568147 -0.00069597822966297829 0 0.037218833822362823 -0.00081123363430177285 0 0.037138908638398742 -0.00080746475466202713 0 0.037292296645476758 -0.00082459751377764743 0 0.037292296645476758 -0.00082459751377764743 0 0.03714673073568147 -0.00069597822966297829 0 0.037515689723491702 -0.00071746563814266266 0 0.037650509965711919 -0.00019670165402979235 0 0.03714673073568147 -0.00069597822966297829 0 0.037515689723491702 -0.00071746563814266266 0 0.038119843160120362 -0.00041676341349134181 0 0.038174891651113881 -0.00047518841937503343 0 0.038424133059525738 -0.00036922609141944298 0 0.037758874721144885 -0.00055199697921663651 0 0.039073417020755535 9.4411112750334515e-05 0 0.037292296645476758 -0.00082459751377764743 0 0.037515689723491702 -0.00071746563814266266 0 0.037318714424896642 -0.00090133081951242948 0 0.037218833822362823 -0.00081123363430177285 0 0.037292296645476758 -0.00082459751377764743 0 0.037318714424896642 -0.00090133081951242948 0 0.044254479736104517 0.0025824593514129244 0 0.044108314139252487 0.0026652902011104034 0 0.044357005319506426 0.0026490600514528662 0 0.044108314139252487 0.0026652902011104034 0 0.044357005319506426 0.0026490600514528662 0 0.044206772693926394 0.0027972086004967311 0 0.039073417020755535 9.4411112750334515e-05 0 0.041477313615793883 0.0016055341646732677 0 0.044206772693926394 0.0027972086004967311 0 0.044042112081563958 0.0029277432883060743 0 0.044170060763253909 0.0030220264682457552 0 0.044108314139252487 0.0026652902011104034 0 0.044206772693926394 0.0027972086004967311 0 0.044042112081563958 0.0029277432883060743 0 0.041477313615793883 0.0016055341646732677 0 0.041378587437235069 0.0016449942426346208 0 0.038424133059525738 -0.00036922609141944298 0 0.03826497957985666 -0.00014113911020898005 0 0.038987054469745035 0.00030603534876288724 0 0.044042112081563958 0.0029277432883060743 0 0.043908684580224351 0.0032930201497958613 0 0.044170060763253909 0.0030220264682457552 0 0.038119843160120362 -0.00041676341349134181 0 0.038424133059525738 -0.00036922609141944298 0 0.03826497957985666 -0.00014113911020898005 0 0.037650509965711919 -0.00019670165402979235 0 0.038119843160120362 -0.00041676341349134181 0 0.03826497957985666 -0.00014113911020898005 0 0.03764459676352979 -0.00019129490874523813 0 0.037758874721144885 -0.00055199697921663651 0 0.037650509965711919 -0.00019670165402979235 0 0.03826497957985666 -0.00014113911020898005 0 0.038236496423792364 0.00029299795436149432 0 0.03826497957985666 -0.00014113911020898005 0 0.038236496423792364 0.00029299795436149432 0 0.038987054469745035 0.00030603534876288724 0 0.038236496423792364 0.00029299795436149432 0 0.038987054469745035 0.00030603534876288724 0 0.038766259158569384 0.0010114710286809791 0 0.037669314046088621 0.0003062683078302447 0 0.038236496423792364 0.00029299795436149432 0 0.038039473397341872 0.00082988210538579524 0 0.038987054469745035 0.00030603534876288724 0 0.039494528678096448 0.0012392934765241453 0 0.038766259158569384 0.0010114710286809791 0 0.039494528678096448 0.0012392934765241453 0 0.038766259158569384 0.0010114710286809791 0 0.038980769531255122 0.0017055112046446082 0 0.041378587437235069 0.0016449942426346208 0 0.0419413355783766 0.0029430607687077398 0 0.038236496423792364 0.00029299795436149432 0 0.038039473397341872 0.00082988210538579524 0 0.038766259158569384 0.0010114710286809791 0 0.038378271354908816 0.0012790523143986403 0 0.038766259158569384 0.0010114710286809791 0 0.038980769531255122 0.0017055112046446082 0 0.038039473397341872 0.00082988210538579524 0 0.038378271354908816 0.0012790523143986403 0 0.037878403578293786 0.0013895063686494632 0 0.038039473397341872 0.00082988210538579524 0 0.038378271354908816 0.0012790523143986403 0 0.038766259158569384 0.0010114710286809791 0 0.038378271354908816 0.0012790523143986403 0 0.038335898868850235 0.0017609629556376459 0 0.038980769531255122 0.0017055112046446082 0 0.038378271354908816 0.0012790523143986403 0 0.038335898868850235 0.0017609629556376459 0 0.037878403578293786 0.0013895063686494632 0 0.038335898868850235 0.0017609629556376459 0 0.038980769531255122 0.0017055112046446082 0 0.038382288377556223 0.0024161985696445798 0 0.038335898868850235 0.0017609629556376459 0 0.038382288377556223 0.0024161985696445798 0 0.038052881821812386 0.0021245595960556647 0 0.039567293304217939 0.0028062624583370601 0 0.037651157790918162 0.0019569408408195745 0 0.040991908493826369 0.0032994651454959756 0 0.04035854505967764 0.0037316473393067665 0 0.041434150603642236 0.0041069058523144561 0 0.0419413355783766 0.0029430607687077398 0 0.039567293304217939 0.0028062624583370601 0 0.04035854505967764 0.0037316473393067665 0 0.040748200790256504 0.0043826096829416537 0 0.041434150603642236 0.0041069058523144561 0 0.040748200790256504 0.0043826096829416537 0 0.040645640465428894 0.005060611293860531 0 0.04206649440335529 0.0049077144677184513 0 0.037514475202691258 0.00085924371084941111 0 0.035561583613067396 0.00028270671282571222 0 0.035248192979149245 0.0018840206219104983 0 0.037514475202691258 0.00085924371084941111 0 0.035941996532092825 -0.0014693960159311479 0 0.035561583613067396 0.00028270671282571222 0 0.04035854505967764 0.0037316473393067665 0 0.040748200790256504 0.0043826096829416537 0 0.039669284021267598 0.0041773631702100187 0 0.039075366489602366 0.0028342851158080851 0 0.037651157790918162 0.0019569408408195745 0 0.040748200790256504 0.0043826096829416537 0 0.040645640465428894 0.005060611293860531 0 0.039669284021267598 0.0041773631702100187 0 0.037651157790918162 0.0019569408408195745 0 0.035537336974510322 0.0016531578792014607 0 0.038290062473305367 0.0024704667661966328 0 0.037033060645529699 0.0036138533175490424 0 0.037535039351248613 0.0023651580478104032 0 0.035941996532092825 -0.0014693960159311479 0 0.035561583613067396 0.00028270671282571222 0 0.033979496442044038 -0.00012333542563257457 0 0.035561583613067396 0.00028270671282571222 0 0.033869631497612962 0.0013146336623004881 0 0.035248192979149245 0.0018840206219104983 0 0.035561583613067396 0.00028270671282571222 0 0.033979496442044038 -0.00012333542563257457 0 0.033869631497612962 0.0013146336623004881 0 0.037033060645529699 0.0036138533175490424 0 0.035836081450566111 0.003345700557718447 0 0.035642166194131512 0.0046352286738589937 0 0.035537336974510322 0.0016531578792014607 0 0.03324670342534488 0.0022047053889874008 0 0.033979496442044038 -0.00012333542563257457 0 0.033869631497612962 0.0013146336623004881 0 0.032008246563419662 0.0012714448250701145 0 0.037033060645529699 0.0036138533175490424 0 0.036809806006940692 0.0025018045877160805 0 0.035836081450566111 0.003345700557718447 0 0.037033060645529699 0.0036138533175490424 0 0.036809806006940692 0.0025018045877160805 0 0.037535039351248613 0.0023651580478104032 0 0.036809806006940692 0.0025018045877160805 0 0.035863307633661717 0.0023284976154932286 0 0.035836081450566111 0.003345700557718447 0 0.036809806006940692 0.0025018045877160805 0 0.036423247528347899 0.0016962004062545794 0 0.035863307633661717 0.0023284976154932286 0 0.036423247528347899 0.0016962004062545794 0 0.037336584271815562 0.0018767757518818899 0 0.037134092196407661 0.0011813397105980611 0 0.036809806006940692 0.0025018045877160805 0 0.036423247528347899 0.0016962004062545794 0 0.037336584271815562 0.0018767757518818899 0 0.037535039351248613 0.0023651580478104032 0 0.038052881821812386 0.0021245595960556647 0 0.037336584271815562 0.0018767757518818899 0 0.036809806006940692 0.0025018045877160805 0 0.037535039351248613 0.0023651580478104032 0 0.037336584271815562 0.0018767757518818899 0 0.038290062473305367 0.0024704667661966328 0 0.037535039351248613 0.0023651580478104032 0 0.038052881821812386 0.0021245595960556647 0 0.037651157790918162 0.0019569408408195745 0 0.037930058644719968 0.0022350999260534704 0 0.038052881821812386 0.0021245595960556647 0 0.037336584271815562 0.0018767757518818899 0 0.037878403578293786 0.0013895063686494632 0 0.038335898868850235 0.0017609629556376459 0 0.038052881821812386 0.0021245595960556647 0 0.037878403578293786 0.0013895063686494632 0 0.037336584271815562 0.0018767757518818899 0 0.037878403578293786 0.0013895063686494632 0 0.037134092196407661 0.0011813397105980611 0 0.037878403578293786 0.0013895063686494632 0 0.03754794987948256 0.00081353099312501205 0 0.037134092196407661 0.0011813397105980611 0 0.038039473397341872 0.00082988210538579524 0 0.037878403578293786 0.0013895063686494632 0 0.03754794987948256 0.00081353099312501205 0 0.036966896049205882 0.00042307192880528406 0 0.03754794987948256 0.00081353099312501205 0 0.037134092196407661 0.0011813397105980611 0 0.036423247528347899 0.0016962004062545794 0 0.037134092196407661 0.0011813397105980611 0 0.036143392787630929 0.00077537686272551433 0 0.036966896049205882 0.00042307192880528406 0 0.037134092196407661 0.0011813397105980611 0 0.036143392787630929 0.00077537686272551433 0 0.036423247528347899 0.0016962004062545794 0 0.036143392787630929 0.00077537686272551433 0 0.035077755154211354 0.0015649485509114354 0 0.03452117273500608 0.00022358254017332092 0 0.036143392787630929 0.00077537686272551433 0 0.035077755154211354 0.0015649485509114354 0 0.03452117273500608 0.00022358254017332092 0 0.033707740524295433 0.0011847626618099996 0 0.035077755154211354 0.0015649485509114354 0 0.033707740524295433 0.0011847626618099996 0 0.035077755154211354 0.0015649485509114354 0 0.033457318307271694 0.0025813040440866128 0 0.034857981110712859 0.002598769170891654 0 0.035077755154211354 0.0015649485509114354 0 0.033457318307271694 0.0025813040440866128 0 0.034857981110712859 0.002598769170891654 0 0.035077755154211354 0.0015649485509114354 0 0.035863307633661717 0.0023284976154932286 0 0.036423247528347899 0.0016962004062545794 0 0.035077755154211354 0.0015649485509114354 0 0.035863307633661717 0.0023284976154932286 0 0.034857981110712859 0.002598769170891654 0 0.035836081450566111 0.003345700557718447 0 0.034692643894915415 0.0035318176147817954 0 0.034857981110712859 0.002598769170891654 0 0.035863307633661717 0.0023284976154932286 0 0.035836081450566111 0.003345700557718447 0 0.035836081450566111 0.003345700557718447 0 0.035642166194131512 0.0046352286738589937 0 0.034692643894915415 0.0035318176147817954 0 0.03324670342534488 0.0022047053889874008 0 0.032674963141396118 0.0020142759370198565 0 0.031861880315707192 0.0014156631037904801 0 0.030434313359917586 9.1782989382844799e-05 0 0.030982492177077683 0.0020118464037754274 0 0.030434313359917586 9.1782989382844799e-05 0 0.029409796795375663 0.0011567520542811619 0 0.030982492177077683 0.0020118464037754274 0 0.032674963141396118 0.0020142759370198565 0 0.031522625308288782 0.0009941206456746995 0 0.034857981110712859 0.002598769170891654 0 0.034692643894915415 0.0035318176147817954 0 0.033457318307271694 0.0025813040440866128 0 0.030434313359917586 9.1782989382844799e-05 0 0.028350326705562524 -0.00010759787639359446 0 0.029555827685643896 -0.00038223296458621817 0 0.030434313359917586 9.1782989382844799e-05 0 0.028350326705562524 -0.00010759787639359446 0 0.029409796795375663 0.0011567520542811619 0 0.029409796795375663 0.0011567520542811619 0 0.025902801437661729 3.2055262873766745e-06 0 0.027862145619895026 0.0025479546102612797 0 0.028350326705562524 -0.00010759787639359446 0 0.029409796795375663 0.0011567520542811619 0 0.025902801437661729 3.2055262873766745e-06 0 0.028350326705562524 -0.00010759787639359446 0 0.025902801437661729 3.2055262873766745e-06 0 0.028452938182980971 -1.2030889220712401e-06 0 0.028350326705562524 -0.00010759787639359446 0 0.028452938182980971 -1.2030889220712401e-06 0 0.029555827685643896 -0.00038223296458621817 0 0.028452938182980971 -1.2030889220712401e-06 0 0.029555827685643896 -0.00038223296458621817 0 0.031198670771206981 0.00038646881474490224 0 0.033707740524295433 0.0011847626618099996 0 0.033457318307271694 0.0025813040440866128 0 0.031198670771206981 0.00038646881474490224 0 0.031522625308288782 0.0009941206456746995 0 0.03114338283859476 0.00041229886848754329 0 0.03452117273500608 0.00022358254017332092 0 0.033707740524295433 0.0011847626618099996 0 0.031198670771206981 0.00038646881474490224 0 0.033270798375012907 -0.00016635163677737586 0 0.031198670771206981 0.00038646881474490224 0 0.03100736751165031 8.8688649904591318e-07 0 0.028452938182980971 -1.2030889220712401e-06 0 0.031198670771206981 0.00038646881474490224 0 0.03100736751165031 8.8688649904591318e-07 0 0.045662867222057833 0.0028706861033297253 0 0.046459471239962156 0.0025387183804592359 0 0.045622547339026889 0.0021481081134671607 0 0.045662867222057833 0.0028706861033297253 0 0.045622547339026889 0.0021481081134671607 0 0.044867384198583743 0.002740437678582629 0 0.045662867222057833 0.0028706861033297253 0 0.044867384198583743 0.002740437678582629 0 0.045113868829797135 0.0032981194170241764 0 0.045662867222057833 0.0028706861033297253 0 0.045727197084670129 0.0034623555001823464 0 0.045113868829797135 0.0032981194170241764 0 0.045662867222057833 0.0028706861033297253 0 0.046291542948467816 0.0030392667673054671 0 0.045727197084670129 0.0034623555001823464 0 0.046291542948467816 0.0030392667673054671 0 0.047058919160887204 0.0029027052683192043 0 0.046459471239962156 0.0025387183804592359 0 0.046291542948467816 0.0030392667673054671 0 0.047058919160887204 0.0029027052683192043 0 0.046640246353207397 0.0035312905817110108 0 0.047469724315033712 0.0032361278312524077 0 0.047058919160887204 0.0029027052683192043 0 0.046640246353207397 0.0035312905817110108 0 0.047058919160887204 0.0029027052683192043 0 0.047345867424927961 0.0023841779469728568 0 0.046459471239962156 0.0025387183804592359 0 0.045662867222057833 0.0028706861033297253 0 0.046291542948467816 0.0030392667673054671 0 0.046459471239962156 0.0025387183804592359 0 0.046459471239962156 0.0025387183804592359 0 0.046744114942293018 0.0017159275639309259 0 0.045622547339026889 0.0021481081134671607 0 0.047345867424927961 0.0023841779469728568 0 0.046459471239962156 0.0025387183804592359 0 0.046744114942293018 0.0017159275639309259 0 0.048096021452005769 0.0020032893702500438 0 0.047345867424927961 0.0023841779469728568 0 0.046744114942293018 0.0017159275639309259 0 0.048137548322925383 0.0016467241826376884 0 0.04753823182341059 0.0019202098411346727 0 0.048223340820454423 0.0016143306063469663 0 0.048453050689684488 0.0016873466139394173 0 0.048382177489171112 0.0020650474682198205 0 0.048096021452005769 0.0020032893702500438 0 0.048223340820454423 0.0016143306063469663 0 0.046744114942293018 0.0017159275639309259 0 0.048453050689684488 0.0016873466139394173 0 0.048382177489171112 0.0020650474682198205 0 0.04807299865421661 0.0021002739876512513 0 0.04808742270609196 0.0017599935326626931 0 0.04807299865421661 0.0021002739876512513 0 0.047438602070549632 0.0021755194564824728 0 0.04753823182341059 0.0019202098411346727 0 0.046728413685125599 0.0024304042589780119 0 0.048382177489171112 0.0020650474682198205 0 0.04807299865421661 0.0021002739876512513 0 0.04785153703385632 0.0027148349289549726 0 0.04785153703385632 0.0027148349289549726 0 0.047438602070549632 0.0021755194564824728 0 0.04681176398814027 0.0031657932252378502 0 0.046728413685125599 0.0024304042589780119 0 0.045861772621966369 0.0029237835613174995 0 0.04807299865421661 0.0021002739876512513 0 0.04785153703385632 0.0027148349289549726 0 0.047438602070549632 0.0021755194564824728 0 0.047016699807472667 0.0019468145128152445 0 0.047438602070549632 0.0021755194564824728 0 0.046309785264058934 0.0024677275748636045 0 0.047016699807472667 0.0019468145128152445 0 0.046309785264058934 0.0024677275748636045 0 0.046231069131357765 0.0023341448880862263 0 0.046309785264058934 0.0024677275748636045 0 0.045777680992606318 0.0029069187942610238 0 0.04681176398814027 0.0031657932252378502 0 0.047438602070549632 0.0021755194564824728 0 0.046309785264058934 0.0024677275748636045 0 0.04681176398814027 0.0031657932252378502 0 0.044678460079858547 0.0025074470265830776 0 0.044357005319506426 0.0026490600514528662 0 0.044434333471015039 0.0028480349082088598 0 0.045331796912302214 0.0024642854539968641 0 0.044803706960122439 0.0029074272118837312 0 0.045953588555548278 0.0024205209867106821 0 0.046231069131357765 0.0023341448880862263 0 0.045206716693648376 0.0028892668976396806 0 0.046309785264058934 0.0024677275748636045 0 0.046231069131357765 0.0023341448880862263 0 0.045206716693648376 0.0028892668976396806 0 0.046309785264058934 0.0024677275748636045 0 0.045777680992606318 0.0029069187942610238 0 0.045206716693648376 0.0028892668976396806 0 0.044357005319506426 0.0026490600514528662 0 0.044206772693926394 0.0027972086004967311 0 0.044434333471015039 0.0028480349082088598 0 0.044206772693926394 0.0027972086004967311 0 0.044434333471015039 0.0028480349082088598 0 0.044170060763253909 0.0030220264682457552 0 0.044434333471015039 0.0028480349082088598 0 0.044170060763253909 0.0030220264682457552 0 0.044280595757644502 0.0032866963029472059 0 0.044803706960122439 0.0029074272118837312 0 0.044375715659831505 0.0032989777439489669 0 0.045777680992606318 0.0029069187942610238 0 0.045206716693648376 0.0028892668976396806 0 0.045054471447548511 0.0032256814874196743 0 0.045206716693648376 0.0028892668976396806 0 0.044280595757644502 0.0032866963029472059 0 0.045054471447548511 0.0032256814874196743 0 0.044280595757644502 0.0032866963029472059 0 0.044556935784125673 0.0033204696255726882 0 0.04414635433109898 0.0034506798181023462 0 0.044280595757644502 0.0032866963029472059 0 0.045054471447548511 0.0032256814874196743 0 0.044556935784125673 0.0033204696255726882 0 0.043908684580224351 0.0032930201497958613 0 0.044170060763253909 0.0030220264682457552 0 0.044280595757644502 0.0032866963029472059 0 0.043908684580224351 0.0032930201497958613 0 0.044280595757644502 0.0032866963029472059 0 0.043787887942687058 0.0034617812308430562 0 0.045777680992606318 0.0029069187942610238 0 0.04681176398814027 0.0031657932252378502 0 0.045054471447548511 0.0032256814874196743 0 0.044867384198583743 0.002740437678582629 0 0.045054471447548511 0.0032256814874196743 0 0.0447095956048719 0.0031969417343737845 0 0.045861772621966369 0.0029237835613174995 0 0.04516295267514376 0.0031946415666619585 0 0.045054471447548511 0.0032256814874196743 0 0.044556935784125673 0.0033204696255726882 0 0.0447095956048719 0.0031969417343737845 0 0.044556935784125673 0.0033204696255726882 0 0.0447095956048719 0.0031969417343737845 0 0.044345432677985276 0.0034873613243175403 0 0.044867384198583743 0.002740437678582629 0 0.0447095956048719 0.0031969417343737845 0 0.045113868829797135 0.0032981194170241764 0 0.0447095956048719 0.0031969417343737845 0 0.044631597717388144 0.0035886032529429202 0 0.044345432677985276 0.0034873613243175403 0 0.0447095956048719 0.0031969417343737845 0 0.044631597717388144 0.0035886032529429202 0 0.045113868829797135 0.0032981194170241764 0 0.044631597717388144 0.0035886032529429202 0 0.044345432677985276 0.0034873613243175403 0 0.044109487724866087 0.0038701006840478041 0 0.044345432677985276 0.0034873613243175403 0 0.044109487724866087 0.0038701006840478041 0 0.043828722916749364 0.0037210373657573081 0 0.044631597717388144 0.0035886032529429202 0 0.044109487724866087 0.0038701006840478041 0 0.044536434335961585 0.0040981620580584528 0 0.043908684580224351 0.0032930201497958613 0 0.043777367349707365 0.003452891053978602 0 0.043787887942687058 0.0034617812308430562 0 0.043787887942687058 0.0034617812308430562 0 0.043828722916749364 0.0037210373657573081 0 0.043401721203466637 0.0038222424735288871 0 0.04320207862924088 0.0036260204527418182 0 0.043787887942687058 0.0034617812308430562 0 0.043401721203466637 0.0038222424735288871 0 0.0419413355783766 0.0029430607687077398 0 0.043646050040550451 0.0030774938640025793 0 0.044280595757644502 0.0032866963029472059 0 0.043787887942687058 0.0034617812308430562 0 0.04414635433109898 0.0034506798181023462 0 0.043787887942687058 0.0034617812308430562 0 0.04414635433109898 0.0034506798181023462 0 0.043828722916749364 0.0037210373657573081 0 0.044556935784125673 0.0033204696255726882 0 0.044345432677985276 0.0034873613243175403 0 0.04414635433109898 0.0034506798181023462 0 0.044345432677985276 0.0034873613243175403 0 0.04414635433109898 0.0034506798181023462 0 0.043828722916749364 0.0037210373657573081 0 0.044109487724866087 0.0038701006840478041 0 0.043828722916749364 0.0037210373657573081 0 0.043475877221852942 0.0040906588797763451 0 0.043828722916749364 0.0037210373657573081 0 0.043401721203466637 0.0038222424735288871 0 0.043475877221852942 0.0040906588797763451 0 0.0419413355783766 0.0029430607687077398 0 0.042151734754400885 0.0043277897076009373 0 0.043401721203466637 0.0038222424735288871 0 0.042802870930922714 0.0041607121803643636 0 0.043475877221852942 0.0040906588797763451 0 0.04320207862924088 0.0036260204527418182 0 0.043401721203466637 0.0038222424735288871 0 0.042802870930922714 0.0041607121803643636 0 0.042151734754400885 0.0043277897076009373 0 0.042117168222008408 0.004869037287037547 0 0.040748200790256504 0.0043826096829416537 0 0.041434150603642236 0.0041069058523144561 0 0.04206649440335529 0.0049077144677184513 0 0.042802870930922714 0.0041607121803643636 0 0.043475877221852942 0.0040906588797763451 0 0.042967201529871782 0.0046671887613682315 0 0.042967201529871782 0.0046671887613682315 0 0.043432043356468199 0.0049651768197166183 0 0.0423621829183718 0.0055686764117385103 0 0.042967201529871782 0.0046671887613682315 0 0.04206649440335529 0.0049077144677184513 0 0.0423621829183718 0.0055686764117385103 0 0.042802870930922714 0.0041607121803643636 0 0.042967201529871782 0.0046671887613682315 0 0.04206649440335529 0.0049077144677184513 0 0.044536434335961585 0.0040981620580584528 0 0.043882998512482119 0.0043850694914905749 0 0.044386371493030749 0.0048866973801970437 0 0.044109487724866087 0.0038701006840478041 0 0.044536434335961585 0.0040981620580584528 0 0.043882998512482119 0.0043850694914905749 0 0.044109487724866087 0.0038701006840478041 0 0.043475877221852942 0.0040906588797763451 0 0.043882998512482119 0.0043850694914905749 0 0.043475877221852942 0.0040906588797763451 0 0.042967201529871782 0.0046671887613682315 0 0.043882998512482119 0.0043850694914905749 0 0.042967201529871782 0.0046671887613682315 0 0.043882998512482119 0.0043850694914905749 0 0.043432043356468199 0.0049651768197166183 0 0.043882998512482119 0.0043850694914905749 0 0.043432043356468199 0.0049651768197166183 0 0.044386371493030749 0.0048866973801970437 0 0.044386371493030749 0.0048866973801970437 0 0.045374351933115849 0.0051053593452075443 0 0.04517692266180854 0.0043816095382167991 0 0.045374351933115849 0.0051053593452075443 0 0.04517692266180854 0.0043816095382167991 0 0.045804054940063829 0.004552451087261271 0 0.044536434335961585 0.0040981620580584528 0 0.044386371493030749 0.0048866973801970437 0 0.04517692266180854 0.0043816095382167991 0 0.044631597717388144 0.0035886032529429202 0 0.044536434335961585 0.0040981620580584528 0 0.045159687197092589 0.0037892227761659718 0 0.044536434335961585 0.0040981620580584528 0 0.04517692266180854 0.0043816095382167991 0 0.045159687197092589 0.0037892227761659718 0 0.045159687197092589 0.0037892227761659718 0 0.045727197084670129 0.0034623555001823464 0 0.045927024165901227 0.0039853782924120802 0 0.04517692266180854 0.0043816095382167991 0 0.045159687197092589 0.0037892227761659718 0 0.045927024165901227 0.0039853782924120802 0 0.045159687197092589 0.0037892227761659718 0 0.045727197084670129 0.0034623555001823464 0 0.045113868829797135 0.0032981194170241764 0 0.044631597717388144 0.0035886032529429202 0 0.045159687197092589 0.0037892227761659718 0 0.045113868829797135 0.0032981194170241764 0 0.045727197084670129 0.0034623555001823464 0 0.046640246353207397 0.0035312905817110108 0 0.045927024165901227 0.0039853782924120802 0 0.046291542948467816 0.0030392667673054671 0 0.045727197084670129 0.0034623555001823464 0 0.046640246353207397 0.0035312905817110108 0 0.045927024165901227 0.0039853782924120802 0 0.046578717489655017 0.0039502083980142676 0 0.046511612848686983 0.0043882239476769024 0 0.046640246353207397 0.0035312905817110108 0 0.045927024165901227 0.0039853782924120802 0 0.046578717489655017 0.0039502083980142676 0 0.047091260089577536 0.0039407817728747546 0 0.046640246353207397 0.0035312905817110108 0 0.046578717489655017 0.0039502083980142676 0 0.047091260089577536 0.0039407817728747546 0 0.046578717489655017 0.0039502083980142676 0 0.046511612848686983 0.0043882239476769024 0 0.045927024165901227 0.0039853782924120802 0 0.046511612848686983 0.0043882239476769024 0 0.045804054940063829 0.004552451087261271 0 0.04517692266180854 0.0043816095382167991 0 0.045927024165901227 0.0039853782924120802 0 0.045804054940063829 0.004552451087261271 0 0.045374351933115849 0.0051053593452075443 0 0.045804054940063829 0.004552451087261271 0 0.046289105805895917 0.0050400657703897119 0 0.047045456697912838 0.0046528989499879572 0 0.046511612848686983 0.0043882239476769024 0 0.046289105805895917 0.0050400657703897119 0 0.046511612848686983 0.0043882239476769024 0 0.045804054940063829 0.004552451087261271 0 0.046289105805895917 0.0050400657703897119 0 0.046289105805895917 0.0050400657703897119 0 0.046401275276738631 0.0055995018954661507 0 0.04573566896365832 0.0055779668133454641 0 0.045374351933115849 0.0051053593452075443 0 0.046289105805895917 0.0050400657703897119 0 0.04573566896365832 0.0055779668133454641 0 0.045374351933115849 0.0051053593452075443 0 0.04573566896365832 0.0055779668133454641 0 0.044921514524716377 0.0060378802295615996 0 0.04573566896365832 0.0055779668133454641 0 0.045918257349410081 0.0061978780796240239 0 0.044921514524716377 0.0060378802295615996 0 0.046401275276738631 0.0055995018954661507 0 0.04573566896365832 0.0055779668133454641 0 0.045918257349410081 0.0061978780796240239 0 0.045918257349410081 0.0061978780796240239 0 0.045598804197110113 0.0069053443930717218 0 0.04607296426429263 0.0066425384655361018 0 0.045918257349410081 0.0061978780796240239 0 0.045065324637913066 0.0067245965762798452 0 0.044921514524716377 0.0060378802295615996 0 0.045918257349410081 0.0061978780796240239 0 0.045065324637913066 0.0067245965762798452 0 0.045598804197110113 0.0069053443930717218 0 0.045065324637913066 0.0067245965762798452 0 0.045598804197110113 0.0069053443930717218 0 0.044865004968904935 0.0074418163559393704 0 0.044289549707624512 0.0068595513202607625 0 0.043135041460573065 0.0070450835642107074 0 0.043850682973135394 0.0074589448768565556 0 0.044289549707624512 0.0068595513202607625 0 0.044865004968904935 0.0074418163559393704 0 0.043850682973135394 0.0074589448768565556 0 0.045065324637913066 0.0067245965762798452 0 0.044289549707624512 0.0068595513202607625 0 0.044865004968904935 0.0074418163559393704 0 0.045065324637913066 0.0067245965762798452 0 0.044289549707624512 0.0068595513202607625 0 0.044921514524716377 0.0060378802295615996 0 0.044289549707624512 0.0068595513202607625 0 0.044921514524716377 0.0060378802295615996 0 0.043587265705620583 0.006341549655544807 0 0.044289549707624512 0.0068595513202607625 0 0.043587265705620583 0.006341549655544807 0 0.043135041460573065 0.0070450835642107074 0 0.044065251626695667 0.0057169067009798808 0 0.044921514524716377 0.0060378802295615996 0 0.043587265705620583 0.006341549655544807 0 0.044065251626695667 0.0057169067009798808 0 0.044921514524716377 0.0060378802295615996 0 0.04468968949379331 0.005416059308161276 0 0.044386371493030749 0.0048866973801970437 0 0.045374351933115849 0.0051053593452075443 0 0.04468968949379331 0.005416059308161276 0 0.045374351933115849 0.0051053593452075443 0 0.044921514524716377 0.0060378802295615996 0 0.04468968949379331 0.005416059308161276 0 0.044386371493030749 0.0048866973801970437 0 0.044065251626695667 0.0057169067009798808 0 0.04468968949379331 0.005416059308161276 0 0.044386371493030749 0.0048866973801970437 0 0.044065251626695667 0.0057169067009798808 0 0.043314443954024763 0.0055916370719332033 0 0.043432043356468199 0.0049651768197166183 0 0.044386371493030749 0.0048866973801970437 0 0.043314443954024763 0.0055916370719332033 0 0.043432043356468199 0.0049651768197166183 0 0.043314443954024763 0.0055916370719332033 0 0.0423621829183718 0.0055686764117385103 0 0.043314443954024763 0.0055916370719332033 0 0.0423621829183718 0.0055686764117385103 0 0.042531304045954677 0.00636393068393572 0 0.043314443954024763 0.0055916370719332033 0 0.043587265705620583 0.006341549655544807 0 0.042531304045954677 0.00636393068393572 0 0.044065251626695667 0.0057169067009798808 0 0.043314443954024763 0.0055916370719332033 0 0.043587265705620583 0.006341549655544807 0 0.04206649440335529 0.0049077144677184513 0 0.0423621829183718 0.0055686764117385103 0 0.04135158651457993 0.0058563227613907705 0 0.0423621829183718 0.0055686764117385103 0 0.041120001536966995 0.0064051317458862726 0 0.04135158651457993 0.0058563227613907705 0 0.041120001536966995 0.0064051317458862726 0 0.039333905857007752 0.0034003813371126759 0 0.038807609824571022 0.0056355396425460565 0 0.041122698495883653 0.0063091288574983065 0 0.040325849730522126 0.0047033610485154014 0 0.041120001536966995 0.0064051317458862726 0 0.038807609824571022 0.0056355396425460565 0 0.039622550910995549 0.0070024961198119516 0 0.0423621829183718 0.0055686764117385103 0 0.041120001536966995 0.0064051317458862726 0 0.042531304045954677 0.00636393068393572 0 0.041120001536966995 0.0064051317458862726 0 0.041746171801898477 0.0075058034875294648 0 0.040659713049824596 0.0074570369137410908 0 0.041120001536966995 0.0064051317458862726 0 0.041746171801898477 0.0075058034875294648 0 0.042531304045954677 0.00636393068393572 0 0.040659713049824596 0.0074570369137410908 0 0.039852860348398952 0.0078769730475650307 0 0.039622550910995549 0.0070024961198119516 0 0.041120001536966995 0.0064051317458862726 0 0.040659713049824596 0.0074570369137410908 0 0.039622550910995549 0.0070024961198119516 0 0.043587265705620583 0.006341549655544807 0 0.042531304045954677 0.00636393068393572 0 0.043135041460573065 0.0070450835642107074 0 0.041746171801898477 0.0075058034875294648 0 0.043135041460573065 0.0070450835642107074 0 0.042726025609218427 0.0079319238700593011 0 0.041746171801898477 0.0075058034875294648 0 0.042531304045954677 0.00636393068393572 0 0.043135041460573065 0.0070450835642107074 0 0.043135041460573065 0.0070450835642107074 0 0.042726025609218427 0.0079319238700593011 0 0.043850682973135394 0.0074589448768565556 0 0.042710858733153736 0.0078941181014700167 0 0.043490175644817088 0.0082931599849427676 0 0.041746171801898477 0.0075058034875294648 0 0.041845771828645122 0.0082284871250070026 0 0.041121862067220058 0.0086279346783602051 0 0.041746171801898477 0.0075058034875294648 0 0.042726025609218427 0.0079319238700593011 0 0.041845771828645122 0.0082284871250070026 0 0.041845771828645122 0.0082284871250070026 0 0.041772887467074291 0.0088010799123442104 0 0.041121862067220058 0.0086279346783602051 0 0.041772887467074291 0.0088010799123442104 0 0.041121862067220058 0.0086279346783602051 0 0.041183937734841754 0.0092657903379073196 0 0.042726025609218427 0.0079319238700593011 0 0.041845771828645122 0.0082284871250070026 0 0.041772887467074291 0.0088010799123442104 0 0.042726025609218427 0.0079319238700593011 0 0.042401780511346347 0.0088800391154935931 0 0.04291585677962273 0.0084383963323992669 0 0.042726025609218427 0.0079319238700593011 0 0.041772887467074291 0.0088010799123442104 0 0.042401780511346347 0.0088800391154935931 0 0.041772887467074291 0.0088010799123442104 0 0.042401780511346347 0.0088800391154935931 0 0.041780695294921302 0.0093185341184021681 0 0.039852860348398952 0.0078769730475650307 0 0.040537229010958617 0.0083113833251751562 0 0.039785334399840534 0.0088237453757916053 0 0.040659713049824596 0.0074570369137410908 0 0.039852860348398952 0.0078769730475650307 0 0.040537229010958617 0.0083113833251751562 0 0.041746171801898477 0.0075058034875294648 0 0.040537229010958617 0.0083113833251751562 0 0.041121862067220058 0.0086279346783602051 0 0.041746171801898477 0.0075058034875294648 0 0.040659713049824596 0.0074570369137410908 0 0.040537229010958617 0.0083113833251751562 0 0.041121862067220058 0.0086279346783602051 0 0.040720612529721444 0.0093132026555268737 0 0.041183937734841754 0.0092657903379073196 0 0.041121862067220058 0.0086279346783602051 0 0.040645299191725361 0.0090138952121488081 0 0.040720612529721444 0.0093132026555268737 0 0.040645299191725361 0.0090138952121488081 0 0.040558436403832027 0.0087592375063943809 0 0.040308749368702677 0.0090559378158912521 0 0.040645299191725361 0.0090138952121488081 0 0.040308749368702677 0.0090559378158912521 0 0.040445729921944139 0.0093408217644969076 0 0.041121862067220058 0.0086279346783602051 0 0.040645299191725361 0.0090138952121488081 0 0.040558436403832027 0.0087592375063943809 0 0.040537229010958617 0.0083113833251751562 0 0.041121862067220058 0.0086279346783602051 0 0.040558436403832027 0.0087592375063943809 0 0.038120765330373341 0.0095856651127754662 0 0.03773633090278683 0.0084676985696877892 0 0.037643325910378465 0.009132019935229092 0 0.040308749368702677 0.0090559378158912521 0 0.040184971196628276 0.0096129182966891696 0 0.039785334399840534 0.0088237453757916053 0 0.040537229010958617 0.0083113833251751562 0 0.040558436403832027 0.0087592375063943809 0 0.04020800042347638 0.0087419503833828533 0 0.040558436403832027 0.0087592375063943809 0 0.04020800042347638 0.0087419503833828533 0 0.040308749368702677 0.0090559378158912521 0 0.040537229010958617 0.0083113833251751562 0 0.04020800042347638 0.0087419503833828533 0 0.039785334399840534 0.0088237453757916053 0 0.04020800042347638 0.0087419503833828533 0 0.040308749368702677 0.0090559378158912521 0 0.039785334399840534 0.0088237453757916053 0 0.038120765330373341 0.0095856651127754662 0 0.038490772525817812 0.0097543726421305595 0 0.03773633090278683 0.0084676985696877892 0 0.039322624112649654 0.0097522236298320155 0 0.038729773889943836 0.0086347346079220771 0 0.038120765330373341 0.0095856651127754662 0 0.038166747510648177 0.010056471544264161 0 0.037569517927553517 0.0097609308286339992 0 0.037894100285651627 0.0095361614339959828 0 0.037830762579154298 0.0093223231825704835 0 0.038120765330373341 0.0095856651127754662 0 0.037643325910378465 0.009132019935229092 0 0.037581039169563554 0.0097900488465330997 0 0.038120765330373341 0.0095856651127754662 0 0.038490772525817812 0.0097543726421305595 0 0.038166747510648177 0.010056471544264161 0 0.040308749368702677 0.0090559378158912521 0 0.040184971196628276 0.0096129182966891696 0 0.040445729921944139 0.0093408217644969076 0 0.040184971196628276 0.0096129182966891696 0 0.040394134825924667 0.0096167651890024016 0 0.040196606578257743 0.010058892952266073 0 0.040184971196628276 0.0096129182966891696 0 0.040445729921944139 0.0093408217644969076 0 0.040394134825924667 0.0096167651890024016 0 0.040645299191725361 0.0090138952121488081 0 0.040445729921944139 0.0093408217644969076 0 0.040720612529721444 0.0093132026555268737 0 0.040445729921944139 0.0093408217644969076 0 0.040720612529721444 0.0093132026555268737 0 0.040394134825924667 0.0096167651890024016 0 0.040720612529721444 0.0093132026555268737 0 0.040394134825924667 0.0096167651890024016 0 0.040692182427145542 0.009692825354300192 0 0.040394134825924667 0.0096167651890024016 0 0.040196606578257743 0.010058892952266073 0 0.040692182427145542 0.009692825354300192 0 0.040196606578257743 0.010058892952266073 0 0.040607902414748202 0.010285965908042335 0 0.039500632090378268 0.01096449249682727 0 0.039322624112649654 0.0097522236298320155 0 0.039592809406948773 0.010935168162061998 0 0.038490772525817812 0.0097543726421305595 0 0.038551940531575339 0.010514748554948199 0 0.039500632090378268 0.01096449249682727 0 0.040184971196628276 0.0096129182966891696 0 0.040196606578257743 0.010058892952266073 0 0.039500632090378268 0.01096449249682727 0 0.03805065565361955 0.010758455162844812 0 0.038166747510648177 0.010056471544264161 0 0.037569517927553517 0.0097609308286339992 0 0.038035742314972185 0.010824788098692603 0 0.037830762579154298 0.0093223231825704835 0 0.038490772525817812 0.0097543726421305595 0 0.038551940531575339 0.010514748554948199 0 0.038166747510648177 0.010056471544264161 0 0.038551940531575339 0.010514748554948199 0 0.03805065565361955 0.010758455162844812 0 0.038166747510648177 0.010056471544264161 0 0.038551940531575339 0.010514748554948199 0 0.03805065565361955 0.010758455162844812 0 0.038630863580362051 0.011078523238306926 0 0.041780695294921302 0.0093185341184021681 0 0.041123249433644884 0.009725730425115469 0 0.041609400022357398 0.010015088573672342 0 0.042336374335103774 0.0095562592951038191 0 0.041780695294921302 0.0093185341184021681 0 0.041609400022357398 0.010015088573672342 0 0.042401780511346347 0.0088800391154935931 0 0.042336374335103774 0.0095562592951038191 0 0.041780695294921302 0.0093185341184021681 0 0.041772887467074291 0.0088010799123442104 0 0.041780695294921302 0.0093185341184021681 0 0.041183937734841754 0.0092657903379073196 0 0.040720612529721444 0.0093132026555268737 0 0.041183937734841754 0.0092657903379073196 0 0.040692182427145542 0.009692825354300192 0 0.041183937734841754 0.0092657903379073196 0 0.040692182427145542 0.009692825354300192 0 0.041123249433644884 0.009725730425115469 0 0.041780695294921302 0.0093185341184021681 0 0.041183937734841754 0.0092657903379073196 0 0.041123249433644884 0.009725730425115469 0 0.041123249433644884 0.009725730425115469 0 0.040607902414748202 0.010285965908042335 0 0.041609400022357398 0.010015088573672342 0 0.040692182427145542 0.009692825354300192 0 0.041123249433644884 0.009725730425115469 0 0.040607902414748202 0.010285965908042335 0 0.040196606578257743 0.010058892952266073 0 0.040692182427145542 0.009692825354300192 0 0.040607902414748202 0.010285965908042335 0 0.040607902414748202 0.010285965908042335 0 0.041117139010577841 0.010525531364914903 0 0.041609400022357398 0.010015088573672342 0 0.040607902414748202 0.010285965908042335 0 0.041117139010577841 0.010525531364914903 0 0.040334221227553951 0.011066794510890177 0 0.041117139010577841 0.010525531364914903 0 0.041609400022357398 0.010015088573672342 0 0.042037053478258847 0.010817801178030502 0 0.042336374335103774 0.0095562592951038191 0 0.041609400022357398 0.010015088573672342 0 0.042435785929969022 0.010200216026222186 0 0.041609400022357398 0.010015088573672342 0 0.042435785929969022 0.010200216026222186 0 0.042037053478258847 0.010817801178030502 0 0.042336374335103774 0.0095562592951038191 0 0.042435785929969022 0.010200216026222186 0 0.043355827420219276 0.009585380599612791 0 0.043049530708187178 0.010403882317579303 0 0.042435785929969022 0.010200216026222186 0 0.042037053478258847 0.010817801178030502 0 0.043049530708187178 0.010403882317579303 0 0.042435785929969022 0.010200216026222186 0 0.043355827420219276 0.009585380599612791 0 0.037399133646760396 0.0084047037631937785 0 0.042373248245458246 0.01034520828092297 0 0.037399133646760396 0.0084047037631937785 0 0.040417593365985424 0.0088931557996324399 0 0.042336374335103774 0.0095562592951038191 0 0.042920437064466251 0.0090485418791687415 0 0.043355827420219276 0.009585380599612791 0 0.042401780511346347 0.0088800391154935931 0 0.042336374335103774 0.0095562592951038191 0 0.042920437064466251 0.0090485418791687415 0 0.037563228187138122 0.00815960540604381 0 0.037034065591696579 0.0078062464265231711 0 0.037348191590348023 0.0087877939191096707 0 0.040417593365985424 0.0088931557996324399 0 0.042873787215317163 0.0090018077905698272 0 0.042920437064466251 0.0090485418791687415 0 0.043355827420219276 0.009585380599612791 0 0.043592494273380855 0.008898433617096994 0 0.037782294657282181 0.007556771969054174 0 0.037563228187138122 0.00815960540604381 0 0.037034065591696579 0.0078062464265231711 0 0.037399133646760396 0.0084047037631937785 0 0.030837349237283315 0.0057132037689231162 0 0.025891245103052105 0.0034711596643168374 0 0.027126911044451779 0.0029594726100919365 0 0.026484942150667257 0.0041247302370629839 0 0.027126911044451779 0.0029594726100919365 0 0.027376372070607273 0.0038607053633677225 0 0.026484942150667257 0.0041247302370629839 0 0.030837349237283315 0.0057132037689231162 0 0.03585239325216201 0.005967386794413396 0 0.027126911044451779 0.0029594726100919365 0 0.028087584761881921 0.0034046987720800954 0 0.027376372070607273 0.0038607053633677225 0 0.027126911044451779 0.0029594726100919365 0 0.028087584761881921 0.0034046987720800954 0 0.028321400605490054 0.0025039427682779338 0 0.029034393847222787 0.0029712915734807525 0 0.028796679481411971 0.0036375401784298871 0 0.029467426188250923 0.0037105083638944449 0 0.028087584761881921 0.0034046987720800954 0 0.029034393847222787 0.0029712915734807525 0 0.028796679481411971 0.0036375401784298871 0 0.028087584761881921 0.0034046987720800954 0 0.029034393847222787 0.0029712915734807525 0 0.028321400605490054 0.0025039427682779338 0 0.027550932018405298 0.0016528747841564942 0 0.03585239325216201 0.005967386794413396 0 0.045114285723727665 0.0083827927177271191 0 0.04507918829670237 0.0078993632045249989 0 0.045381498428196547 0.0079426086338264482 0 0.029034393847222787 0.0029712915734807525 0 0.028483011619611087 0.0025905240916700946 0 0.029890677381710029 0.0020214439619638961 0 0.03585239325216201 0.005967386794413396 0 0.037956155119309415 0.0049289005519355215 0 0.045114285723727665 0.0083827927177271191 0 0.045381498428196547 0.0079426086338264482 0 0.045782350475531183 0.007986606207054596 0 0.03585239325216201 0.005967386794413396 0 0.042873787215317163 0.0090018077905698272 0 0.037034065591696579 0.0078062464265231711 0 0.03626848575292644 0.0080741536601891383 0 0.037348191590348023 0.0087877939191096707 0 0.045114285723727665 0.0083827927177271191 0 0.04507918829670237 0.0078993632045249989 0 0.044425760934342098 0.0081763068521930951 0 0.04507918829670237 0.0078993632045249989 0 0.044865004968904935 0.0074418163559393704 0 0.044425760934342098 0.0081763068521930951 0 0.04507918829670237 0.0078993632045249989 0 0.045551350488016749 0.0074779967958731744 0 0.044865004968904935 0.0074418163559393704 0 0.04507918829670237 0.0078993632045249989 0 0.045381498428196547 0.0079426086338264482 0 0.045551350488016749 0.0074779967958731744 0 0.045381498428196547 0.0079426086338264482 0 0.045551350488016749 0.0074779967958731744 0 0.045782350475531183 0.007986606207054596 0 0.045598804197110113 0.0069053443930717218 0 0.045551350488016749 0.0074779967958731744 0 0.045944277337540473 0.0070107807037854677 0 0.045598804197110113 0.0069053443930717218 0 0.045551350488016749 0.0074779967958731744 0 0.044865004968904935 0.0074418163559393704 0 0.042726025609218427 0.0079319238700593011 0 0.043850682973135394 0.0074589448768565556 0 0.043874709286361856 0.0081125699395455317 0 0.044865004968904935 0.0074418163559393704 0 0.043850682973135394 0.0074589448768565556 0 0.043874709286361856 0.0081125699395455317 0 0.043490175644817088 0.0082931599849427676 0 0.042873787215317163 0.0090018077905698272 0 0.042920437064466251 0.0090485418791687415 0 0.04291585677962273 0.0084383963323992669 0 0.043592494273380855 0.008898433617096994 0 0.042401780511346347 0.0088800391154935931 0 0.042920437064466251 0.0090485418791687415 0 0.04291585677962273 0.0084383963323992669 0 0.045260039727383135 0.0070641783270075876 0 0.042873787215317163 0.0090018077905698272 0 0.044865004968904935 0.0074418163559393704 0 0.043874709286361856 0.0081125699395455317 0 0.044529110962846404 0.0082162352214851849 0 0.019206070917024583 -0.00039562011393358393 0 0.020801524856765525 -4.2232660122984943e-07 0 0.018254405773083592 -9.4645240618943818e-07 0 0.019206070917024583 -0.00039562011393358393 0 0.021120407494263797 -2.1441481040533389e-05 0 0.019694242355846363 0.00016921711002516952 0 0.019206070917024583 -0.00039562011393358393 0 0.020801524856765525 -4.2232660122984943e-07 0 0.021120407494263797 -2.1441481040533389e-05 0 0.023349367748462989 1.6604259837460532e-07 0 0.021120407494263797 -2.1441481040533389e-05 0 0.022178472853060627 0.00048455707966963747 0 0.020801524856765525 -4.2232660122984943e-07 0 0.023349367748462989 1.6604259837460532e-07 0 0.021120407494263797 -2.1441481040533389e-05 0 0.025895651414512846 1.57417808209028e-06 0 0.023349367748462989 1.6604259837460532e-07 0 0.022178472853060627 0.00048455707966963747 0 0.025897336994135482 1.4118358867296166e-07 0 0.024974269227170696 0.0013325982603988823 0 0.029409796795375663 0.0011567520542811619 0 0.027862145619895026 0.0025479546102612797 0 0.029577246515520694 0.0026916512431613732 0 0.021120407494263797 -2.1441481040533389e-05 0 0.022178472853060627 0.00048455707966963747 0 0.019694242355846363 0.00016921711002516952 0 0.027862145619895026 0.0025479546102612797 0 0.029534609579819751 0.0043352395529688264 0 0.029577246515520694 0.0026916512431613732 0 0.024974269227170696 0.0013325982603988823 0 0.024599096792944971 0.0021775122949668191 0 0.029534609579819751 0.0043352395529688264 0 0.030672696029439891 0.0031005271713323477 0 0.029577246515520694 0.0026916512431613732 0 0.029534609579819751 0.0043352395529688264 0 0.030672696029439891 0.0031005271713323477 0 0.031450556210552441 0.0047254191713752437 0 0.029409796795375663 0.0011567520542811619 0 0.029577246515520694 0.0026916512431613732 0 0.030982492177077683 0.0020118464037754274 0 0.030672696029439891 0.0031005271713323477 0 0.029577246515520694 0.0026916512431613732 0 0.030982492177077683 0.0020118464037754274 0 0.031849035764288242 0.0013974072919053517 0 0.031637260355368936 0.0024693055766349349 0 0.032916678772513287 0.0024660013508829961 0 0.03324670342534488 0.0022047053889874008 0 0.032548503616931755 0.0019660524501516475 0 0.031849035764288242 0.0013974072919053517 0 0.030982492177077683 0.0020118464037754274 0 0.031637260355368936 0.0024693055766349349 0 0.03324670342534488 0.0022047053889874008 0 0.03131933934837404 0.0022916068154578925 0 0.030672696029439891 0.0031005271713323477 0 0.030982492177077683 0.0020118464037754274 0 0.031637260355368936 0.0024693055766349349 0 0.031637260355368936 0.0024693055766349349 0 0.031855162675022079 0.0034924614972021342 0 0.032916678772513287 0.0024660013508829961 0 0.030672696029439891 0.0031005271713323477 0 0.031855162675022079 0.0034924614972021342 0 0.031450556210552441 0.0047254191713752437 0 0.031855162675022079 0.0034924614972021342 0 0.03290311510628155 0.0047176165871531256 0 0.032916678772513287 0.0024660013508829961 0 0.030672696029439891 0.0031005271713323477 0 0.031637260355368936 0.0024693055766349349 0 0.031855162675022079 0.0034924614972021342 0 0.031855162675022079 0.0034924614972021342 0 0.031450556210552441 0.0047254191713752437 0 0.03290311510628155 0.0047176165871531256 0 0.031450556210552441 0.0047254191713752437 0 0.032553071175116931 0.0064904178293795269 0 0.03290311510628155 0.0047176165871531256 0 0.031450556210552441 0.0047254191713752437 0 0.031159511689321726 0.0061053494104373 0 0.032553071175116931 0.0064904178293795269 0 0.029534609579819751 0.0043352395529688264 0 0.031450556210552441 0.0047254191713752437 0 0.031159511689321726 0.0061053494104373 0 0.024599096792944971 0.0021775122949668191 0 0.024869048729447181 0.0029296606104964036 0 0.019206070917024583 -0.00039562011393358393 0 0.019694242355846363 0.00016921711002516952 0 0.01840997121327977 -0.00029329217452984274 0 0.019206070917024583 -0.00039562011393358393 0 0.01840997121327977 -0.00029329217452984274 0 0.018153925599129948 -0.00056621563147395094 0 0.01840997121327977 -0.00029329217452984274 0 0.01820851564763076 -0.00060967153580864149 0 0.018153925599129948 -0.00056621563147395094 0 0.031159511689321726 0.0061053494104373 0 0.032553071175116931 0.0064904178293795269 0 0.032755168050970833 0.0077120599527511846 0 0.024869048729447181 0.0029296606104964036 0 0.025124369071874288 0.0033186014648796218 0 0.03398990007256799 0.0064056826528450682 0 0.034116384176887941 0.0084832126963355469 0 0.032553071175116931 0.0064904178293795269 0 0.033998383295460143 0.0065281016248665263 0 0.032755168050970833 0.0077120599527511846 0 0.033998383295460143 0.0065281016248665263 0 0.035191524364191352 0.0070936677202891778 0 0.034355208582621699 0.0077795749304979955 0 0.035191524364191352 0.0070936677202891778 0 0.035133787756237052 0.0060772365452587667 0 0.035919380101021005 0.0065156629245513194 0 0.033998383295460143 0.0065281016248665263 0 0.035191524364191352 0.0070936677202891778 0 0.035133787756237052 0.0060772365452587667 0 0.034380512555934654 0.0052015350149415621 0 0.034462172557693307 0.0037080194440756967 0 0.036142015408101455 0.0049389559278965383 0 0.033998383295460143 0.0065281016248665263 0 0.035133787756237052 0.0060772365452587667 0 0.034380512555934654 0.0052015350149415621 0 0.035133787756237052 0.0060772365452587667 0 0.036142015408101455 0.0049389559278965383 0 0.035919380101021005 0.0065156629245513194 0 0.035133787756237052 0.0060772365452587667 0 0.034380512555934654 0.0052015350149415621 0 0.036142015408101455 0.0049389559278965383 0 0.033998383295460143 0.0065281016248665263 0 0.034380512555934654 0.0052015350149415621 0 0.03290311510628155 0.0047176165871531256 0 0.032553071175116931 0.0064904178293795269 0 0.033998383295460143 0.0065281016248665263 0 0.03290311510628155 0.0047176165871531256 0 0.03290311510628155 0.0047176165871531256 0 0.032916678772513287 0.0024660013508829961 0 0.034462172557693307 0.0037080194440756967 0 0.034380512555934654 0.0052015350149415621 0 0.03290311510628155 0.0047176165871531256 0 0.034462172557693307 0.0037080194440756967 0 0.033869631497612962 0.0013146336623004881 0 0.032008246563419662 0.0012714448250701145 0 0.032916678772513287 0.0024660013508829961 0 0.033869631497612962 0.0013146336623004881 0 0.032916678772513287 0.0024660013508829961 0 0.035248192979149245 0.0018840206219104983 0 0.032916678772513287 0.0024660013508829961 0 0.035248192979149245 0.0018840206219104983 0 0.034462172557693307 0.0037080194440756967 0 0.035248192979149245 0.0018840206219104983 0 0.034462172557693307 0.0037080194440756967 0 0.0370023717924194 0.0030204151572582535 0 0.034462172557693307 0.0037080194440756967 0 0.0370023717924194 0.0030204151572582535 0 0.036142015408101455 0.0049389559278965383 0 0.0370023717924194 0.0030204151572582535 0 0.038807609824571022 0.0056355396425460565 0 0.036142015408101455 0.0049389559278965383 0 0.037514475202691258 0.00085924371084941111 0 0.035248192979149245 0.0018840206219104983 0 0.0370023717924194 0.0030204151572582535 0 0.039075366489602366 0.0028342851158080851 0 0.040325849730522126 0.0047033610485154014 0 0.040645640465428894 0.005060611293860531 0 0.04206649440335529 0.0049077144677184513 0 0.04135158651457993 0.0058563227613907705 0 0.037514475202691258 0.00085924371084941111 0 0.0370023717924194 0.0030204151572582535 0 0.039333905857007752 0.0034003813371126759 0 0.0370023717924194 0.0030204151572582535 0 0.039333905857007752 0.0034003813371126759 0 0.038807609824571022 0.0056355396425460565 0 0.038807609824571022 0.0056355396425460565 0 0.036142015408101455 0.0049389559278965383 0 0.038337412314605149 0.0075680567756803421 0 0.03620232185429046 0.0050220336684996467 0 0.03756939317612535 0.0071507644826351536 0 0.036142015408101455 0.0049389559278965383 0 0.035919380101021005 0.0065156629245513194 0 0.036861244780518596 0.0069024071866368624 0 0.035191524364191352 0.0070936677202891778 0 0.035919380101021005 0.0065156629245513194 0 0.036231934608303262 0.0074310162806795312 0 0.035919380101021005 0.0065156629245513194 0 0.036861244780518596 0.0069024071866368624 0 0.036231934608303262 0.0074310162806795312 0 0.038807609824571022 0.0056355396425460565 0 0.038337412314605149 0.0075680567756803421 0 0.039622550910995549 0.0070024961198119516 0 0.039852860348398952 0.0078769730475650307 0 0.038337412314605149 0.0075680567756803421 0 0.039622550910995549 0.0070024961198119516 0 0.036861244780518596 0.0069024071866368624 0 0.03773633090278683 0.0084676985696877892 0 0.037289196165757175 0.0082313344168231384 0 0.03756939317612535 0.0071507644826351536 0 0.038729773889943836 0.0086347346079220771 0 0.039852860348398952 0.0078769730475650307 0 0.038337412314605149 0.0075680567756803421 0 0.039785334399840534 0.0088237453757916053 0 0.036861244780518596 0.0069024071866368624 0 0.037047788693399697 0.0085235313365606604 0 0.037289196165757175 0.0082313344168231384 0 0.036231934608303262 0.0074310162806795312 0 0.035681491448907747 0.0085423374923635532 0 0.036797566139644286 0.0086999070231591185 0 0.036861244780518596 0.0069024071866368624 0 0.036231934608303262 0.0074310162806795312 0 0.037047788693399697 0.0085235313365606604 0 0.036231934608303262 0.0074310162806795312 0 0.035681491448907747 0.0085423374923635532 0 0.035183488222977781 0.0079570552684880558 0 0.036387190410455933 0.0078001051012300321 0 0.036703138409372782 0.0078638471482574152 0 0.036231934608303262 0.0074310162806795312 0 0.036922535755592199 0.0086382170068617526 0 0.037047788693399697 0.0085235313365606604 0 0.035681491448907747 0.0085423374923635532 0 0.036797566139644286 0.0086999070231591185 0 0.035421846082955115 0.009856356554877958 0 0.036703138409372782 0.0078638471482574152 0 0.03159284537184779 0.0074480264938329164 0 0.036703138409372782 0.0078638471482574152 0 0.03669360141563284 0.0079460507353935495 0 0.036925226991837673 0.008641277080172368 0 0.037047788693399697 0.0085235313365606604 0 0.037349388534213109 0.0086459169331187871 0 0.037047788693399697 0.0085235313365606604 0 0.037289196165757175 0.0082313344168231384 0 0.037349388534213109 0.0086459169331187871 0 0.03773633090278683 0.0084676985696877892 0 0.037289196165757175 0.0082313344168231384 0 0.037349388534213109 0.0086459169331187871 0 0.036925226991837673 0.008641277080172368 0 0.037349388534213109 0.0086459169331187871 0 0.037643325910378465 0.009132019935229092 0 0.03773633090278683 0.0084676985696877892 0 0.037349388534213109 0.0086459169331187871 0 0.037643325910378465 0.009132019935229092 0 0.036703138409372782 0.0078638471482574152 0 0.037830762579154298 0.0093223231825704835 0 0.03615865063295564 0.0050621522587113912 0 0.038503799410621667 0.0096053143215293884 0 0.035502443980029733 0.010649452115778427 0 0.036925226991837673 0.008641277080172368 0 0.037643325910378465 0.009132019935229092 0 0.037581039169563554 0.0097900488465330997 0 0.037830762579154298 0.0093223231825704835 0 0.031560424405638665 0.0074590682511810873 0 0.031560424405638665 0.0074590682511810873 0 0.031610605942659409 0.0082149459083666315 0 0.025533814610497699 0.0044069316054268217 0 0.025423143365059502 0.0051279123421690302 0 0.026025809342164564 0.0053896834670914759 0 0.038044714891007893 0.010761387927045766 0 0.036406397367145765 0.0099420264312643763 0 0.037457076203932384 0.011416984414128481 0 0.038044714891007893 0.010761387927045766 0 0.037353085292744045 0.0096101762474660301 0 0.036406397367145765 0.0099420264312643763 0 0.02531083158138691 0.0046203401075459623 0 0.025533814610497699 0.0044069316054268217 0 0.025423143365059502 0.0051279123421690302 0 0.025210739877354484 0.0048386475303687192 0 0.024903833318069016 0.0049658539207596032 0 0.025218778240900588 0.0045096723953035982 0 0.025210739877354484 0.0048386475303687192 0 0.02531083158138691 0.0046203401075459623 0 0.025218778240900588 0.0045096723953035982 0 0.025210739877354484 0.0048386475303687192 0 0.02531083158138691 0.0046203401075459623 0 0.025423143365059502 0.0051279123421690302 0 0.02531083158138691 0.0046203401075459623 0 0.025533814610497699 0.0044069316054268217 0 0.02523213191405262 0.0045173931828894499 0 0.034644885389222203 0.010380810446892623 0 0.033925961799322238 0.011194793883503197 0 0.033777363453705044 0.009280203774199183 0 0.028214183498843404 0.005492278448566419 0 0.029266370495712547 0.0064512149549511479 0 0.031560424405638665 0.0074590682511810873 0 0.029266370495712547 0.0064512149549511479 0 0.035502443980029733 0.010649452115778427 0 0.034644885389222203 0.010380810446892623 0 0.033925961799322238 0.011194793883503197 0 0.03615865063295564 0.0050621522587113912 0 0.035502443980029733 0.010649452115778427 0 0.033777363453705044 0.009280203774199183 0 0.033925961799322238 0.011194793883503197 0 0.033777363453705044 0.009280203774199183 0 0.031904905309309839 0.0087670909572191633 0 0.03615865063295564 0.0050621522587113912 0 0.033777363453705044 0.009280203774199183 0 0.031904905309309839 0.0087670909572191633 0 0.029266370495712547 0.0064512149549511479 0 0.03159284537184779 0.0074480264938329164 0 0.035502443980029733 0.010649452115778427 0 0.034644885389222203 0.010380810446892623 0 0.033777363453705044 0.009280203774199183 0 0.02747940951416316 0.0052005225991706063 0 0.027460500820660635 0.0051888228727553611 0 0.027482701758431319 0.0052010994498494847 0 0.03159284537184779 0.0074480264938329164 0 0.028490036792923695 0.0050026981985566345 0 0.023221228255969058 0.0030947111202055668 0 0.028490036792923695 0.0050026981985566345 0 0.028741867183786886 0.0056606476335667611 0 0.027711226373824373 0.0044042688011488107 0 0.026498911920028855 0.0054365099672317226 0 0.03159284537184779 0.0074480264938329164 0 0.023221228255969058 0.0030947111202055668 0 0.029266370495712547 0.0064512149549511479 0 0.023237184956861157 0.0042431389058998721 0 0.024903833318069016 0.0049658539207596032 0 0.025218778240900588 0.0045096723953035982 0 0.024375242674299205 0.0047858255791030889 0 0.028741867183786886 0.0056606476335667611 0 0.026498911920028855 0.0054365099672317226 0 0.026568316468873972 0.0063985653291255959 0 0.023221228255969058 0.0030947111202055668 0 0.023237184956861157 0.0042431389058998721 0 0.021796700454315573 0.0024131125769274947 0 0.021880382160615275 0.0034844967998325059 0 0.019683262561405828 0.0042359715481258449 0 0.023221228255969058 0.0030947111202055668 0 0.01852370262657569 0.0023693003534175534 0 0.023237184956861157 0.0042431389058998721 0 0.01852370262657569 0.0023693003534175534 0 0.018938924983219668 0.0005712530971266074 0 0.01811675565722818 0.00063814327778051406 0 0.018288693362374014 0.0012410576603622582 0 0.018938924983219668 0.0005712530971266074 0 0.018209389459572917 3.0882945086562287e-05 0 0.01811675565722818 0.00063814327778051406 0 0.018938924983219668 0.0005712530971266074 0 0.018739634178320492 -0.00026531958929429541 0 0.018209389459572917 3.0882945086562287e-05 0 0.018739634178320492 -0.00026531958929429541 0 0.01820851564763076 -0.00060967153580864149 0 0.017926631471639809 -0.00041581862864037569 0 0.028490036792923695 0.0050026981985566345 0 0.034116384176887941 0.0084832126963355469 0 0.018739634178320492 -0.00026531958929429541 0 0.017926631471639809 -0.00041581862864037569 0 0.018209389459572917 3.0882945086562287e-05 0 0.035681491448907747 0.0085423374923635532 0 0.034516254053227245 0.0088553649548252285 0 0.035183488222977781 0.0079570552684880558 0 0.035681491448907747 0.0085423374923635532 0 0.035421846082955115 0.009856356554877958 0 0.034516254053227245 0.0088553649548252285 0 0.034516254053227245 0.0088553649548252285 0 0.035183488222977781 0.0079570552684880558 0 0.034355208582621699 0.0077795749304979955 0 0.035191524364191352 0.0070936677202891778 0 0.036231934608303262 0.0074310162806795312 0 0.035183488222977781 0.0079570552684880558 0 0.035191524364191352 0.0070936677202891778 0 0.035183488222977781 0.0079570552684880558 0 0.034355208582621699 0.0077795749304979955 0 0.033908177383386598 0.0089040805906894973 0 0.033857457009978172 0.0078194519737570523 0 0.032755168050970833 0.0077120599527511846 0 0.033998383295460143 0.0065281016248665263 0 0.033857457009978172 0.0078194519737570523 0 0.032755168050970833 0.0077120599527511846 0 0.028490036792923695 0.0050026981985566345 0 0.025124369071874288 0.0033186014648796218 0 0.01820851564763076 -0.00060967153580864149 0 0.018153925599129948 -0.00056621563147395094 0 0.017926631471639809 -0.00041581862864037569 0 0.019206070917024583 -0.00039562011393358393 0 0.018153925599129948 -0.00056621563147395094 0 0.017807161335351956 -0.00048305180823105074 0 0.018153925599129948 -0.00056621563147395094 0 0.017926631471639809 -0.00041581862864037569 0 0.017807161335351956 -0.00048305180823105074 0 0.017272030885115794 -0.00031840146357386907 0 0.017926631471639809 -0.00041581862864037569 0 0.017807161335351956 -0.00048305180823105074 0 0.017272030885115794 -0.00031840146357386907 0 0.017926631471639809 -0.00041581862864037569 0 0.017599504907013883 0.00012326475547208896 0 0.017926631471639809 -0.00041581862864037569 0 0.018209389459572917 3.0882945086562287e-05 0 0.017599504907013883 0.00012326475547208896 0 0.018209389459572917 3.0882945086562287e-05 0 0.017599504907013883 0.00012326475547208896 0 0.01811675565722818 0.00063814327778051406 0 0.017599504907013883 0.00012326475547208896 0 0.01811675565722818 0.00063814327778051406 0 0.017638549005499909 0.00082487589156015413 0 0.017638549005499909 0.00082487589156015413 0 0.017884170153432081 0.0010859343824890498 0 0.017591882527020427 0.0012683287679791013 0 0.01811675565722818 0.00063814327778051406 0 0.017638549005499909 0.00082487589156015413 0 0.017884170153432081 0.0010859343824890498 0 0.01811675565722818 0.00063814327778051406 0 0.017884170153432081 0.0010859343824890498 0 0.018288693362374014 0.0012410576603622582 0 0.017090665559140791 0.00073051022991047333 0 0.016435986277853191 -2.6041706302704569e-05 0 0.016514890687404381 0.0014772683819549708 0 0.017090665559140791 0.00073051022991047333 0 0.016514890687404381 0.0014772683819549708 0 0.017170991893537255 0.0012849238564354879 0 0.017638549005499909 0.00082487589156015413 0 0.017170991893537255 0.0012849238564354879 0 0.017591882527020427 0.0012683287679791013 0 0.017638549005499909 0.00082487589156015413 0 0.017090665559140791 0.00073051022991047333 0 0.017170991893537255 0.0012849238564354879 0 0.017599504907013883 0.00012326475547208896 0 0.017638549005499909 0.00082487589156015413 0 0.017090665559140791 0.00073051022991047333 0 0.017599504907013883 0.00012326475547208896 0 0.017090665559140791 0.00073051022991047333 0 0.016435986277853191 -2.6041706302704569e-05 0 0.017272030885115794 -0.00031840146357386907 0 0.017599504907013883 0.00012326475547208896 0 0.016435986277853191 -2.6041706302704569e-05 0 0.017272030885115794 -0.00031840146357386907 0 0.016435986277853191 -2.6041706302704569e-05 0 0.016672125244628456 -0.00033189387060419875 0 0.016435986277853191 -2.6041706302704569e-05 0 0.015394088655331702 -7.8331781602794835e-05 0 0.016672125244628456 -0.00033189387060419875 0 0.016435986277853191 -2.6041706302704569e-05 0 0.014532334814684581 0.00033477952589171765 0 0.015394088655331702 -7.8331781602794835e-05 0 0.016435986277853191 -2.6041706302704569e-05 0 0.014532334814684581 0.00033477952589171765 0 0.015598336680943918 0.0012172240847735808 0 0.016635089379632192 0.00010606678177963506 0 0.0146534416260859 0.0010791904992421034 0 0.014483903191128512 0.00038253923303297968 0 0.0146534416260859 0.0010791904992421034 0 0.014532334814684581 0.00033477952589171765 0 0.01315902416315088 -4.7496245338044852e-07 0 0.015394088655331702 -7.8331781602794835e-05 0 0.014532334814684581 0.00033477952589171765 0 0.01315902416315088 -4.7496245338044852e-07 0 0.01311371602914359 0.00013615609733662909 0 0.01315902416315088 -4.7496245338044852e-07 0 0.015394088655331702 -7.8331781602794835e-05 0 0.015707091691588539 -2.8956332774676035e-07 0 0.015394088655331702 -7.8331781602794835e-05 0 0.015707091691588539 -2.8956332774676035e-07 0 0.016672125244628456 -0.00033189387060419875 0 0.015707091691588539 -2.8956332774676035e-07 0 0.016672125244628456 -0.00033189387060419875 0 0.018254405773083592 -9.4645240618943818e-07 0 0.017272030885115794 -0.00031840146357386907 0 0.016672125244628456 -0.00033189387060419875 0 0.017807161335351956 -0.00048305180823105074 0 0.019206070917024583 -0.00039562011393358393 0 0.017807161335351956 -0.00048305180823105074 0 0.018254405773083592 -9.4645240618943818e-07 0 0.016672125244628456 -0.00033189387060419875 0 0.017807161335351956 -0.00048305180823105074 0 0.018254405773083592 -9.4645240618943818e-07 0 0.0077246526292894507 -0.00012054137543426935 0 0.0082157540859706286 -1.8940341360692762e-06 0 0.0058237296565284207 2.1446973077923473e-06 0 0.0077246526292894507 -0.00012054137543426935 0 0.0081017452105469779 -2.167903104916135e-05 0 0.0083346679275838349 -0.00023728381838819993 0 0.0077246526292894507 -0.00012054137543426935 0 0.0072377840610149064 0.00015449536681220059 0 0.0058237296565284207 2.1446973077923473e-06 0 0.0081017452105469779 -2.167903104916135e-05 0 0.0078847539600192529 0.00065500199478935853 0 0.0072377840610149064 0.00015449536681220059 0 0.0077246526292894507 -0.00012054137543426935 0 0.0081017452105469779 -2.167903104916135e-05 0 0.0072377840610149064 0.00015449536681220059 0 0.0082925758659512187 -7.8470403999501346e-05 0 0.0086354666833004488 0.00057015574531621112 0 0.0081017452105469779 -2.167903104916135e-05 0 0.0083850239510401547 -0.00034010292540191878 0 0.0085560177917629963 0.00057695701063853434 0 0.0081017452105469779 -2.167903104916135e-05 0 0.0083850239510401547 -0.00034010292540191878 0 0.0083346679275838349 -0.00023728381838819993 0 0.0083850239510401547 -0.00034010292540191878 0 0.0083346679275838349 -0.00023728381838819993 0 0.0085470270906438835 -7.9703510781454804e-05 0 0.0083346679275838349 -0.00023728381838819993 0 0.0089746631059243812 -0.00017522968582222385 0 0.0085470270906438835 -7.9703510781454804e-05 0 0.0083346679275838349 -0.00023728381838819993 0 0.0082157540859706286 -1.8940341360692762e-06 0 0.0089746631059243812 -0.00017522968582222385 0 0.0077246526292894507 -0.00012054137543426935 0 0.0083346679275838349 -0.00023728381838819993 0 0.0082157540859706286 -1.8940341360692762e-06 0 0.0082157540859706286 -1.8940341360692762e-06 0 0.0089746631059243812 -0.00017522968582222385 0 0.010607481618866703 1.7707291302838531e-06 0 0.0089746631059243812 -0.00017522968582222385 0 0.0088484842218840998 0.00045536352456164821 0 0.0085470270906438835 -7.9703510781454804e-05 0 0.0089746631059243812 -0.00017522968582222385 0 0.0088484842218840998 0.00045536352456164821 0 0.010607481618866703 1.7707291302838531e-06 0 0.011135356883172973 0.0004524579499470619 0 0.010611034658537483 3.8170284708695867e-07 0 0.01315902416315088 -4.7496245338044852e-07 0 0.010614507845358914 2.7718050045899036e-06 0 0.01311371602914359 0.00013615609733662909 0 0.013350826695095479 0.00081148632477140881 0 0.01311371602914359 0.00013615609733662909 0 0.013855657862060918 0.00029183693493973909 0 0.013350826695095479 0.00081148632477140881 0 0.010614507845358914 2.7718050045899036e-06 0 0.01311371602914359 0.00013615609733662909 0 0.014532334814684581 0.00033477952589171765 0 0.01311371602914359 0.00013615609733662909 0 0.013855657862060918 0.00029183693493973909 0 0.014532334814684581 0.00033477952589171765 0 0.013982471838970147 0.00029153012886456563 0 0.013855657862060918 0.00029183693493973909 0 0.013350826695095479 0.00081148632477140881 0 0.013855657862060918 0.00029183693493973909 0 0.014136537389212439 0.00058566332549249043 0 0.0146534416260859 0.0010791904992421034 0 0.011001465341167239 0.00027605466023437712 0 0.013982471838970147 0.00029153012886456563 0 0.013855657862060918 0.00029183693493973909 0 0.014136537389212439 0.00058566332549249043 0 0.0083850239510401547 -0.00034010292540191878 0 0.0082710078837178579 0.00037510086903006602 0 0.0085470270906438835 -7.9703510781454804e-05 0 0.0082925758659512187 -7.8470403999501346e-05 0 0.011001465341167239 0.00027605466023437712 0 0.0088484842218840998 0.00045536352456164821 0 0.0082710078837178579 0.00037510086903006602 0 0.0085470270906438835 -7.9703510781454804e-05 0 0.011135356883172973 0.0004524579499470619 0 0.011001465341167239 0.00027605466023437712 0 0.0088022441535005273 0.0001755618975399887 0 0.008873669564277686 -0.00015923539825575241 0 0.0089387801314284761 -2.9854619086209525e-05 0 0.0089387801314284761 -2.9854619086209525e-05 0 0.0090629617568365912 -0.0001430794328504131 0 0.0090963454037305425 1.3075230729234317e-05 0 0.0089387801314284761 -2.9854619086209525e-05 0 0.0090963454037305425 1.3075230729234317e-05 0 0.0090324479627976531 0.00014362876370946392 0 0.0089387801314284761 -2.9854619086209525e-05 0 0.0090929202795353038 -0.00012203550696150628 0 0.0090159699489991904 -0.00018152224756081867 0 0.0093340989914076529 0.00070089606224050898 0 0.011875269730486179 0.00099396400676512683 0 0.008873669564277686 -0.00015923539825575241 0 0.0089387801314284761 -2.9854619086209525e-05 0 0.0090159699489991904 -0.00018152224756081867 0 0.0146534416260859 0.0010791904992421034 0 0.013273376551463142 0.0010416879815868712 0 0.013123229439289575 0.0008120834654092372 0 0.013112899458413657 0.00058183881974209104 0 0.012883752965228944 0.00061531227370051973 0 0.011001465341167239 0.00027605466023437712 0 0.013273376551463142 0.0010416879815868712 0 0.017112571727858399 0.0019187368139289139 0 0.017434218726874257 0.0015738573780881154 0 0.017766120615014151 0.001800484959746006 0 0.01364351772604515 0.0018094579393170521 0 0.012849482444525802 0.0011566009627171523 0 0.014691205953533451 0.00089405645725193993 0 0.013273376551463142 0.0010416879815868712 0 0.015735637335437463 0.0017870169212278113 0 0.011875269730486179 0.00099396400676512683 0 0.013273376551463142 0.0010416879815868712 0 0.017112571727858399 0.0019187368139289139 0 0.017434218726874257 0.0015738573780881154 0 0.017170991893537255 0.0012849238564354879 0 0.017434218726874257 0.0015738573780881154 0 0.017170991893537255 0.0012849238564354879 0 0.017591882527020427 0.0012683287679791013 0 0.016514890687404381 0.0014772683819549708 0 0.017112571727858399 0.0019187368139289139 0 0.017170991893537255 0.0012849238564354879 0 0.015735637335437463 0.0017870169212278113 0 0.01852370262657569 0.0023693003534175534 0 0.017979104026328904 0.0017302910256063923 0 0.01852370262657569 0.0023693003534175534 0 0.017884170153432081 0.0010859343824890498 0 0.017746940062185936 0.0015074265583159194 0 0.018288693362374014 0.0012410576603622582 0 0.017746940062185936 0.0015074265583159194 0 0.017766120615014151 0.001800484959746006 0 0.018313437925925696 0.001311508104322519 0 0.017884170153432081 0.0010859343824890498 0 0.017591882527020427 0.0012683287679791013 0 0.017746940062185936 0.0015074265583159194 0 0.017434218726874257 0.0015738573780881154 0 0.017591882527020427 0.0012683287679791013 0 0.017746940062185936 0.0015074265583159194 0 0.017434218726874257 0.0015738573780881154 0 0.017746940062185936 0.0015074265583159194 0 0.017766120615014151 0.001800484959746006 0 0.011875269730486179 0.00099396400676512683 0 0.015735637335437463 0.0017870169212278113 0 0.0090629617568365912 -0.0001430794328504131 0 0.0090963454037305425 1.3075230729234317e-05 0 0.0093762314453184319 8.4214827934793183e-05 0 0.011875269730486179 0.00099396400676512683 0 0.012103237100885955 0.0013776783032155859 0 0.014241115491570488 0.0020133152725214376 0 0.0159047872758841 0.0033699130941271171 0 0.015942416588136426 0.0022117097127041098 0 0.014241115491570488 0.0020133152725214376 0 0.014820025601206309 0.0015164523153872662 0 0.015942416588136426 0.0022117097127041098 0 0.0090963454037305425 1.3075230729234317e-05 0 0.0090324479627976531 0.00014362876370946392 0 0.0093762314453184319 8.4214827934793183e-05 0 0.0090324479627976531 0.00014362876370946392 0 0.0091490487997969612 0.00034090611953229799 0 0.0093762314453184319 8.4214827934793183e-05 0 0.0091490487997969612 0.00034090611953229799 0 0.009320514605923225 0.0004702376313644093 0 0.0093762314453184319 8.4214827934793183e-05 0 0.0088022441535005273 0.0001755618975399887 0 0.0089387801314284761 -2.9854619086209525e-05 0 0.0090324479627976531 0.00014362876370946392 0 0.0088022441535005273 0.0001755618975399887 0 0.0090324479627976531 0.00014362876370946392 0 0.0089155548327345662 0.00032349361813408716 0 0.0090324479627976531 0.00014362876370946392 0 0.0089155548327345662 0.00032349361813408716 0 0.0091490487997969612 0.00034090611953229799 0 0.0088022441535005273 0.0001755618975399887 0 0.0089155548327345662 0.00032349361813408716 0 0.0085560177917629963 0.00057695701063853434 0 0.0089155548327345662 0.00032349361813408716 0 0.0088748938092734295 0.00047887674781824937 0 0.0085560177917629963 0.00057695701063853434 0 0.0089155548327345662 0.00032349361813408716 0 0.0088748938092734295 0.00047887674781824937 0 0.0090391492617616104 0.00045816837995305655 0 0.0088748938092734295 0.00047887674781824937 0 0.0090391492617616104 0.00045816837995305655 0 0.0089227467092212881 0.0005689141452938116 0 0.0090391492617616104 0.00045816837995305655 0 0.0090295820488547323 0.00058383595626649795 0 0.0089227467092212881 0.0005689141452938116 0 0.0090391492617616104 0.00045816837995305655 0 0.0091490487997969612 0.00034090611953229799 0 0.0092032452863080386 0.00060516259127522834 0 0.0090391492617616104 0.00045816837995305655 0 0.0092032452863080386 0.00060516259127522834 0 0.0090295820488547323 0.00058383595626649795 0 0.0091490487997969612 0.00034090611953229799 0 0.009320514605923225 0.0004702376313644093 0 0.0092032452863080386 0.00060516259127522834 0 0.0089155548327345662 0.00032349361813408716 0 0.0090391492617616104 0.00045816837995305655 0 0.0091490487997969612 0.00034090611953229799 0 0.009320514605923225 0.0004702376313644093 0 0.0095134134605936015 0.00046807052005083314 0 0.0094434856806182507 0.00075736005185122676 0 0.009320514605923225 0.0004702376313644093 0 0.0095134134605936015 0.00046807052005083314 0 0.0093762314453184319 8.4214827934793183e-05 0 0.014079534092081295 0.0035124012566880199 0 0.013909595761132557 0.0033737684140029774 0 0.013925950094792822 0.0032465277857963767 0 0.0095134134605936015 0.00046807052005083314 0 0.0097891620990166826 0.00039078961575072195 0 0.0096389306080859952 0.0006745722800216734 0 0.016198714807167669 0.0039285317669212243 0 0.019885431264404892 0.0059979675260401662 0 0.024279252131681559 0.0072830582917902936 0 0.024864478614109353 0.0070920286232574962 0 0.024865358986245673 0.007777937298920133 0 0.024279252131681559 0.0072830582917902936 0 0.024239345963139917 0.0062783330194315081 0 0.024864478614109353 0.0070920286232574962 0 0.017539666502685722 0.0047052839759198105 0 0.0159047872758841 0.0033699130941271171 0 0.017420002300057576 0.0029619095297191175 0 0.016198714807167669 0.0039285317669212243 0 0.021123062721992891 0.005015592578212897 0 0.016198714807167669 0.0039285317669212243 0 0.012103237100885955 0.0013776783032155859 0 0.0095134134605936015 0.00046807052005083314 0 0.0097891620990166826 0.00039078961575072195 0 0.0093762314453184319 8.4214827934793183e-05 0 0.015942416588136426 0.0022117097127041098 0 0.017310182569244843 0.0011912706368905259 0 0.017420002300057576 0.0029619095297191175 0 0.0159047872758841 0.0033699130941271171 0 0.015942416588136426 0.0022117097127041098 0 0.017420002300057576 0.0029619095297191175 0 0.017182304625843563 0.0039361195348070529 0 0.018726129258480276 0.0026042146564686022 0 0.021421936664291 0.0033630184549694382 0 0.021295220716522185 0.0017268506826117291 0 0.018726129258480276 0.0026042146564686022 0 0.021421936664291 0.0033630184549694382 0 0.014820025601206309 0.0015164523153872662 0 0.015942416588136426 0.0022117097127041098 0 0.017310182569244843 0.0011912706368905259 0 0.015735637335437463 0.0017870169212278113 0 0.021381583444093358 0.0034367378493231236 0 0.023237184956861157 0.0042431389058998721 0 0.021381583444093358 0.0034367378493231236 0 0.024903833318069016 0.0049658539207596032 0 0.024375242674299205 0.0047858255791030889 0 0.0244121114475855 0.0052586911789458983 0 0.021381583444093358 0.0034367378493231236 0 0.021123062721992891 0.005015592578212897 0 0.024160648701230442 0.0052335250883150221 0 0.024239345963139917 0.0062783330194315081 0 0.024938051838745711 0.0058229483106997798 0 0.024239345963139917 0.0062783330194315081 0 0.024938051838745711 0.0058229483106997798 0 0.025407380750352111 0.0066443388050353245 0 0.024938051838745711 0.0058229483106997798 0 0.025605294165008948 0.0059696779152938343 0 0.025407380750352111 0.0066443388050353245 0 0.021381583444093358 0.0034367378493231236 0 0.026482593464580619 0.0054146074620304982 0 0.024938051838745711 0.0058229483106997798 0 0.025423143365059502 0.0051279123421690302 0 0.025605294165008948 0.0059696779152938343 0 0.024903833318069016 0.0049658539207596032 0 0.0244121114475855 0.0052586911789458983 0 0.025423143365059502 0.0051279123421690302 0 0.024160648701230442 0.0052335250883150221 0 0.024938051838745711 0.0058229483106997798 0 0.025423143365059502 0.0051279123421690302 0 0.025210739877354484 0.0048386475303687192 0 0.024903833318069016 0.0049658539207596032 0 0.025423143365059502 0.0051279123421690302 0 0.025423143365059502 0.0051279123421690302 0 0.026025809342164564 0.0053896834670914759 0 0.025605294165008948 0.0059696779152938343 0 0.025605294165008948 0.0059696779152938343 0 0.025407380750352111 0.0066443388050353245 0 0.026576741701333097 0.0064732066286338945 0 0.026025809342164564 0.0053896834670914759 0 0.025605294165008948 0.0059696779152938343 0 0.026576741701333097 0.0064732066286338945 0 0.025407380750352111 0.0066443388050353245 0 0.02619078696378338 0.0072183379735526517 0 0.026576741701333097 0.0064732066286338945 0 0.025407380750352111 0.0066443388050353245 0 0.02619078696378338 0.0072183379735526517 0 0.025539368843627674 0.0074924307513800029 0 0.024239345963139917 0.0062783330194315081 0 0.025407380750352111 0.0066443388050353245 0 0.024864478614109353 0.0070920286232574962 0 0.025407380750352111 0.0066443388050353245 0 0.024864478614109353 0.0070920286232574962 0 0.025539368843627674 0.0074924307513800029 0 0.024864478614109353 0.0070920286232574962 0 0.024865358986245673 0.007777937298920133 0 0.025539368843627674 0.0074924307513800029 0 0.024865358986245673 0.007777937298920133 0 0.025539368843627674 0.0074924307513800029 0 0.025450884718964138 0.0082747283557580032 0 0.025539368843627674 0.0074924307513800029 0 0.025450884718964138 0.0082747283557580032 0 0.026299243711935292 0.0079277296479324452 0 0.02619078696378338 0.0072183379735526517 0 0.025539368843627674 0.0074924307513800029 0 0.026299243711935292 0.0079277296479324452 0 0.019900007795563102 0.0052437612538041257 0 0.018354358777681597 0.0039772660214263634 0 0.021217649370593634 0.0027009422126539982 0 0.012607103839623832 0.0014672179272587987 0 0.0075831319202932235 0.00096272259200722759 0 0.019075947543904053 0.0047727159881669496 0 0.023428342724882752 0.0054358124846218313 0 0.013572836119577441 0.003088679485600058 0 0.013728443123042538 0.0032347050102279908 0 0.013823282168687483 0.003148513470518591 0 0.012607103839623832 0.0014672179272587987 0 0.019075947543904053 0.0047727159881669496 0 0.0075831319202932235 0.00096272259200722759 0 0.0070755126645663932 0.00081952884799306252 0 0.013925950094792822 0.0032465277857963767 0 0.013823282168687483 0.003148513470518591 0 0.014002672005469728 0.0031683960836229653 0 0.013909595761132557 0.0033737684140029774 0 0.013769710760068126 0.0032363683026810056 0 0.013823521145681831 0.0031969050919159951 0 0.019885431264404892 0.0059979675260401662 0 0.019075947543904053 0.0047727159881669496 0 0.013909595761132557 0.0033737684140029774 0 0.013925950094792822 0.0032465277857963767 0 0.013823521145681831 0.0031969050919159951 0 0.013925950094792822 0.0032465277857963767 0 0.013823521145681831 0.0031969050919159951 0 0.013823282168687483 0.003148513470518591 0 0.019075947543904053 0.0047727159881669496 0 0.015400849496293237 0.0050344343348759837 0 0.013728443123042538 0.0032347050102279908 0 0.013823521145681831 0.0031969050919159951 0 0.013823282168687483 0.003148513470518591 0 0.0022133395218950462 -0.0011252536078127529 0 0.0017406002027971154 -0.00042221497044713109 0 0.0012236645718096159 -0.0009601858342909613 0 0.0041042191067098286 -0.0012613658656183498 0 0.0022133395218950462 -0.0011252536078127529 0 0.0021695273960433089 -9.0525635679635481e-05 0 0.0022133395218950462 -0.0011252536078127529 0 0.0017406002027971154 -0.00042221497044713109 0 0.0021695273960433089 -9.0525635679635481e-05 0 0.0017406002027971154 -0.00042221497044713109 0 0.0021695273960433089 -9.0525635679635481e-05 0 0.0015113535137536852 0.00030285718616287918 0 0.0021695273960433089 -9.0525635679635481e-05 0 0.0043187978201428851 0.00014399918571812346 0 0.005003009207050965 0.0018968708758954802 0 0.0041042191067098286 -0.0012613658656183498 0 0.0021695273960433089 -9.0525635679635481e-05 0 0.0043187978201428851 0.00014399918571812346 0 0.0041042191067098286 -0.0012613658656183498 0 0.0043187978201428851 0.00014399918571812346 0 0.006027040457736786 7.3583129635040566e-05 0 0.0027781200831339887 0.00041906139099260275 0 0.0026493507373445352 0.001077559041660109 0 0.0017900023569836119 0.00048014744012669301 0 0.0022832166880861508 -4.4026683339543432e-07 0 0.003839572355764269 0.0011021225363381864 0 0.0021695273960433089 -9.0525635679635481e-05 0 0.0027781200831339887 0.00041906139099260275 0 0.0017900023569836119 0.00048014744012669301 0 0.00079647485541240045 0.00025070829007291045 0 0.0014619988607070056 0.00023017544816802903 0 0.0017900023569836119 0.00048014744012669301 0 0.0016862685094208628 0.00060173897211590003 0 0.0017678474105931106 0.00051992067681216642 0 0.0012973317761718808 -9.2111301886073268e-05 0 0.00079647485541240045 0.00025070829007291045 0 0.0014619988607070056 0.00023017544816802903 0 0.0012973317761718808 -9.2111301886073268e-05 0 0.0014619988607070056 0.00023017544816802903 0 0.0017859279274655743 0.00028693475527869329 0 0.0014619988607070056 0.00023017544816802903 0 0.0017900023569836119 0.00048014744012669301 0 0.0017859279274655743 0.00028693475527869329 0 0.0021695273960433089 -9.0525635679635481e-05 0 0.0017900023569836119 0.00048014744012669301 0 0.0015113535137536852 0.00030285718616287918 0 0.0017900023569836119 0.00048014744012669301 0 0.0015113535137536852 0.00030285718616287918 0 0.0017859279274655743 0.00028693475527869329 0 0.0029910265943285897 -0.00075638021262227273 0 0.0030833228672374874 -0.001055688446105993 0 0.0029356913433259595 -0.00117930190634806 0 0.0018764821259817295 -0.00060162350689742087 0 0.0025032526512392315 -0.0003718092993374954 0 0.0029910265943285897 -0.00075638021262227273 0 0.003120004398144683 -0.00089815914555503313 0 0.0032744233775551328 -0.0006642200415561127 0 0.0029910265943285897 -0.00075638021262227273 0 0.003120004398144683 -0.00089815914555503313 0 0.0030833228672374874 -0.001055688446105993 0 0.003120004398144683 -0.00089815914555503313 0 0.0030833228672374874 -0.001055688446105993 0 0.0032236761943635318 -0.0010669674216618305 0 0.0031495038610858026 -0.0013398841384761871 0 0.0030833228672374874 -0.001055688446105993 0 0.0032236761943635318 -0.0010669674216618305 0 0.0031495038610858026 -0.0013398841384761871 0 0.0030833228672374874 -0.001055688446105993 0 0.0029356913433259595 -0.00117930190634806 0 -0.00049519923376825116 -0.0010263017192612088 0 0.0011205438047293651 -0.00081365829283420489 0 0.00070919165290363423 -0.0012626149435199753 0 0.0011205438047293651 -0.00081365829283420489 0 0.0031495038610858026 -0.0013398841384761871 0 0.0032236761943635318 -0.0010669674216618305 0 0.0033971787692539364 -0.0011000661158860586 0 0.0032236761943635318 -0.0010669674216618305 0 0.0033971787692539364 -0.0011000661158860586 0 0.0033761437492978892 -0.00094866501500591959 0 0.0011205438047293651 -0.00081365829283420489 0 0.003459829257572971 -0.0011331588043328529 0 0.005182675720943249 -0.00088925012609461453 0 0.0051263879702862954 -0.00037111229237501119 0 0.0053895124210163528 -0.00059677345535294436 0 0.0031628202164403121 -0.00091255979109612488 0 0.003459829257572971 -0.0011331588043328529 0 0.003120004398144683 -0.00089815914555503313 0 0.0035963265438821298 -0.00097756534715027869 0 0.0032744233775551328 -0.0006642200415561127 0 0.0035963265438821298 -0.00097756534715027869 0 0.0035465679081099267 -0.00054470512769967466 0 0.0032744233775551328 -0.0006642200415561127 0 0.0024044608633127097 -0.0013510453192187404 0 0.0023564158576639353 -0.0009788011549387533 0 0.0027502637302630928 -0.0010291953665044235 0 0.003120004398144683 -0.00089815914555503313 0 0.0032236761943635318 -0.0010669674216618305 0 0.0033761437492978892 -0.00094866501500591959 0 0.003459829257572971 -0.0011331588043328529 0 0.0043778496215502354 -0.00045912584270638932 0 0.0051263879702862954 -0.00037111229237501119 0 0.005067928516030485 0.00014777278115020006 0 0.0055379760261907831 -0.00016207954600268198 0 0.0043778496215502354 -0.00045912584270638932 0 0.0069083993241878033 0.00049708982893826919 0 0.0035465679081099267 -0.00054470512769967466 0 0.0032822816995656452 -0.00042003764404899296 0 0.003513039209715399 -0.00011651709163051213 0 0.0035465679081099267 -0.00054470512769967466 0 0.0032744233775551328 -0.0006642200415561127 0 0.0032822816995656452 -0.00042003764404899296 0 0.0018764821259817295 -0.00060162350689742087 0 0.0070755126645663932 0.00081952884799306252 0 0.0017406002027971154 -0.00042221497044713109 0 0.0015113535137536852 0.00030285718616287918 0 0.0012236645718096159 -0.0009601858342909613 0 0.0029910265943285897 -0.00075638021262227273 0 0.0032744233775551328 -0.0006642200415561127 0 0.0032822816995656452 -0.00042003764404899296 0 0.0029910265943285897 -0.00075638021262227273 0 0.0032822816995656452 -0.00042003764404899296 0 0.0030680502066197735 -0.00016724777254646737 0 0.0070755126645663932 0.00081952884799306252 0 0.0069083993241878033 0.00049708982893826919 0 0.014079534092081295 0.0035124012566880199 0 0.013925950094792822 0.0032465277857963767 0 0.014002672005469728 0.0031683960836229653 0 0.016198714807167669 0.0039285317669212243 0 0.0070755126645663932 0.00081952884799306252 0 0.0098156615914107952 0.00094032575575696124 0 0.0096389306080859952 0.0006745722800216734 0 0.0094226222440009361 0.00090936344559600633 0 0.0032822816995656452 -0.00042003764404899296 0 0.0030680502066197735 -0.00016724777254646737 0 0.003513039209715399 -0.00011651709163051213 0 0.0097891620990166826 0.00039078961575072195 0 0.0098156615914107952 0.00094032575575696124 0 0.0096389306080859952 0.0006745722800216734 0 0.0096208486578722337 0.00051392054793835719 0 0.0069083993241878033 0.00049708982893826919 0 0.0095134134605936015 0.00046807052005083314 0 0.0096389306080859952 0.0006745722800216734 0 0.0094226222440009361 0.00090936344559600633 0 0.009320514605923225 0.0004702376313644093 0 0.0094434856806182507 0.00075736005185122676 0 0.0092032452863080386 0.00060516259127522834 0 0.0069083993241878033 0.00049708982893826919 0 0.0073773492621273338 0.0003501845249130911 0 0.005067928516030485 0.00014777278115020006 0 0.0059757883787553701 0.00023547860906426415 0 0.0055379760261907831 -0.00016207954600268198 0 0.0094434856806182507 0.00075736005185122676 0 0.0092032452863080386 0.00060516259127522834 0 0.0089483459886811056 0.00071388133510214328 0 0.0092032452863080386 0.00060516259127522834 0 0.0090295820488547323 0.00058383595626649795 0 0.0089483459886811056 0.00071388133510214328 0 0.0078909342696989043 0.00068987081620779621 0 0.0073773492621273338 0.0003501845249130911 0 0.0090295820488547323 0.00058383595626649795 0 0.0089227467092212881 0.0005689141452938116 0 0.0089483459886811056 0.00071388133510214328 0 0.0089227467092212881 0.0005689141452938116 0 0.0090303177215590932 0.00069727645733462279 0 0.0085560177917629963 0.00057695701063853434 0 0.0088748938092734295 0.00047887674781824937 0 0.0089227467092212881 0.0005689141452938116 0 0.0085560177917629963 0.00057695701063853434 0 0.0073773492621273338 0.0003501845249130911 0 0.0039734539769339869 -0.00029698471903150732 0 0.0031063338484585016 -2.1671574097109278e-05 0 0.0029868023882852401 -0.00016514090050252176 0 0.0030408337581579216 -0.00016187148206572884 0 0.004272137608210414 -0.0001114479226009748 0 0.0039734539769339869 -0.00029698471903150732 0 0.0053572275724658534 0.00037751676498562812 0 0.005710477508127967 -5.5814743632119625e-05 0 0.0051440618930434596 -0.00057346087995579847 0 0.0059757883787553701 0.00023547860906426415 0 0.0055379760261907831 -0.00016207954600268198 0 0.0057661839813199882 -0.00068275258940490705 0 0.0055379760261907831 -0.00016207954600268198 0 0.0053895124210163528 -0.00059677345535294436 0 0.0057661839813199882 -0.00068275258940490705 0 0.0051263879702862954 -0.00037111229237501119 0 0.0055379760261907831 -0.00016207954600268198 0 0.0053895124210163528 -0.00059677345535294436 0 0.0053895124210163528 -0.00059677345535294436 0 0.0057661839813199882 -0.00068275258940490705 0 0.0054924112794134056 -0.00093185255394482767 0 0.0039734539769339869 -0.00029698471903150732 0 0.001252230778835768 -0.00024631224858826282 0 0.0039734539769339869 -0.00029698471903150732 0 0.0030108773158106375 -0.00058187168458045165 0 0.0031654796140111129 0.00017960578704285813 0 0.0030125227610182442 -0.00056029162163960284 0 0.0024531789911177468 -0.00048549760686679362 0 0.001252230778835768 -0.00024631224858826282 0 0.0030108773158106375 -0.00058187168458045165 0 0.003459829257572971 -0.0011331588043328529 0 0.0030108773158106375 -0.00058187168458045165 0 0.005182675720943249 -0.00088925012609461453 0 0.0053895124210163528 -0.00059677345535294436 0 0.0054924112794134056 -0.00093185255394482767 0 0.0010570707324603181 -0.00090196936607148061 0 0.00075143220577632145 -0.00039674293759063301 0 0.0012413425751033394 -0.00014368421395103315 0 -0.0019651113102766358 -0.00040303202646590813 0 -0.0017974199502667919 0.00058515026798822373 0 -0.0014266506675859765 -1.5905430470627708e-05 0 -0.00052735230243401753 -0.00060033376908125776 0 0.001252230778835768 -0.00024631224858826282 0 0.00075143220577632145 -0.00039674293759063301 0 0.0012413425751033394 -0.00014368421395103315 0 0.0010281227672825591 -0.00012166090950204103 0 0.0011205438047293651 -0.00081365829283420489 0 0.0030108773158106375 -0.00058187168458045165 0 -0.0017974199502667919 0.00058515026798822373 0 -0.0014266506675859765 -1.5905430470627708e-05 0 -0.00068945643569969406 0.00051938647091092141 0 -0.00082216585545242745 -0.00028653431329617098 0 -0.0014266506675859765 -1.5905430470627708e-05 0 -0.00068945643569969406 0.00051938647091092141 0 0.001252230778835768 -0.00024631224858826282 0 0.00096017323916702682 0.00022432829240684986 0 0.0029996768244443584 -0.00017674683873847562 0 0.0030408337581579216 -0.00016187148206572884 0 0.0029356481541848367 -0.00014768559302925444 0 0.0029868023882852401 -0.00016514090050252176 0 0.0029996768244443584 -0.00017674683873847562 0 0.0030408337581579216 -0.00016187148206572884 0 0.0030408337581579216 -0.00016187148206572884 0 0.0029356481541848367 -0.00014768559302925444 0 0.0035047301409458381 -0.00013932643222987353 0 -0.00082216585545242745 -0.00028653431329617098 0 -0.00068945643569969406 0.00051938647091092141 0 -0.00010879087429938152 -0.00018793278277442853 0 -0.00068945643569969406 0.00051938647091092141 0 -0.00010879087429938152 -0.00018793278277442853 0 0.0010526441027445001 1.2819597237024648e-06 0 0.00096017323916702682 0.00022432829240684986 0 0.0010580544393396763 4.1627744443887045e-08 0 -0.0002070590722471636 -1.3320074243996769e-06 0 -0.00010879087429938152 -0.00018793278277442853 0 0.0010526441027445001 1.2819597237024648e-06 0 0.0029356481541848367 -0.00014768559302925444 0 0.0034381988116292976 -1.9548046818225497e-06 0 0.0035047301409458381 -0.00013932643222987353 0 0.0029356481541848367 -0.00014768559302925444 0 0.0010630366922009548 1.942191185281139e-06 0 0.0034381988116292976 -1.9548046818225497e-06 0 0.0034381988116292976 -1.9548046818225497e-06 0 0.0035047301409458381 -0.00013932643222987353 0 0.0058175332005521259 1.9759481831640381e-06 0 0.0031063338484585016 -2.1671574097109278e-05 0 0.0030408337581579216 -0.00016187148206572884 0 0.0035047301409458381 -0.00013932643222987353 0 0.0031063338484585016 -2.1671574097109278e-05 0 0.0035047301409458381 -0.00013932643222987353 0 0.0040848072404301916 0.00046441048121407483 0 0.0090303177215590932 0.00069727645733462279 0 0.0085560177917629963 0.00057695701063853434 0 0.0078847539600192529 0.00065500199478935853 0 0.0053572275724658534 0.00037751676498562812 0 0.005710477508127967 -5.5814743632119625e-05 0 0.0062677501321686795 0.0004602859242259145 0 0.0073773492621273338 0.0003501845249130911 0 0.0063347496293624656 0.0003768383107084685 0 0.004272137608210414 -0.0001114479226009748 0 0.0063347496293624656 0.0003768383107084685 0 0.0081017452105469779 -2.167903104916135e-05 0 0.0085560177917629963 0.00057695701063853434 0 0.0078847539600192529 0.00065500199478935853 0 0.0035047301409458381 -0.00013932643222987353 0 0.0040848072404301916 0.00046441048121407483 0 0.0058175332005521259 1.9759481831640381e-06 0 0.0078152262601805453 0.00072961121309002037 0 0.0072377840610149064 0.00015449536681220059 0 0.0058237296565284207 2.1446973077923473e-06 0 0.0063347496293624656 0.0003768383107084685 0 0.0070908150743239631 0.00061152373410531462 0 0.0063347496293624656 0.0003768383107084685 0 0.0058204000824166871 3.2230039388205254e-07 0 0.022084363669196468 0.0096791967031625396 0 0.019737479524518861 0.010265650906316174 0 0.016641674608915333 0.012839206884276245 0 0.018756351697919907 0.013589951069007037 0 0.014154432075428141 0.012455670273470561 0 0.017968610841087963 0.01121163764292055 0 0.020210212632342229 0.011654123755034794 0 0.021195860907162127 0.0097386145170571762 0 0.017968610841087963 0.01121163764292055 0 0.016994305999849996 0.0086191087063520258 0 0.015093992421602951 0.010507941101952004 0 0.017968610841087963 0.01121163764292055 0 0.016641674608915333 0.012839206884276245 0 0.015093992421602951 0.010507941101952004 0 0.017968610841087963 0.01121163764292055 0 0.016641674608915333 0.012839206884276245 0 0.018756351697919907 0.013589951069007037 0 0.017968610841087963 0.01121163764292055 0 0.018756351697919907 0.013589951069007037 0 0.020210212632342229 0.011654123755034794 0 0.022084363669196468 0.0096791967031625396 0 0.028871873294025085 0.010515029212712166 0 0.022579050125740765 0.012010208006087595 0 0.023870002264068942 0.010067060695659094 0 0.024689192612517032 0.014255854207965072 0 0.018756351697919907 0.013589951069007037 0 0.022579050125740765 0.012010208006087595 0 0.024689192612517032 0.014255854207965072 0 0.018756351697919907 0.013589951069007037 0 0.022579050125740765 0.012010208006087595 0 0.020210212632342229 0.011654123755034794 0 0.022579050125740765 0.012010208006087595 0 0.021195860907162127 0.0097386145170571762 0 0.023870002264068942 0.010067060695659094 0 0.022579050125740765 0.012010208006087595 0 0.020210212632342229 0.011654123755034794 0 0.021195860907162127 0.0097386145170571762 0 0.021195860907162127 0.0097386145170571762 0 0.023870002264068942 0.010067060695659094 0 0.023409060403743891 0.0061008499042111844 0 0.021195860907162127 0.0097386145170571762 0 0.019864463105034279 0.0073825896601861056 0 0.023409060403743891 0.0061008499042111844 0 0.017968610841087963 0.01121163764292055 0 0.021195860907162127 0.0097386145170571762 0 0.016994305999849996 0.0086191087063520258 0 0.019864463105034279 0.0073825896601861056 0 0.016994305999849996 0.0086191087063520258 0 0.018176456399210776 0.0049544124532377365 0 0.021195860907162127 0.0097386145170571762 0 0.019864463105034279 0.0073825896601861056 0 0.016994305999849996 0.0086191087063520258 0 0.016994305999849996 0.0086191087063520258 0 0.013280247661765701 0.0087100840010382874 0 0.015093992421602951 0.010507941101952004 0 0.016994305999849996 0.0086191087063520258 0 0.013280247661765701 0.0087100840010382874 0 0.014869378236992808 0.006681275119044457 0 0.013280247661765701 0.0087100840010382874 0 0.011804642371024228 0.0064752329619055405 0 0.014869378236992808 0.006681275119044457 0 0.013280247661765701 0.0087100840010382874 0 0.011314675007945722 0.0095354668050368439 0 0.011804642371024228 0.0064752329619055405 0 0.011314675007945722 0.0095354668050368439 0 0.011804642371024228 0.0064752329619055405 0 0.00970485262041282 0.008002720022568726 0 0.013280247661765701 0.0087100840010382874 0 0.011314675007945722 0.0095354668050368439 0 0.013316392327929385 0.010676926595980416 0 0.019754294795575777 0.0091136048529622069 0 0.019737479524518861 0.010265650906316174 0 0.011314675007945722 0.0095354668050368439 0 0.011356631327501671 0.01196621238430081 0 0.013316392327929385 0.010676926595980416 0 0.011356631327501671 0.01196621238430081 0 0.013316392327929385 0.010676926595980416 0 0.014158039929401471 0.012507526336793232 0 0.016641674608915333 0.012839206884276245 0 0.015093992421602951 0.010507941101952004 0 0.013316392327929385 0.010676926595980416 0 0.016641674608915333 0.012839206884276245 0 0.013316392327929385 0.010676926595980416 0 0.014158039929401471 0.012507526336793232 0 0.013280247661765701 0.0087100840010382874 0 0.015093992421602951 0.010507941101952004 0 0.013316392327929385 0.010676926595980416 0 0.014950432453143227 0.012237896648721715 0 0.019737479524518861 0.010265650906316174 0 0.027932189724614271 0.0058366213383313119 0 0.027971847992831436 0.0049160938292414306 0 0.027198766567858457 0.0052982338959172955 0 0.027932189724614271 0.0058366213383313119 0 0.027971847992831436 0.0049160938292414306 0 0.028643649434043798 0.00504222263298198 0 0.027971847992831436 0.0049160938292414306 0 0.027227023777878501 0.0045561986937783655 0 0.027198766567858457 0.0052982338959172955 0 0.029044905711026872 0.0055331747758690661 0 0.027932189724614271 0.0058366213383313119 0 0.028643649434043798 0.00504222263298198 0 0.029044905711026872 0.0055331747758690661 0 0.028643649434043798 0.00504222263298198 0 0.029521470517492161 0.0046438016992661167 0 0.027971847992831436 0.0049160938292414306 0 0.028643649434043798 0.00504222263298198 0 0.028683285073599709 0.0043380114551840945 0 0.028643649434043798 0.00504222263298198 0 0.028683285073599709 0.0043380114551840945 0 0.029521470517492161 0.0046438016992661167 0 0.028683285073599709 0.0043380114551840945 0 0.029467426188250923 0.0037105083638944449 0 0.029521470517492161 0.0046438016992661167 0 0.028683285073599709 0.0043380114551840945 0 0.028796679481411971 0.0036375401784298871 0 0.028000768661692012 0.0041548986358501986 0 0.028683285073599709 0.0043380114551840945 0 0.028796679481411971 0.0036375401784298871 0 0.029467426188250923 0.0037105083638944449 0 0.027971847992831436 0.0049160938292414306 0 0.028000768661692012 0.0041548986358501986 0 0.027227023777878501 0.0045561986937783655 0 0.027971847992831436 0.0049160938292414306 0 0.028683285073599709 0.0043380114551840945 0 0.028000768661692012 0.0041548986358501986 0 0.028087584761881921 0.0034046987720800954 0 0.028000768661692012 0.0041548986358501986 0 0.027376372070607273 0.0038607053633677225 0 0.028087584761881921 0.0034046987720800954 0 0.028796679481411971 0.0036375401784298871 0 0.028000768661692012 0.0041548986358501986 0 0.028000768661692012 0.0041548986358501986 0 0.027376372070607273 0.0038607053633677225 0 0.027227023777878501 0.0045561986937783655 0 0.027376372070607273 0.0038607053633677225 0 0.026484942150667257 0.0041247302370629839 0 0.027227023777878501 0.0045561986937783655 0 0.026484942150667257 0.0041247302370629839 0 0.027227023777878501 0.0045561986937783655 0 0.026390341777894451 0.0051287785517980088 0 0.027227023777878501 0.0045561986937783655 0 0.027198766567858457 0.0052982338959172955 0 0.026390341777894451 0.0051287785517980088 0 0.026421999189515162 0.006052386458947131 0 0.027932189724614271 0.0058366213383313119 0 0.027198766567858457 0.0052982338959172955 0 0.026421999189515162 0.006052386458947131 0 0.026390341777894451 0.0051287785517980088 0 0.025733007622745278 0.0055734891197823629 0 0.026421999189515162 0.006052386458947131 0 0.027198766567858457 0.0052982338959172955 0 0.026390341777894451 0.0051287785517980088 0 0.026421999189515162 0.006052386458947131 0 0.025733007622745278 0.0055734891197823629 0 0.024786310522532221 0.0062665102439545661 0 0.025733007622745278 0.0055734891197823629 0 0.02532060681529889 0.0048410939647322493 0 0.024786310522532221 0.0062665102439545661 0 0.033835316774782541 0.0075544727629548647 0 0.028871873294025085 0.010515029212712166 0 0.026390341777894451 0.0051287785517980088 0 0.025733007622745278 0.0055734891197823629 0 0.02532060681529889 0.0048410939647322493 0 0.037399133646760396 0.0084047037631937785 0 0.033835316774782541 0.0075544727629548647 0 0.042449190571631566 0.0098879489067190685 0 0.04196603709241141 0.01125217702710562 0 0.041296060144688895 0.010447189733215274 0 0.025891245103052105 0.0034711596643168374 0 0.026484942150667257 0.0041247302370629839 0 0.02532060681529889 0.0048410939647322493 0 0.026484942150667257 0.0041247302370629839 0 0.026390341777894451 0.0051287785517980088 0 0.02532060681529889 0.0048410939647322493 0 0.041296060144688895 0.010447189733215274 0 0.040334221227553951 0.011066794510890177 0 0.040845288378116559 0.011687927956315115 0 0.042373248245458246 0.01034520828092297 0 0.040303195613001455 0.01109882359889504 0 0.04196603709241141 0.01125217702710562 0 0.041296060144688895 0.010447189733215274 0 0.040845288378116559 0.011687927956315115 0 0.041117139010577841 0.010525531364914903 0 0.042037053478258847 0.010817801178030502 0 0.040334221227553951 0.011066794510890177 0 0.040607902414748202 0.010285965908042335 0 0.040334221227553951 0.011066794510890177 0 0.039500632090378268 0.01096449249682727 0 0.040334221227553951 0.011066794510890177 0 0.03950414046049408 0.011798507664683669 0 0.039500632090378268 0.01096449249682727 0 0.040334221227553951 0.011066794510890177 0 0.03950414046049408 0.011798507664683669 0 0.040845288378116559 0.011687927956315115 0 0.03950414046049408 0.011798507664683669 0 0.037818097166473358 0.012738454632026655 0 0.040114662858037241 0.012889019982361985 0 0.03950414046049408 0.011798507664683669 0 0.040845288378116559 0.011687927956315115 0 0.040114662858037241 0.012889019982361985 0 0.040845288378116559 0.011687927956315115 0 0.041438895413914767 0.012719859736622796 0 0.040114662858037241 0.012889019982361985 0 0.04196603709241141 0.01125217702710562 0 0.040845288378116559 0.011687927956315115 0 0.041438895413914767 0.012719859736622796 0 0.03805065565361955 0.010758455162844812 0 0.038630863580362051 0.011078523238306926 0 0.038468765475358234 0.011810170771884421 0 0.038035742314972185 0.010824788098692603 0 0.038440617888595936 0.011690672640641544 0 0.038044714891007893 0.010761387927045766 0 0.037457076203932384 0.011416984414128481 0 0.038468765475358234 0.011810170771884421 0 0.038630863580362051 0.011078523238306926 0 0.039500632090378268 0.01096449249682727 0 0.038817207994590805 0.011731488364120923 0 0.038630863580362051 0.011078523238306926 0 0.038817207994590805 0.011731488364120923 0 0.038468765475358234 0.011810170771884421 0 0.038551940531575339 0.010514748554948199 0 0.038630863580362051 0.011078523238306926 0 0.039500632090378268 0.01096449249682727 0 0.03950414046049408 0.011798507664683669 0 0.039500632090378268 0.01096449249682727 0 0.038817207994590805 0.011731488364120923 0 0.03950414046049408 0.011798507664683669 0 0.038817207994590805 0.011731488364120923 0 0.037818097166473358 0.012738454632026655 0 0.038817207994590805 0.011731488364120923 0 0.038468765475358234 0.011810170771884421 0 0.037818097166473358 0.012738454632026655 0 0.038468765475358234 0.011810170771884421 0 0.038723967478763867 0.012051242811554619 0 0.037818097166473358 0.012738454632026655 0 0.031610605942659409 0.0082149459083666315 0 0.032919262035052389 0.0095128716458666093 0 0.037457076203932384 0.011416984414128481 0 0.038468765475358234 0.011810170771884421 0 0.038723967478763867 0.012051242811554619 0 0.02619078696378338 0.0072183379735526517 0 0.026576741701333097 0.0064732066286338945 0 0.027144517345511213 0.0075685209988482095 0 0.032919262035052389 0.0095128716458666093 0 0.031145957858587568 0.0069193562961467406 0 0.038723967478763867 0.012051242811554619 0 0.038054088759714312 0.01088892053678206 0 0.038616856535102197 0.0090136719512255211 0 0.038723967478763867 0.012051242811554619 0 0.037818097166473358 0.012738454632026655 0 0.038054088759714312 0.01088892053678206 0 0.037818097166473358 0.012738454632026655 0 0.038054088759714312 0.01088892053678206 0 0.035430575836940807 0.009043287932535499 0 0.038054088759714312 0.01088892053678206 0 0.038616856535102197 0.0090136719512255211 0 0.035430575836940807 0.009043287932535499 0 0.031145957858587568 0.0069193562961467406 0 0.034065233501733863 0.0092984764634665915 0 0.035521508025529058 0.0079828745156408937 0 0.032349975715806292 0.0062476519489670064 0 0.031507065601791936 0.0097957614390451146 0 0.031145957858587568 0.0069193562961467406 0 0.023428342724882752 0.0054358124846218313 0 0.02619078696378338 0.0072183379735526517 0 0.027144517345511213 0.0075685209988482095 0 0.026299243711935292 0.0079277296479324452 0 0.023870002264068942 0.010067060695659094 0 0.024689192612517032 0.014255854207965072 0 0.02754387886021192 0.008462753434959832 0 0.026314392885053602 0.013454463454795219 0 0.028353713100748686 0.01146094370085184 0 0.031353655349697925 0.013965912335634684 0 0.028871873294025085 0.010515029212712166 0 0.026512438719893481 0.010234340413308405 0 0.026314392885053602 0.013454463454795219 0 0.028353713100748686 0.01146094370085184 0 0.02754387886021192 0.008462753434959832 0 0.028871873294025085 0.010515029212712166 0 0.036565945317668026 0.013159266001823445 0 0.028353713100748686 0.01146094370085184 0 0.031353655349697925 0.013965912335634684 0 0.035430575836940807 0.009043287932535499 0 0.037818097166473358 0.012738454632026655 0 0.031353655349697925 0.013965912335634684 0 0.035430575836940807 0.009043287932535499 0 0.037179609137290494 0.012980701635596351 0 0.036565945317668026 0.013159266001823445 0 0.028614892112762299 0.011424187177761736 0 0.034065233501733863 0.0092984764634665915 0 0.032349975715806292 0.0062476519489670064 0 0.031507065601791936 0.0097957614390451146 0 0.029996643009060679 0.0054814711148178357 0 0.031507065601791936 0.0097957614390451146 0 0.02754387886021192 0.008462753434959832 0 0.029996643009060679 0.0054814711148178357 0 0.028353713100748686 0.01146094370085184 0 0.031507065601791936 0.0097957614390451146 0 0.02754387886021192 0.008462753434959832 0 0.023870002264068942 0.010067060695659094 0 0.02754387886021192 0.008462753434959832 0 0.023409060403743891 0.0061008499042111844 0 0.02754387886021192 0.008462753434959832 0 0.027001603537340345 0.0044378366884362782 0 0.023409060403743891 0.0061008499042111844 0 0.02754387886021192 0.008462753434959832 0 0.027001603537340345 0.0044378366884362782 0 0.029996643009060679 0.0054814711148178357 0 0.027001603537340345 0.0044378366884362782 0 0.0249584907395906 0.0012899770594846421 0 0.023409060403743891 0.0061008499042111844 0 0.027001603537340345 0.0044378366884362782 0 0.028692180602489695 0.0012257066554565458 0 0.0249584907395906 0.0012899770594846421 0 0.029996643009060679 0.0054814711148178357 0 0.028692180602489695 0.0012257066554565458 0 0.032406722547040502 0.0016363637205912547 0 0.032349975715806292 0.0062476519489670064 0 0.029996643009060679 0.0054814711148178357 0 0.032406722547040502 0.0016363637205912547 0 0.027001603537340345 0.0044378366884362782 0 0.029996643009060679 0.0054814711148178357 0 0.028692180602489695 0.0012257066554565458 0 0.028692180602489695 0.0012257066554565458 0 0.030856423189482451 -0.0013070385583845846 0 0.032235345091881404 0.0015458684027581887 0 0.030760097224385621 0.0015831163197697123 0 0.026586484100329179 0.0023558581529482116 0 0.021186205244192829 0.00078978404708669628 0 0.026586484100329179 0.0023558581529482116 0 0.021115917860891086 0.0031482796274857686 0 0.021844727207035203 0.00087133553814476474 0 0.019944017930699765 0.0012912994790218219 0 0.028692180602489695 0.0012257066554565458 0 0.030856423189482451 -0.0013070385583845846 0 0.0249584907395906 0.0012899770594846421 0 0.023965840407484364 0.0016551224777714114 0 0.021115917860891086 0.0031482796274857686 0 0.021844727207035203 0.00087133553814476474 0 0.021186205244192829 0.00078978404708669628 0 0.024291154924493099 0.0019440994253003528 0 0.019900007795563102 0.0052437612538041257 0 0.021217649370593634 0.0027009422126539982 0 0.023086604231033571 0.0055205153536519351 0 0.024066300130003358 0.001448834924826448 0 0.021217649370593634 0.0027009422126539982 0 0.023086604231033571 0.0055205153536519351 0 0.024066300130003358 0.001448834924826448 0 0.026230112473945154 0.0057940067676576579 0 0.023086604231033571 0.0055205153536519351 0 0.035521508025529058 0.0079828745156408937 0 0.032349975715806292 0.0062476519489670064 0 0.032406722547040502 0.0016363637205912547 0 0.031145957858587568 0.0069193562961467406 0 0.026586484100329179 0.0023558581529482116 0 0.020402226372895356 0.0028138218268462601 0 0.019390976686242886 0.00077546802375067338 0 0.017620412918443854 0.0020833220732254178 0 0.026586484100329179 0.0023558581529482116 0 0.019635317499926665 0.0030515487693854259 0 0.020402226372895356 0.0028138218268462601 0 0.017620412918443854 0.0020833220732254178 0 0.017627555921717244 0.0041010743859731013 0 0.019390976686242886 0.00077546802375067338 0 0.017620412918443854 0.0020833220732254178 0 0.01612218611258797 0.00048831486850801854 0 0.017620412918443854 0.0020833220732254178 0 0.015251468181833976 0.0021465104692182913 0 0.017627555921717244 0.0041010743859731013 0 0.012872037843066014 0.00021150039767969846 0 0.01612218611258797 0.00048831486850801854 0 0.015251468181833976 0.0021465104692182913 0 0.012607103839623832 0.0014672179272587987 0 0.019635317499926665 0.0030515487693854259 0 0.017620412918443854 0.0020833220732254178 0 0.01612218611258797 0.00048831486850801854 0 0.015251468181833976 0.0021465104692182913 0 0.0043187978201428851 0.00014399918571812346 0 0.005003009207050965 0.0018968708758954802 0 0.006027040457736786 7.3583129635040566e-05 0 0.012607103839623832 0.0014672179272587987 0 0.01018113445288216 0.00074556641496942939 0 0.005003009207050965 0.0018968708758954802 0 0.0068014277527046448 0.0020516489537879957 0 0.0078714592768424768 0.0036890643392441884 0 0.005003009207050965 0.0018968708758954802 0 0.006027040457736786 7.3583129635040566e-05 0 0.0068014277527046448 0.0020516489537879957 0 0.01018113445288216 0.00074556641496942939 0 0.011529677173965219 0.0029678926324336499 0 0.006027040457736786 7.3583129635040566e-05 0 0.0068014277527046448 0.0020516489537879957 0 0.0079442926825093775 0.0015307225407988753 0 0.0076687347850818276 0.0031275215666940947 0 0.011529677173965219 0.0029678926324336499 0 0.0068014277527046448 0.0020516489537879957 0 0.0079370620075405532 0.0015153503919648201 0 0.0082867680875978629 0.0025855606661128192 0 0.010000530677697366 0.00059556967134476516 0 0.0079370620075405532 0.0015153503919648201 0 0.0093257041394405795 0.0016120275332040365 0 0.021186205244192829 0.00078978404708669628 0 0.011529677173965219 0.0029678926324336499 0 0.0079370620075405532 0.0015153503919648201 0 0.0082867680875978629 0.0025855606661128192 0 0.0093257041394405795 0.0016120275332040365 0 0.0082867680875978629 0.0025855606661128192 0 0.0093257041394405795 0.0016120275332040365 0 0.009338574477238697 0.0028775300138160795 0 0.006923472766592477 0.0027856230189947338 0 0.0058977999119794828 0.0024980268549409058 0 0.0078714592768424768 0.0036890643392441884 0 0.0098997603682210826 0.0037043251083903384 0 0.0097828526715363507 0.0042966307424556769 0 0.0078714592768424768 0.0036890643392441884 0 0.009338574477238697 0.0028775300138160795 0 0.0098997603682210826 0.0037043251083903384 0 0.0082867680875978629 0.0025855606661128192 0 0.0078714592768424768 0.0036890643392441884 0 0.009338574477238697 0.0028775300138160795 0 0.0068014277527046448 0.0020516489537879957 0 0.0082867680875978629 0.0025855606661128192 0 0.0078714592768424768 0.0036890643392441884 0 0.0027781200831339887 0.00041906139099260275 0 0.0026493507373445352 0.001077559041660109 0 0.0036700653124907834 0.0010482911980454913 0 0.003839572355764269 0.0011021225363381864 0 0.0058977999119794828 0.0024980268549409058 0 0.0035122288456718546 0.0016423813599724107 0 0.0026493507373445352 0.001077559041660109 0 0.0036700653124907834 0.0010482911980454913 0 0.0020243500259206288 0.00084775155843992451 0 0.0016862685094208628 0.00060173897211590003 0 0.021206244714333768 -0.00036818901234407487 0 0.021844727207035203 0.00087133553814476474 0 0.022825999121361018 -0.00052489220644387448 0 0.021206244714333768 -0.00036818901234407487 0 0.021844727207035203 0.00087133553814476474 0 0.019944017930699765 0.0012912994790218219 0 0.023965840407484364 0.0016551224777714114 0 0.021844727207035203 0.00087133553814476474 0 0.022825999121361018 -0.00052489220644387448 0 0.021186205244192829 0.00078978404708669628 0 0.016877447729414762 0.0011242289078482481 0 0.010000530677697366 0.00059556967134476516 0 0.0093257041394405795 0.0016120275332040365 0 0.011006591764116544 0.0027846634922950621 0 0.0093257041394405795 0.0016120275332040365 0 0.011006591764116544 0.0027846634922950621 0 0.009338574477238697 0.0028775300138160795 0 0.010436901981937106 0.0053426337752514085 0 0.0078714592768424768 0.0036890643392441884 0 0.0097828526715363507 0.0042966307424556769 0 0.011006591764116544 0.0027846634922950621 0 0.0098997603682210826 0.0037043251083903384 0 0.010898512483129612 0.0044575422149516876 0 0.011006591764116544 0.0027846634922950621 0 0.009338574477238697 0.0028775300138160795 0 0.0098997603682210826 0.0037043251083903384 0 0.0098997603682210826 0.0037043251083903384 0 0.0097828526715363507 0.0042966307424556769 0 0.010898512483129612 0.0044575422149516876 0 0.021689830459830941 -0.0026370032122795977 0 0.021206244714333768 -0.00036818901234407487 0 0.022825999121361018 -0.00052489220644387448 0 0.013536744519201277 0.0011147865344594923 0 0.016877447729414762 0.0011242289078482481 0 0.015536953957121088 0.0011312193589784996 0 0.015434678145283424 0.00093053629536400553 0 0.014527178462719106 0.0022280641446147053 0 0.021689830459830941 -0.0026370032122795977 0 0.021206244714333768 -0.00036818901234407487 0 0.019692292187004818 -0.00073611403185882738 0 0.013536744519201277 0.0011147865344594923 0 0.017957523203166494 0.00014606209882999215 0 0.011996742979613315 0.0048396827268469746 0 0.011006591764116544 0.0027846634922950621 0 0.010898512483129612 0.0044575422149516876 0 0.013796315998841749 0.0010069699511593634 0 0.015434678145283424 0.00093053629536400553 0 0.014527178462719106 0.0022280641446147053 0 0.013796315998841749 0.0010069699511593634 0 0.013407358688416018 0.00237736437442602 0 0.012750974743417862 0.002142972335120205 0 0.013796315998841749 0.0010069699511593634 0 0.014527178462719106 0.0022280641446147053 0 0.013407358688416018 0.00237736437442602 0 0.013796315998841749 0.0010069699511593634 0 0.012750974743417862 0.002142972335120205 0 0.01195501118716534 0.0017980121056609573 0 0.017957523203166494 0.00014606209882999215 0 0.015218023301710458 0.002510691974614137 0 0.014527178462719106 0.0022280641446147053 0 0.013407358688416018 0.00237736437442602 0 0.013517518150433994 0.0033127045038606672 0 0.013407358688416018 0.00237736437442602 0 0.013517518150433994 0.0033127045038606672 0 0.012716914882704305 0.00298975138908398 0 0.021206244714333768 -0.00036818901234407487 0 0.019692292187004818 -0.00073611403185882738 0 0.019944017930699765 0.0012912994790218219 0 0.019692292187004818 -0.00073611403185882738 0 0.017328239088875052 0.0012174074475550488 0 0.019944017930699765 0.0012912994790218219 0 0.021115917860891086 0.0031482796274857686 0 0.019944017930699765 0.0012912994790218219 0 0.018176456399210776 0.0049544124532377365 0 0.017328239088875052 0.0012174074475550488 0 0.018176456399210776 0.0049544124532377365 0 0.013719008425957769 0.0042985097889155161 0 0.017328239088875052 0.0012174074475550488 0 0.019944017930699765 0.0012912994790218219 0 0.018176456399210776 0.0049544124532377365 0 0.016994305999849996 0.0086191087063520258 0 0.018176456399210776 0.0049544124532377365 0 0.014869378236992808 0.006681275119044457 0 0.024291154924493099 0.0019440994253003528 0 0.017918586642514757 0.0049226501100534514 0 0.0249584907395906 0.0012899770594846421 0 0.018176456399210776 0.0049544124532377365 0 0.023409060403743891 0.0061008499042111844 0 0.019864463105034279 0.0073825896601861056 0 0.018176456399210776 0.0049544124532377365 0 0.023409060403743891 0.0061008499042111844 0 0.011804642371024228 0.0064752329619055405 0 0.013719008425957769 0.0042985097889155161 0 0.011523645922430792 0.0044896144749125176 0 0.011804642371024228 0.0064752329619055405 0 0.011523645922430792 0.0044896144749125176 0 0.010304187900617908 0.0054741386504516334 0 0.011804642371024228 0.0064752329619055405 0 0.014869378236992808 0.006681275119044457 0 0.013719008425957769 0.0042985097889155161 0 0.018176456399210776 0.0049544124532377365 0 0.014869378236992808 0.006681275119044457 0 0.013719008425957769 0.0042985097889155161 0 0.013517518150433994 0.0033127045038606672 0 0.013719008425957769 0.0042985097889155161 0 0.012716914882704305 0.00298975138908398 0 0.015218023301710458 0.002510691974614137 0 0.01382805366343836 0.0041074869256092685 0 0.013719008425957769 0.0042985097889155161 0 0.012026537363265279 0.0034897684271693705 0 0.012716914882704305 0.00298975138908398 0 0.013719008425957769 0.0042985097889155161 0 0.012026537363265279 0.0034897684271693705 0 0.011523645922430792 0.0044896144749125176 0 0.012026537363265279 0.0034897684271693705 0 0.011523645922430792 0.0044896144749125176 0 0.011055273258560009 0.0034903707355421029 0 0.011523645922430792 0.0044896144749125176 0 0.011055273258560009 0.0034903707355421029 0 0.01042952363723431 0.0040380477059017723 0 0.012026537363265279 0.0034897684271693705 0 0.011055273258560009 0.0034903707355421029 0 0.010985325862682697 0.0026343394502180016 0 0.011055273258560009 0.0034903707355421029 0 0.010985325862682697 0.0026343394502180016 0 0.010336931359838358 0.0029257834554338737 0 0.012026537363265279 0.0034897684271693705 0 0.011793384103593796 0.0027327457069031592 0 0.010985325862682697 0.0026343394502180016 0 0.011793384103593796 0.0027327457069031592 0 0.010985325862682697 0.0026343394502180016 0 0.011163015394772791 0.0021558933406130173 0 0.011793384103593796 0.0027327457069031592 0 0.012046645701699461 0.0023793301201790041 0 0.011163015394772791 0.0021558933406130173 0 0.010985325862682697 0.0026343394502180016 0 0.010503548826001836 0.0019675807630713605 0 0.0099450995375567341 0.0022209900577556687 0 0.012026537363265279 0.0034897684271693705 0 0.011793384103593796 0.0027327457069031592 0 0.012716914882704305 0.00298975138908398 0 0.011793384103593796 0.0027327457069031592 0 0.012716914882704305 0.00298975138908398 0 0.012046645701699461 0.0023793301201790041 0 0.012716914882704305 0.00298975138908398 0 0.012750974743417862 0.002142972335120205 0 0.012046645701699461 0.0023793301201790041 0 0.013407358688416018 0.00237736437442602 0 0.012716914882704305 0.00298975138908398 0 0.012750974743417862 0.002142972335120205 0 0.013796315998841749 0.0010069699511593634 0 0.011692075343631383 0.001039953191693783 0 0.01195501118716534 0.0017980121056609573 0 0.012750974743417862 0.002142972335120205 0 0.012046645701699461 0.0023793301201790041 0 0.01195501118716534 0.0017980121056609573 0 0.012046645701699461 0.0023793301201790041 0 0.01195501118716534 0.0017980121056609573 0 0.01121155386638787 0.0019081228287608297 0 0.012046645701699461 0.0023793301201790041 0 0.011163015394772791 0.0021558933406130173 0 0.01121155386638787 0.0019081228287608297 0 0.011429355001059991 0.001125290184638799 0 0.010617513667945166 0.0016895339710840316 0 0.01121155386638787 0.0019081228287608297 0 0.011429355001059991 0.001125290184638799 0 0.01195501118716534 0.0017980121056609573 0 0.01121155386638787 0.0019081228287608297 0 0.0087206455154230245 0.00044896624623952131 0 0.010731559101559773 0.0020450090659703546 0 0.010617513667945166 0.0016895339710840316 0 0.010617807531191051 0.0017696343025406013 0 0.0099674692173585613 0.0012581671201175044 0 0.0096591955387630695 0.001366142588251481 0 0.010617513667945166 0.0016895339710840316 0 0.0069571572697863827 0.0021289323675539049 0 0.01037192067776666 0.0016912707100451259 0 0.0084773331072691381 0.0016686157423456793 0 0.010503548826001836 0.0019675807630713605 0 0.011163015394772791 0.0021558933406130173 0 0.010617807531191051 0.0017696343025406013 0 0.010985325862682697 0.0026343394502180016 0 0.010503548826001836 0.0019675807630713605 0 0.011163015394772791 0.0021558933406130173 0 0.011163015394772791 0.0021558933406130173 0 0.01121155386638787 0.0019081228287608297 0 0.010617807531191051 0.0017696343025406013 0 0.010617513667945166 0.0016895339710840316 0 0.01121155386638787 0.0019081228287608297 0 0.010617807531191051 0.0017696343025406013 0 0.010503548826001836 0.0019675807630713605 0 0.010617807531191051 0.0017696343025406013 0 0.0099674692173585613 0.0012581671201175044 0 0.010503548826001836 0.0019675807630713605 0 0.0099674692173585613 0.0012581671201175044 0 0.0099450995375567341 0.0022209900577556687 0 0.0099674692173585613 0.0012581671201175044 0 0.0092731831765404775 0.0017053697422186264 0 0.0099450995375567341 0.0022209900577556687 0 0.0092731831765404775 0.0017053697422186264 0 0.0099450995375567341 0.0022209900577556687 0 0.0092108002553305847 0.0025270131938448189 0 0.0077982537801735826 0.0011850964445433692 0 0.007713758710920642 0.0029488957822367437 0 0.0090152543126287201 0.0026729822615459702 0 0.0092731831765404775 0.0017053697422186264 0 0.0080424550338520397 0.0010028078181562557 0 0.0092108002553305847 0.0025270131938448189 0 0.0099674692173585613 0.0012581671201175044 0 0.0092731831765404775 0.0017053697422186264 0 0.0080424550338520397 0.0010028078181562557 0 0.0084773331072691381 0.0016686157423456793 0 0.0065264420164488331 0.0014402368303120638 0 0.0065264420164488331 0.0014402368303120638 0 0.0092980131171806445 0.0026581608244906217 0 0.007713758710920642 0.0029488957822367437 0 0.0090152543126287201 0.0026729822615459702 0 0.0093103103396953279 0.0037858863822664386 0 0.007713758710920642 0.0029488957822367437 0 0.0093103103396953279 0.0037858863822664386 0 0.0075099700916200843 0.0042458800435829268 0 0.0092980131171806445 0.0026581608244906217 0 0.010269196893616538 0.0039279765452520715 0 0.0090152543126287201 0.0026729822615459702 0 0.01042952363723431 0.0040380477059017723 0 0.0093103103396953279 0.0037858863822664386 0 0.010336931359838358 0.0029257834554338737 0 0.0092108002553305847 0.0025270131938448189 0 0.01042952363723431 0.0040380477059017723 0 0.011055273258560009 0.0034903707355421029 0 0.010336931359838358 0.0029257834554338737 0 0.01042952363723431 0.0040380477059017723 0 0.010985325862682697 0.0026343394502180016 0 0.010336931359838358 0.0029257834554338737 0 0.0099450995375567341 0.0022209900577556687 0 0.010336931359838358 0.0029257834554338737 0 0.0099450995375567341 0.0022209900577556687 0 0.0092108002553305847 0.0025270131938448189 0 0.0050088117371055955 0.0019594913007777372 0 0.0055574766760716722 0.0011890859388995721 0 0.0057390303558963168 0.0020722302716635051 0 0.0055574766760716722 0.0011890859388995721 0 0.0057390303558963168 0.0020722302716635051 0 0.0066583493639395851 0.0022581252537831808 0 0.0077982537801735826 0.0011850964445433692 0 0.007713758710920642 0.0029488957822367437 0 0.0066583493639395851 0.0022581252537831808 0 0.0065264420164488331 0.0014402368303120638 0 0.00452294658119982 0.0013837639374930869 0 0.0077982537801735826 0.0011850964445433692 0 0.0055574766760716722 0.0011890859388995721 0 0.0066583493639395851 0.0022581252537831808 0 0.007713758710920642 0.0029488957822367437 0 0.0066583493639395851 0.0022581252537831808 0 0.0065139345469683004 0.003553543265046236 0 0.007713758710920642 0.0029488957822367437 0 0.0065139345469683004 0.003553543265046236 0 0.0075099700916200843 0.0042458800435829268 0 0.0066583493639395851 0.0022581252537831808 0 0.0065139345469683004 0.003553543265046236 0 0.0054145271615140831 0.0032154171111179208 0 0.0057390303558963168 0.0020722302716635051 0 0.0066583493639395851 0.0022581252537831808 0 0.0054145271615140831 0.0032154171111179208 0 0.0055678143730305924 0.0031682240989009832 0 0.0049435426446709134 0.0036066963397428094 0 0.0048757242199727827 0.0028417207198422356 0 0.0050088117371055955 0.0019594913007777372 0 0.0055678143730305924 0.0031682240989009832 0 0.0048757242199727827 0.0028417207198422356 0 0.005087364610297667 0.0021643093615400081 0 0.0054617884403667409 0.0030939759309535748 0 0.0050088117371055955 0.0019594913007777372 0 0.0057390303558963168 0.0020722302716635051 0 0.0054145271615140831 0.0032154171111179208 0 0.0060956407615566756 0.004420037747953064 0 0.0047661692443808131 0.004057223556630068 0 0.0047033060358109445 0.0046349806375068515 0 0.0049435426446709134 0.0036066963397428094 0 0.0060956407615566756 0.004420037747953064 0 0.0047661692443808131 0.004057223556630068 0 0.0094219439710182817 0.0053874374606735047 0 0.0092447278097955669 0.004938467210346264 0 0.010039861990334747 0.0052416977188708899 0 0.0066436259065139362 0.0048196779798838395 0 0.011218992826460274 0.0047753202916575449 0 0.0055678143730305924 0.0031682240989009832 0 0.0049435426446709134 0.0036066963397428094 0 0.0060956407615566756 0.004420037747953064 0 0.0065139345469683004 0.003553543265046236 0 0.0054145271615140831 0.0032154171111179208 0 0.0058247618129715845 0.0045425352812282884 0 0.0054617884403667409 0.0030939759309535748 0 0.0066436259065139362 0.0048196779798838395 0 0.0058637425317275135 0.0047121184003294982 0 0.0073380787078109562 0.0055351322276314232 0 0.0075178855314556202 0.0042803115327701086 0 0.0066436259065139362 0.0048196779798838395 0 0.0074248626408892756 0.0042630093961871923 0 0.0065139345469683004 0.003553543265046236 0 0.0058247618129715845 0.0045425352812282884 0 0.0075099700916200843 0.0042458800435829268 0 0.010394871334573702 0.0060915807457804219 0 0.0070904605270744299 0.006901680031604053 0 0.0058637425317275135 0.0047121184003294982 0 0.0073380787078109562 0.0055351322276314232 0 0.0062467368935745452 0.005908512641925062 0 0.0073380787078109562 0.0055351322276314232 0 0.0062467368935745452 0.005908512641925062 0 0.0078013539179144133 0.0067695338534366134 0 0.0066436259065139362 0.0048196779798838395 0 0.010394871334573702 0.0060915807457804219 0 0.017990324287767954 0.0044944217868145018 0 0.017403933693036052 0.0046751356156152007 0 0.017050649354530684 0.0041199283889386852 0 0.010394871334573702 0.0060915807457804219 0 0.011218992826460274 0.0047753202916575449 0 0.0095008487204483426 0.004699300036545266 0 0.0093103103396953279 0.0037858863822664386 0 0.0085075917192422874 0.004778769953125212 0 0.011523645922430792 0.0044896144749125176 0 0.01042952363723431 0.0040380477059017723 0 0.010304187900617908 0.0054741386504516334 0 0.0095008487204483426 0.004699300036545266 0 0.01042952363723431 0.0040380477059017723 0 0.010304187900617908 0.0054741386504516334 0 0.0095008487204483426 0.004699300036545266 0 0.01042952363723431 0.0040380477059017723 0 0.0093103103396953279 0.0037858863822664386 0 0.0091666198721094064 0.0038394841667773781 0 0.0074248626408892756 0.0042630093961871923 0 0.0093103103396953279 0.0037858863822664386 0 0.0075178855314556202 0.0042803115327701086 0 0.0085075917192422874 0.004778769953125212 0 0.0073380787078109562 0.0055351322276314232 0 0.0075178855314556202 0.0042803115327701086 0 0.0085075917192422874 0.004778769953125212 0 0.0095008487204483426 0.004699300036545266 0 0.0085075917192422874 0.004778769953125212 0 0.0088311560797714201 0.0057266274450953215 0 0.0088311560797714201 0.0057266274450953215 0 0.0078013539179144133 0.0067695338534366134 0 0.00970485262041282 0.008002720022568726 0 0.0073380787078109562 0.0055351322276314232 0 0.0085075917192422874 0.004778769953125212 0 0.0088311560797714201 0.0057266274450953215 0 0.0073380787078109562 0.0055351322276314232 0 0.0088311560797714201 0.0057266274450953215 0 0.0078013539179144133 0.0067695338534366134 0 0.0088311560797714201 0.0057266274450953215 0 0.010304187900617908 0.0054741386504516334 0 0.00970485262041282 0.008002720022568726 0 0.011804642371024228 0.0064752329619055405 0 0.010304187900617908 0.0054741386504516334 0 0.00970485262041282 0.008002720022568726 0 0.0095008487204483426 0.004699300036545266 0 0.0088311560797714201 0.0057266274450953215 0 0.010304187900617908 0.0054741386504516334 0 0.00970485262041282 0.008002720022568726 0 0.009577052552520126 0.010092637299988265 0 0.0081964173194830243 0.0089470855326596911 0 0.011314675007945722 0.0095354668050368439 0 0.00970485262041282 0.008002720022568726 0 0.009577052552520126 0.010092637299988265 0 0.011356631327501671 0.01196621238430081 0 0.009577052552520126 0.010092637299988265 0 0.0075672718173496805 0.011771001221971826 0 0.011314675007945722 0.0095354668050368439 0 0.011356631327501671 0.01196621238430081 0 0.009577052552520126 0.010092637299988265 0 0.0081964173194830243 0.0089470855326596911 0 0.0066020391611800134 0.009058782539790396 0 0.0075672718173496805 0.011771001221971826 0 0.009577052552520126 0.010092637299988265 0 0.0081964173194830243 0.0089470855326596911 0 0.0075672718173496805 0.011771001221971826 0 0.0076473735114561655 0.0074482834349286139 0 0.00970485262041282 0.008002720022568726 0 0.0081964173194830243 0.0089470855326596911 0 0.0070904605270744299 0.006901680031604053 0 0.0097980904707630195 0.0080076837866683293 0 0.0076473735114561655 0.0074482834349286139 0 0.0081964173194830243 0.0089470855326596911 0 0.0066020391611800134 0.009058782539790396 0 0.0058093814161803582 0.0067054690583786955 0 0.0076473735114561655 0.0074482834349286139 0 0.0066020391611800134 0.009058782539790396 0 0.017990324287767954 0.0044944217868145018 0 0.018401720761462865 0.0053775699009586562 0 0.017805200921816217 0.0055658219084498053 0 0.010394871334573702 0.0060915807457804219 0 0.011939019147130133 0.0073456480534540855 0 0.017403933693036052 0.0046751356156152007 0 0.017805200921816217 0.0055658219084498053 0 0.017213248318484604 0.0052573200088925041 0 0.017990324287767954 0.0044944217868145018 0 0.017403933693036052 0.0046751356156152007 0 0.017805200921816217 0.0055658219084498053 0 0.017805200921816217 0.0055658219084498053 0 0.017522850342033488 0.0063134893195374332 0 0.017213248318484604 0.0052573200088925041 0 0.017805200921816217 0.0055658219084498053 0 0.017522850342033488 0.0063134893195374332 0 0.017878692726197642 0.0061889565182194758 0 0.020931782048249057 0.0058257518032175685 0 0.021154543827630292 0.0063587102683157178 0 0.020777241953331478 0.0050745644647244986 0 0.024173944881870843 0.0050963301988067615 0 0.019196404408826685 0.0052751114384716486 0 0.018150996452176927 0.005933857595532087 0 0.017874886880159611 0.006287153524647017 0 0.017878692726197642 0.0061889565182194758 0 0.017805200921816217 0.0055658219084498053 0 0.018150996452176927 0.005933857595532087 0 0.017878692726197642 0.0061889565182194758 0 0.018401720761462865 0.0053775699009586562 0 0.018150996452176927 0.005933857595532087 0 0.018798587045923673 0.0062384896033472401 0 0.018150996452176927 0.005933857595532087 0 0.017874886880159611 0.006287153524647017 0 0.018798587045923673 0.0062384896033472401 0 0.011939019147130133 0.0073456480534540855 0 0.021524638143766373 0.006377510673355547 0 0.018401720761462865 0.0053775699009586562 0 0.017805200921816217 0.0055658219084498053 0 0.018150996452176927 0.005933857595532087 0 0.032004742695572595 0.004577664341300274 0 0.031412031836589596 0.0041081931436234374 0 0.030843683979297536 0.0049936360964708869 0 0.026618609943270324 0.0049434787072783308 0 0.021524638143766373 0.006377510673355547 0 0.026618609943270324 0.0049434787072783308 0 0.032141507722735878 0.0032810213040963894 0 0.030749929218107954 0.0045326232077653409 0 0.031218980230416738 0.0040913445573570861 0 0.031030512308037432 0.0032225973662474276 0 0.020931782048249057 0.0058257518032175685 0 0.021154543827630292 0.0063587102683157178 0 0.020928879148264298 0.0063725732936777022 0 0.031237476881042774 0.0043590506978277684 0 0.030749929218107954 0.0045326232077653409 0 0.031218980230416738 0.0040913445573570861 0 0.024173944881870843 0.0050963301988067615 0 0.026979375075742593 0.0046059913942262049 0 0.031263342147100324 0.0043542556479766277 0 0.031218980230416738 0.0040913445573570861 0 0.031496369777575542 0.004247925035940645 0 0.024173944881870843 0.0050963301988067615 0 0.025948218414416344 0.0050225037417910654 0 0.017522850342033488 0.0063134893195374332 0 0.017877213983637164 0.0062873917062073684 0 0.017878692726197642 0.0061889565182194758 0 0.024173944881870843 0.0050963301988067615 0 0.026618609943270324 0.0049434787072783308 0 0.026618609943270324 0.0049434787072783308 0 0.02606107726211836 0.0053516388713731608 0 0.031218980230416738 0.0040913445573570861 0 0.031030512308037432 0.0032225973662474276 0 0.031674130393158507 0.0030030274439514569 0 0.032190023160836252 0.0034247407507164828 0 0.031412031836589596 0.0041081931436234374 0 0.031370287014404717 0.0028340582759055202 0 0.032004742695572595 0.004577664341300274 0 0.032190023160836252 0.0034247407507164828 0 0.031412031836589596 0.0041081931436234374 0 0.031412031836589596 0.0041081931436234374 0 0.030433454334208992 0.0041013621577212908 0 0.031370287014404717 0.0028340582759055202 0 0.030433454334208992 0.0041013621577212908 0 0.029467426188250923 0.0037105083638944449 0 0.029521470517492161 0.0046438016992661167 0 0.030433454334208992 0.0041013621577212908 0 0.029467426188250923 0.0037105083638944449 0 0.030158979360988755 0.0030500197088818458 0 0.019754294795575777 0.0091136048529622069 0 0.021524638143766373 0.006377510673355547 0 0.029044905711026872 0.0055331747758690661 0 0.029521470517492161 0.0046438016992661167 0 0.030681448900762243 0.0050585365712582158 0 0.030433454334208992 0.0041013621577212908 0 0.029521470517492161 0.0046438016992661167 0 0.030681448900762243 0.0050585365712582158 0 0.031412031836589596 0.0041081931436234374 0 0.030433454334208992 0.0041013621577212908 0 0.030843683979297536 0.0049936360964708869 0 0.031311350526312731 0.0046792738159015393 0 0.021524638143766373 0.006377510673355547 0 0.032421597581812185 0.0032684328331335434 0 0.032599313158060625 0.0032554399482827346 0 0.032292756688875345 0.0029882474195227979 0 0.032421597581812185 0.0032684328331335434 0 0.03252512872884869 0.0035446059502718119 0 0.032599313158060625 0.0032554399482827346 0 0.032421597581812185 0.0032684328331335434 0 0.03226248595107465 0.0032602216600906902 0 0.032292756688875345 0.0029882474195227979 0 0.031995989946204492 0.0029696693766760457 0 0.03226248595107465 0.0032602216600906902 0 0.032292756688875345 0.0029882474195227979 0 0.03226248595107465 0.0032602216600906902 0 0.032334865024360934 0.0035241549995973414 0 0.031959640282470357 0.0034097199525899937 0 0.031995989946204492 0.0029696693766760457 0 0.03226248595107465 0.0032602216600906902 0 0.031959640282470357 0.0034097199525899937 0 0.03226248595107465 0.0032602216600906902 0 0.032334865024360934 0.0035241549995973414 0 0.03252512872884869 0.0035446059502718119 0 0.032421597581812185 0.0032684328331335434 0 0.03226248595107465 0.0032602216600906902 0 0.03252512872884869 0.0035446059502718119 0 0.03252512872884869 0.0035446059502718119 0 0.032726453652849749 0.0036624461344424456 0 0.032673942609281165 0.0037181033591549483 0 0.03252512872884869 0.0035446059502718119 0 0.032726453652849749 0.0036624461344424456 0 0.032599313158060625 0.0032554399482827346 0 0.032775076706022754 0.0037861093661009236 0 0.032749192580560894 0.0035798071243012442 0 0.032819458947161019 0.0036786434323402436 0 0.032854196874930644 0.0032501394813395823 0 0.026979375075742593 0.0046059913942262049 0 0.032726453652849749 0.0036624461344424456 0 0.032775076706022754 0.0037861093661009236 0 0.032749192580560894 0.0035798071243012442 0 0.032775076706022754 0.0037861093661009236 0 0.032819458947161019 0.0036786434323402436 0 0.032806285044696321 0.0037530980641128238 0 0.032749192580560894 0.0035798071243012442 0 0.032819458947161019 0.0036786434323402436 0 0.032599313158060625 0.0032554399482827346 0 0.031218980230416738 0.0040913445573570861 0 0.031674130393158507 0.0030030274439514569 0 0.031496369777575542 0.004247925035940645 0 0.020931782048249057 0.0058257518032175685 0 0.020671378717327986 0.0064086944073610472 0 0.020904921651968174 0.006391256431620855 0 0.029107721266484057 0.0033512043044706713 0 0.026979375075742593 0.0046059913942262049 0 0.032726453652849749 0.0036624461344424456 0 0.032749192580560894 0.0035798071243012442 0 0.032599313158060625 0.0032554399482827346 0 0.029107721266484057 0.0033512043044706713 0 0.033953645173908475 0.0032391694330573925 0 0.032599313158060625 0.0032554399482827346 0 0.032573600620913093 0.0026972109420921962 0 0.032777721357861528 0.0028202248787760169 0 0.032599313158060625 0.0032554399482827346 0 0.032573600620913093 0.0026972109420921962 0 0.032413258577831915 0.0028050470776856658 0 0.020931782048249057 0.0058257518032175685 0 0.020671378717327986 0.0064086944073610472 0 0.020207447401923401 0.0055715810589308072 0 0.029107721266484057 0.0033512043044706713 0 0.026446144764643995 0.0041111552415053808 0 0.032782545971367934 0.0031480992075676706 0 0.032599313158060625 0.0032554399482827346 0 0.032777721357861528 0.0028202248787760169 0 0.022709933993728473 0.0065552970996444679 0 0.026979375075742593 0.0046059913942262049 0 0.020931782048249057 0.0058257518032175685 0 0.020777241953331478 0.0050745644647244986 0 0.020493597559957097 0.0053406807166222967 0 0.020931782048249057 0.0058257518032175685 0 0.020207447401923401 0.0055715810589308072 0 0.020493597559957097 0.0053406807166222967 0 0.020777241953331478 0.0050745644647244986 0 0.020493597559957097 0.0053406807166222967 0 0.02005466382009452 0.0048872039993006506 0 0.020207447401923401 0.0055715810589308072 0 0.020493597559957097 0.0053406807166222967 0 0.02005466382009452 0.0048872039993006506 0 0.020777241953331478 0.0050745644647244986 0 0.02005466382009452 0.0048872039993006506 0 0.020070605720176361 0.004345702480288342 0 0.032573600620913093 0.0026972109420921962 0 0.032777721357861528 0.0028202248787760169 0 0.032627379277122122 0.0023794575243499647 0 0.020207447401923401 0.0055715810589308072 0 0.02005466382009452 0.0048872039993006506 0 0.019761672775107354 0.0047468234135994965 0 0.026446144764643995 0.0041111552415053808 0 0.024101177440060538 0.0053510298805435974 0 0.032573600620913093 0.0026972109420921962 0 0.032403617936466914 0.0024433075618146131 0 0.032413258577831915 0.0028050470776856658 0 0.032573600620913093 0.0026972109420921962 0 0.032627379277122122 0.0023794575243499647 0 0.032403617936466914 0.0024433075618146131 0 0.02005466382009452 0.0048872039993006506 0 0.019674531014100084 0.0047376403856433814 0 0.020070605720176361 0.004345702480288342 0 0.021028918328660627 0.0043714669788327536 0 0.024101177440060538 0.0053510298805435974 0 0.032627379277122122 0.0023794575243499647 0 0.032403617936466914 0.0024433075618146131 0 0.032119061113098132 0.0020369522219321114 0 0.032116646781313415 0.0022832494516285828 0 0.032184441140057848 0.0023983892052357675 0 0.032033707847644692 0.0023630921733360445 0 0.032403617936466914 0.0024433075618146131 0 0.032173781727413489 0.002245096324233069 0 0.032184441140057848 0.0023983892052357675 0 0.032116646781313415 0.0022832494516285828 0 0.032173781727413489 0.002245096324233069 0 0.032184441140057848 0.0023983892052357675 0 0.032116646781313415 0.0022832494516285828 0 0.032173781727413489 0.002245096324233069 0 0.032098043548429919 0.002191786306641309 0 0.032403617936466914 0.0024433075618146131 0 0.032184441140057848 0.0023983892052357675 0 0.03223167482577529 0.0026214093273268157 0 0.032184441140057848 0.0023983892052357675 0 0.03223167482577529 0.0026214093273268157 0 0.032033707847644692 0.0023630921733360445 0 0.032403617936466914 0.0024433075618146131 0 0.032413258577831915 0.0028050470776856658 0 0.03223167482577529 0.0026214093273268157 0 0.032599313158060625 0.0032554399482827346 0 0.032413258577831915 0.0028050470776856658 0 0.032292756688875345 0.0029882474195227979 0 0.032413258577831915 0.0028050470776856658 0 0.03223167482577529 0.0026214093273268157 0 0.032292756688875345 0.0029882474195227979 0 0.03223167482577529 0.0026214093273268157 0 0.032292756688875345 0.0029882474195227979 0 0.032049348054934305 0.0026500089419522138 0 0.031995989946204492 0.0029696693766760457 0 0.032049348054934305 0.0026500089419522138 0 0.031780399167364214 0.0025131118489066851 0 0.031995989946204492 0.0029696693766760457 0 0.032292756688875345 0.0029882474195227979 0 0.032049348054934305 0.0026500089419522138 0 0.032049348054934305 0.0026500089419522138 0 0.031881211421898439 0.0023787924931354472 0 0.032033707847644692 0.0023630921733360445 0 0.032049348054934305 0.0026500089419522138 0 0.031881211421898439 0.0023787924931354472 0 0.031780399167364214 0.0025131118489066851 0 0.03223167482577529 0.0026214093273268157 0 0.032049348054934305 0.0026500089419522138 0 0.032033707847644692 0.0023630921733360445 0 0.032033707847644692 0.0023630921733360445 0 0.031967565333660609 0.0022236496572001657 0 0.032037276313081793 0.002190026972193942 0 0.032033707847644692 0.0023630921733360445 0 0.031967565333660609 0.0022236496572001657 0 0.031889493805686217 0.0022351905847479555 0 0.032116646781313415 0.0022832494516285828 0 0.032033707847644692 0.0023630921733360445 0 0.032037276313081793 0.002190026972193942 0 0.031881211421898439 0.0023787924931354472 0 0.032033707847644692 0.0023630921733360445 0 0.031889493805686217 0.0022351905847479555 0 0.031881211421898439 0.0023787924931354472 0 0.031889493805686217 0.0022351905847479555 0 0.031807071186334551 0.0022071951451310586 0 0.031967565333660609 0.0022236496572001657 0 0.031889493805686217 0.0022351905847479555 0 0.031907737299031069 0.0021184764141173886 0 0.031889493805686217 0.0022351905847479555 0 0.031835783171252664 0.0021176583541401782 0 0.031807071186334551 0.0022071951451310586 0 0.031840908610944733 0.0019582334649652622 0 0.032119061113098132 0.0020369522219321114 0 0.03165832751648287 0.0017121155990939298 0 0.016979579838720279 0.0042213537325706428 0 0.01586557538193225 0.0028426389487786331 0 0.0019805207412258263 0.0047517064650737734 0 0.0017179584614899004 0.0041295390895043482 0 0.00076356857189463327 0.0039524837462843881 0 0.031889493805686217 0.0022351905847479555 0 0.031835783171252664 0.0021176583541401782 0 0.031907737299031069 0.0021184764141173886 0 0.031907737299031069 0.0021184764141173886 0 0.031840908610944733 0.0019582334649652622 0 0.031972742149158573 0.0021151418527023819 0 0.031835783171252664 0.0021176583541401782 0 0.031907737299031069 0.0021184764141173886 0 0.031840908610944733 0.0019582334649652622 0 0.031835783171252664 0.0021176583541401782 0 0.031840908610944733 0.0019582334649652622 0 0.031733945522817442 0.0020704863088539852 0 0.031840908610944733 0.0019582334649652622 0 0.032022219078881677 0.0020691416626306175 0 0.032119061113098132 0.0020369522219321114 0 0.032022219078881677 0.0020691416626306175 0 0.031972742149158573 0.0021151418527023819 0 0.032050084594368838 0.0021371206546762088 0 0.031840908610944733 0.0019582334649652622 0 0.032022219078881677 0.0020691416626306175 0 0.031972742149158573 0.0021151418527023819 0 0.032022219078881677 0.0020691416626306175 0 0.032050084594368838 0.0021371206546762088 0 0.032097813239935796 0.0021285239209879914 0 0.031967565333660609 0.0022236496572001657 0 0.031907737299031069 0.0021184764141173886 0 0.031972742149158573 0.0021151418527023819 0 0.031967565333660609 0.0022236496572001657 0 0.031972742149158573 0.0021151418527023819 0 0.032037276313081793 0.002190026972193942 0 0.031972742149158573 0.0021151418527023819 0 0.032050084594368838 0.0021371206546762088 0 0.032037276313081793 0.002190026972193942 0 0.032050084594368838 0.0021371206546762088 0 0.032037276313081793 0.002190026972193942 0 0.032098043548429919 0.002191786306641309 0 0.032116646781313415 0.0022832494516285828 0 0.032037276313081793 0.002190026972193942 0 0.032098043548429919 0.002191786306641309 0 0.032173781727413489 0.002245096324233069 0 0.032097813239935796 0.0021285239209879914 0 0.032119061113098132 0.0020369522219321114 0 0.016979579838720279 0.0042213537325706428 0 0.0097476982127472616 0.0040900956060774566 0 0.032173781727413489 0.002245096324233069 0 0.032098043548429919 0.002191786306641309 0 0.032097813239935796 0.0021285239209879914 0 0.032403617936466914 0.0024433075618146131 0 0.032173781727413489 0.002245096324233069 0 0.032119061113098132 0.0020369522219321114 0 0.024101177440060538 0.0053510298805435974 0 0.016979579838720279 0.0042213537325706428 0 0.0019805207412258263 0.0047517064650737734 0 0.0022195304473337212 0.0043759503764663494 0 0.0031333008288313459 0.0046056742051438851 0 0.032050084594368838 0.0021371206546762088 0 0.032098043548429919 0.002191786306641309 0 0.032097813239935796 0.0021285239209879914 0 0.032022219078881677 0.0020691416626306175 0 0.032097813239935796 0.0021285239209879914 0 0.032119061113098132 0.0020369522219321114 0 0.0019805207412258263 0.0047517064650737734 0 0.0022195304473337212 0.0043759503764663494 0 0.0017179584614899004 0.0041295390895043482 0 0.0021401005301648754 0.0039522951489870195 0 0.0031333008288313459 0.0046056742051438851 0 0.002004996712965459 0.0029943795983241482 0 0.0097476982127472616 0.0040900956060774566 0 0.00029026076652545382 0.0028554534728940195 0 0.0021401005301648754 0.0039522951489870195 0 0.001593717243574831 0.003555681660411366 0 0.0017179584614899004 0.0041295390895043482 0 0.0022195304473337212 0.0043759503764663494 0 0.0021401005301648754 0.0039522951489870195 0 0.0017179584614899004 0.0041295390895043482 0 0.0022195304473337212 0.0043759503764663494 0 0.0021401005301648754 0.0039522951489870195 0 0.0031333008288313459 0.0046056742051438851 0 0.0021401005301648754 0.0039522951489870195 0 0.001593717243574831 0.003555681660411366 0 0.002004996712965459 0.0029943795983241482 0 0.001593717243574831 0.003555681660411366 0 0.0017179584614899004 0.0041295390895043482 0 0.00076356857189463327 0.0039524837462843881 0 -0.0014787284101643013 0.0033124724717142661 0 0.01586557538193225 0.0028426389487786331 0 0.001593717243574831 0.003555681660411366 0 0.001146692868536077 0.0025984794238564945 0 0.00076356857189463327 0.0039524837462843881 0 0.019196404408826685 0.0052751114384716486 0 0.012239922329925946 0.0047456317670605108 0 0.017403933693036052 0.0046751356156152007 0 0.017213248318484604 0.0052573200088925041 0 0.016910197598638741 0.0041537702416384586 0 0.020777241953331478 0.0050745644647244986 0 0.020070605720176361 0.004345702480288342 0 0.020413196347974678 0.0036624862063187121 0 0.020070605720176361 0.004345702480288342 0 0.019232582403197359 0.0039107723279009632 0 0.020413196347974678 0.0036624862063187121 0 0.017403933693036052 0.0046751356156152007 0 0.016910197598638741 0.0041537702416384586 0 0.017050649354530684 0.0041199283889386852 0 0.0097476982127472616 0.0040900956060774566 0 0.012239922329925946 0.0047456317670605108 0 0.019138233466688487 0.0060209377291875138 0 0.015159852242264515 0.0040768695406494101 0 0.01795462453331325 0.0034390485279426511 0 0.019674531014100084 0.0047376403856433814 0 0.020070605720176361 0.004345702480288342 0 0.019232582403197359 0.0039107723279009632 0 0.024101177440060538 0.0053510298805435974 0 0.0097476982127472616 0.0040900956060774566 0 0.0027948576172393117 0.0047570721066821737 0 0.0030978000773189442 0.0038246596061171268 0 0.004433882413937675 0.0043126441846226106 0 0.0027948576172393117 0.0047570721066821737 0 0.0030978000773189442 0.0038246596061171268 0 0.002004996712965459 0.0029943795983241482 0 0.0036135224120656057 0.0034990517260057533 0 0.0030978000773189442 0.0038246596061171268 0 0.0030416609365452865 0.0030323628069168335 0 0.0036135224120656057 0.0034990517260057533 0 0.0030978000773189442 0.0038246596061171268 0 0.0043588323804773076 0.0044999337010790189 0 0.00861881053824534 0.0037720496349772717 0 0.0032349160228168014 0.0028640633420090522 0 0.0027948576172393117 0.0047570721066821737 0 0.004433882413937675 0.0043126441846226106 0 0.0044718359637952445 0.0044816892770118983 0 0.0020949791251345675 0.0034606656761360598 0 0.00861881053824534 0.0037720496349772717 0 0.0047661692443808131 0.004057223556630068 0 0.0044103977366225866 0.0044903742314591783 0 0.0039958078257272631 0.0026320236948136379 0 0.0036135224120656057 0.0034990517260057533 0 0.0043588323804773076 0.0044999337010790189 0 0.0039958078257272631 0.0026320236948136379 0 0.0047661692443808131 0.004057223556630068 0 0.0044103977366225866 0.0044903742314591783 0 0.0047033060358109445 0.0046349806375068515 0 0.01039909086295647 0.0030959665212509486 0 0.010471533906152837 0.00348031488119458 0 0.011033269763840796 0.0033587889005978235 0 0.00861881053824534 0.0037720496349772717 0 0.011218992826460274 0.0047753202916575449 0 0.00861881053824534 0.0037720496349772717 0 0.012239922329925946 0.0047456317670605108 0 0.012239922329925946 0.0047456317670605108 0 0.011218992826460274 0.0047753202916575449 0 0.0049435426446709134 0.0036066963397428094 0 0.0047661692443808131 0.004057223556630068 0 0.0039958078257272631 0.0026320236948136379 0 0.0050088117371055955 0.0019594913007777372 0 0.0048757242199727827 0.0028417207198422356 0 0.0039958078257272631 0.0026320236948136379 0 0.0049435426446709134 0.0036066963397428094 0 0.0048757242199727827 0.0028417207198422356 0 0.0039958078257272631 0.0026320236948136379 0 0.0039958078257272631 0.0026320236948136379 0 0.0030416609365452865 0.0030323628069168335 0 0.0025927554889122548 0.002384605909665518 0 0.0036135224120656057 0.0034990517260057533 0 0.0039958078257272631 0.0026320236948136379 0 0.0030416609365452865 0.0030323628069168335 0 0.0030978000773189442 0.0038246596061171268 0 0.0030416609365452865 0.0030323628069168335 0 0.002004996712965459 0.0029943795983241482 0 0.0030416609365452865 0.0030323628069168335 0 0.0025927554889122548 0.002384605909665518 0 0.002004996712965459 0.0029943795983241482 0 0.0028099494063388783 0.001369629705808273 0 0.0013557723092177242 0.0014561972605742603 0 0.0035571413098597054 0.0012455191050680956 0 0.0022324044017773353 0.0018820093778391259 0 0.0012516781284882029 0.0014850999512988541 0 0.0039958078257272631 0.0026320236948136379 0 0.0025927554889122548 0.002384605909665518 0 0.0035571413098597054 0.0012455191050680956 0 0.0025927554889122548 0.002384605909665518 0 0.0035571413098597054 0.0012455191050680956 0 0.0022324044017773353 0.0018820093778391259 0 0.0050088117371055955 0.0019594913007777372 0 0.0055574766760716722 0.0011890859388995721 0 0.0035571413098597054 0.0012455191050680956 0 0.0050088117371055955 0.0019594913007777372 0 0.0039958078257272631 0.0026320236948136379 0 0.0035571413098597054 0.0012455191050680956 0 0.00452294658119982 0.0013837639374930869 0 0.0028099494063388783 0.001369629705808273 0 0.001593717243574831 0.003555681660411366 0 0.001146692868536077 0.0025984794238564945 0 0.002004996712965459 0.0029943795983241482 0 0.0025927554889122548 0.002384605909665518 0 0.002004996712965459 0.0029943795983241482 0 0.0016780875399875761 0.0022866297105471906 0 0.001146692868536077 0.0025984794238564945 0 0.002004996712965459 0.0029943795983241482 0 0.0016780875399875761 0.0022866297105471906 0 0.0010526643516817161 0.0011743289711287669 0 0.001146692868536077 0.0025984794238564945 0 0.0012516781284882029 0.0014850999512988541 0 0.001146692868536077 0.0025984794238564945 0 0.0016780875399875761 0.0022866297105471906 0 0.0012516781284882029 0.0014850999512988541 0 0.0016780875399875761 0.0022866297105471906 0 0.0022324044017773353 0.0018820093778391259 0 0.0012516781284882029 0.0014850999512988541 0 0.0025927554889122548 0.002384605909665518 0 0.0016780875399875761 0.0022866297105471906 0 0.0022324044017773353 0.0018820093778391259 0 0.00037846188118813973 0.0012033986608010218 0 0.0010526643516817161 0.0011743289711287669 0 0.00030915951485395215 0.0023849767858315153 0 0.00037846188118813973 0.0012033986608010218 0 0.00030915951485395215 0.0023849767858315153 0 -8.5821448934757984e-05 0.0014632390229391684 0 0.00030915951485395215 0.0023849767858315153 0 -8.5821448934757984e-05 0.0014632390229391684 0 -0.00011641520403186588 0.0020157039896476501 0 0.0017468229257676141 0.00072424513037199086 0 -0.0014787284101643013 0.0033124724717142661 0 -0.00047914216925467365 0.0016505334733969263 0 -0.00048921133239350565 0.0022429604078091458 0 -0.00093905504652140126 0.0015074858873677739 0 -0.00073429627869489036 0.00099757509098545518 0 -8.5821448934757984e-05 0.0014632390229391684 0 -0.00047914216925467365 0.0016505334733969263 0 -8.5821448934757984e-05 0.0014632390229391684 0 -0.00047914216925467365 0.0016505334733969263 0 -0.00011641520403186588 0.0020157039896476501 0 -0.00073429627869489036 0.00099757509098545518 0 -0.00047914216925467365 0.0016505334733969263 0 -0.00093905504652140126 0.0015074858873677739 0 -0.00047914216925467365 0.0016505334733969263 0 -0.00011641520403186588 0.0020157039896476501 0 -0.00048921133239350565 0.0022429604078091458 0 0.00030915951485395215 0.0023849767858315153 0 -0.00011641520403186588 0.0020157039896476501 0 -0.00048921133239350565 0.0022429604078091458 0 0.00030915951485395215 0.0023849767858315153 0 -0.00048921133239350565 0.0022429604078091458 0 -0.00036571006877597216 0.0027445682460470293 0 -0.00048921133239350565 0.0022429604078091458 0 -0.00036571006877597216 0.0027445682460470293 0 -0.00072966799679397021 0.0025016605404607393 0 -0.0010678188426196894 0.0024443094250611048 0 -0.0015510538919078084 0.0022989864367379226 0 -0.000860560636540326 0.0028370751401116247 0 -0.00048921133239350565 0.0022429604078091458 0 -0.00072966799679397021 0.0025016605404607393 0 -0.0011017354819809928 0.0021345325043421385 0 -0.0010678188426196894 0.0024443094250611048 0 -0.00072966799679397021 0.0025016605404607393 0 -0.0011017354819809928 0.0021345325043421385 0 -0.00036571006877597216 0.0027445682460470293 0 -0.00072966799679397021 0.0025016605404607393 0 -0.000860560636540326 0.0028370751401116247 0 -0.0010678188426196894 0.0024443094250611048 0 -0.00072966799679397021 0.0025016605404607393 0 -0.000860560636540326 0.0028370751401116247 0 -0.0011017354819809928 0.0021345325043421385 0 -0.00093905504652140126 0.0015074858873677739 0 -0.001299212728414167 0.0016393885459598577 0 -0.00048921133239350565 0.0022429604078091458 0 -0.0011017354819809928 0.0021345325043421385 0 -0.00093905504652140126 0.0015074858873677739 0 -0.0014029755855773389 0.0010350056026522823 0 -0.00093905504652140126 0.0015074858873677739 0 -0.001299212728414167 0.0016393885459598577 0 -0.0016516709097870793 0.0014435826520407516 0 -0.0019349532901992426 0.0015208191415831526 0 -0.0015510538919078084 0.0022989864367379226 0 -0.0014029755855773389 0.0010350056026522823 0 -0.001299212728414167 0.0016393885459598577 0 -0.0016516709097870793 0.0014435826520407516 0 -0.001299212728414167 0.0016393885459598577 0 -0.0016516709097870793 0.0014435826520407516 0 -0.0015510538919078084 0.0022989864367379226 0 -0.0019349532901992426 0.0015208191415831526 0 -0.002096907450406076 0.0018851753575943428 0 -0.0015510538919078084 0.0022989864367379226 0 -0.0023478477404752173 0.0010228166590843927 0 -0.0019349532901992426 0.0015208191415831526 0 -0.002096907450406076 0.0018851753575943428 0 0.030525401838008455 0.00058814093967541681 0 0.031302394374116416 0.00099019256156094486 0 0.030923743595417972 0.0013388719823945355 0 0.018656529728441867 -0.00025593582377195467 0 0.032524262053467812 0.0017014143294819476 0 0.018656529728441867 -0.00025593582377195467 0 0.014171739122607921 0.0015676427063126852 0 0.014171739122607921 0.0015676427063126852 0 0.015525714337861745 0.0021587000512731328 0 -0.0011017354819809928 0.0021345325043421385 0 -0.001299212728414167 0.0016393885459598577 0 -0.0015510538919078084 0.0022989864367379226 0 -0.0010678188426196894 0.0024443094250611048 0 -0.0011017354819809928 0.0021345325043421385 0 -0.0015510538919078084 0.0022989864367379226 0 0.031302394374116416 0.00099019256156094486 0 0.0315636080953813 0.0015417389396173802 0 0.031642565634825606 0.0014740980095848631 0 0.031302394374116416 0.00099019256156094486 0 0.0315636080953813 0.0015417389396173802 0 0.030923743595417972 0.0013388719823945355 0 0.0315636080953813 0.0015417389396173802 0 0.030923743595417972 0.0013388719823945355 0 0.031525381077665192 0.0017228627619329734 0 0.030923743595417972 0.0013388719823945355 0 0.03140862467691663 0.0018941344181862632 0 0.031525381077665192 0.0017228627619329734 0 0.032072232726085378 0.0010167827644301461 0 0.032128503105632408 0.0017165155538173347 0 0.031784648972022919 0.0014348127168384152 0 0.032524262053467812 0.0017014143294819476 0 0.031667199402154629 0.0016278253085214044 0 0.032128503105632408 0.0017165155538173347 0 0.031784648972022919 0.0014348127168384152 0 0.031689539408051873 0.0019650005767988866 0 0.03140862467691663 0.0018941344181862632 0 0.031525381077665192 0.0017228627619329734 0 0.031848448043738355 0.0018517701976543492 0 0.03140862467691663 0.0018941344181862632 0 0.031848448043738355 0.0018517701976543492 0 0.032003760557160185 0.0021481925674940502 0 0.0315636080953813 0.0015417389396173802 0 0.031848448043738355 0.0018517701976543492 0 0.03177658808622779 0.001670184443369555 0 0.0315636080953813 0.0015417389396173802 0 0.031525381077665192 0.0017228627619329734 0 0.031848448043738355 0.0018517701976543492 0 0.031758044543564075 0.001667900361961091 0 0.031929649455590486 0.0022045871168680548 0 0.031962704191629374 0.0018544584930497475 0 0.031848448043738355 0.0018517701976543492 0 0.032087268521223129 0.0020394118140338552 0 0.031962704191629374 0.0018544584930497475 0 0.031727203731442707 0.0015931716382133847 0 0.032360591159647192 0.0021483861579231125 0 0.031647913906631638 0.0019437267780056144 0 0.031727203731442707 0.0015931716382133847 0 0.031493079098870363 0.002222208790288031 0 0.031962704191629374 0.0018544584930497475 0 0.031848448043738355 0.0018517701976543492 0 0.03177658808622779 0.001670184443369555 0 0.031962704191629374 0.0018544584930497475 0 0.03177658808622779 0.001670184443369555 0 0.031727203731442707 0.0015931716382133847 0 0.031962704191629374 0.0018544584930497475 0 0.032360591159647192 0.0021483861579231125 0 0.032087268521223129 0.0020394118140338552 0 0.01586557538193225 0.0028426389487786331 0 0.03599594004023398 0.00057361818994186738 0 0.031647913906631638 0.0019437267780056144 0 0.031768418021495812 0.0017662637793954435 0 0.031577660791958596 0.0022127172975537688 0 0.031733945522817442 0.0020704863088539852 0 0.03165832751648287 0.0017121155990939298 0 0.031577660791958596 0.0022127172975537688 0 0.031835783171252664 0.0021176583541401782 0 0.031733945522817442 0.0020704863088539852 0 0.031807071186334551 0.0022071951451310586 0 0.031840908610944733 0.0019582334649652622 0 0.031733945522817442 0.0020704863088539852 0 0.03165832751648287 0.0017121155990939298 0 0.01586557538193225 0.0028426389487786331 0 0.015525714337861745 0.0021587000512731328 0 0.031768418021495812 0.0017662637793954435 0 0.031716844665004726 0.001468502404651018 0 0.031727203731442707 0.0015931716382133847 0 0.031647913906631638 0.0019437267780056144 0 0.031768418021495812 0.0017662637793954435 0 0.031727203731442707 0.0015931716382133847 0 -0.00036571006877597216 0.0027445682460470293 0 -5.1969402337057804e-05 0.0033529211753151006 0 -0.000860560636540326 0.0028370751401116247 0 0.00030915951485395215 0.0023849767858315153 0 -0.00036571006877597216 0.0027445682460470293 0 -5.1969402337057804e-05 0.0033529211753151006 0 0.031302394374116416 0.00099019256156094486 0 0.031716844665004726 0.001468502404651018 0 0.031642565634825606 0.0014740980095848631 0 0.031716844665004726 0.001468502404651018 0 0.031642565634825606 0.0014740980095848631 0 0.031727203731442707 0.0015931716382133847 0 0.0315636080953813 0.0015417389396173802 0 0.031642565634825606 0.0014740980095848631 0 0.03177658808622779 0.001670184443369555 0 0.031642565634825606 0.0014740980095848631 0 0.03177658808622779 0.001670184443369555 0 0.031727203731442707 0.0015931716382133847 0 0.029577370846101039 0.00075234984447568841 0 0.030039988491442328 0.00037541150294711606 0 0.03038471041071239 0.0009615899484043557 0 0.030517305516560952 0.00025993842866385558 0 0.030039988491442328 0.00037541150294711606 0 0.03038471041071239 0.0009615899484043557 0 0.029919536954490129 -0.00020491025637187429 0 0.030517305516560952 0.00025993842866385558 0 0.030039988491442328 0.00037541150294711606 0 0.030517305516560952 0.00025993842866385558 0 0.030434224404487009 -0.00045722632118790844 0 0.0306994947582384 -0.00012268715671853671 0 0.029919536954490129 -0.00020491025637187429 0 0.030517305516560952 0.00025993842866385558 0 0.030434224404487009 -0.00045722632118790844 0 0.029464012003474465 -0.00027604955194083017 0 0.031094324628268208 -0.0031533140966645105 0 0.030830695028258935 -0.00040969117471390139 0 0.0306994947582384 -0.00012268715671853671 0 0.03096894484691223 0.00017485183624698641 0 0.030830695028258935 -0.00040969117471390139 0 0.030434224404487009 -0.00045722632118790844 0 0.0306994947582384 -0.00012268715671853671 0 0.021299377349064844 -0.001248261520439961 0 0.031094324628268208 -0.0031533140966645105 0 0.030517305516560952 0.00025993842866385558 0 0.0306994947582384 -0.00012268715671853671 0 0.03096894484691223 0.00017485183624698641 0 0.030517305516560952 0.00025993842866385558 0 0.030926343420361754 0.00084783745988185378 0 0.03038471041071239 0.0009615899484043557 0 0.030517305516560952 0.00025993842866385558 0 0.03096894484691223 0.00017485183624698641 0 0.030926343420361754 0.00084783745988185378 0 0.03096894484691223 0.00017485183624698641 0 0.031466269032135882 0.00072736951004924737 0 0.030926343420361754 0.00084783745988185378 0 0.03096894484691223 0.00017485183624698641 0 0.031340557403279526 -6.4450731678849244e-05 0 0.031466269032135882 0.00072736951004924737 0 0.021299377349064844 -0.001248261520439961 0 0.025400722624707574 0.00022505481963520091 0 0.030830695028258935 -0.00040969117471390139 0 0.03096894484691223 0.00017485183624698641 0 0.031340557403279526 -6.4450731678849244e-05 0 0.017122822466656015 0.0013194967956054928 0 0.016662719985721778 -0.00047273680394356577 0 0.015789149653439704 0.00028736809498180332 0 0.018656529728441867 -0.00025593582377195467 0 0.025400722624707574 0.00022505481963520091 0 0.00234604603977355 0.001048022421506581 0 0.018656529728441867 -0.00025593582377195467 0 0.014278495621392797 -0.0016080470515183012 0 0.016662719985721778 -0.00047273680394356577 0 0.015789149653439704 0.00028736809498180332 0 0.015120964615160611 0.0019303886159822137 0 0.014278495621392797 -0.0016080470515183012 0 0.015789149653439704 0.00028736809498180332 0 0.03187646290264818 0.0002619422290812585 0 0.032072232726085378 0.0010167827644301461 0 0.031466269032135882 0.00072736951004924737 0 0.03187646290264818 0.0002619422290812585 0 0.031340557403279526 -6.4450731678849244e-05 0 0.031466269032135882 0.00072736951004924737 0 0.031466269032135882 0.00072736951004924737 0 0.031784648972022919 0.0014348127168384152 0 0.031358830155380206 0.0014312397885960335 0 0.032072232726085378 0.0010167827644301461 0 0.031466269032135882 0.00072736951004924737 0 0.031784648972022919 0.0014348127168384152 0 0.031784648972022919 0.0014348127168384152 0 0.031358830155380206 0.0014312397885960335 0 0.031689539408051873 0.0019650005767988866 0 0.031358830155380206 0.0014312397885960335 0 0.030901413930677132 0.0013664621530457585 0 0.031065669497103671 0.0021176085849144415 0 0.031358830155380206 0.0014312397885960335 0 0.030926343420361754 0.00084783745988185378 0 0.030901413930677132 0.0013664621530457585 0 0.031466269032135882 0.00072736951004924737 0 0.031358830155380206 0.0014312397885960335 0 0.030926343420361754 0.00084783745988185378 0 0.030926343420361754 0.00084783745988185378 0 0.030901413930677132 0.0013664621530457585 0 0.03038471041071239 0.0009615899484043557 0 0.029789102842268829 0.0012325834787296432 0 0.030654363978884536 0.001575690662860268 0 0.03038471041071239 0.0009615899484043557 0 0.030901413930677132 0.0013664621530457585 0 0.030654363978884536 0.001575690662860268 0 0.03038471041071239 0.0009615899484043557 0 0.030206822349687384 0.001794262162049413 0 0.030654363978884536 0.001575690662860268 0 0.030953711162665775 0.0021348571779461773 0 0.030654363978884536 0.001575690662860268 0 0.030953711162665775 0.0021348571779461773 0 0.031752365554527304 0.0020950759649076924 0 0.030713214950059468 0.0016114831546906599 0 0.03139624253730592 0.0021113702068876646 0 0.030901413930677132 0.0013664621530457585 0 0.030654363978884536 0.001575690662860268 0 0.031065669497103671 0.0021176085849144415 0 0.030953711162665775 0.0021348571779461773 0 0.031752365554527304 0.0020950759649076924 0 0.031463727648993634 0.0026465229474332123 0 0.03139624253730592 0.0021113702068876646 0 0.031941027774461853 0.0026455299462644567 0 0.031752365554527304 0.0020950759649076924 0 0.032249751745643367 0.0026777992433809415 0 0.031921650918828648 0.0027745076290416077 0 0.031358830155380206 0.0014312397885960335 0 0.031065669497103671 0.0021176085849144415 0 0.031689539408051873 0.0019650005767988866 0 0.031065669497103671 0.0021176085849144415 0 0.031689539408051873 0.0019650005767988866 0 0.031640987458944357 0.0026236992489125483 0 0.032249751745643367 0.0026777992433809415 0 0.032225370920096461 0.0031489303925349319 0 0.031921650918828648 0.0027745076290416077 0 0.032225370920096461 0.0031489303925349319 0 0.03189173666737076 0.0031350608989491233 0 0.031921650918828648 0.0027745076290416077 0 0.031752365554527304 0.0020950759649076924 0 0.031921650918828648 0.0027745076290416077 0 0.031463727648993634 0.0026465229474332123 0 0.03189173666737076 0.0031350608989491233 0 0.031463727648993634 0.0026465229474332123 0 0.031572371947996843 0.0030922550755440831 0 0.03189173666737076 0.0031350608989491233 0 0.031921650918828648 0.0027745076290416077 0 0.031463727648993634 0.0026465229474332123 0 0.030851827507180098 0.0025235679168361127 0 0.030953711162665775 0.0021348571779461773 0 0.031463727648993634 0.0026465229474332123 0 0.030851827507180098 0.0025235679168361127 0 0.031463727648993634 0.0026465229474332123 0 0.031572371947996843 0.0030922550755440831 0 0.031929649455590486 0.0022045871168680548 0 0.032182373780794922 0.0028294866014633097 0 0.032308898540782775 0.0024820833245382339 0 0.032360591159647192 0.0021483861579231125 0 0.032706023466596998 0.0027868312368091674 0 0.031995989946204492 0.0029696693766760457 0 0.031780399167364214 0.0025131118489066851 0 0.031658781162672935 0.0028759493793180857 0 0.031780399167364214 0.0025131118489066851 0 0.031493079098870363 0.002222208790288031 0 0.031658781162672935 0.0028759493793180857 0 0.031780399167364214 0.0025131118489066851 0 0.031746311887463186 0.0022768865835069672 0 0.031577660791958596 0.0022127172975537688 0 0.031780399167364214 0.0025131118489066851 0 0.031577660791958596 0.0022127172975537688 0 0.031493079098870363 0.002222208790288031 0 0.031881211421898439 0.0023787924931354472 0 0.031780399167364214 0.0025131118489066851 0 0.031746311887463186 0.0022768865835069672 0 0.031733945522817442 0.0020704863088539852 0 0.031746311887463186 0.0022768865835069672 0 0.031807071186334551 0.0022071951451310586 0 0.031733945522817442 0.0020704863088539852 0 0.031746311887463186 0.0022768865835069672 0 0.031577660791958596 0.0022127172975537688 0 0.031881211421898439 0.0023787924931354472 0 0.031746311887463186 0.0022768865835069672 0 0.031807071186334551 0.0022071951451310586 0 0.031647913906631638 0.0019437267780056144 0 0.031577660791958596 0.0022127172975537688 0 0.031493079098870363 0.002222208790288031 0 0.032360591159647192 0.0021483861579231125 0 0.032194222068434857 0.0022106249518374513 0 0.032087268521223129 0.0020394118140338552 0 0.032308898540782775 0.0024820833245382339 0 0.032194222068434857 0.0022106249518374513 0 0.032003760557160185 0.0021481925674940502 0 0.032308898540782775 0.0024820833245382339 0 0.032360591159647192 0.0021483861579231125 0 0.032194222068434857 0.0022106249518374513 0 0.032194222068434857 0.0022106249518374513 0 0.032087268521223129 0.0020394118140338552 0 0.032003760557160185 0.0021481925674940502 0 0.031848448043738355 0.0018517701976543492 0 0.032087268521223129 0.0020394118140338552 0 0.032003760557160185 0.0021481925674940502 0 0.031667199402154629 0.0016278253085214044 0 0.032031897388172567 0.0022988598452997736 0 0.032308898540782775 0.0024820833245382339 0 0.032003760557160185 0.0021481925674940502 0 0.03206668083851083 0.0023130513571740724 0 0.032308898540782775 0.0024820833245382339 0 0.03206668083851083 0.0023130513571740724 0 0.032346217543116888 0.0030634293482627406 0 0.03140862467691663 0.0018941344181862632 0 0.032003760557160185 0.0021481925674940502 0 0.03206668083851083 0.0023130513571740724 0 0.032128503105632408 0.0017165155538173347 0 0.031689539408051873 0.0019650005767988866 0 0.03206668083851083 0.0023130513571740724 0 0.031689539408051873 0.0019650005767988866 0 0.031640987458944357 0.0026236992489125483 0 0.03206668083851083 0.0023130513571740724 0 0.032346217543116888 0.0030634293482627406 0 0.032907834951482945 0.0033290291565184339 0 0.032523262317546445 0.0034028206939376933 0 0.031640987458944357 0.0026236992489125483 0 0.03206668083851083 0.0023130513571740724 0 0.032346217543116888 0.0030634293482627406 0 0.031941027774461853 0.0026455299462644567 0 0.032321600204625107 0.00302801959224373 0 0.032225370920096461 0.0031489303925349319 0 0.032346217543116888 0.0030634293482627406 0 0.032523262317546445 0.0034028206939376933 0 0.032249751745643367 0.0026777992433809415 0 0.032225370920096461 0.0031489303925349319 0 0.032346217543116888 0.0030634293482627406 0 0.032346217543116888 0.0030634293482627406 0 0.032706023466596998 0.0027868312368091674 0 0.032907834951482945 0.0033290291565184339 0 0.032308898540782775 0.0024820833245382339 0 0.032346217543116888 0.0030634293482627406 0 0.032706023466596998 0.0027868312368091674 0 0.032182373780794922 0.0028294866014633097 0 0.032433909491869577 0.0033590592182792039 0 0.031995989946204492 0.0029696693766760457 0 0.031658781162672935 0.0028759493793180857 0 0.031959640282470357 0.0034097199525899937 0 0.032334865024360934 0.0035241549995973414 0 0.031959640282470357 0.0034097199525899937 0 0.032341245117802869 0.0036615139844833693 0 0.032433909491869577 0.0033590592182792039 0 0.032687059518726171 0.0037440719732825698 0 0.032907834951482945 0.0033290291565184339 0 0.032807367409810009 0.0036585592718455136 0 0.032523262317546445 0.0034028206939376933 0 0.031959640282470357 0.0034097199525899937 0 0.0323564758059217 0.0037963609286607498 0 0.032341245117802869 0.0036615139844833693 0 0.032907834951482945 0.0033290291565184339 0 0.033019326441778671 0.0037399519760540488 0 0.032807367409810009 0.0036585592718455136 0 0.032225370920096461 0.0031489303925349319 0 0.032523262317546445 0.0034028206939376933 0 0.032373093266087234 0.0035486632276685646 0 0.032523262317546445 0.0034028206939376933 0 0.032629803894449756 0.0036497747480928656 0 0.032373093266087234 0.0035486632276685646 0 0.032807367409810009 0.0036585592718455136 0 0.032523262317546445 0.0034028206939376933 0 0.032629803894449756 0.0036497747480928656 0 0.032807367409810009 0.0036585592718455136 0 0.032629803894449756 0.0036497747480928656 0 0.032828753972840394 0.0038066329863779896 0 0.032629803894449756 0.0036497747480928656 0 0.032828753972840394 0.0038066329863779896 0 0.03264336131589414 0.0038200983421748992 0 0.032629803894449756 0.0036497747480928656 0 0.03264336131589414 0.0038200983421748992 0 0.032373093266087234 0.0035486632276685646 0 0.03264336131589414 0.0038200983421748992 0 0.033017753037210176 0.0039774893874861394 0 0.032763488478584964 0.0040686497557350229 0 0.03264336131589414 0.0038200983421748992 0 0.032348026945373046 0.0038844257543913306 0 0.032763488478584964 0.0040686497557350229 0 0.032828753972840394 0.0038066329863779896 0 0.03264336131589414 0.0038200983421748992 0 0.033017753037210176 0.0039774893874861394 0 0.032828753972840394 0.0038066329863779896 0 0.033017753037210176 0.0039774893874861394 0 0.032955270518551481 0.0038904077071203213 0 0.033102684682377939 0.0039998494211274833 0 0.032894024394040086 0.0039743220498561294 0 0.032955270518551481 0.0038904077071203213 0 0.033017753037210176 0.0039774893874861394 0 0.033102684682377939 0.0039998494211274833 0 0.032955270518551481 0.0038904077071203213 0 0.032894024394040086 0.0039743220498561294 0 0.032917036604209977 0.0038887036236760143 0 0.032776263464246065 0.0039274983707270989 0 0.033102684682377939 0.0039998494211274833 0 0.032894024394040086 0.0039743220498561294 0 0.032917036604209977 0.0038887036236760143 0 0.033019326441778671 0.0037399519760540488 0 0.032894024394040086 0.0039743220498561294 0 0.032955270518551481 0.0038904077071203213 0 0.0323564758059217 0.0037963609286607498 0 0.032894024394040086 0.0039743220498561294 0 0.032684553433479445 0.0039504781815649171 0 0.032687059518726171 0.0037440719732825698 0 0.032858951457397576 0.0039336210844837689 0 0.032807367409810009 0.0036585592718455136 0 0.032828753972840394 0.0038066329863779896 0 0.032955270518551481 0.0038904077071203213 0 0.033019326441778671 0.0037399519760540488 0 0.032807367409810009 0.0036585592718455136 0 0.032955270518551481 0.0038904077071203213 0 0.031916282930078685 0.003468924901898028 0 0.031838623730210382 0.0034059776108186566 0 0.031810712342185868 0.0035854984115041471 0 0.032510324633956644 0.0045801096032008822 0 0.031916282930078685 0.003468924901898028 0 0.033265263541992905 0.0045365894368661315 0 0.032001500205968467 0.0035277369355905331 0 0.0325071121388903 0.0040652383980314972 0 0.031916282930078685 0.003468924901898028 0 0.031572371947996843 0.0030922550755440831 0 0.031838623730210382 0.0034059776108186566 0 0.03189173666737076 0.0031350608989491233 0 0.031572371947996843 0.0030922550755440831 0 0.031838623730210382 0.0034059776108186566 0 0.031838623730210382 0.0034059776108186566 0 0.032054407438898938 0.0036022345577091971 0 0.031810712342185868 0.0035854984115041471 0 0.031838623730210382 0.0034059776108186566 0 0.032074496219110599 0.0033714575630850101 0 0.032054407438898938 0.0036022345577091971 0 0.032074496219110599 0.0033714575630850101 0 0.032373093266087234 0.0035486632276685646 0 0.032054407438898938 0.0036022345577091971 0 0.03189173666737076 0.0031350608989491233 0 0.031838623730210382 0.0034059776108186566 0 0.032074496219110599 0.0033714575630850101 0 0.032225370920096461 0.0031489303925349319 0 0.03189173666737076 0.0031350608989491233 0 0.032074496219110599 0.0033714575630850101 0 0.032225370920096461 0.0031489303925349319 0 0.032074496219110599 0.0033714575630850101 0 0.032373093266087234 0.0035486632276685646 0 0.03264336131589414 0.0038200983421748992 0 0.032373093266087234 0.0035486632276685646 0 0.032348026945373046 0.0038844257543913306 0 0.032373093266087234 0.0035486632276685646 0 0.032348026945373046 0.0038844257543913306 0 0.032054407438898938 0.0036022345577091971 0 0.032348026945373046 0.0038844257543913306 0 0.032460607692752351 0.0041398486685942206 0 0.032763488478584964 0.0040686497557350229 0 0.032348026945373046 0.0038844257543913306 0 0.032054407438898938 0.0036022345577091971 0 0.031967966433974815 0.003915448842456302 0 0.032348026945373046 0.0038844257543913306 0 0.031967966433974815 0.003915448842456302 0 0.032214574453361774 0.0042646251456760088 0 0.032054407438898938 0.0036022345577091971 0 0.031967966433974815 0.003915448842456302 0 0.031810712342185868 0.0035854984115041471 0 0.032716708194367297 0.0044409786705321627 0 0.0325071121388903 0.0040652383980314972 0 0.033447391121218584 0.0049683850773683822 0 0.0331353098013785 0.0049639527121928678 0 0.033265263541992905 0.0045365894368661315 0 0.033447391121218584 0.0049683850773683822 0 0.0331353098013785 0.0049639527121928678 0 0.033370935222359288 0.005024945561661583 0 0.032510324633956644 0.0045801096032008822 0 0.0331353098013785 0.0049639527121928678 0 0.033265263541992905 0.0045365894368661315 0 0.033589045557824236 0.0049640563311019563 0 0.033370935222359288 0.005024945561661583 0 0.033472546907250114 0.0048968460360499493 0 0.033589045557824236 0.0049640563311019563 0 0.033472546907250114 0.0048968460360499493 0 0.033716760927014672 0.0046883828236679668 0 0.033353296388701138 0.005040756024399338 0 0.0331353098013785 0.0049639527121928678 0 0.033370935222359288 0.005024945561661583 0 0.033353296388701138 0.005040756024399338 0 0.033589045557824236 0.0049640563311019563 0 0.033370935222359288 0.005024945561661583 0 0.033447391121218584 0.0049683850773683822 0 0.033370935222359288 0.005024945561661583 0 0.033390543186169915 0.0049756551254927671 0 0.033370935222359288 0.005024945561661583 0 0.033390543186169915 0.0049756551254927671 0 0.033472546907250114 0.0048968460360499493 0 0.033390543186169915 0.0049756551254927671 0 0.033472546907250114 0.0048968460360499493 0 0.033317661478457487 0.0047809608488302829 0 0.033282143244506582 0.0049711331996981929 0 0.033101538042073261 0.0047908638272768679 0 0.033317661478457487 0.0047809608488302829 0 0.033390543186169915 0.0049756551254927671 0 0.033282143244506582 0.0049711331996981929 0 0.033317661478457487 0.0047809608488302829 0 0.032716708194367297 0.0044409786705321627 0 0.032683289707500784 0.0045785862486139254 0 0.033447391121218584 0.0049683850773683822 0 0.033390543186169915 0.0049756551254927671 0 0.033282143244506582 0.0049711331996981929 0 0.032214574453361774 0.0042646251456760088 0 0.032460607692752351 0.0041398486685942206 0 0.032622058475411879 0.0043714112232855528 0 0.032348026945373046 0.0038844257543913306 0 0.032214574453361774 0.0042646251456760088 0 0.032460607692752351 0.0041398486685942206 0 0.032683289707500784 0.0045785862486139254 0 0.033258580081882441 0.0047583078215587306 0 0.032214574453361774 0.0042646251456760088 0 0.032506479726911092 0.0046479933791316605 0 0.032622058475411879 0.0043714112232855528 0 0.033258580081882441 0.0047583078215587306 0 0.032698320582646101 0.0043514563011986633 0 0.033258580081882441 0.0047583078215587306 0 0.033964340110220467 0.0047214683198865508 0 0.033101538042073261 0.0047908638272768679 0 0.033171570202241124 0.0045798232182130069 0 0.033317661478457487 0.0047809608488302829 0 0.03451676847035088 0.0052217157458177444 0 0.034699143477590573 0.0048349569942283078 0 0.034267612497987793 0.0048990536777887448 0 0.03446797418482038 0.0045867847206722389 0 0.034699143477590573 0.0048349569942283078 0 0.034267612497987793 0.0048990536777887448 0 0.034893553432508564 0.0044122845422706527 0 0.03446797418482038 0.0045867847206722389 0 0.034699143477590573 0.0048349569942283078 0 0.033263439287799526 0.0043421871499689773 0 0.033171570202241124 0.0045798232182130069 0 0.033328320972627612 0.0045428936087732723 0 0.033263439287799526 0.0043421871499689773 0 0.033422978561003867 0.0043672727658828287 0 0.033328320972627612 0.0045428936087732723 0 0.034090872844520843 0.0043613785772146927 0 0.033964340110220467 0.0047214683198865508 0 0.033171570202241124 0.0045798232182130069 0 0.033328320972627612 0.0045428936087732723 0 0.033317661478457487 0.0047809608488302829 0 0.033328320972627612 0.0045428936087732723 0 0.033317661478457487 0.0047809608488302829 0 0.033466179489292633 0.0046309275759372354 0 0.033472546907250114 0.0048968460360499493 0 0.033317661478457487 0.0047809608488302829 0 0.033466179489292633 0.0046309275759372354 0 0.03349527526260717 0.0048755011914385707 0 0.033526566051534638 0.0046295419423502725 0 0.033422978561003867 0.0043672727658828287 0 0.033328320972627612 0.0045428936087732723 0 0.033466179489292633 0.0046309275759372354 0 0.0335492305901509 0.0043471873267170464 0 0.033526566051534638 0.0046295419423502725 0 0.033739939402339027 0.0042871282571494834 0 0.033575880529666931 0.0046031895354865602 0 0.033784650740987902 0.004400530390138325 0 0.034002762870669848 0.0043635571001290879 0 0.033902333981562907 0.0042576452971307211 0 0.033784650740987902 0.004400530390138325 0 0.033575880529666931 0.0046031895354865602 0 0.033784650740987902 0.004400530390138325 0 0.033716760927014672 0.0046883828236679668 0 0.034002762870669848 0.0043635571001290879 0 0.033784650740987902 0.004400530390138325 0 0.033716760927014672 0.0046883828236679668 0 0.033472546907250114 0.0048968460360499493 0 0.033575880529666931 0.0046031895354865602 0 0.033716760927014672 0.0046883828236679668 0 0.03351853666629754 0.0042379253796762549 0 0.033597580808969844 0.0046911860605818425 0 0.034163983984633703 0.0048881164025057558 0 0.03351853666629754 0.0042379253796762549 0 0.034460656601643977 0.0047108767927613489 0 0.034163983984633703 0.0048881164025057558 0 0.03351853666629754 0.0042379253796762549 0 0.034460656601643977 0.0047108767927613489 0 0.034553062778722762 0.0043845785929344646 0 0.03347945154167066 0.0042437297535867554 0 0.033700237038066412 0.004171213837716045 0 0.033017753037210176 0.0039774893874861394 0 0.033102684682377939 0.0039998494211274833 0 0.03351853666629754 0.0042379253796762549 0 0.033102684682377939 0.0039998494211274833 0 0.03351853666629754 0.0042379253796762549 0 0.032917036604209977 0.0038887036236760143 0 0.033017753037210176 0.0039774893874861394 0 0.03351853666629754 0.0042379253796762549 0 0.033066042350374129 0.0042290849881920943 0 0.033017753037210176 0.0039774893874861394 0 0.033066042350374129 0.0042290849881920943 0 0.032763488478584964 0.0040686497557350229 0 0.033066042350374129 0.0042290849881920943 0 0.032763488478584964 0.0040686497557350229 0 0.032751086961805669 0.0042702334683044629 0 0.032767750994143918 0.0040929115746910737 0 0.032698320582646101 0.0043514563011986633 0 0.032460607692752351 0.0041398486685942206 0 0.032763488478584964 0.0040686497557350229 0 0.032622058475411879 0.0043714112232855528 0 0.033066042350374129 0.0042290849881920943 0 0.032751086961805669 0.0042702334683044629 0 0.033071688634454588 0.0046330863908497291 0 0.03260152283812652 0.004621778258936708 0 0.032751086961805669 0.0042702334683044629 0 0.033071688634454588 0.0046330863908497291 0 0.033066042350374129 0.0042290849881920943 0 0.033597580808969844 0.0046911860605818425 0 0.033071688634454588 0.0046330863908497291 0 0.03351853666629754 0.0042379253796762549 0 0.033066042350374129 0.0042290849881920943 0 0.033597580808969844 0.0046911860605818425 0 0.033597580808969844 0.0046911860605818425 0 0.033562812854398154 0.0050910112472643803 0 0.034493937108575227 0.0051931962543061401 0 0.033597580808969844 0.0046911860605818425 0 0.033071688634454588 0.0046330863908497291 0 0.033562812854398154 0.0050910112472643803 0 0.033258580081882441 0.0047583078215587306 0 0.03361537052733337 0.005048685430725462 0 0.03260152283812652 0.004621778258936708 0 0.033071688634454588 0.0046330863908497291 0 0.032949178226115414 0.0050845683764315719 0 0.033071688634454588 0.0046330863908497291 0 0.032949178226115414 0.0050845683764315719 0 0.033562812854398154 0.0050910112472643803 0 0.034011830136434162 0.0045718216966209348 0 0.03446797418482038 0.0045867847206722389 0 0.034267612497987793 0.0048990536777887448 0 0.034345225809852539 0.0048614267069682134 0 0.03361537052733337 0.005048685430725462 0 0.034345225809852539 0.0048614267069682134 0 0.034487834555035062 0.0052746127566129421 0 0.033470939170434935 0.0058351750133237351 0 0.033562812854398154 0.0050910112472643803 0 0.034493937108575227 0.0051931962543061401 0 0.033470939170434935 0.0058351750133237351 0 0.032949178226115414 0.0050845683764315719 0 0.033562812854398154 0.0050910112472643803 0 0.034999068002889495 0.004570888205242052 0 0.034493937108575227 0.0051931962543061401 0 0.034383323802728648 0.0051625998207748599 0 0.034493937108575227 0.0051931962543061401 0 0.034163983984633703 0.0048881164025057558 0 0.034383323802728648 0.0051625998207748599 0 0.033597580808969844 0.0046911860605818425 0 0.034493937108575227 0.0051931962543061401 0 0.034163983984633703 0.0048881164025057558 0 0.034460656601643977 0.0047108767927613489 0 0.034383323802728648 0.0051625998207748599 0 0.034759637653045267 0.0047852426791157796 0 0.034460656601643977 0.0047108767927613489 0 0.034163983984633703 0.0048881164025057558 0 0.034383323802728648 0.0051625998207748599 0 0.035253850767864602 0.0044740295324490614 0 0.035280894560999969 0.0043898119646765023 0 0.035307771060405405 0.0044272426853274888 0 0.034973399316492605 0.0045967080487296893 0 0.034847085929137975 0.0047756689217328535 0 0.035280894560999969 0.0043898119646765023 0 0.035307771060405405 0.0044272426853274888 0 0.035307120249783233 0.0044516288349502643 0 0.035339275233538407 0.004442409363942963 0 0.035307771060405405 0.0044272426853274888 0 0.035327323643966617 0.0044247252509669772 0 0.035307771060405405 0.0044272426853274888 0 0.035327323643966617 0.0044247252509669772 0 0.035307120249783233 0.0044516288349502643 0 0.035369123844002273 0.0044418366331553868 0 0.035327323643966617 0.0044247252509669772 0 0.035341403215163131 0.0044079672932373221 0 0.035339275233538407 0.004442409363942963 0 0.035369123844002273 0.0044418366331553868 0 0.035327323643966617 0.0044247252509669772 0 0.035327323643966617 0.0044247252509669772 0 0.035251788292323831 0.0044785549940411654 0 0.035341403215163131 0.0044079672932373221 0 0.0352430415526288 0.0045218403259806965 0 0.035307120249783233 0.0044516288349502643 0 0.035251788292323831 0.0044785549940411654 0 0.035327323643966617 0.0044247252509669772 0 0.035307120249783233 0.0044516288349502643 0 0.035251788292323831 0.0044785549940411654 0 0.0352430415526288 0.0045218403259806965 0 0.035307120249783233 0.0044516288349502643 0 0.035339407047290147 0.0045447837188304458 0 0.0352430415526288 0.0045218403259806965 0 0.035161925137309882 0.0045433780393450496 0 0.035251788292323831 0.0044785549940411654 0 0.035280894560999969 0.0043898119646765023 0 0.035307120249783233 0.0044516288349502643 0 0.035339407047290147 0.0045447837188304458 0 0.034847085929137975 0.0047756689217328535 0 0.035047685245938424 0.0046692800550155811 0 0.034460656601643977 0.0047108767927613489 0 0.034759637653045267 0.0047852426791157796 0 0.034843224162520392 0.0046397278657836962 0 0.035339407047290147 0.0045447837188304458 0 0.035162690381778557 0.0046772899500428294 0 0.035109513613923733 0.0047812062654100738 0 0.035047685245938424 0.0046692800550155811 0 0.035108903014231869 0.0047479266518231557 0 0.0352430415526288 0.0045218403259806965 0 0.035339407047290147 0.0045447837188304458 0 0.035162690381778557 0.0046772899500428294 0 0.0352430415526288 0.0045218403259806965 0 0.035162690381778557 0.0046772899500428294 0 0.035161925137309882 0.0045433780393450496 0 0.035162690381778557 0.0046772899500428294 0 0.035072182666393302 0.0048087049422047175 0 0.035109513613923733 0.0047812062654100738 0 0.035162690381778557 0.0046772899500428294 0 0.035072182666393302 0.0048087049422047175 0 0.035067325012498068 0.004764353178552113 0 0.035109513613923733 0.0047812062654100738 0 0.035033556703862587 0.0049132986266040924 0 0.035107304106442236 0.0047633563099397395 0 0.035072182666393302 0.0048087049422047175 0 0.035109513613923733 0.0047812062654100738 0 0.035033556703862587 0.0049132986266040924 0 0.035109513613923733 0.0047812062654100738 0 0.034843224162520392 0.0046397278657836962 0 0.035107304106442236 0.0047633563099397395 0 0.034460656601643977 0.0047108767927613489 0 0.034553062778722762 0.0043845785929344646 0 0.034843224162520392 0.0046397278657836962 0 0.033700237038066412 0.004171213837716045 0 0.033863542878039166 0.0043734288870161354 0 0.032917036604209977 0.0038887036236760143 0 0.032776263464246065 0.0039274983707270989 0 0.032662871025058583 0.003905174432255118 0 0.034553062778722762 0.0043845785929344646 0 0.034843224162520392 0.0046397278657836962 0 0.035107304106442236 0.0047633563099397395 0 0.034759637653045267 0.0047852426791157796 0 0.035109513613923733 0.0047812062654100738 0 0.034843224162520392 0.0046397278657836962 0 0.039618866762366742 0.0055272095277265733 0 0.039258204728806201 0.0056840064057115253 0 0.039554020530048188 0.0060700266966519593 0 0.034750867745809579 0.0049516315797741113 0 0.034798525968162429 0.0049892114229749766 0 0.034603489208962189 0.0054716466247231926 0 0.039618866762366742 0.0055272095277265733 0 0.039485091156523849 0.0053738950163705855 0 0.039258204728806201 0.0056840064057115253 0 0.034880318661878455 0.0050348406177469184 0 0.034906565656106898 0.0050644218082261175 0 0.034874114690292966 0.0051662189004424101 0 0.034798525968162429 0.0049892114229749766 0 0.034880318661878455 0.0050348406177469184 0 0.034874114690292966 0.0051662189004424101 0 0.034906565656106898 0.0050644218082261175 0 0.034938407296013413 0.0049716946608353903 0 0.034951920621138985 0.0050539530999870776 0 0.034880318661878455 0.0050348406177469184 0 0.034906565656106898 0.0050644218082261175 0 0.034938407296013413 0.0049716946608353903 0 0.034880318661878455 0.0050348406177469184 0 0.034938407296013413 0.0049716946608353903 0 0.034881054298118525 0.0049743605561036533 0 0.034938407296013413 0.0049716946608353903 0 0.034881054298118525 0.0049743605561036533 0 0.034909619544834708 0.0048896029185224489 0 0.034798525968162429 0.0049892114229749766 0 0.034881054298118525 0.0049743605561036533 0 0.034909619544834708 0.0048896029185224489 0 0.034798525968162429 0.0049892114229749766 0 0.034880318661878455 0.0050348406177469184 0 0.034881054298118525 0.0049743605561036533 0 0.035072182666393302 0.0048087049422047175 0 0.035033556703862587 0.0049132986266040924 0 0.035006251850027439 0.0049166669776543595 0 0.035033556703862587 0.0049132986266040924 0 0.035006251850027439 0.0049166669776543595 0 0.034951920621138985 0.0050539530999870776 0 0.034938407296013413 0.0049716946608353903 0 0.035006251850027439 0.0049166669776543595 0 0.034951920621138985 0.0050539530999870776 0 0.034938407296013413 0.0049716946608353903 0 0.035006251850027439 0.0049166669776543595 0 0.035011824862098882 0.0048448998202987193 0 0.035072182666393302 0.0048087049422047175 0 0.035006251850027439 0.0049166669776543595 0 0.035011824862098882 0.0048448998202987193 0 0.035011824862098882 0.0048448998202987193 0 0.035067325012498068 0.004764353178552113 0 0.035010632333991994 0.0047219285211676058 0 0.035011824862098882 0.0048448998202987193 0 0.034909619544834708 0.0048896029185224489 0 0.035010632333991994 0.0047219285211676058 0 0.035072182666393302 0.0048087049422047175 0 0.035011824862098882 0.0048448998202987193 0 0.035067325012498068 0.004764353178552113 0 0.034750867745809579 0.0049516315797741113 0 0.034909619544834708 0.0048896029185224489 0 0.035010632333991994 0.0047219285211676058 0 0.034750867745809579 0.0049516315797741113 0 0.034798525968162429 0.0049892114229749766 0 0.034909619544834708 0.0048896029185224489 0 0.034938407296013413 0.0049716946608353903 0 0.035011824862098882 0.0048448998202987193 0 0.034909619544834708 0.0048896029185224489 0 0.034750867745809579 0.0049516315797741113 0 0.035010632333991994 0.0047219285211676058 0 0.034866352232947304 0.0045526949229361098 0 0.035162690381778557 0.0046772899500428294 0 0.035067325012498068 0.004764353178552113 0 0.035010632333991994 0.0047219285211676058 0 0.035162690381778557 0.0046772899500428294 0 0.035010632333991994 0.0047219285211676058 0 0.035161925137309882 0.0045433780393450496 0 0.035010632333991994 0.0047219285211676058 0 0.035161925137309882 0.0045433780393450496 0 0.034866352232947304 0.0045526949229361098 0 0.034414686868468068 0.0044484401202237785 0 0.037995421380932912 0.0044492424637403369 0 0.039618866762366742 0.0055272095277265733 0 0.039655233097473208 0.0051317461512029776 0 0.039485091156523849 0.0053738950163705855 0 0.039485091156523849 0.0053738950163705855 0 0.03937888202358171 0.0051781188591718385 0 0.039258204728806201 0.0056840064057115253 0 0.037277460495375739 0.0056508707438766752 0 0.037995421380932912 0.0044492424637403369 0 0.037995421380932912 0.0044492424637403369 0 0.044151144297357982 0.0055561683820510039 0 0.039655233097473208 0.0051317461512029776 0 0.039485091156523849 0.0053738950163705855 0 0.03937888202358171 0.0051781188591718385 0 0.047778047142684785 0.0054048266865838373 0 0.040571654305093741 0.0049103368921663395 0 0.04187018514239723 0.0031300774551304006 0 0.045327492065728947 0.0033663775178985303 0 0.045036008310969051 0.0055093016193862457 0 0.04187018514239723 0.0031300774551304006 0 0.045036008310969051 0.0055093016193862457 0 0.041367131574788892 0.0073939584821370785 0 0.037995421380932912 0.0044492424637403369 0 0.040571654305093741 0.0049103368921663395 0 0.035173703713111973 0.0045413848452076641 0 0.035251788292323831 0.0044785549940411654 0 0.035230102834978828 0.0044482044093123634 0 0.035161925137309882 0.0045433780393450496 0 0.035173703713111973 0.0045413848452076641 0 0.035251788292323831 0.0044785549940411654 0 0.044955218196243159 0.0049033122145237589 0 0.040571654305093741 0.0049103368921663395 0 0.035453184002302005 0.0044663332821187618 0 0.035506251835568298 0.0043512487489500637 0 0.035422405856838743 0.0044244809023015839 0 0.035506251835568298 0.0043512487489500637 0 0.035341403215163131 0.0044079672932373221 0 0.035422405856838743 0.0044244809023015839 0 0.035251788292323831 0.0044785549940411654 0 0.035230102834978828 0.0044482044093123634 0 0.035341403215163131 0.0044079672932373221 0 0.040571654305093741 0.0049103368921663395 0 0.034835395470258775 0.005429275180847115 0 0.03541218791155034 0.0044554456670053188 0 0.035341403215163131 0.0044079672932373221 0 0.035422405856838743 0.0044244809023015839 0 0.03541218791155034 0.0044554456670053188 0 0.035369123844002273 0.0044418366331553868 0 0.035341403215163131 0.0044079672932373221 0 0.048977504295490498 0.0059357774006161311 0 0.049477904603007293 0.0056323822743350078 0 0.049093702474060447 0.0055093504489659526 0 0.049423120700033317 0.0050786596096567757 0 0.049477904603007293 0.0056323822743350078 0 0.049271736607746766 0.0052166234422392887 0 0.049477904603007293 0.0056323822743350078 0 0.049093702474060447 0.0055093504489659526 0 0.049271736607746766 0.0052166234422392887 0 0.048953648101772607 0.0050267770527986705 0 0.049093702474060447 0.0055093504489659526 0 0.049271736607746766 0.0052166234422392887 0 0.048977504295490498 0.0059357774006161311 0 0.049093702474060447 0.0055093504489659526 0 0.04856981718381137 0.0055593196287098412 0 0.048483866454412577 0.0049947709855544921 0 0.048953648101772607 0.0050267770527986705 0 0.04856981718381137 0.0055593196287098412 0 0.048953648101772607 0.0050267770527986705 0 0.049093702474060447 0.0055093504489659526 0 0.04856981718381137 0.0055593196287098412 0 0.04856981718381137 0.0055593196287098412 0 0.048009034926082994 0.0053642993689566668 0 0.04797188974075383 0.0058745859041127117 0 0.048483866454412577 0.0049947709855544921 0 0.04856981718381137 0.0055593196287098412 0 0.048009034926082994 0.0053642993689566668 0 0.048009034926082994 0.0053642993689566668 0 0.04797188974075383 0.0058745859041127117 0 0.047607442336019344 0.0055802885771687166 0 0.04797188974075383 0.0058745859041127117 0 0.048438562430437565 0.0062736888503274382 0 0.047383135364326187 0.0063019495410948853 0 0.047613923416077966 0.0056162311329130202 0 0.04680168828513985 0.0063719284769829599 0 0.04856981718381137 0.0055593196287098412 0 0.04797188974075383 0.0058745859041127117 0 0.048438562430437565 0.0062736888503274382 0 0.048977504295490498 0.0059357774006161311 0 0.04856981718381137 0.0055593196287098412 0 0.048438562430437565 0.0062736888503274382 0 0.047778047142684785 0.0054048266865838373 0 0.047613923416077966 0.0056162311329130202 0 0.045327492065728947 0.0033663775178985303 0 0.045036008310969051 0.0055093016193862457 0 0.048741155897924604 0.003620329096787524 0 0.044151144297357982 0.0055561683820510039 0 0.047613923416077966 0.0056162311329130202 0 0.046289105805895917 0.0050400657703897119 0 0.046401275276738631 0.0055995018954661507 0 0.047086686739657761 0.0054133275696203031 0 0.047561020258714289 0.0050041420191529098 0 0.047086686739657761 0.0054133275696203031 0 0.047607442336019344 0.0055802885771687166 0 0.047561020258714289 0.0050041420191529098 0 0.048009034926082994 0.0053642993689566668 0 0.047607442336019344 0.0055802885771687166 0 0.047086686739657761 0.0054133275696203031 0 0.047607442336019344 0.0055802885771687166 0 0.047383135364326187 0.0063019495410948853 0 0.04797188974075383 0.0058745859041127117 0 0.047607442336019344 0.0055802885771687166 0 0.047383135364326187 0.0063019495410948853 0 0.046401275276738631 0.0055995018954661507 0 0.045918257349410081 0.0061978780796240239 0 0.047383135364326187 0.0063019495410948853 0 0.045953469297999351 0.0061847389686136576 0 0.04680168828513985 0.0063719284769829599 0 0.046401275276738631 0.0055995018954661507 0 0.047086686739657761 0.0054133275696203031 0 0.047383135364326187 0.0063019495410948853 0 0.045918257349410081 0.0061978780796240239 0 0.046221893797171544 0.0062819751569277776 0 0.04607296426429263 0.0066425384655361018 0 0.046221893797171544 0.0062819751569277776 0 0.046460263172394316 0.0064948521169292004 0 0.04607296426429263 0.0066425384655361018 0 0.046350182313420925 0.0062952300351732226 0 0.046279372961134831 0.0066393978397964806 0 0.04607296426429263 0.0066425384655361018 0 0.046244123149035532 0.0064838380561140765 0 0.046174159513078537 0.0065682400470544119 0 0.046279372961134831 0.0066393978397964806 0 0.046437820210884335 0.0069211044266122811 0 0.045944277337540473 0.0070107807037854677 0 0.046279372961134831 0.0066393978397964806 0 0.04607296426429263 0.0066425384655361018 0 0.045944277337540473 0.0070107807037854677 0 0.045598804197110113 0.0069053443930717218 0 0.04607296426429263 0.0066425384655361018 0 0.045944277337540473 0.0070107807037854677 0 0.04703538511708575 0.0059319987841954525 0 0.046664272215338372 0.0063907540900342121 0 0.047001929244188473 0.006506831051357056 0 0.04703538511708575 0.0059319987841954525 0 0.046704386912739551 0.0059834553061150764 0 0.046664272215338372 0.0063907540900342121 0 0.044151144297357982 0.0055561683820510039 0 0.043544154864966766 0.0066714651211536692 0 0.046350182313420925 0.0062952300351732226 0 0.046279372961134831 0.0066393978397964806 0 0.046664272215338372 0.0063907540900342121 0 0.047613923416077966 0.0056162311329130202 0 0.046244123149035532 0.0064838380561140765 0 0.046704386912739551 0.0059834553061150764 0 0.046350182313420925 0.0062952300351732226 0 0.046664272215338372 0.0063907540900342121 0 0.046853913454423399 0.0062786832289054252 0 0.046221893797171544 0.0062819751569277776 0 0.046460263172394316 0.0064948521169292004 0 0.046664272215338372 0.0063907540900342121 0 0.047001929244188473 0.006506831051357056 0 0.046437820210884335 0.0069211044266122811 0 0.046279372961134831 0.0066393978397964806 0 0.046664272215338372 0.0063907540900342121 0 0.046437820210884335 0.0069211044266122811 0 0.047001929244188473 0.006506831051357056 0 0.046437820210884335 0.0069211044266122811 0 0.046920855402729431 0.0071234263597775242 0 0.043544154864966766 0.0066714651211536692 0 0.037652206661543432 0.0037323649088927932 0 0.039188485171400091 0.0045501972467007689 0 0.037652206661543432 0.0037323649088927932 0 0.046437820210884335 0.0069211044266122811 0 0.046364531540978582 0.0075483736911766972 0 0.046920855402729431 0.0071234263597775242 0 0.037652206661543432 0.0037323649088927932 0 0.031247402570266605 0.0018967897834386994 0 0.031285819105236923 0.0015449854356956619 0 0.032567284571908696 0.0011020990197262972 0 0.032372216668146103 0.00230975640085393 0 0.045551350488016749 0.0074779967958731744 0 0.045944277337540473 0.0070107807037854677 0 0.04602543479254801 0.0073821583471598258 0 0.046437820210884335 0.0069211044266122811 0 0.045944277337540473 0.0070107807037854677 0 0.04602543479254801 0.0073821583471598258 0 0.046437820210884335 0.0069211044266122811 0 0.046364531540978582 0.0075483736911766972 0 0.04602543479254801 0.0073821583471598258 0 0.046364531540978582 0.0075483736911766972 0 0.04602543479254801 0.0073821583471598258 0 0.045782350475531183 0.007986606207054596 0 0.045551350488016749 0.0074779967958731744 0 0.04602543479254801 0.0073821583471598258 0 0.045782350475531183 0.007986606207054596 0 0.029890677381710029 0.0020214439619638961 0 0.030714842807848478 0.0023308779191366139 0 0.030158979360988755 0.0030500197088818458 0 0.039188485171400091 0.0045501972467007689 0 0.037956155119309415 0.0049289005519355215 0 0.031285819105236923 0.0015449854356956619 0 0.029890677381710029 0.0020214439619638961 0 0.030714842807848478 0.0023308779191366139 0 0.031285819105236923 0.0015449854356956619 0 0.030714842807848478 0.0023308779191366139 0 0.031370287014404717 0.0028340582759055202 0 0.030433454334208992 0.0041013621577212908 0 0.030158979360988755 0.0030500197088818458 0 0.031370287014404717 0.0028340582759055202 0 0.030714842807848478 0.0023308779191366139 0 0.030158979360988755 0.0030500197088818458 0 0.031370287014404717 0.0028340582759055202 0 0.029034393847222787 0.0029712915734807525 0 0.029890677381710029 0.0020214439619638961 0 0.030158979360988755 0.0030500197088818458 0 0.029034393847222787 0.0029712915734807525 0 0.029467426188250923 0.0037105083638944449 0 0.030158979360988755 0.0030500197088818458 0 0.031474146825545661 0.0016281473402855518 0 0.03130455475351477 0.0022838748287002091 0 0.031774626610516644 0.002170205685132862 0 0.031285819105236923 0.0015449854356956619 0 0.032372216668146103 0.00230975640085393 0 0.031370287014404717 0.0028340582759055202 0 0.031030512308037432 0.0032225973662474276 0 0.031674130393158507 0.0030030274439514569 0 0.03130455475351477 0.0022838748287002091 0 0.032141507722735878 0.0032810213040963894 0 0.031247402570266605 0.0018967897834386994 0 0.032190023160836252 0.0034247407507164828 0 0.032372216668146103 0.00230975640085393 0 0.031370287014404717 0.0028340582759055202 0 0.032726453652849749 0.0036624461344424456 0 0.032775076706022754 0.0037861093661009236 0 0.032752471927767278 0.0038091090978742059 0 0.032775076706022754 0.0037861093661009236 0 0.032761705894478396 0.0038082285981937383 0 0.032752471927767278 0.0038091090978742059 0 0.031674130393158507 0.0030030274439514569 0 0.03130455475351477 0.0022838748287002091 0 0.031774626610516644 0.002170205685132862 0 0.032854196874930644 0.0032501394813395823 0 0.03198724884961935 0.0027903117639091622 0 0.032678771848638689 0.0038234273271392141 0 0.032691143613957772 0.0038622191408180903 0 0.032658854793803142 0.0038574908684415039 0 0.032678771848638689 0.0038234273271392141 0 0.03263236028602045 0.0037974206672952981 0 0.032658854793803142 0.0038574908684415039 0 0.032678771848638689 0.0038234273271392141 0 0.032721133938601925 0.0038096734279981846 0 0.032691143613957772 0.0038622191408180903 0 0.032721133938601925 0.0038096734279981846 0 0.032667473646582401 0.0037774447506438852 0 0.032673942609281165 0.0037181033591549483 0 0.032678771848638689 0.0038234273271392141 0 0.032721133938601925 0.0038096734279981846 0 0.032667473646582401 0.0037774447506438852 0 0.032667473646582401 0.0037774447506438852 0 0.032605151204583516 0.0037165783950151138 0 0.03263236028602045 0.0037974206672952981 0 0.032678771848638689 0.0038234273271392141 0 0.032667473646582401 0.0037774447506438852 0 0.03263236028602045 0.0037974206672952981 0 0.032726453652849749 0.0036624461344424456 0 0.032721133938601925 0.0038096734279981846 0 0.032673942609281165 0.0037181033591549483 0 0.032667473646582401 0.0037774447506438852 0 0.032673942609281165 0.0037181033591549483 0 0.032605151204583516 0.0037165783950151138 0 0.032769454532394438 0.0037273262254909306 0 0.032592619727886733 0.0036719502487999678 0 0.03252512872884869 0.0035446059502718119 0 0.032673942609281165 0.0037181033591549483 0 0.032605151204583516 0.0037165783950151138 0 0.032334865024360934 0.0035241549995973414 0 0.03252512872884869 0.0035446059502718119 0 0.032507298520308238 0.003697067576200262 0 0.03252512872884869 0.0035446059502718119 0 0.032507298520308238 0.003697067576200262 0 0.032605151204583516 0.0037165783950151138 0 0.032507298520308238 0.003697067576200262 0 0.032605151204583516 0.0037165783950151138 0 0.03263236028602045 0.0037974206672952981 0 0.032334865024360934 0.0035241549995973414 0 0.032507298520308238 0.003697067576200262 0 0.032341245117802869 0.0036615139844833693 0 0.032507298520308238 0.003697067576200262 0 0.032341245117802869 0.0036615139844833693 0 0.03252810571864307 0.0038256046189300325 0 0.0323564758059217 0.0037963609286607498 0 0.032341245117802869 0.0036615139844833693 0 0.03252810571864307 0.0038256046189300325 0 0.032507298520308238 0.003697067576200262 0 0.03263236028602045 0.0037974206672952981 0 0.032607886740022074 0.0038460102091898538 0 0.032507298520308238 0.003697067576200262 0 0.03252810571864307 0.0038256046189300325 0 0.032607886740022074 0.0038460102091898538 0 0.03252810571864307 0.0038256046189300325 0 0.032607886740022074 0.0038460102091898538 0 0.032636603950588879 0.0039056870968287522 0 0.03263236028602045 0.0037974206672952981 0 0.032607886740022074 0.0038460102091898538 0 0.032658854793803142 0.0038574908684415039 0 0.032607886740022074 0.0038460102091898538 0 0.032661341424047842 0.0039066877650884959 0 0.032658854793803142 0.0038574908684415039 0 0.032607886740022074 0.0038460102091898538 0 0.032636603950588879 0.0039056870968287522 0 0.032661341424047842 0.0039066877650884959 0 0.032636603950588879 0.0039056870968287522 0 0.032684553433479445 0.0039504781815649171 0 0.032667814198498214 0.0039280895566613898 0 0.032636603950588879 0.0039056870968287522 0 0.032661341424047842 0.0039066877650884959 0 0.032667814198498214 0.0039280895566613898 0 0.032661341424047842 0.0039066877650884959 0 0.032670151563831337 0.0039202906320224369 0 0.032667814198498214 0.0039280895566613898 0 0.032661341424047842 0.0039066877650884959 0 0.032670151563831337 0.0039202906320224369 0 0.032680244534099546 0.0039160557080019451 0 0.0323564758059217 0.0037963609286607498 0 0.03252810571864307 0.0038256046189300325 0 0.032684553433479445 0.0039504781815649171 0 0.03252810571864307 0.0038256046189300325 0 0.032636603950588879 0.0039056870968287522 0 0.032684553433479445 0.0039504781815649171 0 0.032894024394040086 0.0039743220498561294 0 0.032684553433479445 0.0039504781815649171 0 0.032776263464246065 0.0039274983707270989 0 0.032684553433479445 0.0039504781815649171 0 0.032699984863883813 0.0039329201630048573 0 0.032776263464246065 0.0039274983707270989 0 0.032684553433479445 0.0039504781815649171 0 0.032699984863883813 0.0039329201630048573 0 0.032667814198498214 0.0039280895566613898 0 0.032699984863883813 0.0039329201630048573 0 0.032776263464246065 0.0039274983707270989 0 0.032662871025058583 0.003905174432255118 0 0.03266880814764362 0.0039225799869280946 0 0.032670151563831337 0.0039202906320224369 0 0.032680500069611929 0.0039224338775272118 0 0.03266880814764362 0.0039225799869280946 0 0.032670151563831337 0.0039202906320224369 0 0.032667814198498214 0.0039280895566613898 0 0.032699984863883813 0.0039329201630048573 0 0.03266880814764362 0.0039225799869280946 0 0.032667814198498214 0.0039280895566613898 0 0.032699984863883813 0.0039329201630048573 0 0.03266880814764362 0.0039225799869280946 0 0.032662871025058583 0.003905174432255118 0 0.03266880814764362 0.0039225799869280946 0 0.032662871025058583 0.003905174432255118 0 0.032680500069611929 0.0039224338775272118 0 0.035033556703862587 0.0049132986266040924 0 0.034951920621138985 0.0050539530999870776 0 0.034853007886075697 0.0053674039985850373 0 0.033863542878039166 0.0043734288870161354 0 0.033701180683963425 0.004420603382104411 0 0.035033556703862587 0.0049132986266040924 0 0.035107304106442236 0.0047633563099397395 0 0.034853007886075697 0.0053674039985850373 0 0.032662871025058583 0.003905174432255118 0 0.032680500069611929 0.0039224338775272118 0 0.032713910278292457 0.0039424204068300665 0 0.034798525968162429 0.0049892114229749766 0 0.034853007886075697 0.0053674039985850373 0 0.034874114690292966 0.0051662189004424101 0 0.032680500069611929 0.0039224338775272118 0 0.032691483201134693 0.0039206201654315119 0 0.032680244534099546 0.0039160557080019451 0 0.032670151563831337 0.0039202906320224369 0 0.032680500069611929 0.0039224338775272118 0 0.032680244534099546 0.0039160557080019451 0 0.032691483201134693 0.0039206201654315119 0 0.032713910278292457 0.0039424204068300665 0 0.032695655908171042 0.0038948027664146706 0 0.032680500069611929 0.0039224338775272118 0 0.032691483201134693 0.0039206201654315119 0 0.032713910278292457 0.0039424204068300665 0 0.034951920621138985 0.0050539530999870776 0 0.034853007886075697 0.0053674039985850373 0 0.034874114690292966 0.0051662189004424101 0 0.034906565656106898 0.0050644218082261175 0 0.034951920621138985 0.0050539530999870776 0 0.034874114690292966 0.0051662189004424101 0 0.037277460495375739 0.0056508707438766752 0 0.034297625577821227 0.0038974537129099042 0 0.039258204728806201 0.0056840064057115253 0 0.039132061938416153 0.006356001670339239 0 0.039554020530048188 0.0060700266966519593 0 0.034798525968162429 0.0049892114229749766 0 0.034743331859915468 0.0053693875544628799 0 0.034603489208962189 0.0054716466247231926 0 0.034763804518852401 0.005331970660684371 0 0.033701180683963425 0.004420603382104411 0 0.037652206661543432 0.0037323649088927932 0 0.034297625577821227 0.0038974537129099042 0 0.033701180683963425 0.004420603382104411 0 0.034297625577821227 0.0038974537129099042 0 0.032752471927767278 0.0038091090978742059 0 0.0327800840902246 0.0038246809037304538 0 0.032780737817164986 0.00382297789457157 0 0.032761705894478396 0.0038082285981937383 0 0.032752471927767278 0.0038091090978742059 0 0.032780737817164986 0.00382297789457157 0 0.03198724884961935 0.0027903117639091622 0 0.034297625577821227 0.0038974537129099042 0 0.031474146825545661 0.0016281473402855518 0 0.031774626610516644 0.002170205685132862 0 0.031901389349644024 0.0014881740770746677 0 0.032592619727886733 0.0036719502487999678 0 0.033701180683963425 0.004420603382104411 0 0.032721133938601925 0.0038096734279981846 0 0.032713910278292457 0.0039424204068300665 0 0.032695655908171042 0.0038948027664146706 0 0.032721133938601925 0.0038096734279981846 0 0.032691143613957772 0.0038622191408180903 0 0.032695655908171042 0.0038948027664146706 0 0.032691143613957772 0.0038622191408180903 0 0.032658854793803142 0.0038574908684415039 0 0.032678431009464604 0.003891073863662462 0 0.032661341424047842 0.0039066877650884959 0 0.032658854793803142 0.0038574908684415039 0 0.032678431009464604 0.003891073863662462 0 0.032691143613957772 0.0038622191408180903 0 0.032678431009464604 0.003891073863662462 0 0.032695655908171042 0.0038948027664146706 0 0.032680244534099546 0.0039160557080019451 0 0.032678431009464604 0.003891073863662462 0 0.032695655908171042 0.0038948027664146706 0 0.032661341424047842 0.0039066877650884959 0 0.032680244534099546 0.0039160557080019451 0 0.032678431009464604 0.003891073863662462 0 0.032691483201134693 0.0039206201654315119 0 0.032680244534099546 0.0039160557080019451 0 0.032695655908171042 0.0038948027664146706 0 
</DataArray>
</PointData>
<CellData Scalars="region_id,cross_section_updated," Vectors="" Tensors="stress,">
<DataArray type="Float64" Name="region_id" format="ascii">
5 5 5 6 5 5 5 5 5 6 5 5 5 5 5 5 5 5 5 5 6 5 5 5 6 5 5 5 5 5 6 5 6 5 5 5 5 5 5 5 5 5 6 5 5 5 5 6 5 5 5 5 6 6 5 5 6 6 5 6 5 5 5 5 6 6 5 6 5 6 5 6 6 5 5 5 5 5 6 6 5 5 6 5 6 5 5 5 6 5 5 5 5 5 5 5 5 6 5 5 5 5 5 6 5 6 5 5 5 5 5 6 5 6 5 5 5 5 5 6 5 5 5 5 6 5 5 5 5 6 5 5 5 5 5 5 5 6 5 5 5 5 5 5 5 5 5 5 5 5 5 6 6 5 5 5 5 5 6 5 5 5 6 5 5 5 5 6 5 5 5 6 5 6 5 5 5 6 5 6 5 5 6 5 5 5 6 5 5 6 5 6 5 5 6 5 5 6 6 6 5 5 5 5 5 5 5 5 5 5 5 5 6 5 6 5 6 5 5 5 5 5 5 5 6 5 5 5 5 5 5 6 5 5 6 6 6 5 6 5 5 6 6 5 6 5 5 5 5 5 5 5 5 5 5 5 5 5 5 5 5 5 5 5 5 5 5 5 5 5 5 6 5 5 5 6 6 5 5 5 6 5 5 5 5 6 5 5 5 6 5 5 5 5 5 5 6 5 5 5 5 5 6 5 5 5 6 5 5 6 5 5 5 5 5 5 5 5 6 5 5 5 6 5 5 5 5 6 5 5 6 6 5 6 5 6 5 5 6 5 5 5 5 5 6 6 5 6 5 5 5 6 5 5 5 6 5 5 5 5 6 6 5 5 5 5 6 5 5 5 6 5 5 5 6 6 5 5 5 6 5 5 6 5 6 5 6 5 5 5 5 5 5 5 5 5 5 6 5 5 5 5 5 6 5 6 6 5 5 5 6 5 5 5 6 6 5 6 5 5 6 6 5 5 5 5 5 5 5 6 5 5 6 5 5 5 5 6 5 6 5 6 5 6 6 5 5 5 5 5 5 6 5 5 5 5 5 5 5 5 5 5 5 5 5 5 5 5 5 6 5 5 5 5 5 5 5 5 6 5 6 5 5 5 6 5 5 5 6 5 6 5 5 5 5 5 5 5 6 6 5 6 5 6 5 5 5 5 5 5 5 6 5 5 5 5 5 5 5 5 5 5 5 5 5 5 5 5 5 5 5 5 5 5 5 5 5 5 5 5 5 5 5 5 5 5 5 6 5 5 5 5 5 6 5 5 5 6 5 5 5 5 6 5 6 5 5 5 5 5 6 5 5 6 5 5 6 5 5 5 6 6 5 5 5 5 6 5 6 5 5 5 5 5 5 5 6 5 5 5 5 5 5 5 5 5 5 5 5 5 5 5 5 5 5 5 6 5 5 6 5 5 6 5 5 5 5 5 5 5 5 5 5 5 5 5 5 5 5 5 5 5 5 5 5 5 5 5 6 5 5 5 5 6 5 5 5 5 6 5 5 6 5 5 5 5 5 5 5 5 5 5 5 5 5 6 5 6 5 5 5 5 5 5 5 5 5 5 5 5 5 5 5 5 5 5 5 5 5 5 5 6 5 5 5 5 5 5 5 5 5 5 5 5 6 5 5 5 5 5 5 5 5 5 6 6 5 5 6 5 5 5 5 5 5 5 5 5 5 5 5 5 5 6 5 5 6 5 5 6 5 5 5 5 5 5 5 5 5 5 5 5 5 5 5 5 5 5 6 5 5 5 5 5 5 6 6 5 5 5 6 5 5 6 5 5 5 5 5 5 5 5 5 5 5 6 5 5 5 5 5 5 5 5 5 5 5 5 5 5 5 5 6 5 5 5 6 5 5 5 5 5 5 5 5 5 5 5 5 5 5 5 5 5 5 5 5 5 6 5 5 5 6 5 5 5 6 5 5 6 5 6 6 5 5 5 6 6 5 6 5 5 6 5 6 6 5 6 5 6 5 5 5 5 5 6 5 6 5 5 5 6 5 5 5 5 5 5 5 5 5 5 6 5 5 5 5 5 5 5 5 5 5 5 5 5 5 5 5 6 5 5 5 5 5 5 5 5 5 6 5 5 5 5 6 5 5 5 5 5 5 5 5 5 5 5 5 6 5 5 6 5 5 5 5 5 5 6 5 5 6 5 5 5 5 6 5 5 5 5 5 5 5 5 5 5 5 6 5 5 5 6 5 5 6 5 5 6 6 6 5 6 5 5 5 6 5 5 5 6 5 5 5 5 5 5 6 5 5 5 5 6 5 5 5 5 5 5 5 5 5 6 6 5 5 5 5 6 6 5 5 6 6 5 5 6 6 5 5 5 5 5 6 5 5 5 6 6 5 5 5 6 5 5 5 6 5 5 6 6 6 5 5 5 5 5 5 5 5 5 5 6 5 6 5 5 6 5 6 5 5 5 5 5 5 5 5 5 5 5 5 6 5 5 5 6 5 5 5 5 5 6 5 5 5 5 5 5 5 5 5 5 5 6 5 5 5 5 5 5 5 6 5 5 6 5 5 5 6 5 5 5 5 5 5 5 5 5 5 5 5 5 5 5 5 5 5 5 5 5 5 5 5 5 5 5 6 5 5 5 5 6 5 6 6 5 5 5 5 5 5 5 6 6 5 5 5 5 5 5 5 5 5 6 5 5 6 6 5 6 5 5 5 5 5 5 5 5 5 6 5 5 5 5 5 5 5 5 5 5 5 5 6 5 5 5 6 6 5 5 5 5 5 5 6 5 6 5 5 5 5 5 5 5 5 6 5 5 5 5 5 5 5 5 5 5 5 5 5 5 5 5 5 5 5 5 5 6 5 5 5 5 6 5 5 5 6 6 6 5 6 5 5 6 5 6 5 5 6 5 6 5 5 6 5 5 5 6 5 5 5 5 5 5 5 5 5 5 5 5 5 6 5 5 6 5 5 5 5 5 5 5 6 5 5 5 5 5 5 5 5 5 5 5 5 5 5 5 5 6 5 6 5 6 5 5 5 5 5 5 5 5 5 6 6 5 5 5 6 6 5 6 5 5 5 6 5 5 5 5 5 6 6 5 5 5 6 5 5 5 6 5 5 5 5 5 6 5 6 5 5 6 5 5 5 5 6 5 5 5 5 5 5 6 5 6 5 5 6 6 5 5 5 6 5 5 5 5 6 5 6 5 5 5 5 6 5 5 5 5 5 5 5 5 5 5 5 6 5 5 5 5 5 5 5 5 5 5 5 5 5 5 5 5 5 5 5 5 5 5 5 5 5 5 5 5 5 5 5 5 5 5 5 5 5 5 5 6 5 5 5 5 5 5 5 5 5 5 5 5 5 5 5 5 6 5 5 5 5 5 5 6 5 6 5 5 6 5 5 5 5 5 6 5 5 5 5 5 5 5 5 5 5 5 5 6 5 5 5 5 5 5 6 5 5 5 5 6 5 5 5 5 5 5 6 5 5 5 6 6 5 5 6 5 5 5 5 5 5 5 5 5 5 5 5 5 5 5 6 5 6 5 5 6 6 6 5 5 5 6 5 5 5 5 6 5 5 6 5 5 5 5 5 5 5 5 5 6 5 6 5 5 6 5 5 5 5 5 5 5 5 5 5 5 5 5 6 5 5 5 5 5 5 5 5 5 5 5 5 5 5 5 5 5 5 5 5 5 5 5 5 5 5 5 5 5 5 5 5 5 5 5 5 5 5 5 5 5 5 5 5 5 5 5 5 6 5 6 5 5 5 5 5 5 5 5 5 5 5 5 5 5 5 5 5 6 5 5 5 5 6 5 5 5 5 5 5 5 5 5 5 5 5 5 5 5 5 6 5 5 5 5 5 6 5 5 5 5 6 5 5 5 5 5 5 5 5 5 5 5 5 5 5 5 5 5 5 5 5 5 5 5 5 5 5 5 6 5 5 5 5 5 5 5 5 6 5 5 5 5 5 5 5 5 5 5 5 5 5 5 5 5 5 5 6 5 5 5 5 5 5 5 5 5 5 5 5 6 5 5 5 5 6 5 5 5 5 5 5 5 5 5 5 5 5 5 5 5 5 5 5 5 5 5 5 6 5 5 5 5 5 5 6 5 5 5 5 5 6 5 5 5 5 5 5 5 6 5 5 5 5 5 6 5 5 5 5 5 5 5 5 5 5 5 6 5 5 5 5 5 5 6 5 6 5 6 5 5 6 5 5 5 5 5 5 5 6 5 5 5 5 5 6 5 5 5 5 5 5 6 6 5 6 5 6 5 6 5 5 5 6 6 5 6 5 5 5 5 6 5 5 6 6 5 6 6 5 5 5 5 5 5 6 5 5 5 5 5 5 5 5 5 5 5 5 5 5 5 6 5 5 5 5 5 5 5 5 5 5 5 5 5 5 6 5 5 5 5 5 5 5 5 5 5 5 5 5 5 5 5 5 5 5 5 5 5 6 5 5 5 6 5 5 5 5 5 5 5 5 5 5 5 5 5 5 5 5 5 5 5 5 5 5 5 5 5 5 6 5 5 5 5 5 5 5 5 5 5 5 5 5 6 5 5 6 5 5 6 5 5 6 5 5 5 5 5 5 6 5 5 5 5 5 5 5 5 5 5 6 5 5 5 5 5 5 5 5 5 5 6 5 5 5 5 5 5 5 5 5 5 5 5 5 5 5 5 5 5 5 5 5 5 5 5 5 6 5 5 5 5 5 5 5 5 6 5 5 5 5 5 5 6 5 5 5 5 5 5 5 5 5 5 5 5 5 5 5 5 5 6 5 5 5 5 5 5 5 5 5 5 5 5 5 5 5 5 5 5 5 5 5 5 5 5 5 5 5 5 5 5 5 5 5 5 5 5 5 5 5 5 5 5 5 5 5 6 5 5 5 5 5 5 5 5 5 5 5 5 5 5 5 5 5 5 5 5 5 5 5 5 5 5 5 5 5 5 5 5 5 5 5 5 5 5 5 5 5 5 5 5 5 5 5 5 5 5 5 5 5 5 6 5 5 5 5 5 5 5 5 5 5 5 5 5 5 6 6 5 5 5 5 5 5 5 6 5 5 5 5 5 6 5 5 6 5 6 5 6 5 5 5 5 6 6 5 6 5 5 6 5 5 6 6 6 5 5 6 5 6 5 5 5 5 5 5 5 5 5 5 5 5 5 5 5 5 5 5 6 5 5 5 5 5 6 5 5 5 5 5 5 5 5 5 5 6 5 5 5 5 5 5 5 6 5 6 5 5 6 5 5 5 6 5 5 5 6 5 5 5 6 5 6 5 5 6 5 6 6 6 5 5 5 5 6 5 6 5 5 5 5 5 6 5 5 5 5 6 5 6 5 5 5 5 5 5 5 5 5 6 5 6 5 5 5 5 6 5 5 5 6 6 5 5 6 5 5 6 5 5 5 5 5 6 5 5 6 5 5 5 5 5 5 6 5 6 6 6 5 5 5 5 6 5 5 5 5 5 5 5 5 5 5 5 5 5 5 5 5 5 5 5 5 5 5 5 5 5 5 5 5 5 5 5 5 5 5 5 5 5 5 5 5 5 5 5 5 5 5 5 5 5 5 5 6 5 5 6 5 5 5 5 5 6 5 5 5 5 5 5 5 5 5 5 5 6 5 5 6 5 6 5 5 5 5 6 5 5 6 5 5 5 6 6 5 6 5 6 5 6 6 5 6 5 5 5 6 5 5 5 5 5 6 5 5 6 6 5 6 5 5 5 5 5 5 5 5 5 6 5 5 6 5 5 6 5 5 6 6 6 5 5 6 5 5 6 5 6 6 5 5 6 5 5 6 6 5 5 5 5 6 5 5 5 5 6 5 5 5 5 5 5 5 5 5 5 5 6 5 5 5 5 5 5 6 5 6 5 5 5 6 5 6 5 5 5 6 5 5 5 5 5 5 5 6 5 5 5 6 5 5 5 6 5 5 5 5 5 5 5 5 5 5 5 5 5 5 5 5 5 5 5 5 5 5 5 5 5 5 5 5 5 5 6 5 5 5 5 6 5 5 6 5 5 5 5 5 5 6 5 5 5 6 5 5 5 5 5 5 5 5 5 5 6 5 6 6 5 5 5 6 5 5 5 5 5 5 5 5 5 6 5 5 5 5 5 6 5 5 5 5 6 5 5 5 6 6 5 5 5 5 6 5 5 5 5 5 5 6 5 5 5 5 5 5 5 5 5 5 5 6 5 5 5 5 6 6 5 5 5 5 5 6 5 6 5 5 6 5 6 5 5 5 5 6 5 5 6 5 5 5 6 5 5 5 5 5 5 5 5 5 5 5 5 5 5 5 5 5 5 5 6 5 6 5 5 5 5 5 5 5 5 5 5 5 5 5 5 5 5 5 5 5 5 5 5 5 5 5 5 5 5 5 5 5 5 5 5 5 6 6 5 5 5 5 5 5 5 5 5 6 5 5 5 5 5 5 5 6 5 5 5 5 5 5 5 5 5 5 5 5 5 5 5 5 5 5 5 5 5 5 5 5 5 5 5 5 5 6 5 5 5 5 5 5 5 5 6 5 5 5 6 5 5 5 6 5 6 5 5 5 5 5 5 6 5 5 5 5 5 5 5 5 5 5 6 6 5 5 6 5 5 5 5 6 5 5 6 5 6 5 5 5 5 5 5 5 6 6 5 5 5 5 5 5 5 5 5 5 5 5 5 5 5 5 5 5 5 5 5 5 5 6 5 5 5 5 5 5 6 5 5 5 5 5 5 6 5 5 5 5 5 5 5 5 5 5 5 5 5 5 6 6 5 5 5 5 5 6 5 5 5 5 5 5 5 6 5 5 5 6 5 5 5 5 5 5 5 5 6 5 6 6 5 5 5 5 6 5 6 6 6 5 5 5 5 6 5 5 6 5 5 6 5 5 5 5 5 5 5 5 5 5 5 5 5 5 5 5 5 5 6 5 5 5 5 5 5 6 5 5 5 5 5 5 5 5 5 5 6 5 5 5 5 5 5 6 5 5 5 5 5 5 5 5 5 5 5 5 5 5 5 6 5 5 5 5 5 5 6 5 5 5 5 5 5 5 6 5 5 6 5 5 5 5 6 6 5 5 5 5 5 5 5 5 5 6 5 5 5 5 5 5 5 5 5 5 5 5 5 5 6 5 5 5 5 5 5 5 5 5 5 5 5 5 6 5 5 5 5 5 5 5 5 5 5 5 6 5 6 5 6 5 5 5 5 5 6 5 5 5 5 5 5 5 5 5 5 6 6 5 5 6 5 6 5 5 5 5 5 5 5 5 5 5 5 5 5 5 5 5 5 5 5 5 6 5 5 6 5 5 5 5 5 5 5 5 5 5 5 6 5 6 5 5 5 5 5 5 5 5 6 5 5 5 5 5 5 5 6 5 5 6 5 5 5 5 5 5 6 5 5 5 6 5 5 6 5 6 5 6 5 5 5 6 5 5 5 5 5 5 5 5 6 5 5 6 6 5 5 6 5 5 6 5 5 5 5 5 5 5 5 5 5 5 5 5 5 5 5 5 5 5 5 6 5 5 5 5 5 5 6 5 5 5 5 6 5 5 5 5 5 5 6 5 5 5 5 5 5 5 5 5 5 5 5 5 5 5 5 5 5 5 5 5 5 5 5 5 5 5 5 5 5 5 5 5 5 5 5 5 5 5 5 5 6 5 5 5 5 5 6 5 5 5 5 5 6 6 5 5 5 5 5 5 5 5 5 5 5 5 5 6 5 5 6 5 5 5 5 5 5 5 5 5 5 5 5 6 5 5 6 5 5 5 5 5 5 5 5 5 5 5 5 5 5 5 5 5 5 5 5 5 5 5 5 5 5 5 5 5 5 5 5 5 5 5 5 5 6 5 5 5 5 5 5 5 5 5 5 5 5 5 5 5 5 5 5 5 5 5 5 5 5 5 5 5 5 5 5 5 5 5 5 5 5 5 5 5 5 5 5 5 5 5 5 5 5 5 5 5 5 5 5 5 5 5 5 5 5 5 5 5 5 5 5 5 5 5 6 5 5 5 5 6 5 5 5 5 5 5 5 5 5 5 5 5 5 5 5 5 5 5 5 5 6 5 5 5 5 5 5 5 5 5 5 5 5 5 5 5 5 5 5 6 5 5 5 5 6 5 5 5 5 5 5 6 6 5 5 5 5 5 5 6 5 5 5 5 6 6 5 5 5 5 6 5 5 5 5 6 6 6 5 5 5 5 5 6 5 5 5 5 6 5 5 5 5 5 5 5 5 5 5 5 6 5 5 6 5 5 5 5 5 5 5 5 5 5 5 5 5 5 5 6 5 5 5 5 5 5 5 5 5 6 5 5 6 6 5 5 5 5 5 5 6 5 5 5 6 5 5 5 6 5 5 5 6 5 5 5 6 6 5 5 6 5 5 5 5 6 5 5 5 6 5 6 5 5 5 6 6 5 5 5 5 5 5 5 6 5 5 5 6 6 5 6 5 5 6 5 5 5 5 5 5 5 5 5 6 6 5 5 5 5 5 6 5 5 5 6 5 5 6 5 5 5 5 5 5 5 6 5 5 5 5 6 6 5 5 6 5 5 5 5 6 5 5 5 5 5 5 6 5 5 5 5 5 5 5 5 6 5 5 5 5 5 5 5 5 5 5 5 5 6 5 5 5 5 5 5 5 5 5 5 5 5 5 5 5 5 5 5 5 5 5 5 5 5 5 6 5 5 5 6 5 5 5 5 5 6 5 6 5 5 5 5 5 5 5 5 5 5 5 5 5 5 5 5 5 5 5 5 5 5 6 5 5 5 5 6 5 5 5 5 6 5 5 5 5 5 5 5 6 5 5 5 5 5 5 5 5 5 5 5 5 5 5 5 5 5 5 6 5 6 5 5 5 5 5 6 5 5 5 5 5 5 5 6 5 5 5 5 5 5 5 5 5 5 5 5 5 5 5 5 5 5 5 5 5 5 5 5 5 5 5 5 5 5 5 5 5 5 5 5 5 5 5 5 5 6 5 5 5 5 5 5 5 5 5 6 5 5 6 5 5 5 5 5 5 6 5 6 5 6 6 6 5 6 5 6 6 5 6 5 5 5 5 5 5 5 5 5 5 5 5 5 5 5 5 5 5 6 5 5 5 5 5 5 5 5 5 5 5 5 5 6 5 5 5 5 5 5 5 5 5 5 6 6 5 5 5 6 6 5 5 6 5 5 5 5 5 5 5 5 6 5 5 6 5 5 6 5 5 5 5 5 5 5 5 5 5 5 5 5 5 5 5 5 5 5 5 5 5 5 5 5 5 5 5 5 5 5 5 5 5 5 5 5 5 5 5 5 5 5 5 6 5 5 5 5 5 5 5 5 5 6 5 5 5 6 5 5 5 5 5 5 5 5 5 5 5 5 5 5 5 5 5 5 5 5 5 5 5 5 5 5 5 5 5 5 5 6 5 5 5 5 5 5 6 5 5 5 5 5 5 5 5 5 5 5 6 5 6 5 5 5 5 5 5 5 5 5 5 6 5 5 6 5 5 5 5 5 5 5 5 5 5 5 5 5 5 5 5 5 5 5 5 5 5 6 5 5 5 5 6 5 5 5 5 5 5 6 5 5 5 5 5 5 5 5 5 5 5 5 5 5 5 5 5 5 5 5 5 5 5 5 5 6 5 5 5 5 6 5 5 5 5 6 5 5 6 6 5 5 5 5 5 5 5 6 5 5 5 6 5 5 5 6 5 5 5 5 5 5 6 5 5 5 5 6 5 5 5 5 6 5 5 6 5 6 6 5 5 5 5 5 5 5 5 5 5 5 5 6 6 5 5 5 6 5 5 5 5 5 5 5 5 5 5 6 5 5 5 5 5 5 6 5 5 5 5 5 5 5 5 5 5 5 5 5 5 5 5 5 5 5 5 5 5 5 5 5 5 5 5 6 5 5 5 5 5 5 5 5 6 5 5 6 5 5 5 5 5 6 5 5 6 5 5 5 5 5 5 6 5 5 5 5 5 5 5 5 5 5 5 5 5 5 5 5 6 5 5 5 6 5 5 5 5 5 5 5 5 5 5 5 5 5 5 5 5 5 5 5 5 5 5 5 6 5 6 5 5 5 5 5 5 5 5 5 5 5 5 5 5 5 5 5 5 5 5 5 5 5 5 5 5 6 5 5 5 6 6 5 5 5 5 5 5 5 5 5 5 5 5 6 5 5 5 6 5 5 5 6 5 5 5 6 5 5 5 5 5 5 5 5 6 5 5 6 5 5 5 5 5 5 6 5 5 5 5 5 5 5 5 6 5 6 6 6 5 6 5 5 6 5 5 5 5 5 5 5 5 5 6 6 5 5 5 6 5 6 5 5 5 5 5 5 5 6 5 5 5 5 5 5 5 5 5 5 5 5 5 6 5 5 6 5 5 6 5 5 5 5 5 5 5 5 5 5 5 5 5 6 5 5 5 5 5 5 5 5 5 5 5 5 6 5 5 5 5 5 5 5 5 5 5 5 5 5 5 6 5 6 5 5 5 5 5 5 5 5 5 5 5 5 5 5 5 5 5 5 5 5 6 5 5 5 6 5 5 5 6 5 5 5 5 6 5 5 5 6 5 6 5 6 6 5 5 5 5 5 5 5 6 5 5 5 5 5 5 6 6 5 5 5 5 5 5 5 5 5 5 5 5 5 5 5 5 5 5 5 5 5 5 5 5 5 5 5 5 5 5 5 5 5 5 5 5 5 5 5 5 5 5 5 5 5 5 5 5 5 5 5 5 5 5 5 5 5 5 5 5 5 5 5 5 5 5 5 5 5 5 5 5 5 5 5 5 5 5 5 5 5 5 5 5 5 5 5 5 5 5 5 5 5 5 5 5 5 5 5 5 5 5 5 5 5 5 5 5 5 5 5 5 5 5 5 5 5 5 5 5 5 5 5 5 5 5 5 5 5 5 5 5 5 5 5 6 6 5 5 5 6 5 6 5 5 5 6 5 5 5 5 5 5 5 6 5 5 5 5 6 5 5 5 5 5 5 6 6 5 5 5 5 5 5 5 5 5 5 5 5 6 5 5 5 5 5 5 5 5 6 5 5 5 5 5 5 5 5 5 5 5 5 5 6 6 5 5 5 5 5 6 5 5 5 5 5 5 5 5 6 6 5 5 5 5 5 5 5 6 5 5 5 5 5 5 5 5 5 5 5 5 5 5 5 5 5 5 5 5 5 5 5 5 5 5 5 5 5 5 5 5 5 5 5 5 5 5 5 5 5 5 5 5 5 5 5 5 5 5 5 5 5 5 5 5 5 5 5 5 5 5 5 5 5 6 5 5 5 5 6 6 5 5 6 5 6 6 5 5 5 5 5 5 5 6 5 5 5 5 5 5 5 6 5 5 6 6 5 5 5 5 5 5 5 5 5 5 5 5 5 5 6 5 5 5 5 6 5 5 5 5 6 5 5 5 5 5 6 5 5 6 5 5 5 5 5 5 5 5 5 5 5 5 6 5 5 6 5 5 5 5 5 5 6 5 5 5 6 5 5 5 5 6 5 5 5 5 5 6 5 5 5 5 5 5 5 5 5 5 6 5 5 5 5 5 5 5 5 5 5 5 5 5 6 5 5 5 5 5 5 5 5 5 6 5 5 5 5 5 5 5 5 5 5 5 5 5 5 5 6 5 5 5 6 5 5 5 5 5 5 5 5 5 5 5 5 5 5 5 5 5 6 5 5 6 5 6 5 6 5 6 5 5 5 6 5 5 6 5 5 6 5 5 5 5 5 6 5 5 6 5 5 5 5 5 5 5 6 6 5 5 5 5 5 5 5 6 5 5 5 5 5 5 5 5 5 5 5 5 5 5 5 5 5 5 5 5 5 5 5 5 5 5 5 5 5 5 5 5 5 5 5 5 5 5 5 5 5 5 5 5 5 5 5 5 5 5 5 5 5 5 5 5 5 5 5 5 5 5 5 5 5 5 5 5 5 5 5 5 5 5 5 5 5 5 5 5 5 5 5 5 5 5 5 5 5 5 5 5 5 5 5 5 6 5 5 5 5 5 6 5 5 5 5 5 5 5 5 5 5 5 5 6 5 5 5 5 5 5 6 5 5 5 5 5 5 6 5 5 5 6 5 5 5 5 5 5 5 5 5 5 5 6 5 5 5 6 5 5 5 5 5 5 5 5 5 5 5 6 5 5 5 6 5 5 5 6 5 5 5 5 5 5 5 5 5 5 5 5 5 5 6 5 5 5 6 5 5 6 5 5 5 5 5 5 5 5 5 5 5 5 5 5 5 5 5 5 5 5 5 5 5 5 5 5 5 5 5 5 5 5 5 5 5 5 5 5 5 5 5 5 5 5 5 5 5 5 5 5 5 5 5 5 5 5 6 5 5 5 5 6 5 5 5 5 6 5 5 5 5 5 5 5 5 5 5 5 5 5 5 5 5 5 5 5 5 5 5 5 5 5 5 5 5 5 5 5 5 5 5 5 5 5 5 5 5 5 5 5 5 5 5 5 5 5 5 5 5 5 5 5 5 5 5 5 5 5 5 6 5 5 6 5 5 5 6 5 5 6 5 5 5 6 6 5 5 5 5 5 5 6 5 6 6 5 5 5 5 6 5 5 5 5 5 5 5 5 5 5 6 5 5 5 5 5 5 6 5 6 5 5 5 5 5 5 6 5 5 5 5 5 5 5 5 5 5 5 5 5 5 5 5 5 5 6 5 5 5 5 5 5 5 5 5 5 5 5 5 5 5 5 5 5 6 5 5 5 5 6 5 5 5 6 5 5 5 5 5 5 6 5 5 5 6 5 5 6 5 5 5 5 5 5 5 5 5 5 5 5 6 5 6 5 5 5 5 5 5 5 5 5 6 5 5 5 5 5 5 5 6 6 5 5 6 6 5 5 6 6 5 6 6 5 5 5 6 5 5 5 5 5 6 6 5 5 5 5 5 5 5 5 5 5 5 5 5 5 5 5 5 6 5 5 5 5 5 5 5 5 5 5 5 6 5 5 5 5 6 5 5 5 6 5 5 5 5 5 5 5 5 6 5 5 5 6 5 5 5 5 5 5 5 5 5 5 5 5 5 5 5 5 5 5 5 5 5 5 5 5 5 5 5 5 6 5 5 6 5 5 5 5 6 5 5 5 5 5 5 6 5 5 5 5 5 5 5 5 5 5 5 5 5 6 5 5 5 5 5 5 5 5 5 5 5 5 5 5 5 5 5 5 5 5 6 5 5 5 5 6 5 5 6 6 5 5 5 5 5 6 5 5 5 5 5 5 5 5 5 5 5 6 5 5 5 5 5 5 6 5 5 5 5 5 5 5 5 5 5 5 5 5 5 5 5 5 5 6 6 5 5 5 5 5 5 5 5 5 5 5 5 5 5 5 5 6 5 5 6 5 5 5 5 5 5 5 5 5 5 5 5 5 5 5 5 5 5 5 5 5 6 5 5 6 5 5 5 6 5 5 5 5 5 6 6 5 5 5 5 6 5 5 6 5 5 5 5 5 5 5 5 5 6 5 6 5 5 5 5 5 5 5 5 5 6 5 5 5 5 5 6 5 5 5 5 5 5 5 5 5 5 5 6 5 5 5 5 6 6 5 5 5 5 5 5 5 5 5 5 6 5 5 5 5 5 6 5 5 5 6 5 5 5 5 5 5 5 5 5 5 5 5 5 5 5 5 5 5 5 5 5 6 5 5 6 6 5 5 5 6 5 5 6 5 5 5 5 5 5 5 5 5 5 5 5 5 5 6 5 5 5 6 5 5 5 5 5 5 5 5 5 5 5 5 5 5 5 5 5 6 5 6 5 5 5 5 5 5 5 5 5 5 5 5 5 5 5 5 6 5 5 5 6 5 5 5 6 6 6 5 5 6 5 5 5 5 6 5 5 5 6 5 5 5 5 5 5 6 5 5 5 5 5 5 5 5 5 6 5 5 5 5 5 5 5 5 6 5 5 5 5 5 5 5 5 5 5 5 6 5 5 6 5 5 6 5 5 5 6 5 5 5 5 5 5 5 5 5 5 5 5 5 5 5 5 5 6 5 5 6 6 5 6 5 5 5 5 6 5 5 5 5 5 5 5 5 5 5 5 5 5 5 5 5 5 5 6 5 5 5 5 5 5 5 5 5 5 5 5 5 5 5 5 5 5 5 5 5 5 5 5 5 5 5 5 5 5 5 5 5 5 5 5 5 5 5 5 6 5 5 5 5 5 5 5 6 5 5 6 5 5 5 5 5 5 5 5 5 5 5 5 5 5 5 5 5 5 5 5 5 6 5 5 5 5 5 5 5 6 5 5 5 5 5 6 5 5 5 5 5 5 5 5 5 5 5 6 5 5 6 5 5 5 5 5 5 5 6 5 5 5 5 5 5 5 5 5 5 5 5 5 6 5 5 5 5 5 5 5 5 5 5 6 5 5 5 5 5 5 5 5 5 5 6 5 6 5 5 5 5 5 6 5 5 5 5 5 6 5 5 5 6 5 5 6 5 6 5 5 5 5 5 5 5 5 5 5 5 5 5 5 5 5 5 5 5 5 6 5 6 5 5 5 5 5 5 5 5 5 5 5 5 5 5 5 6 5 5 6 5 5 5 5 5 5 5 5 5 6 5 5 5 5 6 5 5 5 6 5 5 5 6 5 5 6 6 5 5 5 6 5 5 6 5 5 6 5 6 5 5 5 5 5 6 5 5 5 6 5 5 5 6 5 6 5 5 6 5 5 5 5 5 5 6 5 5 5 5 6 5 5 5 6 5 6 5 5 5 5 5 5 5 5 6 5 5 5 5 5 5 5 5 5 5 5 5 5 5 5 5 5 5 5 6 5 5 5 5 6 5 5 5 6 5 5 5 6 5 5 5 5 5 5 5 5 6 5 5 5 5 5 5 5 5 5 5 6 5 5 5 5 6 5 5 5 5 5 6 5 6 5 5 5 5 5 5 5 5 5 5 5 5 5 5 5 5 5 5 5 5 5 5 6 5 6 6 5 5 5 5 5 5 5 5 5 5 5 5 5 5 5 6 5 5 5 5 5 6 5 5 5 5 5 5 6 5 5 5 5 5 5 5 5 5 5 5 5 5 5 6 5 5 5 5 5 5 5 5 5 5 5 5 5 5 5 5 5 5 5 5 5 5 5 6 6 5 5 5 6 6 5 5 5 5 5 5 5 5 5 5 5 6 5 5 5 5 5 5 5 5 6 5 5 6 5 5 6 5 5 5 5 5 5 5 5 5 5 5 6 5 5 5 5 5 5 5 5 5 5 5 5 5 6 5 5 5 5 6 5 5 5 5 5 6 5 5 5 5 5 5 5 5 5 5 5 5 5 5 5 5 5 5 5 5 5 5 5 5 5 5 5 5 5 5 5 5 5 5 5 5 5 5 5 5 5 5 5 5 5 5 5 5 5 5 5 5 5 5 5 5 5 5 5 5 5 5 5 5 5 5 5 5 5 5 5 5 5 5 5 5 5 5 5 5 5 5 5 5 5 5 5 5 5 5 5 5 5 5 5 5 5 5 5 5 5 5 5 5 5 5 5 5 5 5 5 5 5 5 5 5 5 5 5 5 5 5 5 5 5 5 5 5 5 5 5 5 5 5 5 5 5 5 5 5 5 5 5 5 5 5 5 5 5 6 5 5 5 5 5 5 5 5 5 5 5 5 5 5 5 5 5 5 5 5 5 5 5 5 5 5 5 5 5 5 5 5 5 6 5 5 5 5 6 6 5 5 5 5 5 5 5 5 5 6 5 5 5 5 5 5 5 6 5 5 5 5 5 5 5 5 5 5 5 5 5 5 5 5 5 5 5 5 5 5 5 5 5 5 5 5 5 5 5 5 6 5 6 5 5 5 5 5 6 6 5 5 5 5 5 5 5 5 5 5 6 5 5 5 6 5 5 5 5 5 5 5 5 5 5 5 5 6 5 5 5 5 6 5 5 5 5 5 5 5 5 5 5 5 5 5 5 5 5 5 5 6 5 6 5 5 6 5 5 5 5 6 5 6 5 5 5 5 5 5 5 5 5 5 5 6 5 5 5 5 5 6 6 5 5 5 5 5 6 5 5 5 5 5 5 5 5 5 5 5 5 5 5 5 5 5 5 6 5 5 6 5 5 6 5 5 5 5 5 5 5 5 6 6 5 5 6 5 5 5 5 5 5 5 5 5 5 5 5 5 5 5 5 5 5 5 5 5 5 5 5 5 5 5 5 5 5 6 5 5 6 5 5 6 5 6 5 5 6 5 5 6 5 6 5 5 5 5 5 5 5 5 5 5 6 5 5 5 5 5 5 5 5 6 5 5 5 5 5 6 6 5 5 5 6 5 5 6 5 5 5 5 5 6 5 5 5 6 5 5 5 5 5 5 5 6 5 5 6 6 5 5 5 5 5 6 5 5 5 5 5 6 5 5 5 5 5 5 6 5 5 6 5 5 5 5 6 5 5 5 5 6 5 5 5 6 5 5 5 5 5 5 6 5 5 5 5 5 5 5 5 5 5 5 5 5 5 5 5 5 5 5 5 5 6 5 6 6 5 5 5 6 5 5 5 5 5 5 5 5 5 6 5 5 5 6 5 5 5 5 5 5 5 5 5 5 5 6 5 5 5 6 5 5 5 5 5 5 5 5 5 5 5 5 5 5 5 5 5 5 5 5 5 5 5 5 5 5 5 6 5 5 5 5 5 5 5 5 5 5 5 5 6 5 5 5 5 5 5 5 6 5 5 6 5 5 5 5 5 5 5 5 6 6 5 5 6 5 6 5 5 5 5 5 5 5 5 5 5 5 5 5 5 5 5 5 6 5 5 5 6 5 6 5 5 5 5 6 5 6 5 5 5 5 5 5 5 5 5 5 5 5 5 5 5 5 5 5 5 5 5 5 5 5 5 5 5 5 6 5 5 5 6 5 5 5 5 6 5 5 5 5 5 5 5 5 5 5 5 5 5 5 5 5 5 5 5 5 5 5 5 5 5 5 5 5 5 5 5 5 5 5 5 5 5 5 5 5 5 5 5 5 5 5 5 5 5 5 5 5 5 5 5 5 5 5 5 5 5 5 5 5 5 5 5 5 5 5 5 5 5 5 5 5 5 5 5 5 5 5 5 5 5 5 5 5 5 5 5 5 5 5 5 5 5 5 5 5 5 5 5 5 5 5 5 5 5 5 5 5 5 5 5 5 5 5 5 5 5 5 5 5 5 5 5 5 5 5 5 5 5 5 5 5 5 5 5 5 5 5 5 5 5 5 5 5 5 5 5 5 5 5 5 6 5 5 5 5 5 5 5 5 5 5 5 5 5 5 5 5 5 5 5 5 5 5 5 5 5 5 5 5 5 5 5 5 5 5 5 5 5 5 5 6 5 5 5 5 5 5 5 5 5 5 5 5 5 6 5 5 5 5 6 6 5 5 5 6 5 5 5 5 5 5 5 5 5 5 5 5 5 5 5 5 6 5 5 5 5 5 5 5 5 5 5 5 5 5 6 5 5 5 5 5 5 5 6 6 5 5 5 5 5 5 5 5 6 6 5 5 5 5 5 5 5 5 5 5 5 6 5 5 5 6 5 5 6 5 5 6 5 5 5 5 5 5 5 5 5 5 5 6 6 5 5 5 6 5 5 5 5 5 5 5 5 6 5 5 5 5 6 6 5 5 5 5 5 5 5 5 5 6 5 5 5 5 5 6 5 5 6 5 5 5 5 5 5 6 5 6 5 5 5 5 5 5 5 5 6 5 6 5 5 5 5 5 5 5 5 5 5 5 6 5 5 5 5 5 5 5 5 5 5 5 5 6 5 5 5 5 5 5 5 5 5 5 5 5 5 5 6 5 5 5 5 6 5 5 5 5 5 6 5 5 5 5 5 5 5 5 5 6 5 5 5 5 5 5 6 5 5 5 5 5 5 6 5 5 5 5 5 5 5 5 5 5 5 5 5 5 5 5 5 5 5 6 5 6 5 5 5 5 5 5 5 5 5 5 5 5 5 5 5 5 5 5 6 5 5 5 5 5 5 5 6 5 5 5 5 5 5 5 5 5 5 5 5 5 6 6 5 5 5 5 5 5 5 5 5 5 5 5 5 5 5 5 5 5 5 5 5 5 5 5 5 5 6 5 5 5 5 5 6 5 5 5 5 5 5 5 5 5 5 5 5 5 5 5 5 5 5 5 5 5 5 5 6 5 5 5 5 5 5 5 5 6 5 5 5 5 5 5 5 5 5 6 5 5 6 5 5 5 5 5 5 5 6 5 5 5 5 6 5 5 5 5 6 5 5 5 5 5 5 5 5 6 5 6 5 5 6 5 6 5 5 5 5 6 5 5 5 6 5 5 5 6 5 5 5 6 5 5 5 5 5 5 5 5 5 5 5 5 6 5 5 5 5 5 6 5 5 5 5 5 5 5 5 5 5 5 5 5 5 5 5 5 6 5 5 5 5 5 5 5 5 5 5 6 5 5 5 5 5 6 5 5 5 6 5 5 5 5 5 5 5 5 5 5 5 5 5 5 5 5 6 5 5 6 5 5 5 6 5 5 5 5 6 5 5 5 5 6 6 5 5 5 6 5 5 6 5 5 5 5 6 5 5 5 5 5 5 5 5 5 5 5 5 5 5 5 5 5 5 5 5 5 5 5 5 5 5 5 5 5 5 5 5 5 5 5 5 5 5 5 5 5 5 5 5 5 5 5 5 5 5 5 5 5 5 5 5 5 5 5 5 5 5 5 5 5 5 5 5 5 5 5 5 5 5 6 5 6 5 5 5 5 5 6 5 5 5 5 6 5 5 5 5 5 5 5 5 5 6 5 5 5 5 5 5 5 5 5 5 5 5 5 5 5 5 5 6 5 5 5 5 5 5 5 5 5 5 5 5 5 5 5 5 5 5 5 5 5 5 5 5 5 5 5 5 5 5 5 5 5 5 5 5 5 6 5 5 5 5 5 5 5 6 5 5 6 5 5 5 5 5 5 5 5 5 5 5 5 5 5 6 5 5 5 6 5 5 5 5 5 6 5 5 5 5 5 5 6 5 5 5 5 5 6 5 6 5 5 5 5 5 5 5 5 5 5 5 6 5 5 5 5 5 5 6 5 5 5 5 6 5 6 5 6 5 5 5 6 5 5 5 5 5 5 5 5 5 5 5 5 5 6 5 5 5 5 6 5 5 5 5 5 5 5 5 5 5 5 6 5 6 5 5 5 6 5 5 5 5 6 5 5 5 5 5 5 6 6 5 5 5 5 5 5 5 5 5 5 5 5 5 5 5 6 5 5 5 5 5 6 6 5 5 5 6 5 6 5 5 5 5 5 6 5 5 6 5 5 5 5 5 6 5 5 5 6 5 5 6 5 6 5 5 5 5 5 6 5 5 5 5 5 5 5 5 5 6 5 5 5 5 5 5 5 5 5 5 5 5 6 5 5 5 5 5 5 5 5 5 6 5 5 5 5 5 5 5 5 5 5 5 5 5 5 5 5 5 6 5 5 5 6 5 5 5 5 5 5 5 5 5 5 5 5 5 5 5 5 5 5 5 5 5 5 5 5 5 5 5 5 5 5 5 5 5 5 5 6 5 5 5 6 5 5 5 5 5 5 6 5 6 5 5 5 6 5 5 5 5 5 5 5 5 6 5 5 5 5 5 5 5 5 5 5 5 5 5 5 5 5 5 6 5 5 5 5 5 5 5 6 5 5 6 5 5 5 5 5 5 6 5 6 5 5 6 5 5 6 5 6 6 5 5 5 5 6 5 5 5 5 5 5 5 5 5 5 5 6 6 5 5 5 6 5 5 5 6 6 5 5 5 5 5 5 5 5 5 6 5 5 5 5 5 5 5 5 5 5 5 5 6 6 5 6 5 5 6 5 5 5 6 6 6 5 5 5 5 6 5 5 6 5 5 5 6 5 5 5 5 5 5 5 6 5 5 5 6 5 5 5 5 5 5 6 5 5 5 5 5 5 5 5 5 5 6 5 5 5 5 5 5 5 5 5 5 5 5 5 5 5 5 5 5 5 5 5 5 5 5 5 5 5 5 5 6 5 5 5 6 5 5 6 5 6 5 6 6 5 5 5 5 5 5 5 5 5 5 5 5 6 6 5 5 5 5 5 5 5 5 5 5 5 5 5 5 5 5 5 5 5 5 5 5 5 5 5 6 5 5 5 5 5 5 5 5 5 5 5 5 5 5 5 5 6 5 5 6 5 5 5 5 5 5 5 5 5 5 6 5 6 5 5 5 6 5 5 5 5 5 6 5 5 6 5 5 5 5 5 5 5 5 5 5 5 5 5 5 5 5 5 5 5 5 5 5 5 5 5 5 5 5 5 5 5 5 5 5 5 5 5 5 5 5 5 5 5 5 5 5 5 5 5 5 5 5 5 5 6 5 5 5 6 5 5 5 5 5 5 5 5 5 5 5 5 5 5 5 5 5 5 5 5 5 5 5 5 5 5 5 5 5 5 5 6 5 5 6 5 6 5 5 5 6 5 5 5 5 6 5 5 5 5 5 5 5 5 5 6 5 5 5 5 5 5 5 6 5 6 5 5 5 5 6 5 5 6 5 5 5 5 6 5 5 5 6 5 5 5 5 5 5 5 5 5 5 5 5 6 5 5 5 5 5 5 5 5 5 5 5 5 5 5 5 5 5 5 5 5 5 5 5 5 5 5 5 6 5 5 5 5 5 5 5 6 6 5 5 5 5 5 5 5 5 5 5 5 5 5 5 5 5 5 5 5 5 5 5 5 5 5 5 5 5 5 5 5 5 5 5 5 5 5 5 5 5 5 5 5 5 5 5 5 6 5 5 5 5 5 6 5 5 6 5 5 5 5 5 6 5 6 5 5 5 5 5 5 5 5 5 6 5 5 5 5 6 5 6 5 5 5 5 5 5 6 5 5 5 5 5 6 5 5 5 5 5 5 5 5 5 5 5 5 5 5 5 5 5 5 5 5 5 5 5 5 5 5 5 5 5 5 5 5 5 5 5 5 5 6 5 5 5 5 5 6 5 5 5 6 5 5 5 5 5 5 5 6 5 6 6 5 5 5 5 5 5 5 5 5 5 5 5 5 5 5 5 5 5 5 5 5 5 5 5 5 5 5 5 6 5 5 6 5 5 6 5 5 5 6 5 5 5 5 5 5 5 5 5 5 5 5 5 5 5 5 5 5 5 5 5 5 5 5 5 5 5 5 6 5 5 6 5 5 6 5 5 6 5 6 5 6 5 5 5 6 5 5 5 6 5 5 6 5 5 5 5 6 5 5 6 6 5 5 5 5 5 5 5 5 5 5 5 5 6 5 6 5 5 6 5 5 6 5 5 5 5 6 5 6 5 5 5 5 6 5 5 6 6 5 5 5 5 5 5 5 5 6 5 6 5 6 5 5 5 5 6 5 5 5 6 5 6 5 5 5 5 5 5 5 5 5 5 5 5 5 5 5 5 5 5 5 5 5 5 5 5 5 5 5 6 5 5 5 5 5 5 6 5 5 5 5 5 5 5 5 5 5 5 5 5 5 5 5 5 5 5 5 5 5 5 5 5 5 5 5 5 5 5 5 5 5 5 5 5 5 5 6 5 5 5 5 6 5 5 6 5 5 5 5 6 5 5 5 5 5 5 6 5 5 5 5 5 5 5 5 6 5 6 5 5 5 5 5 6 5 6 5 5 5 5 5 6 5 5 5 5 5 5 5 5 5 5 6 5 5 5 5 5 5 5 5 5 5 5 5 5 5 5 5 5 5 6 5 5 6 5 5 5 5 5 5 5 5 5 6 5 5 5 5 5 5 5 5 5 5 5 5 5 5 5 5 6 5 5 5 5 6 5 5 6 5 5 5 5 5 5 6 5 5 5 5 5 5 6 5 5 5 5 5 5 5 5 6 5 5 5 5 5 5 5 5 5 5 5 6 5 5 5 5 5 5 6 5 5 6 5 5 5 5 5 5 5 5 5 5 5 5 5 5 5 5 5 5 5 5 5 5 5 5 5 5 5 5 5 5 5 5 5 5 5 5 5 5 5 5 5 5 5 5 5 5 5 5 5 5 5 5 5 5 5 5 5 5 5 5 6 5 5 5 5 5 5 5 5 5 5 6 5 5 5 5 5 5 5 5 5 5 5 5 5 5 5 5 5 5 5 5 5 5 5 5 5 6 5 6 5 5 5 5 5 5 5 5 5 5 6 5 5 5 6 5 5 5 5 5 5 5 5 5 5 5 5 5 5 5 5 5 5 5 5 5 6 6 5 5 5 6 5 5 6 5 5 6 5 5 5 5 5 6 5 5 6 5 6 5 5 5 5 5 5 5 5 5 5 6 5 5 6 5 5 5 5 5 5 5 6 5 5 5 6 5 5 5 5 5 6 5 6 5 5 5 5 5 5 5 5 5 6 5 5 5 5 6 6 5 5 5 5 5 5 5 5 5 5 5 5 5 5 5 5 5 5 5 6 5 5 5 5 6 5 5 5 5 5 5 6 5 5 5 5 5 6 5 5 6 6 5 5 5 5 5 6 5 5 6 6 5 5 5 5 5 5 5 5 5 6 6 5 5 5 5 6 5 5 6 6 5 6 6 5 5 6 5 6 6 5 5 5 5 6 5 5 5 5 5 5 5 5 6 5 5 5 5 5 5 5 5 5 5 5 5 5 5 5 5 5 5 5 5 5 5 6 6 5 5 5 5 5 5 5 5 5 5 5 5 5 6 5 5 5 5 5 5 5 5 5 6 5 5 5 5 5 5 6 5 5 6 5 6 5 5 5 5 6 5 6 5 6 5 5 6 6 5 5 5 6 6 5 5 5 5 5 6 5 6 5 5 5 5 5 5 5 5 5 5 5 5 5 5 5 5 5 5 5 5 5 6 5 5 5 6 6 5 5 5 5 5 5 6 6 5 6 5 5 5 6 5 5 5 5 5 5 5 5 5 5 5 5 5 5 5 5 6 6 5 6 6 5 5 6 5 5 6 5 5 5 5 5 5 5 5 5 6 5 5 6 5 5 5 5 5 5 6 5 5 5 5 5 6 6 5 5 6 5 6 5 5 5 5 6 5 6 5 5 6 5 5 5 6 5 6 5 5 5 6 5 5 6 5 5 5 6 5 5 5 6 5 6 5 5 5 5 5 6 6 5 6 6 5 5 5 6 5 6 5 5 6 5 5 5 5 5 6 5 5 5 5 5 5 5 5 6 6 5 5 5 6 6 6 5 5 5 5 5 5 6 5 5 5 5 5 5 5 5 5 5 5 5 5 5 5 5 6 5 5 5 5 5 6 5 5 5 5 5 5 5 5 5 5 5 5 5 5 5 5 5 5 5 5 5 5 5 6 5 6 5 5 5 5 6 5 5 5 5 5 5 5 5 5 5 6 5 5 5 5 5 5 5 5 6 5 5 6 5 5 5 5 6 5 6 5 5 5 6 5 6 5 5 6 6 5 5 5 5 5 5 5 5 5 5 5 5 6 6 5 5 5 6 5 5 5 5 6 5 6 5 5 5 5 6 5 5 6 5 5 6 5 6 5 5 6 5 5 6 5 5 5 5 5 6 5 6 5 5 5 6 5 5 5 5 5 5 5 6 5 5 6 5 5 5 5 5 6 5 5 5 5 5 5 5 5 6 5 5 5 5 5 5 5 6 5 5 5 5 5 5 5 5 5 5 5 5 5 5 5 5 5 5 5 5 6 5 5 6 5 5 5 5 5 5 5 5 5 5 5 6 6 5 5 6 5 5 5 5 5 5 5 5 6 5 5 5 5 5 5 5 6 5 5 5 5 6 5 5 6 5 6 5 6 5 5 6 5 6 5 5 5 5 6 5 5 5 5 5 5 5 5 5 5 5 5 5 5 5 5 6 5 5 5 6 5 5 5 5 5 6 5 5 5 5 6 5 5 6 6 5 5 5 6 5 6 5 6 6 5 5 5 5 5 5 6 5 5 5 6 5 5 5 5 5 5 5 5 5 5 5 6 5 5 5 5 5 6 5 6 5 5 5 6 5 6 5 5 5 5 5 5 5 6 5 5 5 6 5 5 5 5 5 5 5 5 5 5 5 5 5 5 5 5 5 5 5 5 5 5 5 5 6 5 5 5 5 5 5 5 5 5 5 5 5 5 5 5 6 5 5 6 5 5 5 5 5 6 5 5 5 5 5 6 5 6 5 5 5 5 6 5 5 6 5 5 5 5 6 5 6 5 5 5 5 6 6 6 5 5 5 5 5 5 5 6 5 5 5 5 5 6 5 5 5 5 5 5 5 5 5 5 6 5 5 5 5 5 5 5 5 5 5 5 5 5 5 5 5 5 5 5 5 5 5 6 6 6 5 5 5 5 5 5 5 6 5 5 5 5 5 6 5 5 5 5 5 5 6 5 5 5 5 6 5 5 5 5 5 5 5 5 5 5 5 5 5 6 5 5 6 5 5 5 5 5 6 5 5 6 6 5 5 5 5 5 5 5 5 5 5 5 5 5 5 5 6 5 5 6 5 5 5 5 5 5 5 5 5 5 6 5 5 5 5 5 5 5 5 5 5 5 5 5 5 5 6 5 5 5 5 5 5 5 6 5 5 5 5 6 5 5 6 5 5 5 5 5 5 5 5 5 5 5 5 5 5 5 5 5 5 5 6 5 5 5 5 6 5 5 5 5 5 5 5 5 5 5 5 5 5 5 6 5 5 5 5 5 5 5 5 5 5 5 5 6 5 5 5 6 5 6 6 5 5 5 5 5 5 6 5 5 5 6 5 6 5 5 5 5 5 5 5 5 6 5 5 5 5 5 6 5 5 5 5 5 5 5 6 5 5 5 6 6 5 5 5 5 5 5 5 5 6 5 5 5 5 5 5 5 5 5 5 5 6 5 5 6 5 5 5 5 5 5 5 5 6 5 5 5 5 5 5 5 5 5 5 5 5 5 5 5 5 5 5 5 5 5 5 5 5 5 5 5 5 5 6 5 5 6 6 5 6 5 5 6 5 5 6 5 5 5 6 5 5 5 5 5 5 5 5 5 5 5 5 5 6 5 5 6 5 6 5 5 5 5 5 5 6 5 5 5 5 6 5 5 5 5 5 6 5 6 5 5 5 5 5 6 6 5 6 5 5 5 5 5 5 5 6 5 5 5 5 5 5 5 5 5 6 5 5 5 5 6 5 5 5 5 5 5 5 5 5 6 5 5 5 5 5 5 5 5 5 5 5 5 5 5 5 5 5 5 5 5 5 5 5 5 5 5 5 5 5 6 5 5 5 5 5 5 5 5 5 6 5 5 6 6 6 5 5 6 5 6 5 5 5 5 5 5 5 5 
</DataArray>
<DataArray type="Float64" Name="stress" NumberOfComponents="9" format="ascii">
4999.8494153233405 351.52969670272898 0 351.52969670272898 -471.28098714834647 0 0 0 0 5507.5535574992973 -167.74870340949076 0 -167.74870340949076 4.4052294684104369 0 0 0 0 5944.192226528392 2687.0771210858979 0 2687.0771210858979 933.78920720011615 0 0 0 0 18.124218147070906 -2.4681166883977426 0 -2.4681166883977426 -0.94980564674634582 0 0 0 0 2687.3517472056556 912.14227228459367 0 912.14227228459367 102.51994920360548 0 0 0 0 4652.3738532165225 -129.97411504393941 0 -129.97411504393941 -975.35580920700443 0 0 0 0 3972.259556284771 1231.2539825074307 0 1231.2539825074307 -125.56641210266059 0 0 0 0 2058.2416943669377 90.774764893705878 0 90.774764893705878 -317.65305107671998 0 0 0 0 1205.7624619436247 38.645749479446096 0 38.645749479446096 -184.67230323776812 0 0 0 0 1.0074398051577873 -6.8721530466442893 0 -6.8721530466442893 1.963938002674064 0 0 0 0 1143.830484764072 302.62034037551541 0 302.62034037551541 -161.44841286227847 0 0 0 0 1128.6522527994821 -440.30916498470583 0 -440.30916498470583 93.605170536627838 0 0 0 0 -192.74045877254684 -93.355925237964584 0 -93.355925237964584 280.05124670396071 0 0 0 0 2225.586134402547 157.71287339785158 0 157.71287339785158 -276.92390384571354 0 0 0 0 2663.4543665400997 421.22512238683908 0 421.22512238683908 -294.06290995211259 0 0 0 0 2087.431076148845 398.07107642881726 0 398.07107642881726 -227.67248184942758 0 0 0 0 1404.7828981846833 882.23059686501335 0 882.23059686501335 362.58261064029642 0 0 0 0 3173.8074642456777 484.79553017033066 0 484.79553017033066 -310.29032360913754 0 0 0 0 1080.5205334190687 359.30314688350313 0 359.30314688350313 89.310524784148129 0 0 0 0 728.33470936949743 40.365786034112261 0 40.365786034112261 137.47521025944434 0 0 0 0 38.331277172897103 -20.18425983929987 0 -20.18425983929987 0.43789612913202192 0 0 0 0 34.549512729223352 -22.011136266200179 0 -22.011136266200179 -9.7947272294209426 0 0 0 0 8.9272396976593882 -58.264573561881278 0 -58.264573561881278 -20.80468518666099 0 0 0 0 2693.131037039595 953.33220903462063 0 953.33220903462063 354.80441537976742 0 0 0 0 34.389735741157438 -12.699295371287377 0 -12.699295371287377 -1.1608388183358958 0 0 0 0 -9.4134871162823401 -35.262102714438406 0 -35.262102714438406 -0.04531830866837247 0 0 0 0 47.0497874679495 -44.587787917781817 0 -44.587787917781817 0.19562517035889748 0 0 0 0 25.295772660014336 -22.20664810548428 0 -22.20664810548428 -17.94676162183125 0 0 0 0 114.97654227631574 31.528137413319282 0 31.528137413319282 121.58195429325829 0 0 0 0 118.87935469215154 -34.428331708464562 0 -34.428331708464562 -23.083184705699949 0 0 0 0 -0.51711525434478745 -0.094991098671130203 0 -0.094991098671130203 0.18607943909166949 0 0 0 0 111.48568572300428 125.70110662557329 0 125.70110662557329 115.00924313532832 0 0 0 0 0.8348676285540364 -0.28181472090621185 0 -0.28181472090621185 0.19704362389528335 0 0 0 0 9.15198740849155 -48.59265722993711 0 -48.59265722993711 -2.2324887657672088 0 0 0 0 163.76434201718075 0.32945790611973247 0 0.32945790611973247 -0.19961486309493862 0 0 0 0 37.793454596307129 41.858776985199967 0 41.858776985199967 34.049666600819137 0 0 0 0 222.51869550906122 42.241613331831971 0 42.241613331831971 -50.317401615970681 0 0 0 0 51.791030741922441 -16.217827719470947 0 -16.217827719470947 -25.482852450769087 0 0 0 0 109.53195266934927 40.03571277170883 0 40.03571277170883 -14.195929403693015 0 0 0 0 92.387734599004034 -24.554140238920468 0 -24.554140238920468 -44.30213734109099 0 0 0 0 62.331544656466576 -49.475495553735584 0 -49.475495553735584 -33.281184760817951 0 0 0 0 17.115769299853127 -23.788065080601097 0 -23.788065080601097 -29.406746567602205 0 0 0 0 3.960930277581042 -0.20433962454541188 0 -0.20433962454541188 -0.08097397925053762 0 0 0 0 -34.822179164402769 -38.428187652425109 0 -38.428187652425109 -66.87831630591154 0 0 0 0 1.825749212235678 -10.951194479462609 0 -10.951194479462609 0.023634727986839035 0 0 0 0 22.79152367709321 -18.006606018921183 0 -18.006606018921183 -62.081221248569555 0 0 0 0 8.7611692420614418 1.186718005369074 0 1.186718005369074 -29.424262876859245 0 0 0 0 3.9818683078348727 1.9921327280528232 0 1.9921327280528232 0.34062510135723212 0 0 0 0 38.446857899474708 28.796977876146983 0 28.796977876146983 11.402756694513158 0 0 0 0 38.406614202438504 1.922102506313081 0 1.922102506313081 -3.1703284396144227 0 0 0 0 38.395387648255564 2.0039399003337621 0 2.0039399003337621 -3.3711008256846071 0 0 0 0 38.58183252235176 1.9171168557046485 0 1.9171168557046485 -3.6681927827467007 0 0 0 0 39.363689599674274 4.1063630025055851 0 4.1063630025055851 -0.49437618131274275 0 0 0 0 14.629330383556692 9.1337976136132681 0 9.1337976136132681 -0.62658019781537533 0 0 0 0 36.408538583651534 23.682423943506421 0 23.682423943506421 5.0343600790211553 0 0 0 0 51.186458168638637 21.792589950487127 0 21.792589950487127 -26.752202313094472 0 0 0 0 24.949740170498501 7.7442041085822666 0 7.7442041085822666 -0.84508373531611736 0 0 0 0 37.173354289356837 7.0926617662619869 0 7.0926617662619869 -1.7451702030189511 0 0 0 0 34.626160415187769 11.390103279926905 0 11.390103279926905 -27.220113058571542 0 0 0 0 34.899359487593344 5.9326227673188612 0 5.9326227673188612 -3.8622462890611704 0 0 0 0 24.693493987695547 17.640702468039308 0 17.640702468039308 -10.32602793315732 0 0 0 0 73.17894618056016 59.035496359776062 0 59.035496359776062 -67.359763021130789 0 0 0 0 52.127613001619466 16.887218449855482 0 16.887218449855482 -52.473214105962143 0 0 0 0 24.004210255567159 14.733968252077148 0 14.733968252077148 -45.376906754204811 0 0 0 0 28.736116558965932 13.962248423589418 0 13.962248423589418 -2.5559865751066777 0 0 0 0 31.858081886181282 13.526414677131015 0 13.526414677131015 -7.468833328790808 0 0 0 0 29.587112274457468 47.974882888280717 0 47.974882888280717 -12.483854241554582 0 0 0 0 -5.3239083968994692 3.0353170137801442 0 3.0353170137801442 1.6825550039195125 0 0 0 0 54.604873740870971 -19.780629327151928 0 -19.780629327151928 -28.669810463588419 0 0 0 0 10.407609227972898 -1.7054866905607469 0 -1.7054866905607469 0.26228184663205689 0 0 0 0 40.054045412223786 -27.472110113029203 0 -27.472110113029203 -32.316735009616252 0 0 0 0 24.773010363542824 -7.4823145977022136 0 -7.4823145977022136 -0.4983529001491544 0 0 0 0 24.46199929841994 -14.502365331213554 0 -14.502365331213554 4.9087776404549972 0 0 0 0 52.580078857397893 -6.7200435495566921 0 -6.7200435495566921 -37.515278383812415 0 0 0 0 44.829373064916581 13.690627620694443 0 13.690627620694443 -20.529430472853562 0 0 0 0 70.112815084590693 -13.777018111557709 0 -13.777018111557709 -36.503439813383864 0 0 0 0 28.161247793061193 4.4017405381385402 0 4.4017405381385402 -20.40063024327219 0 0 0 0 29.464393520291196 5.7963401345621151 0 5.7963401345621151 -19.710580501650838 0 0 0 0 19.581300196816471 2.2757859544172732 0 2.2757859544172732 -4.5409793398765617 0 0 0 0 31.9908262323641 -2.9425094138493009 0 -2.9425094138493009 -1.2972585757884625 0 0 0 0 -0.031516166054643691 3.6913471087449352 0 3.6913471087449352 -10.086539728608614 0 0 0 0 55.044945542642381 -5.6125094002813967 0 -5.6125094002813967 -78.250923463640106 0 0 0 0 21.140439348042491 -2.8339170211022306 0 -2.8339170211022306 -1.3714852589817224 0 0 0 0 23.876713610297884 -7.2600127042011877 0 -7.2600127042011877 -6.8704574635886217 0 0 0 0 16.391688444078397 -12.55273432425231 0 -12.55273432425231 -0.40985464440365016 0 0 0 0 18.990375688328641 -8.2813137288450775 0 -8.2813137288450775 -2.9130467359532197 0 0 0 0 -154.6860007806099 -104.74812426346534 0 -104.74812426346534 94.736004472887998 0 0 0 0 14.924221846682485 -11.049385768604481 0 -11.049385768604481 -15.469888133268171 0 0 0 0 8.6260159706059909 -6.6533085838421471 0 -6.6533085838421471 3.4945634129911363 0 0 0 0 -11.640152652718825 -35.341194804292059 0 -35.341194804292059 16.317101016927154 0 0 0 0 80.622846250829753 -33.166426126860529 0 -33.166426126860529 -72.430716018817293 0 0 0 0 87.138565287092206 49.836440736424265 0 49.836440736424265 70.431719767375853 0 0 0 0 63.24734024470672 -53.255565288815887 0 -53.255565288815887 5.2394988252202808 0 0 0 0 4.4135302759532351 -10.417073583154092 0 -10.417073583154092 -26.224784425760845 0 0 0 0 15.319100300403079 -29.299559907593562 0 -29.299559907593562 3.4181670659793326 0 0 0 0 80.685778462648159 30.122927961177766 0 30.122927961177766 -34.747867138562015 0 0 0 0 -117.76030701502896 48.165130217582316 0 48.165130217582316 205.01180624661356 0 0 0 0 65.475588139349441 22.079439178065343 0 22.079439178065343 -6.3066997614322133 0 0 0 0 61.578185379155912 38.383095856428554 0 38.383095856428554 -16.963302852906054 0 0 0 0 -55.467076846653072 106.1227363808805 0 106.1227363808805 -54.374589491234019 0 0 0 0 1090.8152098147257 -66.946770883314116 0 -66.946770883314116 -3.3404766991264978 0 0 0 0 253.19165670104849 -179.47602931857017 0 -179.47602931857017 100.48023750954212 0 0 0 0 13.710973843742977 18.930613201423739 0 18.930613201423739 10.106981684044513 0 0 0 0 27.485744034808761 15.224067170798193 0 15.224067170798193 -4.798520518720208 0 0 0 0 55.142331124239718 9.314480407508654 0 9.314480407508654 -6.536934858456334 0 0 0 0 5.7970644897356891 2.0327825859139352 0 2.0327825859139352 -0.63032090771402238 0 0 0 0 34.613738442334579 -7.1102262798872289 0 -7.1102262798872289 4.0466505610529566 0 0 0 0 46.650947388407076 13.260599349611766 0 13.260599349611766 -27.133120805735416 0 0 0 0 59.479999724251684 11.237801014965953 0 11.237801014965953 -10.570710946836698 0 0 0 0 38.853419068589574 16.334364366756063 0 16.334364366756063 -14.256275476841893 0 0 0 0 8.92971497765393 19.949508846185154 0 19.949508846185154 11.864691333287738 0 0 0 0 26.06661956873748 13.420343009521361 0 13.420343009521361 -6.5449427745545368 0 0 0 0 67.419188004518219 11.928182099343189 0 11.928182099343189 5.6809047585484223 0 0 0 0 9.9259113043514731 0.20225736726939658 0 0.20225736726939658 -0.49377658071770547 0 0 0 0 61.503939734204323 -1.157881458361544 0 -1.157881458361544 8.7869109681187183 0 0 0 0 21.240696083747025 17.608129521209094 0 17.608129521209094 -10.100207360012064 0 0 0 0 73.198767057256191 8.5513358543576032 0 8.5513358543576032 -10.072500469390434 0 0 0 0 66.496823969398974 16.185922377317638 0 16.185922377317638 -24.793791477508648 0 0 0 0 70.99206729800062 4.6476294865767613 0 4.6476294865767613 -26.341591650198779 0 0 0 0 0.8534401923159578 2.5588323012557623 0 2.5588323012557623 -0.25362237711573599 0 0 0 0 -10.947561189343105 8.6251267366596949 0 8.6251267366596949 20.713118704681165 0 0 0 0 118.05562070930318 -18.014826290553742 0 -18.014826290553742 -7.4567154116634242 0 0 0 0 105.2840598741459 10.849940517208438 0 10.849940517208438 -21.841596732642074 0 0 0 0 85.590054557236726 10.398596590970953 0 10.398596590970953 -3.3561926030633913 0 0 0 0 1.1186059076769084 2.137786081476861 0 2.137786081476861 -0.037753112805652744 0 0 0 0 135.81304287840612 -22.256851530763782 0 -22.256851530763782 -11.667454580286643 0 0 0 0 -37.240787714268663 12.745756184905602 0 12.745756184905602 28.53751253409024 0 0 0 0 271.38859481118561 261.75307135529619 0 261.75307135529619 -15.379203132645785 0 0 0 0 68.734356269404088 49.744023708086601 0 49.744023708086601 -64.928695813821832 0 0 0 0 70.098954630080016 22.817560331054111 0 22.817560331054111 -4.776957034918448 0 0 0 0 83.355937452666694 2.9629896905935311 0 2.9629896905935311 -19.230910587017092 0 0 0 0 101.65303231528378 6.748970535906146 0 6.748970535906146 -30.852457355766091 0 0 0 0 74.627773872678517 -3.4021358551520819 0 -3.4021358551520819 -22.41737015317662 0 0 0 0 91.923197644820902 -4.8004920470126535 0 -4.8004920470126535 -43.460560892556941 0 0 0 0 63.801186425997003 43.578608081941468 0 43.578608081941468 -105.26076185092501 0 0 0 0 80.104198083630763 47.337573238272896 0 47.337573238272896 -184.42733411700848 0 0 0 0 1258.9825425090821 -270.82032739048111 0 -270.82032739048111 40.928588027499131 0 0 0 0 67.911430224362221 20.914991051975292 0 20.914991051975292 -5.4143546768497792 0 0 0 0 750.24695896358753 -669.2611269368598 0 -669.2611269368598 172.99311536624469 0 0 0 0 2669.5319060928014 -1358.6929023197872 0 -1358.6929023197872 204.85418915264319 0 0 0 0 1419.5487329687894 -389.73425490666261 0 -389.73425490666261 -134.64744515008908 0 0 0 0 1095.6338008524417 -814.65496757346909 0 -814.65496757346909 536.97445040164644 0 0 0 0 4998.8959316651308 -1771.0408826242133 0 -1771.0408826242133 -432.35695387120501 0 0 0 0 2677.6959525876882 -1556.4739399203188 0 -1556.4739399203188 807.33079568529445 0 0 0 0 2707.5716654453427 -1310.3968095038658 0 -1310.3968095038658 172.34620494409751 0 0 0 0 2921.3337397530704 -311.29149310155594 0 -311.29149310155594 -683.80619690071478 0 0 0 0 3885.4080553553868 -631.70821601021566 0 -631.70821601021566 -714.43492082093303 0 0 0 0 3682.3269885035406 -320.69361606112727 0 -320.69361606112727 -685.1001511171404 0 0 0 0 2143.0262084895949 51.977272040020807 0 51.977272040020807 78.247769621756561 0 0 0 0 1804.6599728410947 -144.61931123107547 0 -144.61931123107547 -30.890414164059052 0 0 0 0 987.47409822826739 522.05176099242055 0 522.05176099242055 181.38024744977048 0 0 0 0 3.2695509913446585 -0.88913026602908474 0 -0.88913026602908474 0.99027589262600757 0 0 0 0 4.0817674207565489 -0.67253140163629155 0 -0.67253140163629155 0.10435954939249292 0 0 0 0 1212.3647137396911 65.772591070171984 0 65.772591070171984 -99.78281248334298 0 0 0 0 2697.2146324462374 -695.67183565792675 0 -695.67183565792675 -201.84776689852424 0 0 0 0 65.580332741126767 139.68884033177682 0 139.68884033177682 -51.809632439357642 0 0 0 0 360.42676058330835 -101.3843902963566 0 -101.3843902963566 -158.53457275798189 0 0 0 0 344.47803652108996 -101.0879922161739 0 -101.0879922161739 -47.327822417523578 0 0 0 0 1.3664479236157376 0.54903264023376153 0 0.54903264023376153 4.7181592954125771 0 0 0 0 50.193017052981304 -57.858149471516526 0 -57.858149471516526 80.728311128899236 0 0 0 0 63.369042086007539 56.527694457646035 0 56.527694457646035 5.6581445681726876 0 0 0 0 241.16572024271591 32.617038026886121 0 32.617038026886121 -55.529353442110391 0 0 0 0 4.0594420338269899 9.3071007210083678 0 9.3071007210083678 8.0179141697965441 0 0 0 0 17.49673082433219 55.078722629506075 0 55.078722629506075 -27.408880113167015 0 0 0 0 49.852673853398301 -64.337939988441462 0 -64.337939988441462 47.723718779819976 0 0 0 0 -26.828124112944352 6.8048556855171682 0 6.8048556855171682 75.252451748257954 0 0 0 0 94.347952623531455 380.92233885361065 0 380.92233885361065 195.8524455423867 0 0 0 0 8.3601811389711997 -0.083394786466499227 0 -0.083394786466499227 -0.093692389662929809 0 0 0 0 -135.03984617174137 -298.56933963537915 0 -298.56933963537915 455.95161311941831 0 0 0 0 378.36362116609234 358.42242652916508 0 358.42242652916508 -324.99320359040848 0 0 0 0 207.77773734291259 -94.948308121999915 0 -94.948308121999915 41.022369261418248 0 0 0 0 10.258146068960713 -5.6241809701297996 0 -5.6241809701297996 -6.9199391640949814 0 0 0 0 6.963008906604955 -7.2885926856406513 0 -7.2885926856406513 -19.966814437513221 0 0 0 0 14.939109863187184 -6.9307108691631072 0 -6.9307108691631072 -19.359280406886867 0 0 0 0 -49.531956777675077 -144.24843804815191 0 -144.24843804815191 -148.81102950357172 0 0 0 0 -102.8019840233319 -9.1668184230477419 0 -9.1668184230477419 -0.0023952754423183214 0 0 0 0 -108.74263936753414 -58.332804295776441 0 -58.332804295776441 7.2850102667007377 0 0 0 0 3.0511963525644603 -3.0287658743091015 0 -3.0287658743091015 -3.2057754584875187 0 0 0 0 11.431220253725769 -1.5385477787700517 0 -1.5385477787700517 -0.025788632202880038 0 0 0 0 10.987667009354425 -3.6212830703071957 0 -3.6212830703071957 -7.085586517501361 0 0 0 0 16.505743487679865 -7.3624459495497456 0 -7.3624459495497456 -8.7095534257337093 0 0 0 0 8.0012896468033432 -5.6761185207258933 0 -5.6761185207258933 -24.273150701325676 0 0 0 0 23.260934160807892 5.3057756729972425 0 5.3057756729972425 -17.143483262676352 0 0 0 0 87.331384495919337 -27.589400212903229 0 -27.589400212903229 -73.129184086913938 0 0 0 0 94.401178075029748 123.02818075023868 0 123.02818075023868 60.662993420642124 0 0 0 0 475.54397930100095 -70.772891181436535 0 -70.772891181436535 140.8474610702915 0 0 0 0 0.025152479529879201 -2.8776697536312099 0 -2.8776697536312099 -0.21887570553666436 0 0 0 0 89.861253436747575 79.856462205431853 0 79.856462205431853 1.5528552578525705 0 0 0 0 66.341225339740049 107.76307281590601 0 107.76307281590601 3.1337458022834213 0 0 0 0 -3.3972438273480634 0.19968867860117712 0 0.19968867860117712 7.0816156752318982 0 0 0 0 -99.164350941212433 112.3075580742984 0 112.3075580742984 13.394632043611637 0 0 0 0 16.717822069790543 13.373548552120774 0 13.373548552120774 -1.369563396806263 0 0 0 0 23.050355783037958 9.7534579905531835 0 9.7534579905531835 -0.36409322635405195 0 0 0 0 -12.561555253400002 48.070466065213168 0 48.070466065213168 9.7836080526685691 0 0 0 0 6.0795073464108782 4.82866314213706 0 4.82866314213706 3.164365879244917 0 0 0 0 8.5197364324703813 7.5773807205167829 0 7.5773807205167829 0.015428393302429854 0 0 0 0 820.66232542949729 253.51370080932529 0 253.51370080932529 97.315367231896687 0 0 0 0 1.3620244015894514 1.6687294851875827 0 1.6687294851875827 4.5630024511778444 0 0 0 0 2.7454387210229356 3.3922215775875202 0 3.3922215775875202 5.5291014749503118 0 0 0 0 -0.74694281282728525 -5.1877517981969845 0 -5.1877517981969845 11.761693156973188 0 0 0 0 167.93484916639864 242.41713699682873 0 242.41713699682873 125.09382604662517 0 0 0 0 193.27160175863537 183.32684332972514 0 183.32684332972514 155.08997229543968 0 0 0 0 407.80132713721832 496.06973084514487 0 496.06973084514487 599.51021530287937 0 0 0 0 327.34932744089747 277.30936117049976 0 277.30936117049976 24.927940512242571 0 0 0 0 92.474913810612634 161.35487035358673 0 161.35487035358673 83.166965898278249 0 0 0 0 210.36507452151272 146.17562586654776 0 146.17562586654776 -136.31744052253293 0 0 0 0 206.2511148005724 150.46347430020717 0 150.46347430020717 -137.83255497901928 0 0 0 0 187.55736727797193 137.46830303282701 0 137.46830303282701 -72.940441730170733 0 0 0 0 283.05594491839292 155.56838982048839 0 155.56838982048839 -211.44428127339552 0 0 0 0 243.87090812672977 76.287706717874926 0 76.287706717874926 -456.96274871528772 0 0 0 0 197.20836780592799 -66.96178748305465 0 -66.96178748305465 -189.87387715653495 0 0 0 0 308.05683679349022 -186.47586107367761 0 -186.47586107367761 -116.84542400564828 0 0 0 0 1.6911696989219536 -5.7786002014591702 0 -5.7786002014591702 -0.72507562485979893 0 0 0 0 -15.536587850539945 -12.625739935751881 0 -12.625739935751881 -2.9766087561056338 0 0 0 0 75.100815761360025 -16.192860405534638 0 -16.192860405534638 1.8109096416060391 0 0 0 0 168.44639982598892 42.177996618730106 0 42.177996618730106 -263.48410252693702 0 0 0 0 4.1964718213577612 -13.438495794750146 0 -13.438495794750146 -2.2873413864561569 0 0 0 0 176.10542641533539 -6.6480394573000012 0 -6.6480394573000012 -236.70921565556523 0 0 0 0 35.07183185039321 73.634991442336741 0 73.634991442336741 -7.8248522854752309 0 0 0 0 156.97952823537344 24.740674868439442 0 24.740674868439442 -45.08135283597403 0 0 0 0 -8.987736604118254 14.888430618945222 0 14.888430618945222 -45.34378382767045 0 0 0 0 62.893230278306874 -4.1025590748067771 0 -4.1025590748067771 25.875236353538412 0 0 0 0 48.756897449376993 50.590958225099712 0 50.590958225099712 -71.529367824326528 0 0 0 0 87.265748691323097 -14.84671065831094 0 -14.84671065831094 -18.87932162614652 0 0 0 0 63.496739081052567 -13.950082539213874 0 -13.950082539213874 2.6932363427801587 0 0 0 0 51.231619511439931 2.5319130402908741 0 2.5319130402908741 35.106583593631967 0 0 0 0 82.03072307020193 -31.652848234263729 0 -31.652848234263729 -30.595291692618957 0 0 0 0 34.768954103026772 -46.661775097813916 0 -46.661775097813916 -8.6419592665170057 0 0 0 0 28.191851883690106 -31.727257108188951 0 -31.727257108188951 -28.511218583624441 0 0 0 0 42.659878213860793 -64.144470313908641 0 -64.144470313908641 -60.462547789444216 0 0 0 0 48.579672407824546 -25.942256422768423 0 -25.942256422768423 -39.911324516607692 0 0 0 0 18.265165335430396 -16.646536200081272 0 -16.646536200081272 8.1166356468599545 0 0 0 0 25.520438845269382 -16.216822271508093 0 -16.216822271508093 -34.391153270108703 0 0 0 0 32.16207793133799 -10.974215777962684 0 -10.974215777962684 -38.852446328594397 0 0 0 0 27.200000867712276 -15.501832299310021 0 -15.501832299310021 0.20057385545027495 0 0 0 0 64.662580921244853 -19.538275246873894 0 -19.538275246873894 5.893935694159512 0 0 0 0 53.091409027919241 -9.5283420734932918 0 -9.5283420734932918 1.06264864309769 0 0 0 0 -6.153370839136187 1.681814203354179 0 1.681814203354179 -343.54514573789072 0 0 0 0 13.263708956467497 -1.0769628623716301 0 -1.0769628623716301 -0.49028548331935173 0 0 0 0 35.883987121866085 -9.6507672712741623 0 -9.6507672712741623 -38.405871079534336 0 0 0 0 112.4975037581753 -175.34695346201147 0 -175.34695346201147 -512.50642491085307 0 0 0 0 40.268170917756834 -12.186361941407831 0 -12.186361941407831 -0.53573989822351331 0 0 0 0 29.301943877747874 -6.4005797341941957 0 -6.4005797341941957 -0.33529358919350605 0 0 0 0 -206.41994726075791 -35.282405606971224 0 -35.282405606971224 12.4266572941915 0 0 0 0 44.825000792627577 12.722958018931692 0 12.722958018931692 -7.9865870651846738 0 0 0 0 -74.929880208481336 -83.736518058972649 0 -83.736518058972649 -275.7899884618339 0 0 0 0 119.16232336568646 131.90686802819368 0 131.90686802819368 -340.22085570492777 0 0 0 0 239.97888211152167 -16.168409060605484 0 -16.168409060605484 -272.6326159849375 0 0 0 0 142.24650143476902 49.355434147945175 0 49.355434147945175 -131.0476674866361 0 0 0 0 74.530259391496656 -30.80091104197794 0 -30.80091104197794 -141.50448461612848 0 0 0 0 127.975158242014 -83.356328689485622 0 -83.356328689485622 57.376716627694861 0 0 0 0 339.86583630763926 -54.252483285648566 0 -54.252483285648566 -141.61995461893824 0 0 0 0 266.88732526643435 65.722310526191876 0 65.722310526191876 6.5876688321750407 0 0 0 0 374.34750938404613 78.746196382060788 0 78.746196382060788 -130.24511952602143 0 0 0 0 707.84111146588111 59.831878938552677 0 59.831878938552677 -1.1790780000817733 0 0 0 0 337.41538160563505 -73.465971747734201 0 -73.465971747734201 278.81818458991103 0 0 0 0 332.69697897102742 -10.073216743493134 0 -10.073216743493134 0.57288746089341669 0 0 0 0 342.5472827583726 -18.931217250261419 0 -18.931217250261419 23.720028807044059 0 0 0 0 760.05336614878615 329.6410359597117 0 329.6410359597117 259.53282036078883 0 0 0 0 48.062058760900982 -38.449916898648944 0 -38.449916898648944 12.228002496334966 0 0 0 0 72.546348456933629 -103.21709908307724 0 -103.21709908307724 146.40679293010501 0 0 0 0 53.19662080166745 -193.05723379512028 0 -193.05723379512028 -63.309067313851813 0 0 0 0 -37.645406592389918 -131.1413656602449 0 -131.1413656602449 -138.04489849349062 0 0 0 0 1.5753696430075763 -190.17779328297118 0 -190.17779328297118 -61.295610666145819 0 0 0 0 164.42975440532609 -117.19736348937076 0 -117.19736348937076 -99.207252112878336 0 0 0 0 1.559600246604532 -87.369473970634772 0 -87.369473970634772 -103.34891243443775 0 0 0 0 128.81842055311427 -140.34838646802993 0 -140.34838646802993 -281.47789781857682 0 0 0 0 36.64993795670307 -169.6877006076198 0 -169.6877006076198 -250.01129071961029 0 0 0 0 -19.352137442969251 -120.58798768979639 0 -120.58798768979639 -0.087916352337353801 0 0 0 0 -37.345263899333077 -79.733658053937035 0 -79.733658053937035 -69.530019593649229 0 0 0 0 -53.516186449836823 -61.849792245631839 0 -61.849792245631839 -0.068566518379043789 0 0 0 0 31.368436943164795 -2.4856855005281773 0 -2.4856855005281773 -0.9532922175655526 0 0 0 0 -42.659976215654751 -62.945159294404561 0 -62.945159294404561 -75.505140566007128 0 0 0 0 -21.127852841091226 -72.783630381178767 0 -72.783630381178767 -98.622148640696025 0 0 0 0 38.674241417786106 1.7055817789346293 0 1.7055817789346293 -3.3483689292706913 0 0 0 0 38.410633528670132 -5.1220879286016299 0 -5.1220879286016299 -1.324199683848974 0 0 0 0 40.126899599055662 1.5860106484673686 0 1.5860106484673686 -0.4680376111314547 0 0 0 0 36.844822252882295 -4.0218401261882946 0 -4.0218401261882946 -17.722524159756404 0 0 0 0 44.156607662433089 5.5285813872864651 0 5.5285813872864651 -61.098047422027776 0 0 0 0 41.704166251547576 -3.7450741854824265 0 -3.7450741854824265 -19.971357667771102 0 0 0 0 53.311172462766535 -6.0732861942816569 0 -6.0732861942816569 -1.6721766163723069 0 0 0 0 200.34327054090681 7.7785076024256341 0 7.7785076024256341 -94.836835221616639 0 0 0 0 24.969202554144431 -43.317929350761915 0 -43.317929350761915 -52.928270425720825 0 0 0 0 -8.2945089259883389 -16.771953569413199 0 -16.771953569413199 -63.540099038759763 0 0 0 0 189.96547531706165 62.934738333041878 0 62.934738333041878 30.513952723209513 0 0 0 0 0.78206644662895997 0.53380704803625889 0 0.53380704803625889 2.9107638648092005 0 0 0 0 24.487191025051288 -85.898162182124906 0 -85.898162182124906 2.4786860494500615 0 0 0 0 46.00117008847883 35.041534438923463 0 35.041534438923463 -86.616367326754698 0 0 0 0 -20.887381670734612 42.849654920258217 0 42.849654920258217 -3.2388013265526752 0 0 0 0 65.206777758103556 1.2162335163316129 0 1.2162335163316129 -6.1240340737082484 0 0 0 0 43.549865416338434 10.207293889518041 0 10.207293889518041 5.4764051114020731 0 0 0 0 73.316839572304161 1.3245344413394378 0 1.3245344413394378 -2.9737287818225013 0 0 0 0 47.305138296236692 5.2589151132451661 0 5.2589151132451661 12.952360245590171 0 0 0 0 73.237565185644939 -21.411342443402983 0 -21.411342443402983 -2.9994222751465713 0 0 0 0 189.62058757245541 -26.297506704101124 0 -26.297506704101124 -26.237969529835937 0 0 0 0 139.19182693123003 5.0480348169996887 0 5.0480348169996887 -11.343489864481853 0 0 0 0 17.573665258453133 16.924813319769441 0 16.924813319769441 -2.014474708905043 0 0 0 0 131.32539764462854 15.676686274534632 0 15.676686274534632 -5.474638615277172 0 0 0 0 82.11370249929314 -2.529172042330174 0 -2.529172042330174 13.478564353192041 0 0 0 0 76.063229335457436 -13.303542185328979 0 -13.303542185328979 -2.920035753589957 0 0 0 0 160.14733071363298 -13.283628849780371 0 -13.283628849780371 -16.597702894834697 0 0 0 0 64.900942276974092 -4.8548915285190333 0 -4.8548915285190333 37.333882764559803 0 0 0 0 9.5276418941017766 19.500938618395168 0 19.500938618395168 5.74254422401249 0 0 0 0 167.29697589352145 -26.524476302608178 0 -26.524476302608178 -19.989355751418572 0 0 0 0 -28.142545968214108 -27.545523009702833 0 -27.545523009702833 2.3693949238770529 0 0 0 0 69.201950418122578 -68.20963338570607 0 -68.20963338570607 -112.6167934375095 0 0 0 0 10.726034461606474 20.195723096651705 0 20.195723096651705 3.3255790223178785 0 0 0 0 -219.58981300705636 160.08181229746441 0 160.08181229746441 547.57022861448945 0 0 0 0 291.70432738389354 64.043757275863811 0 64.043757275863811 -123.45755181975147 0 0 0 0 5.4029528584823652 -3.3123516712554046 0 -3.3123516712554046 0.67349601023796057 0 0 0 0 176.38049749068523 150.11272923419202 0 150.11272923419202 70.040159898997729 0 0 0 0 183.88185950192565 64.750230970445841 0 64.750230970445841 -3.664684028513193 0 0 0 0 32.308808187597606 -31.350464713621022 0 -31.350464713621022 34.235900779463236 0 0 0 0 157.64932436410163 80.98990966671083 0 80.98990966671083 -1.3988567031506136 0 0 0 0 41.043910460404732 -43.903071221089419 0 -43.903071221089419 -52.041204422045666 0 0 0 0 37.074663803883595 -37.352787670075031 0 -37.352787670075031 -6.9511708867057678 0 0 0 0 82.086269404986524 -171.27900078334005 0 -171.27900078334005 199.64049228915476 0 0 0 0 309.77557791159779 -146.44858632843921 0 -146.44858632843921 -238.30979184679154 0 0 0 0 55.577092225960598 -19.455778484363414 0 -19.455778484363414 5.0558760811193251 0 0 0 0 51.182354182652489 73.889579407280394 0 73.889579407280394 -153.57968014552034 0 0 0 0 117.03211910484242 -24.805796437089612 0 -24.805796437089612 -76.823936881138252 0 0 0 0 61.431374833788141 -58.943885320990375 0 -58.943885320990375 -79.128694832419342 0 0 0 0 49.426288937219567 -17.269855361952509 0 -17.269855361952509 5.9250047802829693 0 0 0 0 28.431646903947694 -19.450365202045873 0 -19.450365202045873 -14.512790365258297 0 0 0 0 77.635284863266861 -23.480123092424719 0 -23.480123092424719 -66.223766964423248 0 0 0 0 64.138955951770185 -9.6099152483187709 0 -9.6099152483187709 6.0429316121626471 0 0 0 0 36.657015176213463 -32.541262598164849 0 -32.541262598164849 -48.418716659472011 0 0 0 0 44.710471050246724 -12.892938615934582 0 -12.892938615934582 1.8212616085988547 0 0 0 0 57.517759981681593 -54.194690074562914 0 -54.194690074562914 -69.780791397523558 0 0 0 0 30.703331666649319 -6.9351267108704633 0 -6.9351267108704633 -55.719386640622361 0 0 0 0 30.256934624036504 -6.7848270612466024 0 -6.7848270612466024 1.4783913939223829 0 0 0 0 28.595845899984084 0.061983903674416752 0 0.061983903674416752 -10.216844632245103 0 0 0 0 27.78344646129699 -35.730784180464241 0 -35.730784180464241 -3.4983068876976731 0 0 0 0 16.664115009108968 -1.6271197284959626 0 -1.6271197284959626 -0.53859081026058386 0 0 0 0 7.0446967366624449 3.8666079934415052 0 3.8666079934415052 -0.61726684611147675 0 0 0 0 21.191828985125198 10.138245164553183 0 10.138245164553183 -7.5405688232218671 0 0 0 0 85.971396972585353 -13.613119162631619 0 -13.613119162631619 -1.3320551154224631 0 0 0 0 92.360160383177572 -6.9358244705672405 0 -6.9358244705672405 5.3863250745584992 0 0 0 0 16.341069944991375 8.3744023488112873 0 8.3744023488112873 -0.8905933647939186 0 0 0 0 79.812148646393325 -14.949916601374298 0 -14.949916601374298 7.0414243161139325 0 0 0 0 78.507825197048078 -19.757504041499715 0 -19.757504041499715 8.1536231990303349 0 0 0 0 98.708455629006494 -15.547190527106522 0 -15.547190527106522 -12.43822362611354 0 0 0 0 92.801587231162557 -12.133901750863203 0 -12.133901750863203 0.36833834509161534 0 0 0 0 56.250040727943997 -29.635502359451493 0 -29.635502359451493 -47.659577180646693 0 0 0 0 31.632099586194954 1.5915888358432113 0 1.5915888358432113 -7.7475865016171372 0 0 0 0 57.656049946651024 -20.118767728467784 0 -20.118767728467784 -1.7993517467954632 0 0 0 0 51.027445432118839 -34.128228944167859 0 -34.128228944167859 -72.737604200055955 0 0 0 0 39.491208146026295 -29.055418510674684 0 -29.055418510674684 -2.3688227960610302 0 0 0 0 -11.706975891167531 -44.256379783067587 0 -44.256379783067587 -105.60188725572789 0 0 0 0 43.527072027853137 -10.235938741947393 0 -10.235938741947393 -23.831612484993911 0 0 0 0 111.88535897812108 -10.052523243018186 0 -10.052523243018186 -15.575212542314148 0 0 0 0 50.310273144477577 -12.220486925552535 0 -12.220486925552535 -1.0494129551403564 0 0 0 0 107.03230324761535 -38.457748692532959 0 -38.457748692532959 -30.547341199064249 0 0 0 0 105.99187825364061 -14.810043051846151 0 -14.810043051846151 -19.242539632937337 0 0 0 0 101.90879365603905 -9.6639823337836788 0 -9.6639823337836788 -5.9689401563400679 0 0 0 0 9.3944604557107763 9.1621997435117066 0 9.1621997435117066 9.3088110842692302 0 0 0 0 69.536037435784237 22.235064602578177 0 22.235064602578177 11.25032430257852 0 0 0 0 113.41311213292647 -4.5820953619397642 0 -4.5820953619397642 -0.52589225717110821 0 0 0 0 99.702451610530261 -4.0764111190699168 0 -4.0764111190699168 5.3340955196435971 0 0 0 0 166.15543702617288 13.713417721601218 0 13.713417721601218 -2.1839785643142022 0 0 0 0 -3.6943245673882075 0.46319083239552583 0 0.46319083239552583 2.6781045881403669 0 0 0 0 24.375631958090253 -13.160236751563147 0 -13.160236751563147 -8.9228783971492174 0 0 0 0 70.166765864356421 3.5019960170548075 0 3.5019960170548075 -26.481910611854801 0 0 0 0 97.552456649573287 23.605766153579225 0 23.605766153579225 -36.012012952464374 0 0 0 0 68.831487682444276 0.61581162292281988 0 0.61581162292281988 3.2586812987567555 0 0 0 0 169.36601257268921 -151.28101975912523 0 -151.28101975912523 -276.41550541534889 0 0 0 0 84.602876745645801 -11.19896486870336 0 -11.19896486870336 -0.63065267742362052 0 0 0 0 86.753777397796512 -3.2128428269882079 0 -3.2128428269882079 -68.70149655849491 0 0 0 0 318.01550838424009 324.40035359674721 0 324.40035359674721 233.39348315310917 0 0 0 0 -1109.5237283131573 -86.573266515018076 0 -86.573266515018076 586.00585376807248 0 0 0 0 5.4995178061109868 -1.1742439782850198 0 -1.1742439782850198 0.18871202325857972 0 0 0 0 267.63671183661791 99.234516258961548 0 99.234516258961548 -60.004719571949863 0 0 0 0 109.43263695747009 118.68480574368527 0 118.68480574368527 125.28169254219574 0 0 0 0 110.93299162681797 -24.716563134488979 0 -24.716563134488979 -51.015729791844933 0 0 0 0 11.886500018111171 -17.999875084242063 0 -17.999875084242063 -1.4476795249828918 0 0 0 0 8.647600604232764 -14.088676781565184 0 -14.088676781565184 2.2576548683135034 0 0 0 0 99.051232571626315 -2.4389323113823593 0 -2.4389323113823593 -30.673150326603263 0 0 0 0 112.99510626588608 28.279755370520959 0 28.279755370520959 1.4593570090419234 0 0 0 0 54.949803583323956 -30.551153566332232 0 -30.551153566332232 -70.302190739910657 0 0 0 0 25.94848078657094 -36.569765099152313 0 -36.569765099152313 4.9981687824715211 0 0 0 0 122.96236760087777 -61.556491511772492 0 -61.556491511772492 -38.156928875247104 0 0 0 0 76.434630522329826 -26.824448894432408 0 -26.824448894432408 -40.647234703414142 0 0 0 0 26.280647855231081 -6.3889986665287495 0 -6.3889986665287495 -0.24292961609751806 0 0 0 0 27.563278810121119 -1.9239202302992453 0 -1.9239202302992453 -63.623723348957355 0 0 0 0 8.2965384756533354 -2.1540761580934884 0 -2.1540761580934884 0.065802952243716462 0 0 0 0 102.15018862822035 -8.8684927623901331 0 -8.8684927623901331 -13.374899178652413 0 0 0 0 11.959265444457554 -15.549994095546936 0 -15.549994095546936 7.2622571416876678 0 0 0 0 275.62721038398013 -21.580444006727461 0 -21.580444006727461 -60.564027433390947 0 0 0 0 108.11153533612378 -34.832357163180404 0 -34.832357163180404 -51.513696120605118 0 0 0 0 252.21343942283056 93.445495943259715 0 93.445495943259715 -107.19101116919046 0 0 0 0 114.41549156434485 91.941697311956204 0 91.941697311956204 -46.797502035136858 0 0 0 0 59.275126938824542 -34.452630444107399 0 -34.452630444107399 -65.9350859837391 0 0 0 0 71.126165654888609 16.813691992814256 0 16.813691992814256 -28.042536381669379 0 0 0 0 100.64264161095343 -78.152966632314929 0 -78.152966632314929 -76.437932212640362 0 0 0 0 153.51013312641953 -103.37619072714767 0 -103.37619072714767 -75.693513432042892 0 0 0 0 349.05467196149402 -138.22253008756161 0 -138.22253008756161 -75.986301729953453 0 0 0 0 345.65704260671862 118.49501874393965 0 118.49501874393965 -89.119328941391359 0 0 0 0 0.2900282560427101 4.6140005740414125 0 4.6140005740414125 0.33399392115046389 0 0 0 0 85.075637041667505 36.63215623979238 0 36.63215623979238 -36.382181272775597 0 0 0 0 81.784029553949949 -1.435298283233351 0 -1.435298283233351 0.93870357831519868 0 0 0 0 117.67534196244378 16.825962466363308 0 16.825962466363308 -5.6810640560115644 0 0 0 0 192.71234040450145 62.023432723799942 0 62.023432723799942 19.413398996872274 0 0 0 0 155.25170040363446 25.587436128684203 0 25.587436128684203 193.6831288375688 0 0 0 0 26.49595027930804 4.1232356509986658 0 4.1232356509986658 -0.43364472856397995 0 0 0 0 -5.3267898737976793 -80.862119186909695 0 -80.862119186909695 164.20371696008806 0 0 0 0 61.388543504249839 7.894255127462225 0 7.894255127462225 -0.0082001878711115417 0 0 0 0 -8.9040138867832752 -8.6894391248938234 0 -8.6894391248938234 -3.591643933401425 0 0 0 0 -179.86892898423685 -270.58530570519997 0 -270.58530570519997 40.454118050535726 0 0 0 0 77.038454488487332 -13.704086295208754 0 -13.704086295208754 23.05543628951034 0 0 0 0 62.634472808043938 8.41498456176123 0 8.41498456176123 -18.847852667785446 0 0 0 0 28.053311797567545 1.1664343123198933 0 1.1664343123198933 -1.9924778665223954 0 0 0 0 149.46643694041268 -39.931547679233944 0 -39.931547679233944 -31.063122581697712 0 0 0 0 113.21886675556016 4.386293754649671 0 4.386293754649671 1.1854949816502938 0 0 0 0 33.450736847007647 -10.704138632293052 0 -10.704138632293052 -43.517650930536547 0 0 0 0 109.43556639235271 3.2603517995157176 0 3.2603517995157176 -8.592478619727677 0 0 0 0 68.700996360484567 -8.0696524678298971 0 -8.0696524678298971 -10.030266243829157 0 0 0 0 313.53539768332848 -256.22737888230404 0 -256.22737888230404 -1363.098091176289 0 0 0 0 83.820574042782141 -21.616839745551996 0 -21.616839745551996 -40.41799760753301 0 0 0 0 29.8226716644931 6.5098455485067461 0 6.5098455485067461 -4.5381104577027145 0 0 0 0 61.676762374583632 10.009408113326117 0 10.009408113326117 -11.343319540535958 0 0 0 0 39.078495880954648 -11.464179120033691 0 -11.464179120033691 -8.6440754258272339 0 0 0 0 17.195119059182936 8.9734578770693076 0 8.9734578770693076 0.68525419586489988 0 0 0 0 57.225584035360953 10.252267274520364 0 10.252267274520364 -10.517681804953554 0 0 0 0 87.709725375752896 7.4702810509290885 0 7.4702810509290885 0.58783825162026915 0 0 0 0 76.544991483683589 -0.69478458449887626 0 -0.69478458449887626 -5.3043348784294722 0 0 0 0 62.158392289954463 1.2360630860827229 0 1.2360630860827229 0.60796153180945112 0 0 0 0 243.75286310641968 -52.87298458860505 0 -52.87298458860505 -144.49452231566192 0 0 0 0 100.24390128243249 -62.281464746105485 0 -62.281464746105485 -139.98453464299928 0 0 0 0 129.16942692707107 109.6304692531042 0 109.6304692531042 -92.144591897578721 0 0 0 0 5.6066786070257528 0.95552330587717904 0 0.95552330587717904 0.067017630331857703 0 0 0 0 145.08020037999086 100.98437499128295 0 100.98437499128295 -110.81060471809269 0 0 0 0 73.974380091436615 1.2875046354224651 0 1.2875046354224651 -6.8329349682639986 0 0 0 0 54.395616855307651 4.6496071803983785 0 4.6496071803983785 -0.4534374034802271 0 0 0 0 -109.5934795691137 129.54687070854015 0 129.54687070854015 -40.55291207297023 0 0 0 0 -10.097605071787257 92.338042324782236 0 92.338042324782236 -27.217710408393032 0 0 0 0 63.468185672078107 0.28879148186797465 0 0.28879148186797465 -1.082969036313898 0 0 0 0 63.463794139746824 -0.81738085261451943 0 -0.81738085261451943 10.391802238968012 0 0 0 0 18.14124837299677 9.1736140812544136 0 9.1736140812544136 -2.5170768409945392 0 0 0 0 67.121024397260044 -11.410902571342831 0 -11.410902571342831 8.0327148752356834 0 0 0 0 29.489055983662496 15.289380269744981 0 15.289380269744981 1.3509300796431418 0 0 0 0 53.894932745170081 6.8657378327407059 0 6.8657378327407059 19.601371837514307 0 0 0 0 46.266450422730657 5.4780955409596164 0 5.4780955409596164 1.2190326510453495 0 0 0 0 112.21636226655392 33.810979785372638 0 33.810979785372638 -187.89834474262443 0 0 0 0 11.733815783647273 -1.9071110902852979 0 -1.9071110902852979 0.61340998110204836 0 0 0 0 8.1447264803036035 2.6003887536181907 0 2.6003887536181907 0.1458448130230936 0 0 0 0 220.72928694274742 188.4925570622454 0 188.4925570622454 -228.53814716776833 0 0 0 0 170.35778514939739 107.7213528434911 0 107.7213528434911 -401.334736829539 0 0 0 0 153.33960907638539 15.477182252154989 0 15.477182252154989 -40.004020268721433 0 0 0 0 -157.74910463142442 -161.82810434444764 0 -161.82810434444764 -320.7256797737482 0 0 0 0 12.346020489872899 -144.90415606805709 0 -144.90415606805709 2.0919611334456931 0 0 0 0 -68.903912686131662 139.81404699821178 0 139.81404699821178 -38.177729490140791 0 0 0 0 3.637993163594075 1.409819272321819 0 1.409819272321819 0.37711117902217506 0 0 0 0 35.806031725325738 155.91106840412021 0 155.91106840412021 -135.30784161417409 0 0 0 0 148.01103749933827 -193.97642080748165 0 -193.97642080748165 16.71999596796195 0 0 0 0 -45.872478868623148 -101.87454699628097 0 -101.87454699628097 -22.740405405157617 0 0 0 0 86.266639812165522 -129.82003039371693 0 -129.82003039371693 -110.86597008613717 0 0 0 0 113.86352532970704 -157.04022012519431 0 -157.04022012519431 -15.653236667589226 0 0 0 0 80.711162036081078 -188.76386236909366 0 -188.76386236909366 -40.293169509264317 0 0 0 0 96.720273347033071 -167.55966570846658 0 -167.55966570846658 -49.409817614231542 0 0 0 0 328.47087988827843 -99.350448910426167 0 -99.350448910426167 -152.67709162950268 0 0 0 0 186.82483891367883 92.977761054222356 0 92.977761054222356 -16.486992497872507 0 0 0 0 272.19817763082392 -209.999725384253 0 -209.999725384253 -73.652977911127664 0 0 0 0 -32.480779451619128 86.30913383078132 0 86.30913383078132 -167.40567349640332 0 0 0 0 226.64691453948035 -21.290545784365577 0 -21.290545784365577 -212.51503706011499 0 0 0 0 51.410460197541397 -106.2045197661464 0 -106.2045197661464 -265.26779026609734 0 0 0 0 -156.33882103956421 145.22807784146516 0 145.22807784146516 -27.660276824048196 0 0 0 0 116.34462773952691 -102.12240801787402 0 -102.12240801787402 -142.54015356420496 0 0 0 0 97.47166920357995 280.87843981059632 0 280.87843981059632 -154.28973268060963 0 0 0 0 222.5312133684929 218.01773911220926 0 218.01773911220926 -126.74066975828941 0 0 0 0 4.1084475922770309 1.7692473957807309 0 1.7692473957807309 0.32844417787443803 0 0 0 0 47.020230297654052 -173.56017102236865 0 -173.56017102236865 -112.89350148125982 0 0 0 0 97.899693927629414 -97.659662327841033 0 -97.659662327841033 -120.87224608613724 0 0 0 0 80.485985622057342 -89.124145285920804 0 -89.124145285920804 -5.5502064342417725 0 0 0 0 43.977913342940155 11.895630622245335 0 11.895630622245335 -19.455170529751285 0 0 0 0 42.166637266796897 165.46451731627258 0 165.46451731627258 -217.30779022303022 0 0 0 0 68.192970153861097 -8.438992573474934 0 -8.438992573474934 5.5266145354839864 0 0 0 0 -106.8725127200014 121.54815619505973 0 121.54815619505973 59.098993625330877 0 0 0 0 125.35256856992055 -4.7484977675590017 0 -4.7484977675590017 -95.697609031802131 0 0 0 0 20.006038967473813 -2.93113535942841 0 -2.93113535942841 -2.1953199027763848 0 0 0 0 132.48625071408605 -22.656153910410239 0 -22.656153910410239 -50.808733584713991 0 0 0 0 73.935860828997193 8.2692450605559067 0 8.2692450605559067 0.01597408953346191 0 0 0 0 158.39383636206912 89.430830400060358 0 89.430830400060358 3.0877206800456634 0 0 0 0 30.770851782363025 84.476177918811345 0 84.476177918811345 36.138319606003733 0 0 0 0 35.694493314629653 -2.3256900082164975 0 -2.3256900082164975 -26.027748040168717 0 0 0 0 0.61979103964631577 0.90895667478284281 0 0.90895667478284281 -0.0091639986971658871 0 0 0 0 262.204848204874 -87.734367316599901 0 -87.734367316599901 4.3544887292459862 0 0 0 0 77.127666537620826 -5.7783454592213275 0 -5.7783454592213275 33.811700586527081 0 0 0 0 118.72112363852648 -53.871821649808112 0 -53.871821649808112 -31.683993877205467 0 0 0 0 68.243506331289552 5.3999587734830161 0 5.3999587734830161 1.7873060449857672 0 0 0 0 93.617741734735318 -12.839916052093031 0 -12.839916052093031 -158.881640709973 0 0 0 0 18.37644336348643 -2.3238078073872259 0 -2.3238078073872259 0.14263638737902085 0 0 0 0 58.435598024108913 -9.0067696407177209 0 -9.0067696407177209 6.6329947172243919 0 0 0 0 53.050858824051829 2.3289204031363511 0 2.3289204031363511 16.202954375311947 0 0 0 0 49.375765338634665 -1.8938908162430153 0 -1.8938908162430153 9.6222082303952448 0 0 0 0 39.923229954438284 -14.99052303678809 0 -14.99052303678809 4.8706860975725021 0 0 0 0 60.68347575050575 -8.0735209257816791 0 -8.0735209257816791 45.310660147992508 0 0 0 0 138.76220307723997 -29.798048910447847 0 -29.798048910447847 -1.9340175960810484 0 0 0 0 48.576126781481435 -2.6103335452926331 0 -2.6103335452926331 10.917201779468314 0 0 0 0 22.995966300494203 16.281470788743633 0 16.281470788743633 7.1372379778901927 0 0 0 0 21.754377118938194 -1.6342111341387522 0 -1.6342111341387522 -0.88076551934374825 0 0 0 0 97.799411383282859 -25.427922531868376 0 -25.427922531868376 3.698808214852221 0 0 0 0 47.735507160527277 2.5758749999225152 0 2.5758749999225152 2.2258216711330743 0 0 0 0 79.719730106648058 7.0221574469417192 0 7.0221574469417192 -18.56334466073713 0 0 0 0 17.281300283639354 6.6602690909706439 0 6.6602690909706439 11.267916097750238 0 0 0 0 138.62865393778338 -53.737983009990785 0 -53.737983009990785 -124.7983335350898 0 0 0 0 156.75013113409659 329.64721133749867 0 329.64721133749867 -118.42587777559038 0 0 0 0 -121.78776269430819 -125.22634884844047 0 -125.22634884844047 57.25348089366787 0 0 0 0 58.795137078326661 -86.493772232687718 0 -86.493772232687718 43.03868315082741 0 0 0 0 75.773597087492817 -30.73923656726663 0 -30.73923656726663 61.982044350131901 0 0 0 0 -60.572650246658668 146.08094325559907 0 146.08094325559907 -97.48565636059493 0 0 0 0 -363.77957439846068 191.96440883815364 0 191.96440883815364 20.389774006294374 0 0 0 0 3.4103025029407945 7.3336898998462772 0 7.3336898998462772 9.2462404600134267 0 0 0 0 151.08793637111376 164.55630033082525 0 164.55630033082525 -71.276103544088073 0 0 0 0 335.55524449497898 81.878931309652216 0 81.878931309652216 -111.90516761954223 0 0 0 0 -35.86415337859944 67.019218454585143 0 67.019218454585143 -98.814827415585114 0 0 0 0 34.379148009247729 66.284377210687126 0 66.284377210687126 -28.23030066704041 0 0 0 0 157.52963379355788 79.545824304572079 0 79.545824304572079 -82.459974866201492 0 0 0 0 -28.411646867949457 155.52992581577075 0 155.52992581577075 -91.09219947904171 0 0 0 0 -137.25507412054867 75.942733470966346 0 75.942733470966346 -75.073009067868043 0 0 0 0 -49.029991366500326 103.14503590006164 0 103.14503590006164 -138.43740670395903 0 0 0 0 -43.968656515751718 143.69609496399735 0 143.69609496399735 -300.67956023835677 0 0 0 0 -153.83931954391301 196.36378280527569 0 196.36378280527569 -317.1642322690688 0 0 0 0 72.902575919171795 -25.868657733450178 0 -25.868657733450178 -531.03907881484247 0 0 0 0 118.25650086731184 -7.6262131653414542 0 -7.6262131653414542 -294.09761930635705 0 0 0 0 31.610362928870018 9.8865648191306263 0 9.8865648191306263 -224.28362998462535 0 0 0 0 110.72012857253139 -3.259907481328014 0 -3.259907481328014 -135.73283475557929 0 0 0 0 201.57854474936903 -34.27787682450014 0 -34.27787682450014 -160.47824253567933 0 0 0 0 51.611294021407957 49.190735928054607 0 49.190735928054607 -128.3978237005694 0 0 0 0 47.99543662969154 54.513018853172866 0 54.513018853172866 -29.071353534869331 0 0 0 0 394.7628954160682 -128.29410481098853 0 -128.29410481098853 -12.978048158438696 0 0 0 0 212.25456863808722 -1.9384846456819353 0 -1.9384846456819353 -96.71427589870946 0 0 0 0 292.54822776780929 -50.624373941819663 0 -50.624373941819663 -149.61961529870956 0 0 0 0 369.78014593995613 57.252886613228185 0 57.252886613228185 -157.53970613640746 0 0 0 0 351.92338563529847 44.893585944757149 0 44.893585944757149 -116.08092791386321 0 0 0 0 501.00987640999301 33.139379815489555 0 33.139379815489555 -167.97241796021825 0 0 0 0 452.52097642581793 -86.378229312229678 0 -86.378229312229678 25.539775912195182 0 0 0 0 156.39004705533443 52.013240507153796 0 52.013240507153796 163.72713318109254 0 0 0 0 254.28478777380951 197.06064442342813 0 197.06064442342813 27.92727692817175 0 0 0 0 94.640972474517184 223.99131720074502 0 223.99131720074502 -64.257793732433584 0 0 0 0 167.3104397174211 129.94031504206498 0 129.94031504206498 -23.317695785387968 0 0 0 0 73.75331080910837 25.276482331297984 0 25.276482331297984 -7.283728414772213 0 0 0 0 200.79620945028 86.111823707289886 0 86.111823707289886 -21.770946823876329 0 0 0 0 213.78948781950749 -175.40474864605358 0 -175.40474864605358 181.68158417051836 0 0 0 0 358.50052509989473 -150.1476686404078 0 -150.1476686404078 68.28195145265363 0 0 0 0 49.828758750161796 -207.62328251108329 0 -207.62328251108329 176.43163489591552 0 0 0 0 8.6127519522124203 -92.38725274204262 0 -92.38725274204262 -51.789361127417806 0 0 0 0 136.73616859267349 95.195527172403217 0 95.195527172403217 95.263374919005628 0 0 0 0 2.2493888055538207 -0.69548496426696715 0 -0.69548496426696715 0.35023725909600412 0 0 0 0 65.649144437207724 38.841137267897125 0 38.841137267897125 -94.909115513264965 0 0 0 0 16.073259396003778 29.915386741915228 0 29.915386741915228 62.793792834184387 0 0 0 0 15.185406515309296 37.542503916979825 0 37.542503916979825 15.371320725178521 0 0 0 0 71.436140328311012 101.34702865804888 0 101.34702865804888 -13.068503071182704 0 0 0 0 220.73357841399411 -207.91322310491375 0 -207.91322310491375 61.899638676558197 0 0 0 0 3.6595411921084064 -1.2213722089675052 0 -1.2213722089675052 0.3296074546572858 0 0 0 0 13.300533516652649 -68.108474074239666 0 -68.108474074239666 53.005727519324751 0 0 0 0 13.322382201520668 -41.176420652292194 0 -41.176420652292194 -178.76823293897462 0 0 0 0 248.2226395038233 160.1599251696324 0 160.1599251696324 -23.717365231017993 0 0 0 0 -0.35144884059445758 -0.53140982158490147 0 -0.53140982158490147 -0.56154736788488657 0 0 0 0 444.28235696675983 212.23174304317013 0 212.23174304317013 -72.203757789728115 0 0 0 0 -96.777180136014067 -57.796069591533808 0 -57.796069591533808 -173.12233729944239 0 0 0 0 -52.114410291735112 11.850824249631103 0 11.850824249631103 -160.4281250263457 0 0 0 0 -16.196925877942704 3.3489732318537335 0 3.3489732318537335 -170.93999594929392 0 0 0 0 12.774578460958907 9.417952652600901 0 9.417952652600901 -3.8006894173580115 0 0 0 0 -25.220365875054995 11.306338821354501 0 11.306338821354501 -156.21426564671788 0 0 0 0 33.300120245877608 40.593743372144189 0 40.593743372144189 -22.573380516551438 0 0 0 0 109.49984162068904 -4.4167068944066159 0 -4.4167068944066159 -199.84319000960204 0 0 0 0 114.82414916905691 9.3782666366905687 0 9.3782666366905687 -188.55511877857953 0 0 0 0 131.89604126192717 5.1895957929655196 0 5.1895957929655196 -209.77362683227966 0 0 0 0 114.72089689028508 6.3782063363769339 0 6.3782063363769339 -205.96402423577638 0 0 0 0 122.63775054446523 -7.2382481094973627 0 -7.2382481094973627 -224.76522341650343 0 0 0 0 75.700966934237854 0.80796392378826454 0 0.80796392378826454 -6.4235733711928678 0 0 0 0 57.144410030319705 4.0141823050327048 0 4.0141823050327048 -20.171726477080028 0 0 0 0 60.9387779024255 -0.04356481773163523 0 -0.04356481773163523 -15.850780450187813 0 0 0 0 44.856231885609958 -0.37510751858802394 0 -0.37510751858802394 -2.8921835815313672 0 0 0 0 53.211274627072271 3.9155550356090316 0 3.9155550356090316 -10.795911509072084 0 0 0 0 50.910480503822328 6.9982699917854916 0 6.9982699917854916 -14.766297745809652 0 0 0 0 23.29572500011006 10.563790304361419 0 10.563790304361419 -5.7238894088499919 0 0 0 0 28.574933931937267 25.51592300721245 0 25.51592300721245 -0.32285210403051678 0 0 0 0 51.109208381312783 -71.467302214772872 0 -71.467302214772872 -64.930348357171169 0 0 0 0 57.501689174321655 -70.191317520131861 0 -70.191317520131861 -99.736505821577339 0 0 0 0 8.2623651585040818 4.153284588189905 0 4.153284588189905 -2.6178573320175911 0 0 0 0 9.6065669918910714 3.3242186298616758 0 3.3242186298616758 -1.083199597162428 0 0 0 0 22.433802672367165 -9.1694414391758983 0 -9.1694414391758983 -82.483425208483368 0 0 0 0 56.970216975489166 -48.450185627534438 0 -48.450185627534438 -144.93215853808238 0 0 0 0 -806.76660963763425 112.43894491822692 0 112.43894491822692 93.566846937789506 0 0 0 0 -772.98286289007228 -156.54260685551094 0 -156.54260685551094 549.69963278243404 0 0 0 0 40.636039701576294 10.050608906634945 0 10.050608906634945 1.3146588943483377 0 0 0 0 -527.65864957922895 11.168391077359502 0 11.168391077359502 119.16165634023622 0 0 0 0 15.070537444095862 -4.2336437676902925 0 -4.2336437676902925 1.1156507727900238 0 0 0 0 -414.8192132444965 72.807081878284848 0 72.807081878284848 -100.44203292543463 0 0 0 0 209.54822604329092 -119.76186445931813 0 -119.76186445931813 -43.056154172435782 0 0 0 0 83.021745438942162 -44.358081260689005 0 -44.358081260689005 -470.00313585613344 0 0 0 0 109.04573935395456 183.98929516829344 0 183.98929516829344 -562.08477005067255 0 0 0 0 -77.377060835155135 -24.763620219456357 0 -24.763620219456357 79.809871587668113 0 0 0 0 -301.31706501781082 230.87596676445597 0 230.87596676445597 860.49203739722168 0 0 0 0 -128.8266056864959 -350.86718166994086 0 -350.86718166994086 180.20475442824599 0 0 0 0 19.474062538437863 5.4816982244282855 0 5.4816982244282855 1.4231889397229169 0 0 0 0 3055.7805025918351 54.628209611089744 0 54.628209611089744 -281.13210216806948 0 0 0 0 1531.8211200781661 1423.4641341549761 0 1423.4641341549761 914.99470605446447 0 0 0 0 4488.81155364808 1098.7932752695554 0 1098.7932752695554 -136.17295250395085 0 0 0 0 4661.7575957437657 268.38080507564064 0 268.38080507564064 1575.2024807699872 0 0 0 0 5001.4499322612683 1307.1807521544451 0 1307.1807521544451 95.928662662003262 0 0 0 0 4433.7705847004545 1549.4668374832409 0 1549.4668374832409 1177.5366138452221 0 0 0 0 4967.176639761994 1320.2283486656659 0 1320.2283486656659 -584.13357108135847 0 0 0 0 4988.5860464221769 1203.8191889246307 0 1203.8191889246307 -7.0332202200614855 0 0 0 0 4312.19334550645 478.66776140154599 0 478.66776140154599 -208.88006488864232 0 0 0 0 3769.1585108038853 582.68750368403198 0 582.68750368403198 -168.32893063810394 0 0 0 0 3640.9413964087726 473.40436563784613 0 473.40436563784613 -174.01900000044441 0 0 0 0 3053.9207383086905 518.39642439545355 0 518.39642439545355 -103.44849364734971 0 0 0 0 4081.8629717960721 566.91150837727332 0 566.91150837727332 -215.33031383027924 0 0 0 0 4039.9613647066153 1998.5418913692731 0 1998.5418913692731 -194.09148960560725 0 0 0 0 1452.0705387043563 324.76382367207293 0 324.76382367207293 248.35608003933376 0 0 0 0 1568.1379683318082 -267.95786490554462 0 -267.95786490554462 -131.02784647155016 0 0 0 0 2572.030273658369 512.39834192582066 0 512.39834192582066 278.51847318812634 0 0 0 0 3809.883367499544 317.24551086515783 0 317.24551086515783 -366.51018502608264 0 0 0 0 3617.3929984054284 195.0525617385247 0 195.0525617385247 -373.74606278893208 0 0 0 0 5.5447210712198398 0.52493936938149943 0 0.52493936938149943 0.68748505253609382 0 0 0 0 4995.6505640929008 -3316.461172081084 0 -3316.461172081084 1895.3489102009592 0 0 0 0 -793.30166044526413 77.695042169001567 0 77.695042169001567 684.5825161700958 0 0 0 0 24.961931351539249 3.820512318748797 0 3.820512318748797 -0.087703530693507226 0 0 0 0 3368.8393103830313 2096.8940973907688 0 2096.8940973907688 109.00635591146566 0 0 0 0 2617.2967775357538 2319.2791060480981 0 2319.2791060480981 116.41275629285964 0 0 0 0 55.255733932932401 14.996843595771495 0 14.996843595771495 -4.1862914748581534 0 0 0 0 26.033860760286188 3.0615828414187511 0 3.0615828414187511 -89.041992764285752 0 0 0 0 75.015189908561297 233.28698505444561 0 233.28698505444561 -428.29082100629131 0 0 0 0 238.64671347654075 -86.007584591064301 0 -86.007584591064301 -359.2646128612879 0 0 0 0 165.03972843638985 -279.55059341378603 0 -279.55059341378603 133.52069030515054 0 0 0 0 -23.192161030136049 -112.78570087687228 0 -112.78570087687228 349.06736373228068 0 0 0 0 48.202448205352994 -9.0807200920571631 0 -9.0807200920571631 111.78937350279978 0 0 0 0 57.593468050079537 -63.596106677080456 0 -63.596106677080456 129.41235931560868 0 0 0 0 106.49080397312173 -101.34972220784543 0 -101.34972220784543 -13.866888462103759 0 0 0 0 99.010767271291115 -23.866514339846205 0 -23.866514339846205 -166.80287902744305 0 0 0 0 82.106052533548791 7.8054769443441145 0 7.8054769443441145 -5.6245313966909407 0 0 0 0 80.365201785520185 -44.304095942808658 0 -44.304095942808658 -13.786350224982641 0 0 0 0 98.010762757067823 -12.742215753189843 0 -12.742215753189843 7.6043284248784779 0 0 0 0 152.70293425543059 -28.329835105850364 0 -28.329835105850364 5.8993560814442354 0 0 0 0 83.530391097612664 -16.132721104524457 0 -16.132721104524457 43.20570516329235 0 0 0 0 110.0570009322546 -10.717992745586344 0 -10.717992745586344 42.045296220477667 0 0 0 0 142.95177969630458 32.278597746879768 0 32.278597746879768 67.475812554166623 0 0 0 0 78.916638904367574 -7.8947211710451484 0 -7.8947211710451484 53.337150014911458 0 0 0 0 56.493158372250036 -22.700842416626529 0 -22.700842416626529 49.51463961952436 0 0 0 0 44.25546439550817 -30.197689065606937 0 -30.197689065606937 89.615785453836793 0 0 0 0 43.894130873668473 5.6305411023504348 0 5.6305411023504348 69.958104197176681 0 0 0 0 58.964924639323726 -49.61156357756699 0 -49.61156357756699 61.018046710667022 0 0 0 0 83.623617297367673 -15.260491298170265 0 -15.260491298170265 43.984483313505962 0 0 0 0 64.090066113509238 -8.5933493025929124 0 -8.5933493025929124 -33.496214530806583 0 0 0 0 -54.598142340204504 37.580371088192237 0 37.580371088192237 52.993778715363078 0 0 0 0 198.39208755349682 -7.038689552371352 0 -7.038689552371352 5.8349956698211827 0 0 0 0 0.71243250620764798 1.3465635266506411 0 1.3465635266506411 -0.18014386273898042 0 0 0 0 37.980013825639617 42.874072273591537 0 42.874072273591537 35.242425494133613 0 0 0 0 68.183460310232476 -6.0015704569410673 0 -6.0015704569410673 56.330281790995059 0 0 0 0 -19.65085741916846 -22.833906000727922 0 -22.833906000727922 40.225616950986478 0 0 0 0 71.207893599144882 -8.6500426917955338 0 -8.6500426917955338 17.240593237495432 0 0 0 0 78.624033738470644 6.7900973531455193 0 6.7900973531455193 -0.49552641595109614 0 0 0 0 105.1080967137168 -13.164295033370166 0 -13.164295033370166 -66.127747819237129 0 0 0 0 67.996753484636429 -8.0150769352541147 0 -8.0150769352541147 -98.349393132819841 0 0 0 0 76.236652870866237 -36.074193475964194 0 -36.074193475964194 -31.208191758588555 0 0 0 0 85.473487122653751 39.444165064605158 0 39.444165064605158 29.43279134679733 0 0 0 0 76.005615579928985 3.2429805737051787 0 3.2429805737051787 0.037520471625988816 0 0 0 0 102.3445233614184 36.025254505731937 0 36.025254505731937 -150.74807192805747 0 0 0 0 94.100850345173967 -17.095333698630157 0 -17.095333698630157 -176.50697520842823 0 0 0 0 4.9065516881065037 18.611159360928401 0 18.611159360928401 -3.174803442716998 0 0 0 0 81.502346234163269 -7.3109657302197775 0 -7.3109657302197775 -181.69515485824149 0 0 0 0 -143.17089364131971 37.558912688538726 0 37.558912688538726 -212.57146622064738 0 0 0 0 -33.552976707112975 -177.37793773948624 0 -177.37793773948624 -358.5628339217435 0 0 0 0 44.796388554917939 -19.628395130297719 0 -19.628395130297719 -170.46237727643302 0 0 0 0 60.465046266064746 -117.53930747028676 0 -117.53930747028676 -139.29196375465438 0 0 0 0 62.040174288675189 -146.57892892863595 0 -146.57892892863595 39.580399136399251 0 0 0 0 82.343845290197351 -97.929434067454224 0 -97.929434067454224 -63.070984520131788 0 0 0 0 66.202362776937662 -67.017160708841857 0 -67.017160708841857 -53.36279146563561 0 0 0 0 64.170130019832868 -86.592319658938095 0 -86.592319658938095 32.550133465427734 0 0 0 0 73.031481259909924 -56.175995832977833 0 -56.175995832977833 -46.114393664214617 0 0 0 0 189.69029552600114 -110.0593919563521 0 -110.0593919563521 -442.12681333860047 0 0 0 0 182.99732051609317 77.658942553553402 0 77.658942553553402 18.383541855929138 0 0 0 0 86.299789313750807 -26.906337643123379 0 -26.906337643123379 50.813820932157711 0 0 0 0 41.620880421867867 4.384151701552053 0 4.384151701552053 1.5778737152410838 0 0 0 0 200.42757546086796 58.8036530316067 0 58.8036530316067 -464.53894763666949 0 0 0 0 28.918087909394671 -0.14257699425473191 0 -0.14257699425473191 1.1606056022967217 0 0 0 0 75.149677326116944 -13.693343995293617 0 -13.693343995293617 39.572291079508659 0 0 0 0 39.290254512365209 -1.1560850093032968 0 -1.1560850093032968 85.258382050907699 0 0 0 0 -10.441920099081472 117.16785148907161 0 117.16785148907161 -318.45083918922955 0 0 0 0 91.709038094384596 60.559751935475106 0 60.559751935475106 -328.24240700137779 0 0 0 0 13.876774396048859 -45.662544843410615 0 -45.662544843410615 -190.95498444904945 0 0 0 0 218.79835625223495 42.014409369047371 0 42.014409369047371 -309.8202342637619 0 0 0 0 144.05815816311224 -25.919346733865609 0 -25.919346733865609 -228.20237515791359 0 0 0 0 78.63545618444914 -99.965530097752207 0 -99.965530097752207 -74.892055264474266 0 0 0 0 121.65457578303176 -8.7033316371116598 0 -8.7033316371116598 -209.95604431802462 0 0 0 0 74.614377902835258 -88.98632206372406 0 -88.98632206372406 103.96224244611335 0 0 0 0 116.13377782716998 -73.439528024304536 0 -73.439528024304536 -59.939422513020986 0 0 0 0 174.27505283885694 -135.05733664369666 0 -135.05733664369666 -72.183467565155752 0 0 0 0 200.42504405643558 27.373212763663105 0 27.373212763663105 -35.592987334539657 0 0 0 0 68.763733833067818 -166.12487534602792 0 -166.12487534602792 -216.66687823313157 0 0 0 0 -256.09361437540792 15.648002045907447 0 15.648002045907447 -215.48061557921801 0 0 0 0 226.87265187135199 92.470697560191638 0 92.470697560191638 -203.6270096891659 0 0 0 0 270.09630083828233 203.41091031324805 0 203.41091031324805 160.19292174944351 0 0 0 0 139.07591541526199 41.816192040291298 0 41.816192040291298 579.98172207409243 0 0 0 0 248.74028341326493 -162.11237134872079 0 -162.11237134872079 126.83266332038511 0 0 0 0 103.17589338240214 43.002087880639579 0 43.002087880639579 428.14303103311624 0 0 0 0 192.39210699126124 -66.464830264494822 0 -66.464830264494822 101.69289538001706 0 0 0 0 358.03340399157605 23.349003006343651 0 23.349003006343651 187.2512701742603 0 0 0 0 115.95394631955423 48.715467493342544 0 48.715467493342544 254.25581482488928 0 0 0 0 1.0814951221259719 3.1598476637387307 0 3.1598476637387307 3.3465750304837751 0 0 0 0 529.82139714060759 372.87353398987227 0 372.87353398987227 491.31629570617804 0 0 0 0 1241.7230103425827 -160.9949506601406 0 -160.9949506601406 36.124159368425467 0 0 0 0 58.960972259839764 -84.323033841365486 0 -84.323033841365486 34.225937444933209 0 0 0 0 57.345415222807787 -94.716110241529066 0 -94.716110241529066 66.650828989171487 0 0 0 0 91.704142054622935 -38.683081577427714 0 -38.683081577427714 122.7030925474819 0 0 0 0 90.551024083062657 -33.722795522327488 0 -33.722795522327488 113.60587722531471 0 0 0 0 107.92337794530613 -16.393057817780004 0 -16.393057817780004 43.859837232635556 0 0 0 0 187.50550609444326 75.185918381202214 0 75.185918381202214 122.50128339199591 0 0 0 0 114.07840504097112 55.785142915559277 0 55.785142915559277 276.01848495936906 0 0 0 0 79.501572294786456 181.23485274454572 0 181.23485274454572 229.74019965910293 0 0 0 0 -245.2735115336709 98.343457897144134 0 98.343457897144134 0.64078657824552465 0 0 0 0 -238.83617995261011 135.91053387189936 0 135.91053387189936 -41.358720094603768 0 0 0 0 1.4713602922739994 2.3108127767256974 0 2.3108127767256974 3.7779339922898689 0 0 0 0 -235.67541622422868 171.69171224316602 0 171.69171224316602 -226.36129975193967 0 0 0 0 -277.64874559921736 162.39173621868349 0 162.39173621868349 -33.808391131057306 0 0 0 0 -534.96492268372094 111.19861557870968 0 111.19861557870968 -238.30128767337737 0 0 0 0 -227.15537921120995 290.91480676824881 0 290.91480676824881 100.78322542686283 0 0 0 0 489.66754402370134 262.98767448941589 0 262.98767448941589 -636.39050235241382 0 0 0 0 153.56847638790714 165.11146347669978 0 165.11146347669978 104.34474765783807 0 0 0 0 -131.13324191837455 206.8972462054686 0 206.8972462054686 104.34590285337481 0 0 0 0 113.70542049787946 580.98037681266214 0 580.98037681266214 -1161.7682625937825 0 0 0 0 99.487705664549139 40.798443831516281 0 40.798443831516281 -696.18674472382224 0 0 0 0 71.655807056766207 8.1465783620878796 0 8.1465783620878796 -3.0903886057151837 0 0 0 0 17.246256507241554 1.0281097987509469 0 1.0281097987509469 -4.0654617919103231 0 0 0 0 -559.00110338587547 275.32850457222298 0 275.32850457222298 -396.34501122064171 0 0 0 0 34.015180481015705 -406.52673539299087 0 -406.52673539299087 -2.2858972792669192 0 0 0 0 7.0292651227004228 -12.522150831761174 0 -12.522150831761174 -4.0807116351710446 0 0 0 0 -162.29992246771144 148.80246907199481 0 148.80246907199481 -559.48711914774753 0 0 0 0 -480.60914151795441 708.38225223679603 0 708.38225223679603 -1541.0186771686028 0 0 0 0 835.35109666113567 -144.15173391483961 0 -144.15173391483961 -223.63853367656895 0 0 0 0 465.68359846165549 -90.213701912916264 0 -90.213701912916264 119.46521836083866 0 0 0 0 -57.324819008877967 -5.1259443196322536 0 -5.1259443196322536 -11.661960867529388 0 0 0 0 478.36638634403789 -113.6918833352504 0 -113.6918833352504 -72.76045663940431 0 0 0 0 235.57693194813328 211.16837579814364 0 211.16837579814364 90.063388081565108 0 0 0 0 73.834964103072707 -37.112669261374435 0 -37.112669261374435 -158.66828476063756 0 0 0 0 304.2482064570213 527.88832250209634 0 527.88832250209634 -1394.864111087491 0 0 0 0 153.46419298231194 270.1882000662597 0 270.1882000662597 -410.50545731432987 0 0 0 0 -205.67182296580359 -53.414420368770465 0 -53.414420368770465 -585.27435073982565 0 0 0 0 738.27560711170372 -443.28363237740632 0 -443.28363237740632 -638.98918066510441 0 0 0 0 445.58101880244067 -304.76407898484115 0 -304.76407898484115 -175.5200810648289 0 0 0 0 -196.27989312387945 358.38964003664569 0 358.38964003664569 -268.17666765902351 0 0 0 0 3.5734975413191705 -6.0966689494150064 0 -6.0966689494150064 3.0118508211428647 0 0 0 0 376.4330370063908 231.30273184763044 0 231.30273184763044 -634.86026365549753 0 0 0 0 485.66108513073414 -103.30604407293885 0 -103.30604407293885 -1170.9806665808824 0 0 0 0 70.211863580761701 4.7732598000701945 0 4.7732598000701945 -0.77414630134355056 0 0 0 0 -457.99101615822292 515.46325345605123 0 515.46325345605123 30.566052160717049 0 0 0 0 821.11728798619879 25.351811162866738 0 25.351811162866738 14.884007030464275 0 0 0 0 15.011767920284314 7.1620695327475659 0 7.1620695327475659 7.1655810473404102 0 0 0 0 -30.822147241065977 32.671060578982093 0 32.671060578982093 -121.43401753023107 0 0 0 0 -874.21616483551043 336.44527419207515 0 336.44527419207515 515.26297475275192 0 0 0 0 240.80241858508816 478.27807611298476 0 478.27807611298476 479.72839123420437 0 0 0 0 1132.9821124187438 886.9835214278072 0 886.9835214278072 601.63826069184427 0 0 0 0 297.71825969386555 8.9653450464437299 0 8.9653450464437299 371.47066593534532 0 0 0 0 -208.36412505732733 224.93101049108714 0 224.93101049108714 422.7113962149183 0 0 0 0 -214.50709874739186 230.09326665094204 0 230.09326665094204 548.3526761941888 0 0 0 0 4102.9554060225491 -33.725340555223625 0 -33.725340555223625 -774.59540352060185 0 0 0 0 5001.6550410593027 677.84773459799271 0 677.84773459799271 -265.26853465143824 0 0 0 0 2052.271058020684 128.98416814159503 0 128.98416814159503 -77.415692218296385 0 0 0 0 3076.1475074252958 1233.8347319682875 0 1233.8347319682875 -112.78370982688557 0 0 0 0 1253.6086396788887 -355.46932248419068 0 -355.46932248419068 22.369624444848569 0 0 0 0 2386.6668236056576 502.03170048022758 0 502.03170048022758 -8.0387939038235601 0 0 0 0 5000.98025613551 14.912834500273064 0 14.912834500273064 -988.6285339312567 0 0 0 0 2998.6980266458049 -957.52104293028617 0 -957.52104293028617 -823.19142071595866 0 0 0 0 4988.1742217752908 -1094.7823613173873 0 -1094.7823613173873 -813.7773244393743 0 0 0 0 213.60616599181958 379.1815221772012 0 379.1815221772012 202.60307880745222 0 0 0 0 2164.7671291063489 -2039.7262319961608 0 -2039.7262319961608 752.1408032740303 0 0 0 0 32.454669556959288 3.357616689091758 0 3.357616689091758 1.6640738200115424 0 0 0 0 4989.5224474966235 1844.3970786551636 0 1844.3970786551636 -737.96301785647927 0 0 0 0 1949.9497004915538 2241.7424427674591 0 2241.7424427674591 934.17425497343083 0 0 0 0 -32.525117755321844 302.52053423398945 0 302.52053423398945 316.45949265058118 0 0 0 0 2553.2617374111833 1112.7165245917552 0 1112.7165245917552 113.7108670672643 0 0 0 0 2759.2960927430631 902.48236124479251 0 902.48236124479251 -795.57047472048828 0 0 0 0 84.378977068481618 -28.997959800114302 0 -28.997959800114302 15.839929711437208 0 0 0 0 58.060632568054615 -4.0977696483847694 0 -4.0977696483847694 -4.4642165665160505 0 0 0 0 -1.2719809105466737 -21.179233946489916 0 -21.179233946489916 14.265913215694368 0 0 0 0 0.76992508142575389 -59.77904700548423 0 -59.77904700548423 -765.09863676004898 0 0 0 0 362.84930502381394 -64.690530800839383 0 -64.690530800839383 -1018.1816347589602 0 0 0 0 622.85717833065428 -345.81370240461683 0 -345.81370240461683 -919.73749381908306 0 0 0 0 2.4828846397738005 -5.1124532039419499 0 -5.1124532039419499 5.4789475954829703 0 0 0 0 317.45751677016233 -517.92994231756654 0 -517.92994231756654 -122.02355361893058 0 0 0 0 979.35559423260565 208.2307537752672 0 208.2307537752672 66.266700190702579 0 0 0 0 7.1367094385404215 -2.5357295044061772 0 -2.5357295044061772 3.2035338908270763 0 0 0 0 996.19427980505861 160.74387669572837 0 160.74387669572837 161.29668594651423 0 0 0 0 124.84077136125779 -125.99894361016339 0 -125.99894361016339 194.04212422074568 0 0 0 0 28.253032775624888 -62.145778014216376 0 -62.145778014216376 184.60868416772757 0 0 0 0 115.89825740421657 -89.140412537603055 0 -89.140412537603055 67.816033923072254 0 0 0 0 152.10001752515382 116.64821558981401 0 116.64821558981401 310.97694040244232 0 0 0 0 49.361129811290084 -43.644207519749358 0 -43.644207519749358 337.77070014103958 0 0 0 0 51.233876921054616 -3.5407068041574803 0 -3.5407068041574803 174.86613397014105 0 0 0 0 -39.013369417109061 -9.3572917758353924 0 -9.3572917758353924 242.0545439979702 0 0 0 0 52.444181150982331 -33.735144397266581 0 -33.735144397266581 156.58423059624602 0 0 0 0 1705.7314492330115 299.23457152664491 0 299.23457152664491 34.643068744786007 0 0 0 0 1266.1565536908238 -232.14868439095397 0 -232.14868439095397 -110.46116429419192 0 0 0 0 0.46648777621285831 0.43530324727549896 0 0.43530324727549896 -0.27937578925310846 0 0 0 0 207.14377166096529 -425.60059005557662 0 -425.60059005557662 -53.80456097325731 0 0 0 0 97.642009375194903 44.508227833414821 0 44.508227833414821 -414.19460952879285 0 0 0 0 5.6459925688232033 278.19853066232542 0 278.19853066232542 -140.58026219173803 0 0 0 0 -67.381267443590332 120.73079615862576 0 120.73079615862576 207.33929546426236 0 0 0 0 5001.7902464690196 81.719095138825452 0 81.719095138825452 -989.12308432679765 0 0 0 0 3847.0928490738879 764.35621617767106 0 764.35621617767106 -781.61458267637749 0 0 0 0 2324.3456147465549 -473.99538762736694 0 -473.99538762736694 -101.77970006249507 0 0 0 0 4060.8525158422708 -776.91310809680067 0 -776.91310809680067 -259.43408715817117 0 0 0 0 3731.8467182277 -60.167589746193805 0 -60.167589746193805 -585.57879897241742 0 0 0 0 5717.481786036391 147.65257131874989 0 147.65257131874989 -861.77089620133256 0 0 0 0 4998.4172848470516 -22.229098529463684 0 -22.229098529463684 1808.7411184597227 0 0 0 0 5189.0773351105454 -951.12839616566703 0 -951.12839616566703 53.428876540658848 0 0 0 0 1416.6400727181754 963.37049283868805 0 963.37049283868805 460.9303114665089 0 0 0 0 4350.8630716071348 1519.1559574268208 0 1519.1559574268208 109.55846339861375 0 0 0 0 722.05599246062047 -839.80070186937746 0 -839.80070186937746 339.14502772590811 0 0 0 0 3520.0575446187067 -1862.9299237151768 0 -1862.9299237151768 172.82508519026976 0 0 0 0 27.356325791048675 -0.70708129448728485 0 -0.70708129448728485 0.10789486417173193 0 0 0 0 69.430397630436346 579.75628159688654 0 579.75628159688654 552.84370530871252 0 0 0 0 343.32227828978648 104.5256223753407 0 104.5256223753407 -606.09108129457422 0 0 0 0 -138.04215997623396 268.89657326016311 0 268.89657326016311 297.24643195227134 0 0 0 0 58.247971524184635 -0.77438471733140002 0 -0.77438471733140002 -0.91054302642105744 0 0 0 0 383.76251357608271 -54.505385285703198 0 -54.505385285703198 -290.14004511368466 0 0 0 0 -56.135576026241324 -79.655598301799444 0 -79.655598301799444 51.941858167316397 0 0 0 0 227.94728134461548 -220.67112236014614 0 -220.67112236014614 159.24360631771367 0 0 0 0 1497.9648082127533 491.14451591330089 0 491.14451591330089 316.85810558797431 0 0 0 0 348.49272658622158 232.1044478051279 0 232.1044478051279 519.59222656104657 0 0 0 0 -73.389170656173519 -37.876633452233861 0 -37.876633452233861 46.0113175964307 0 0 0 0 153.96701202067743 -243.42434648455782 0 -243.42434648455782 211.55862984764212 0 0 0 0 -195.60054917293382 -104.90401929136736 0 -104.90401929136736 132.1527559486517 0 0 0 0 306.29576640029791 197.45724908961796 0 197.45724908961796 172.96469577362689 0 0 0 0 1846.3912728008218 -297.58023670111606 0 -297.58023670111606 -56.319035782102134 0 0 0 0 309.83624900475115 128.16526674652491 0 128.16526674652491 322.86780558031705 0 0 0 0 2801.2184675067692 -380.55319080812296 0 -380.55319080812296 -364.48658851831613 0 0 0 0 1809.3777223793732 -416.41255947650853 0 -416.41255947650853 -365.56390826189516 0 0 0 0 4986.413497185531 24.339328734473327 0 24.339328734473327 -734.2822382479294 0 0 0 0 5002.058430588706 85.554833221236137 0 85.554833221236137 -563.1942598565945 0 0 0 0 82.512183590060886 59.429955495164222 0 59.429955495164222 -6.1731805554638868 0 0 0 0 59.286157050228184 3.1567130020680594 0 3.1567130020680594 -161.59363450539229 0 0 0 0 59.556421266167803 8.5082116828140997 0 8.5082116828140997 -58.632655659122065 0 0 0 0 111.1842004385353 63.203210985329463 0 63.203210985329463 -172.83787560666747 0 0 0 0 112.71559841052567 54.86348525898228 0 54.86348525898228 -143.60332477600582 0 0 0 0 83.603185080935873 90.657683341114762 0 90.657683341114762 -50.853016346474703 0 0 0 0 70.023480309137256 50.791352172256644 0 50.791352172256644 5.9973198233333669 0 0 0 0 -313.27863096698638 330.08060405642914 0 330.08060405642914 36.793499804697376 0 0 0 0 90.35084519398788 74.244074366889947 0 74.244074366889947 -97.121842294281578 0 0 0 0 -79.367623735473899 -28.021930953600005 0 -28.021930953600005 86.699319126474748 0 0 0 0 68.473814133056209 53.279458349595899 0 53.279458349595899 7.2607784311216106 0 0 0 0 95.454201062533684 10.3682854440558 0 10.3682854440558 -1.8935056083604422 0 0 0 0 64.014343941569678 30.154355228894588 0 30.154355228894588 -3.396684376848043 0 0 0 0 -128.66951641558626 42.846688028125328 0 42.846688028125328 9.264639946345028 0 0 0 0 52.115757915600497 27.776409051342043 0 27.776409051342043 -9.0461313833367676 0 0 0 0 114.70996204503172 21.929539632700653 0 21.929539632700653 -46.86167473412047 0 0 0 0 -65.360252257996763 -41.520325131785654 0 -41.520325131785654 -19.83684253373076 0 0 0 0 61.624190990381777 1.4563511282941777 0 1.4563511282941777 1.7234690426001926 0 0 0 0 122.17019752938359 122.65605451487713 0 122.65605451487713 -182.42593298474975 0 0 0 0 1.6238766580019899 3.5737187069366563 0 3.5737187069366563 3.6086318769018151 0 0 0 0 31.798250010420247 24.05421490869459 0 24.05421490869459 -7.9431602366478629 0 0 0 0 74.16456773551181 46.826142477257235 0 46.826142477257235 5.3349047145857185 0 0 0 0 39.8874355507578 73.915598760118655 0 73.915598760118655 -114.7627102328301 0 0 0 0 44.567902306327596 124.24957400393214 0 124.24957400393214 149.84598111511286 0 0 0 0 6.0189274949643448 -5.939388594135572 0 -5.939388594135572 -6.9205040999624732 0 0 0 0 0.72608274402409734 10.31005672072394 0 10.31005672072394 -0.80505829129212769 0 0 0 0 61.065213582944125 229.75896167558039 0 229.75896167558039 -9.0208249541547048 0 0 0 0 0.048184419213555429 5.1997456084608586 0 5.1997456084608586 12.507382894183275 0 0 0 0 0.015773932333104312 -22.217241248874871 0 -22.217241248874871 95.61403150021988 0 0 0 0 57.830474375427002 32.94413698131666 0 32.94413698131666 -36.413997302367306 0 0 0 0 54.989630280189004 24.111418369545916 0 24.111418369545916 4.6014385137673992 0 0 0 0 65.314796417631442 48.337774464793483 0 48.337774464793483 -34.931280910058149 0 0 0 0 74.236071867504734 12.342077037925737 0 12.342077037925737 3.3357571364458209 0 0 0 0 32.059097404676265 34.630068301739797 0 34.630068301739797 -1.6817756819887517 0 0 0 0 57.221553863190366 35.443304203908752 0 35.443304203908752 -0.80970724754843104 0 0 0 0 56.590583030711514 30.432679263674039 0 30.432679263674039 13.301055609221077 0 0 0 0 51.989692577160895 78.096494154912762 0 78.096494154912762 22.894279354328773 0 0 0 0 27.844150550229827 7.4930891668457438 0 7.4930891668457438 -5.3778970704802003 0 0 0 0 90.165798543323035 122.71832491912005 0 122.71832491912005 29.177596096203388 0 0 0 0 60.873474027063821 29.875958200215791 0 29.875958200215791 29.72928616738227 0 0 0 0 118.20224987704296 96.846657406071813 0 96.846657406071813 -52.740169263735424 0 0 0 0 109.12481796789507 26.346282837870945 0 26.346282837870945 -103.42276631816003 0 0 0 0 113.83491065565795 97.213936661396133 0 97.213936661396133 -13.695681093713119 0 0 0 0 47.821630111881511 3.6751228006937957 0 3.6751228006937957 -2.3678900280505264 0 0 0 0 73.777599526187259 85.278713091358327 0 85.278713091358327 71.612366900273628 0 0 0 0 116.66440333096165 47.896042965009741 0 47.896042965009741 18.067675008540437 0 0 0 0 306.65233366098983 89.559090959454068 0 89.559090959454068 -97.165026490836226 0 0 0 0 115.92486044454563 120.55801169971176 0 120.55801169971176 50.161492787868866 0 0 0 0 49.470376876372029 67.887077338034715 0 67.887077338034715 37.74416113286884 0 0 0 0 27.137159627679083 -3.0963524264261366 0 -3.0963524264261366 -8.1205763467380798 0 0 0 0 64.573745824232901 31.68854617374231 0 31.68854617374231 -19.666846440790096 0 0 0 0 61.05669627228599 53.906601357481023 0 53.906601357481023 -30.65201697030875 0 0 0 0 86.335873642092338 62.589646539656087 0 62.589646539656087 16.852519729214976 0 0 0 0 62.625232838268857 66.720769035248509 0 66.720769035248509 20.423496004237904 0 0 0 0 59.447730621347546 77.6974678345412 0 77.6974678345412 39.796471101482439 0 0 0 0 56.914155402901997 57.64303523992551 0 57.64303523992551 43.132995444562539 0 0 0 0 112.49710954894545 66.508157933223714 0 66.508157933223714 31.488984703684508 0 0 0 0 209.92328277178603 74.409560347181213 0 74.409560347181213 -0.72057804563337413 0 0 0 0 115.67137222106976 45.748681809060841 0 45.748681809060841 8.3221704495769711 0 0 0 0 -13.34781590847706 136.51522034139902 0 136.51522034139902 -106.84100381184544 0 0 0 0 -0.22861106270056553 2.739860838972092 0 2.739860838972092 6.9619528662597174 0 0 0 0 -53.69753242310253 -12.472016336803676 0 -12.472016336803676 -146.8621323899381 0 0 0 0 -67.619083667557788 78.700514022769767 0 78.700514022769767 -40.468869192460033 0 0 0 0 -71.243123046522669 111.6740463219619 0 111.6740463219619 84.880298106076566 0 0 0 0 51.610222767078085 41.412651680471072 0 41.412651680471072 -24.669072336479076 0 0 0 0 20.702094698441215 90.409299323964774 0 90.409299323964774 14.443550973536787 0 0 0 0 1.4030987849691883 112.10209006901698 0 112.10209006901698 -44.422582110976407 0 0 0 0 12.825588183564832 68.646626972494118 0 68.646626972494118 33.214205246545134 0 0 0 0 -3.0858247166470392 45.001366162468891 0 45.001366162468891 86.534005283589465 0 0 0 0 -38.93692126237147 84.223649895079802 0 84.223649895079802 77.261119368945913 0 0 0 0 -19.302158304461045 50.292373407135472 0 50.292373407135472 103.27250928689818 0 0 0 0 -41.034698722782196 51.290085726418965 0 51.290085726418965 116.54124751985944 0 0 0 0 48.9872615389977 -30.631177871997465 0 -30.631177871997465 103.64707497872195 0 0 0 0 19.452452472682126 -31.235567818015305 0 -31.235567818015305 108.98139736822496 0 0 0 0 -20.00559436227195 10.482535094480916 0 10.482535094480916 158.58118272193224 0 0 0 0 31.275630102772993 1.3831020451867744 0 1.3831020451867744 70.708820139110287 0 0 0 0 19.843033629949787 29.994852054923925 0 29.994852054923925 89.992013281368543 0 0 0 0 67.551308956139508 6.4747036533214981 0 6.4747036533214981 -3.0922767197586132 0 0 0 0 61.227250403426297 1.8639523653296663 0 1.8639523653296663 61.030343741969034 0 0 0 0 127.81753109410784 34.972701899648371 0 34.972701899648371 17.730270884800348 0 0 0 0 95.471416048847459 23.229962086358576 0 23.229962086358576 23.034749910752055 0 0 0 0 91.015122314332984 32.942121602543637 0 32.942121602543637 47.163876352739209 0 0 0 0 46.217315287984093 64.718285227524277 0 64.718285227524277 48.815149824920205 0 0 0 0 62.501449487630452 47.69890077099879 0 47.69890077099879 39.92309493302642 0 0 0 0 91.850347693471122 10.798326555090227 0 10.798326555090227 27.806575117662561 0 0 0 0 59.058223242183885 15.031801674004857 0 15.031801674004857 37.654944494555593 0 0 0 0 101.12345739246302 19.924966325602426 0 19.924966325602426 23.740261527402936 0 0 0 0 40.280817998776968 -27.816900684681116 0 -27.816900684681116 -8.8114883245486197 0 0 0 0 42.585678832620033 -88.852930566487885 0 -88.852930566487885 -201.50770589479566 0 0 0 0 69.815186986103072 -62.491318997781036 0 -62.491318997781036 -61.25302504147885 0 0 0 0 41.494286265704432 -142.0576571674053 0 -142.0576571674053 -206.13013720895515 0 0 0 0 139.37140167043617 -32.903533499779996 0 -32.903533499779996 -62.542145730879838 0 0 0 0 30.617974795619759 -26.847876167725559 0 -26.847876167725559 -14.548666335691291 0 0 0 0 126.61977964353173 31.342226350705481 0 31.342226350705481 16.757596376554687 0 0 0 0 155.027859722024 -10.099053942938554 0 -10.099053942938554 -30.48501826525353 0 0 0 0 182.89025948310882 -75.248327711436787 0 -75.248327711436787 -192.35797853818087 0 0 0 0 184.94844220555387 -61.533366713773376 0 -61.533366713773376 -118.86978620439572 0 0 0 0 253.83293067482009 -30.594820827558124 0 -30.594820827558124 -123.07716343624952 0 0 0 0 276.0247055603395 39.563412141962544 0 39.563412141962544 -123.99575708361363 0 0 0 0 216.82908976494218 -0.071022984442151937 0 -0.071022984442151937 -117.14560476761969 0 0 0 0 200.49384978929447 1.4277252514698375 0 1.4277252514698375 -126.97603906798304 0 0 0 0 115.22340406313015 72.282645731176672 0 72.282645731176672 -129.00594475003368 0 0 0 0 166.4353482456645 -28.476972478415519 0 -28.476972478415519 -122.51790617956226 0 0 0 0 158.80955630058452 -40.399703608224627 0 -40.399703608224627 -93.853131896609739 0 0 0 0 179.16129829845158 -6.9050911083477331 0 -6.9050911083477331 -45.795470888861928 0 0 0 0 133.52594736296069 21.805306317843634 0 21.805306317843634 -5.4075782909030092 0 0 0 0 147.25452721434431 2.0316741023336249 0 2.0316741023336249 -45.36645056512225 0 0 0 0 141.83723484125812 46.367012603750709 0 46.367012603750709 -151.07618852490123 0 0 0 0 119.89890859821361 26.725630940253396 0 26.725630940253396 3.5325882733022009 0 0 0 0 126.99828974756747 75.288525186433617 0 75.288525186433617 -110.50599378982929 0 0 0 0 132.26785707872114 23.396116806462487 0 23.396116806462487 -66.382432834157953 0 0 0 0 178.8461380809822 42.71314621403053 0 42.71314621403053 -58.929065036043539 0 0 0 0 118.37421104791429 88.122515611522203 0 88.122515611522203 -121.76385775453764 0 0 0 0 96.103948269639659 68.824141425440075 0 68.824141425440075 -65.573649362986544 0 0 0 0 128.8015759052505 48.319732888635372 0 48.319732888635372 -90.593980005164212 0 0 0 0 74.006478661948393 -18.436201548125368 0 -18.436201548125368 -42.522591812652294 0 0 0 0 239.21307121814971 92.119494291609044 0 92.119494291609044 -111.56143869288326 0 0 0 0 85.93451844912488 82.983971048424621 0 82.983971048424621 -31.11829943501499 0 0 0 0 147.65797111091683 40.214679666565239 0 40.214679666565239 2.755015141922442 0 0 0 0 66.450838527569431 -12.614313820348343 0 -12.614313820348343 67.10870759732137 0 0 0 0 125.66168856923468 32.75957186253143 0 32.75957186253143 0.43637226627822656 0 0 0 0 182.21379576487743 -8.1479506247452775 0 -8.1479506247452775 5.5258800018825696 0 0 0 0 115.87588990438962 26.468217464476368 0 26.468217464476368 14.971661370050725 0 0 0 0 65.74676909904565 -13.018412208832942 0 -13.018412208832942 -18.850481549620056 0 0 0 0 210.35490009246132 33.918892358602307 0 33.918892358602307 -44.361617620181278 0 0 0 0 116.08821850018285 30.975516606598831 0 30.975516606598831 -57.330750501110742 0 0 0 0 117.39898145604093 47.375918579422432 0 47.375918579422432 -42.157029893805884 0 0 0 0 119.18252465547266 57.190548966697861 0 57.190548966697861 -95.320875945682928 0 0 0 0 69.950531323236646 32.956931797402831 0 32.956931797402831 -51.814640654421055 0 0 0 0 104.02780593301577 20.20287353557876 0 20.20287353557876 -185.42463574085195 0 0 0 0 96.587264553905698 -21.26268787055551 0 -21.26268787055551 -248.89159196340916 0 0 0 0 130.81351236624323 -18.150677109048956 0 -18.150677109048956 -136.41917757937517 0 0 0 0 160.70100444202399 35.37739934061392 0 35.37739934061392 -193.81995407379873 0 0 0 0 56.913886723654286 21.453383359010331 0 21.453383359010331 -183.21395355721506 0 0 0 0 52.023588132648001 100.18751127215091 0 100.18751127215091 -171.44922464544652 0 0 0 0 2.588147781316934 -2.2191752783944239 0 -2.2191752783944239 -1.8283649320043267 0 0 0 0 173.29681490187363 -52.600455686437954 0 -52.600455686437954 2.4237721358767885 0 0 0 0 169.0365504047295 22.828789474793666 0 22.828789474793666 -72.366886127299949 0 0 0 0 106.05813646094612 -11.052182439401804 0 -11.052182439401804 -21.088896319579362 0 0 0 0 40.512338952640782 -11.045777076286008 0 -11.045777076286008 -19.902891173061271 0 0 0 0 52.487962098304706 120.57527080462148 0 120.57527080462148 -123.66501742710716 0 0 0 0 111.76482447738454 26.09018370279955 0 26.09018370279955 15.245386171102837 0 0 0 0 41.483034387202991 34.568252463379849 0 34.568252463379849 -12.374914308790254 0 0 0 0 11.335509498934698 37.420319536841816 0 37.420319536841816 -102.94448765983543 0 0 0 0 3.2661113810900133 25.22567034353051 0 25.22567034353051 -180.26355125568807 0 0 0 0 67.245823731199835 39.876875017448867 0 39.876875017448867 -24.367693538095946 0 0 0 0 64.395853725004315 12.913453054422689 0 12.913453054422689 -12.356439906576014 0 0 0 0 27.101068572481978 3.5345052023989183 0 3.5345052023989183 -7.7931325006586114 0 0 0 0 36.171096630636384 56.322180718914751 0 56.322180718914751 -150.99409208193538 0 0 0 0 24.208567418034121 45.030736231492725 0 45.030736231492725 -24.232253641318898 0 0 0 0 -36.0278777573767 18.607182833793104 0 18.607182833793104 -157.87172653510993 0 0 0 0 165.92381399272563 120.35064932261639 0 120.35064932261639 -123.72222199273801 0 0 0 0 164.85892092714494 131.46165465303261 0 131.46165465303261 -48.648688237535282 0 0 0 0 106.64286929504632 32.409778396998689 0 32.409778396998689 -3.0144926989434619 0 0 0 0 153.7218801166091 125.08328115286031 0 125.08328115286031 -161.0728505678976 0 0 0 0 129.39072085897715 16.365230920734575 0 16.365230920734575 -63.636179793375732 0 0 0 0 144.30571357371264 -4.8080703894353292 0 -4.8080703894353292 -39.424955971119743 0 0 0 0 22.078959435994356 15.26602508468816 0 15.26602508468816 -9.09593875658652 0 0 0 0 200.66575990880301 -17.174299916635846 0 -17.174299916635846 -58.850073751241325 0 0 0 0 177.81326449357948 51.295459699776075 0 51.295459699776075 -12.868798136074474 0 0 0 0 242.78112014695944 -52.77402061806697 0 -52.77402061806697 -64.235095193373127 0 0 0 0 39.616408950441837 10.633204866835513 0 10.633204866835513 -53.644088831122644 0 0 0 0 56.939344318278017 -8.8557535459785868 0 -8.8557535459785868 -31.776728474982519 0 0 0 0 107.11681327535553 25.572705189892986 0 25.572705189892986 -42.56946872397566 0 0 0 0 30.750614237803493 16.794158498425759 0 16.794158498425759 -7.1403277867971084 0 0 0 0 102.02077192526849 41.34896142599905 0 41.34896142599905 -8.5203064118031762 0 0 0 0 114.38527204033107 49.63226083651756 0 49.63226083651756 -1.5983944783147308 0 0 0 0 124.56280083091224 34.04703079553974 0 34.04703079553974 -23.864037465842557 0 0 0 0 134.26282962167897 72.239353119754014 0 72.239353119754014 -1.4165408034386928 0 0 0 0 27.980729182196484 -14.392966577594098 0 -14.392966577594098 -25.227595263029983 0 0 0 0 142.83486399261164 61.568384783211513 0 61.568384783211513 11.696884375647642 0 0 0 0 100.24599187210333 35.195848052946531 0 35.195848052946531 6.3788783309487371 0 0 0 0 127.29085904317617 34.881654382591023 0 34.881654382591023 -30.455421834694789 0 0 0 0 129.38090529504598 2.9872933270822557 0 2.9872933270822557 -39.601918649850631 0 0 0 0 93.294447282589317 41.934087204255775 0 41.934087204255775 -5.8773808583009668 0 0 0 0 52.025210913354385 -48.719633651410732 0 -48.719633651410732 -7.7067312681288058 0 0 0 0 89.295596817213664 42.995926498606423 0 42.995926498606423 0.49831642942444887 0 0 0 0 21.599373389217362 -30.940992946154438 0 -30.940992946154438 -49.322162910638326 0 0 0 0 121.78492764852126 57.180791039660107 0 57.180791039660107 -1.3281680476247857 0 0 0 0 9.6457654488300619 6.2820267312780658 0 6.2820267312780658 3.5521342688077695 0 0 0 0 23.671843100571927 1.570488089123252 0 1.570488089123252 -2.5732465432091871 0 0 0 0 80.444791895191884 37.538779609096309 0 37.538779609096309 3.8094396963861072 0 0 0 0 120.67745185748936 30.433535532998576 0 30.433535532998576 -14.785626610990221 0 0 0 0 82.923566639825594 49.59430597835177 0 49.59430597835177 -20.352001834613475 0 0 0 0 47.646765817024288 -8.4111851377981566 0 -8.4111851377981566 -8.3276071568661791 0 0 0 0 10.80868278150016 -2.9653405457646738 0 -2.9653405457646738 -13.391791800846754 0 0 0 0 2.3248901515294307 0.33082974501069806 0 0.33082974501069806 -1.1108486809477398 0 0 0 0 126.08104902699415 25.04769134167509 0 25.04769134167509 -95.895957896540494 0 0 0 0 120.20574538814253 92.586101895110914 0 92.586101895110914 -18.423170033256611 0 0 0 0 23.210226664953886 -14.308439163593571 0 -14.308439163593571 -14.883876437087089 0 0 0 0 30.287407033333523 -4.448379862161719 0 -4.448379862161719 -20.169929491192562 0 0 0 0 58.012358017975203 34.460267458745875 0 34.460267458745875 1.6922479583736276 0 0 0 0 1.1366773219015158 -23.195019640337705 0 -23.195019640337705 -37.692070170811348 0 0 0 0 61.116750979265333 -5.290253915848111 0 -5.290253915848111 -2.1131647842224268 0 0 0 0 31.683490952022701 6.5665175262973037 0 6.5665175262973037 0.15109441833025983 0 0 0 0 -12.942150735698306 -31.091290747801395 0 -31.091290747801395 25.34797325632826 0 0 0 0 156.15798389803967 80.842217375055043 0 80.842217375055043 -67.693485373192743 0 0 0 0 61.281422357071449 -5.9681319131152577 0 -5.9681319131152577 -0.28252477123805875 0 0 0 0 68.12854254672277 -7.4666914265167179 0 -7.4666914265167179 -29.625694909163485 0 0 0 0 132.51057890813752 8.3349531263800145 0 8.3349531263800145 -19.079922207522714 0 0 0 0 76.492508596406267 2.6749316117837871 0 2.6749316117837871 -4.4111231350741296 0 0 0 0 112.97473063569396 16.613247124807458 0 16.613247124807458 16.609354268803145 0 0 0 0 81.299636720250419 -36.565134700837461 0 -36.565134700837461 -120.78688824646088 0 0 0 0 128.53772447007964 19.294774475509712 0 19.294774475509712 -25.012852400957854 0 0 0 0 37.626045672363183 53.735490597506164 0 53.735490597506164 -6.0563615897487466 0 0 0 0 19.214616177523837 -1.3149781391952331 0 -1.3149781391952331 0.066398682198233416 0 0 0 0 154.66934326643241 153.98011039955236 0 153.98011039955236 62.53755962420837 0 0 0 0 42.566401873215909 192.5364894425685 0 192.5364894425685 67.665626922454976 0 0 0 0 202.48928559496926 176.03834866437228 0 176.03834866437228 47.152989030597382 0 0 0 0 10.135676318373058 26.216541519971994 0 26.216541519971994 -7.3481298254551399 0 0 0 0 224.98282437764647 16.112223492539215 0 16.112223492539215 -20.228156843197212 0 0 0 0 167.00755928520084 -0.27733929914484179 0 -0.27733929914484179 6.94098800147367 0 0 0 0 156.17666880153411 25.313354805065501 0 25.313354805065501 -18.569383492379473 0 0 0 0 22.481497235769663 22.15703372730103 0 22.15703372730103 0.6029406723831876 0 0 0 0 142.71507266743629 9.6810487739190876 0 9.6810487739190876 0.25772003995007253 0 0 0 0 172.55318938962887 14.931755384846383 0 14.931755384846383 -26.961261055672367 0 0 0 0 9.8777368465067212 36.14033110409035 0 36.14033110409035 -2.0966532498912755 0 0 0 0 32.350086991718229 36.828662436228868 0 36.828662436228868 2.5386692641207773 0 0 0 0 0.040888104848634088 23.611769378432527 0 23.611769378432527 2.9849309185160564 0 0 0 0 108.35666316198331 9.9369575228683971 0 9.9369575228683971 5.2805558256777658 0 0 0 0 100.27107559982232 27.369141512231522 0 27.369141512231522 7.4101979142342316 0 0 0 0 99.617088158840488 11.957095603112748 0 11.957095603112748 -4.0560071693460031 0 0 0 0 193.99259183660502 24.164020575047743 0 24.164020575047743 -46.113144336484993 0 0 0 0 157.2145690491086 -5.6875118884551057 0 -5.6875118884551057 8.3245850169223559 0 0 0 0 162.76074191704146 34.825989250476439 0 34.825989250476439 -28.375886568762326 0 0 0 0 128.19106103781422 23.463159314544555 0 23.463159314544555 12.599445457827642 0 0 0 0 64.999729070373064 -17.824813690056089 0 -17.824813690056089 -5.4787572490536149 0 0 0 0 164.07642636904086 -16.219240857075874 0 -16.219240857075874 -11.14383339340668 0 0 0 0 -1796.0510708009604 911.64860443678981 0 911.64860443678981 -950.85981641913713 0 0 0 0 12.279717442706279 3.1330933738283044 0 3.1330933738283044 -8.4912270584227958 0 0 0 0 -1981.947165222982 2130.1744943054109 0 2130.1744943054109 -956.89923026496581 0 0 0 0 5.2246207925078796 4.969029089486753 0 4.969029089486753 -6.2963267959196898 0 0 0 0 2061.1961394949039 -721.6340441270022 0 -721.6340441270022 -646.04901267788955 0 0 0 0 -156.05885622980713 1030.1985997134216 0 1030.1985997134216 -2769.4742850891344 0 0 0 0 23.165181373591949 6.4553988314135129 0 6.4553988314135129 -10.76232249227494 0 0 0 0 51.174179315417746 10.190006455940079 0 10.190006455940079 -18.374436021541442 0 0 0 0 27.304644772006593 -1.6960325539793697 0 -1.6960325539793697 -0.88669383816912584 0 0 0 0 97.451842696946187 56.98070998242585 0 56.98070998242585 -222.08695879421037 0 0 0 0 101.5832362139995 70.954391081101903 0 70.954391081101903 68.377250130709399 0 0 0 0 189.35186357754719 242.13878996260155 0 242.13878996260155 255.72106305711236 0 0 0 0 218.22631057934086 65.210306339082535 0 65.210306339082535 -47.577612730151486 0 0 0 0 271.97724506294753 153.21582189018727 0 153.21582189018727 -90.196511781320623 0 0 0 0 119.51700947046629 21.039734786967529 0 21.039734786967529 -39.324252535759115 0 0 0 0 136.37537546629392 36.360621926341537 0 36.360621926341537 -25.412618209107677 0 0 0 0 150.92282572078693 4.407140732650987 0 4.407140732650987 -24.025469207454535 0 0 0 0 159.18429329782884 16.122516524162165 0 16.122516524162165 -10.195680799582988 0 0 0 0 157.30037798928606 6.7431667270654998 0 6.7431667270654998 8.611670710083672 0 0 0 0 160.38898039613559 12.032305864147474 0 12.032305864147474 -14.245870018467031 0 0 0 0 84.725781689861378 557.69334366120779 0 557.69334366120779 800.1766812893045 0 0 0 0 10.592799568658108 1.8518715368851075 0 1.8518715368851075 -1.0571606441528032 0 0 0 0 948.94440526938615 -458.7838397251935 0 -458.7838397251935 939.83324795791214 0 0 0 0 168.4395329682593 20.000802256712632 0 20.000802256712632 -20.198339674402632 0 0 0 0 292.74651457291839 -347.01229095778194 0 -347.01229095778194 35.786047733351687 0 0 0 0 46.739165601493994 -39.366891302180889 0 -39.366891302180889 -27.839765685902343 0 0 0 0 250.28041712601544 417.37211401571926 0 417.37211401571926 -425.53320625570962 0 0 0 0 847.33003870446328 -415.09580469326556 0 -415.09580469326556 -148.42030125139502 0 0 0 0 1498.207647355187 166.65439261181371 0 166.65439261181371 -1096.6462351106939 0 0 0 0 430.25360123538917 97.617359252290044 0 97.617359252290044 -67.503494402289562 0 0 0 0 326.36441305944845 -102.22048494347553 0 -102.22048494347553 -330.80923249368948 0 0 0 0 58.303677425793438 -41.320559846477614 0 -41.320559846477614 -18.825089960822201 0 0 0 0 187.28208411014566 20.909142093927585 0 20.909142093927585 9.4004288705689589 0 0 0 0 349.09403808302432 26.847063417155368 0 26.847063417155368 -22.018967797414234 0 0 0 0 44.023502918696977 106.0713651361437 0 106.0713651361437 -41.96980573232895 0 0 0 0 264.15206842969042 65.658048438060405 0 65.658048438060405 94.322486326136641 0 0 0 0 365.25868619904554 113.87888228329689 0 113.87888228329689 -71.049407001321015 0 0 0 0 113.86323329390962 26.4939384544017 0 26.4939384544017 17.223563294941641 0 0 0 0 341.65489939851273 229.83022935831491 0 229.83022935831491 164.58380400765168 0 0 0 0 329.91293065415783 -41.346231023371836 0 -41.346231023371836 15.865339285009327 0 0 0 0 -64.471549160637096 -73.307968041498043 0 -73.307968041498043 21.93445744128519 0 0 0 0 162.93933504391043 153.68546846155994 0 153.68546846155994 65.656149160965313 0 0 0 0 28.897516362778561 9.8817107312362609 0 9.8817107312362609 49.775166773675949 0 0 0 0 9.1824677320352883 -0.80573707514136927 0 -0.80573707514136927 -7.6403636478403332 0 0 0 0 80.955893174965695 21.620994161129403 0 21.620994161129403 -153.74339080699212 0 0 0 0 23.452031990578917 -80.678075977269629 0 -80.678075977269629 -334.1386499384605 0 0 0 0 165.03715002260651 94.490360407207959 0 94.490360407207959 -367.52125052973111 0 0 0 0 178.45938497404177 90.982294753004908 0 90.982294753004908 -385.09902113434862 0 0 0 0 -68.82369086871131 -96.581572281745252 0 -96.581572281745252 -403.74614953951334 0 0 0 0 124.29241318951154 -54.404863535335721 0 -54.404863535335721 -580.59052578743012 0 0 0 0 34.250911614398049 -105.92647378381302 0 -105.92647378381302 -442.55321224500233 0 0 0 0 9.0121179945250685 1.3308364084970736 0 1.3308364084970736 -7.8391947552012233 0 0 0 0 300.57196176356274 108.45255919438659 0 108.45255919438659 131.61354643093046 0 0 0 0 406.12136836500179 81.659835286433236 0 81.659835286433236 16.402926340550266 0 0 0 0 24.689064046801779 0.84564128093440782 0 0.84564128093440782 -1.9939723555139981 0 0 0 0 715.08776616168154 678.01490456942679 0 678.01490456942679 133.53493030346027 0 0 0 0 472.64800381589009 181.9508192409935 0 181.9508192409935 -536.003921306964 0 0 0 0 223.32155196381098 171.85967036815919 0 171.85967036815919 -464.68677208274175 0 0 0 0 3.6498327889401221 0.6792699782996019 0 0.6792699782996019 -3.6959023557993316 0 0 0 0 -47.169668531739831 -454.32483781508 0 -454.32483781508 -1034.2423089517706 0 0 0 0 1.3655847865886699 62.538869211087103 0 62.538869211087103 -362.52764414026888 0 0 0 0 218.83481409438537 151.34376151999459 0 151.34376151999459 -759.28492050733917 0 0 0 0 101.30782621421281 -8.3088389703432313 0 -8.3088389703432313 -614.22709237791537 0 0 0 0 76.755820149782664 85.811027783702684 0 85.811027783702684 -333.86944527157175 0 0 0 0 240.57658535534983 227.6592980940793 0 227.6592980940793 -554.10744517323974 0 0 0 0 58.293542843981868 207.90039164282871 0 207.90039164282871 -535.21717495558892 0 0 0 0 -15.737589062063762 176.70261638415923 0 176.70261638415923 -298.59990613736386 0 0 0 0 -6.153510658632289 79.591780539475167 0 79.591780539475167 -176.65472587812019 0 0 0 0 -13.361240905670229 97.625975790228267 0 97.625975790228267 -96.23448698000584 0 0 0 0 90.097211254334638 100.14458991324364 0 100.14458991324364 -295.11034904139069 0 0 0 0 185.55691125039993 -2.4719323696579067 0 -2.4719323696579067 -341.69001655394527 0 0 0 0 201.8168786210158 -60.051896450392405 0 -60.051896450392405 -95.792272314195998 0 0 0 0 163.89952758384561 72.35496436953963 0 72.35496436953963 -282.94272332275068 0 0 0 0 287.9949610650508 58.230358888013143 0 58.230358888013143 -287.50591801588052 0 0 0 0 275.10964106908716 245.4711315180549 0 245.4711315180549 -336.45171014302514 0 0 0 0 205.80715932994735 258.37296097312151 0 258.37296097312151 -337.13377683727094 0 0 0 0 207.36093775553945 192.49203676517095 0 192.49203676517095 -374.77130101182684 0 0 0 0 210.23957614597703 134.94052071296073 0 134.94052071296073 -493.25466070269181 0 0 0 0 285.70070514782725 70.604708085787792 0 70.604708085787792 -445.80593558053533 0 0 0 0 499.06446453621402 -92.07878093502876 0 -92.07878093502876 -87.326677999701133 0 0 0 0 658.329856266344 237.336730201112 0 237.336730201112 24.078418980960123 0 0 0 0 537.6531554725691 197.52904849019546 0 197.52904849019546 69.776888140127994 0 0 0 0 674.83483288376465 -54.268562535655292 0 -54.268562535655292 29.858271488383252 0 0 0 0 610.78479628584046 19.918872819710259 0 19.918872819710259 5.0490648608765696 0 0 0 0 1109.206321366164 -408.55104620002203 0 -408.55104620002203 153.77811756776737 0 0 0 0 -884.39751806390768 798.91679678599371 0 798.91679678599371 -954.50608880543405 0 0 0 0 13.686791641052821 11.181453370846059 0 11.181453370846059 -14.653467997605684 0 0 0 0 -869.88035084542685 728.32710898716391 0 728.32710898716391 -658.54436379571325 0 0 0 0 -629.76135539815823 357.69085949847795 0 357.69085949847795 -423.42948861726541 0 0 0 0 216.10750921677618 466.31420737753569 0 466.31420737753569 -1070.8237381807025 0 0 0 0 565.61653807770631 -386.44311850389136 0 -386.44311850389136 75.654907998961903 0 0 0 0 4.6326400024568688 1.0953317503287661 0 1.0953317503287661 -3.9365448599769719 0 0 0 0 -627.15472842438533 1104.2474505514156 0 1104.2474505514156 -1261.6730207507571 0 0 0 0 5.5755290720270576 23.080979817218967 0 23.080979817218967 5.4485942854328435 0 0 0 0 32.842003080729739 -8.7432490453964302 0 -8.7432490453964302 -6.8141975134488142 0 0 0 0 834.01616051520796 225.42036001908878 0 225.42036001908878 -829.1709055487986 0 0 0 0 -35.230048691355705 130.54152313262921 0 130.54152313262921 61.421710139976312 0 0 0 0 66.312270108650111 -99.987615559352093 0 -99.987615559352093 -305.44190543255854 0 0 0 0 350.06074997661966 285.05416266412294 0 285.05416266412294 -449.86851841814951 0 0 0 0 -1044.3619845704729 165.17718260671722 0 165.17718260671722 -565.17396874364749 0 0 0 0 217.22475866194509 357.86205967860678 0 357.86205967860678 -410.10320042083185 0 0 0 0 330.55865424393176 253.11677536861498 0 253.11677536861498 -493.69040959039694 0 0 0 0 2.1877920143762783 3.8571974025228166 0 3.8571974025228166 3.5746290942667844 0 0 0 0 5.1030845017527318 1.4464445098239163 0 1.4464445098239163 -0.10229558354613921 0 0 0 0 270.58135403053058 372.30621785654375 0 372.30621785654375 -645.50968977742195 0 0 0 0 -159.68075328025279 363.78790590098788 0 363.78790590098788 -470.26417056779474 0 0 0 0 -133.87684178327078 241.81675768389232 0 241.81675768389232 -700.4323998535292 0 0 0 0 65.430695213881037 249.34810548930602 0 249.34810548930602 -421.51129659563958 0 0 0 0 -182.45333656116509 281.9693778632045 0 281.9693778632045 -325.00892219861362 0 0 0 0 -24.794303356492776 123.98265222079795 0 123.98265222079795 -193.76128031101734 0 0 0 0 -80.818847499234138 112.98601701697066 0 112.98601701697066 -166.73602625756052 0 0 0 0 83.522580212069442 -44.039427587773389 0 -44.039427587773389 47.033377738674972 0 0 0 0 -160.88596721727191 119.33597538581371 0 119.33597538581371 -150.95521753388539 0 0 0 0 23.232695966411274 20.061139733215104 0 20.061139733215104 -10.774761780527326 0 0 0 0 -351.86523833549631 297.16241284427633 0 297.16241284427633 -259.39180452116761 0 0 0 0 -185.49802134176298 343.42286786490786 0 343.42286786490786 -452.87949997800376 0 0 0 0 5.3342671569633415 3.0602687586496051 0 3.0602687586496051 1.7523725382690145 0 0 0 0 15.73734143031146 13.023422042196749 0 13.023422042196749 -16.315844617890676 0 0 0 0 172.36402473179442 -112.86456994055447 0 -112.86456994055447 -59.569672555716352 0 0 0 0 13.589426118723637 -0.37700118827963536 0 -0.37700118827963536 -3.2163621721061766 0 0 0 0 320.95587576372145 14.768720406093735 0 14.768720406093735 -24.236166133931874 0 0 0 0 112.36018827972293 -82.218949632813747 0 -82.218949632813747 41.99355347413848 0 0 0 0 84.573065397200025 20.463065417020971 0 20.463065417020971 -168.08386533298562 0 0 0 0 195.23133339892593 -138.58852437365795 0 -138.58852437365795 -64.981621015460178 0 0 0 0 -68.919044849053535 -38.713361712493679 0 -38.713361712493679 -87.683464337655096 0 0 0 0 315.21699751581218 -38.899541620517994 0 -38.899541620517994 -181.14965313036373 0 0 0 0 133.81592927325801 88.189285178774298 0 88.189285178774298 4.3610631727297005 0 0 0 0 1993.9403778997985 -861.09624322647119 0 -861.09624322647119 130.1725369015553 0 0 0 0 29.063028657648829 60.456749561509469 0 60.456749561509469 -14.147001614019473 0 0 0 0 14.362647889206837 19.615689033442706 0 19.615689033442706 2.0974988431011692 0 0 0 0 108.05110067426722 27.073194239480017 0 27.073194239480017 -40.778073416747702 0 0 0 0 -121.94160478243157 114.4758319552609 0 114.4758319552609 -12.573534618657504 0 0 0 0 -7.6670924106292659 6.378255135107338 0 6.378255135107338 -0.6490567537912284 0 0 0 0 182.28014422103661 76.836943889632494 0 76.836943889632494 -45.091748993032979 0 0 0 0 83.583049507429678 88.536314435044915 0 88.536314435044915 25.584665013964468 0 0 0 0 131.49869440055591 -10.379300437579786 0 -10.379300437579786 -21.786889988704388 0 0 0 0 97.779564888794994 9.9115164363699932 0 9.9115164363699932 0.14153013940995152 0 0 0 0 191.02104737819747 -48.565812682401102 0 -48.565812682401102 2.4283528047872096 0 0 0 0 -57.632498955430265 84.216361251174249 0 84.216361251174249 -46.475707507051538 0 0 0 0 -127.65787805070008 171.88429473431108 0 171.88429473431108 -113.58129811339131 0 0 0 0 138.31637303969455 -31.714210936331085 0 -31.714210936331085 -3.4148761487253978 0 0 0 0 -17.062442465713133 75.725870574276769 0 75.725870574276769 -55.181929662847324 0 0 0 0 22.219441177963937 24.16599082378983 0 24.16599082378983 -3.8968970798001124 0 0 0 0 100.52120893718893 3.7152912828564695 0 3.7152912828564695 30.461422177616896 0 0 0 0 102.96411487959176 -7.0375756537135459 0 -7.0375756537135459 -16.948563805203776 0 0 0 0 109.87900765788618 -4.7137531656915144 0 -4.7137531656915144 -16.685113162449511 0 0 0 0 88.863882057796957 6.031625806810033 0 6.031625806810033 0.41511938019898653 0 0 0 0 78.146532760225909 2.2464239208743959 0 2.2464239208743959 -0.3840210326930924 0 0 0 0 95.743847885031755 17.056751527595452 0 17.056751527595452 -7.5474454642339879 0 0 0 0 73.67204733005201 1.6117013770187896 0 1.6117013770187896 -3.5049843825809148 0 0 0 0 112.34255257827954 1.3222738297221213 0 1.3222738297221213 -7.0942055678992801 0 0 0 0 104.72834055729436 18.940247960161457 0 18.940247960161457 -11.811500005523612 0 0 0 0 82.320621721892167 25.605694959020752 0 25.605694959020752 -7.8249201700086815 0 0 0 0 2530.9573115255771 211.05954320178063 0 211.05954320178063 32.153044422566651 0 0 0 0 25.343099691273636 26.720912567306012 0 26.720912567306012 9.5013601879206888 0 0 0 0 2720.9258193601217 -1133.8390200726537 0 -1133.8390200726537 11.084211811505611 0 0 0 0 6.8329377121977757 6.9062263674507935 0 6.9062263674507935 4.7123172590136528 0 0 0 0 2682.2385836338508 -1855.3260733898151 0 -1855.3260733898151 914.36069233069293 0 0 0 0 1338.2952373965163 -743.6671023603061 0 -743.6671023603061 275.00281802649209 0 0 0 0 -2.2129541625733964 231.10229847075993 0 231.10229847075993 -169.70897774849527 0 0 0 0 76.23932999804083 -267.78263481030854 0 -267.78263481030854 -88.574039026476385 0 0 0 0 -109.29760475757496 254.43820871265211 0 254.43820871265211 -6.8087230328101214 0 0 0 0 1210.9784966170064 -589.83604131556285 0 -589.83604131556285 198.72849776507428 0 0 0 0 942.42070132310789 187.11310149023666 0 187.11310149023666 -43.131406798670014 0 0 0 0 943.90723773649813 -613.15680009944424 0 -613.15680009944424 324.92830965527355 0 0 0 0 0.68819969567952621 -0.65494209790383406 0 -0.65494209790383406 0.032947661997790867 0 0 0 0 1678.4816920902076 -289.11179922909719 0 -289.11179922909719 -91.201753553040362 0 0 0 0 268.34816086826913 488.96300445269662 0 488.96300445269662 -485.80582482302179 0 0 0 0 723.56151752642677 304.66508747111357 0 304.66508747111357 -454.16697709268783 0 0 0 0 563.82428142361948 -209.32896558612424 0 -209.32896558612424 -29.959151230162206 0 0 0 0 152.77584736326116 63.180795398899136 0 63.180795398899136 285.09941181642262 0 0 0 0 -42.631386585145947 118.40198474092585 0 118.40198474092585 118.35059281768235 0 0 0 0 151.81458279164895 33.16837104607589 0 33.16837104607589 31.240149078132163 0 0 0 0 18.013057080746648 97.181942746625737 0 97.181942746625737 25.497294204250238 0 0 0 0 17.178105387374046 81.452362071507991 0 81.452362071507991 -87.91515255824379 0 0 0 0 -25.024937781128415 169.84754355720679 0 169.84754355720679 -9.5707628933628257 0 0 0 0 -50.923857322385231 173.62128942373761 0 173.62128942373761 -113.05375645394611 0 0 0 0 -32.312340957877609 143.62831023141939 0 143.62831023141939 -79.785623783136089 0 0 0 0 -39.271570743503105 96.920869197142565 0 96.920869197142565 -52.12790351919466 0 0 0 0 78.952138935890048 147.79851503612349 0 147.79851503612349 -80.965503336278289 0 0 0 0 -33.691882497807455 196.96144586492483 0 196.96144586492483 -60.110439113822622 0 0 0 0 -35.144584160347996 204.53480436146074 0 204.53480436146074 -58.051473777505635 0 0 0 0 -23.059655022198626 205.20265179771059 0 205.20265179771059 -112.76087337025274 0 0 0 0 153.11567691449636 182.9831245296723 0 182.9831245296723 -139.40346869516884 0 0 0 0 -103.88389801648259 110.69320965185671 0 110.69320965185671 -173.168159037218 0 0 0 0 -83.842925768229136 266.97436153218814 0 266.97436153218814 -121.01725177695062 0 0 0 0 163.29469394984579 -41.66686824584076 0 -41.66686824584076 -20.700397117829993 0 0 0 0 8.409576002659362 -2.9074810563150919 0 -2.9074810563150919 -7.4180517571877544 0 0 0 0 143.64661861249385 -51.253393373911422 0 -51.253393373911422 -19.128602087170748 0 0 0 0 230.37682949702412 83.624606527019751 0 83.624606527019751 -23.057638399029656 0 0 0 0 73.898168688901478 46.236726762465878 0 46.236726762465878 -30.103575782017288 0 0 0 0 121.93011078584237 67.925617836395304 0 67.925617836395304 -14.247365133776839 0 0 0 0 49.719920897831145 24.399760437337957 0 24.399760437337957 0.34495092976642105 0 0 0 0 135.45205752911278 60.539602165931228 0 60.539602165931228 -17.462933626527956 0 0 0 0 169.23340125031427 32.37094349117524 0 32.37094349117524 2.3534033252474273 0 0 0 0 46.853477680786455 25.954198800807717 0 25.954198800807717 -100.28111791193805 0 0 0 0 83.049786616532515 10.404438736438376 0 10.404438736438376 -19.906771138660563 0 0 0 0 99.777640385154399 34.723269162655349 0 34.723269162655349 -31.138727242788136 0 0 0 0 147.0406406913784 2.4846251182110706 0 2.4846251182110706 -29.063350250930171 0 0 0 0 47.612038346764166 31.985774546090397 0 31.985774546090397 -86.367299235847895 0 0 0 0 98.994330279433555 26.740723182632166 0 26.740723182632166 -45.713387221537751 0 0 0 0 53.058074507684069 31.598858513357982 0 31.598858513357982 14.75680452339779 0 0 0 0 47.756179825417348 9.7602422724276039 0 9.7602422724276039 -9.4225988040816446 0 0 0 0 51.040665743373893 9.0796380012811095 0 9.0796380012811095 -12.431275272946197 0 0 0 0 45.460263934426621 13.832016583995937 0 13.832016583995937 -12.110329453198574 0 0 0 0 33.017235159688056 -0.40471830831212685 0 -0.40471830831212685 -10.678662859240323 0 0 0 0 30.39545124561846 6.7258398398525969 0 6.7258398398525969 -30.025303721664386 0 0 0 0 57.651542977109784 16.775480971738943 0 16.775480971738943 -135.61041640642884 0 0 0 0 46.483986495353307 18.190470151280248 0 18.190470151280248 -9.1096661717493124 0 0 0 0 -37.04278643347061 106.73511677341594 0 106.73511677341594 -127.97549831818833 0 0 0 0 1.9831786531010636 15.065875209557579 0 15.065875209557579 3.6280408230145129 0 0 0 0 53.938157964783613 51.734368400534407 0 51.734368400534407 -6.0891452504047265 0 0 0 0 31.144211386994357 8.7527655418364247 0 8.7527655418364247 -8.92519333170479 0 0 0 0 34.251941335601003 21.040410738972604 0 21.040410738972604 9.7960461211831227 0 0 0 0 -49.582502488674265 313.29543523229063 0 313.29543523229063 -217.41327284680983 0 0 0 0 -0.49180471716914553 108.09168367311599 0 108.09168367311599 -176.17032807857277 0 0 0 0 32.452082639703974 198.27294477214224 0 198.27294477214224 36.913541268480003 0 0 0 0 7.3327231121634187 4.0216018106713332 0 4.0216018106713332 0.66926326640183831 0 0 0 0 421.9790419242222 170.74333465752329 0 170.74333465752329 -147.11355009049817 0 0 0 0 502.7812597167424 -186.4074269125696 0 -186.4074269125696 -95.590315285223369 0 0 0 0 257.84429641205861 71.139666868423092 0 71.139666868423092 -250.00966260613987 0 0 0 0 261.86544774896356 -8.1332784383873786 0 -8.1332784383873786 -151.9339047701983 0 0 0 0 -92.550664266788772 100.94207989921566 0 100.94207989921566 -86.710450562940878 0 0 0 0 250.75901769016582 -47.782975153939617 0 -47.782975153939617 -237.12117834861442 0 0 0 0 381.39597059278458 -134.5079539926362 0 -134.5079539926362 -130.09060950425692 0 0 0 0 177.59809895706348 -35.962800967019575 0 -35.962800967019575 -88.202185040903231 0 0 0 0 367.64080397471025 -97.574092367911902 0 -97.574092367911902 -29.876095037663163 0 0 0 0 368.12266339282974 -91.853679164377255 0 -91.853679164377255 33.570955760652168 0 0 0 0 56.182236701130478 122.0947721994217 0 122.0947721994217 -105.4975854348715 0 0 0 0 91.620796209404489 226.95278295198932 0 226.95278295198932 -421.09042208417179 0 0 0 0 366.53220253237373 -152.83136513858466 0 -152.83136513858466 11.767677932550669 0 0 0 0 20.749707572063741 9.4591676354133138 0 9.4591676354133138 2.5774490838179638 0 0 0 0 343.97519984122437 -162.29388563677094 0 -162.29388563677094 110.39123976449355 0 0 0 0 365.20500051198223 -162.51637379197518 0 -162.51637379197518 -35.130529143797588 0 0 0 0 7.6743605875929486 3.7740382773249377 0 3.7740382773249377 0.28599452164894501 0 0 0 0 -338.82585144137238 287.21216114805543 0 287.21216114805543 -257.70353246030618 0 0 0 0 -41.173207863139396 107.93319330568056 0 107.93319330568056 -398.51514085468102 0 0 0 0 -27.044362449979872 180.07132171642183 0 180.07132171642183 -210.43773707834021 0 0 0 0 166.88318129443078 236.11648933453881 0 236.11648933453881 -373.70071410632409 0 0 0 0 -183.77975606546852 628.63151400918991 0 628.63151400918991 -440.15650763195708 0 0 0 0 41.497120644652568 264.17324018303543 0 264.17324018303543 -305.83589779723081 0 0 0 0 -86.554337516558462 336.2166041316774 0 336.2166041316774 -245.04728055923579 0 0 0 0 3.397817199850806 0.84645903823106039 0 0.84645903823106039 -3.3745601040157456 0 0 0 0 -190.6921391768883 -604.81685328313347 0 -604.81685328313347 -1216.6167472752686 0 0 0 0 -187.87420403500801 -253.10447185685484 0 -253.10447185685484 -716.22128962890019 0 0 0 0 -470.29469081151456 -228.3127564528063 0 -228.3127564528063 -569.81722481239058 0 0 0 0 499.55311336461909 220.18811046970063 0 220.18811046970063 -361.12528137685285 0 0 0 0 522.37177776981025 651.93903876217644 0 651.93903876217644 260.98443716439306 0 0 0 0 176.84571926002806 85.79835618210744 0 85.79835618210744 -387.31028479441193 0 0 0 0 -2.5190553100419493 82.417178472589057 0 82.417178472589057 -428.76778249877657 0 0 0 0 238.46132422548089 79.584982069585976 0 79.584982069585976 -434.83217143852789 0 0 0 0 325.41364748843534 -195.85998915588334 0 -195.85998915588334 -345.33136501006584 0 0 0 0 155.76057759477317 -146.42828654795096 0 -146.42828654795096 -990.03283685208635 0 0 0 0 3.4433578851540005 130.37611782630376 0 130.37611782630376 -672.00016813865795 0 0 0 0 269.64136042178188 28.634642212269227 0 28.634642212269227 -181.98544605915345 0 0 0 0 36.025088749523832 63.089228848264909 0 63.089228848264909 -130.03135670807887 0 0 0 0 42.449938112941368 -12.385432064864801 0 -12.385432064864801 -301.47539841914841 0 0 0 0 -106.95101374668411 29.873289532476292 0 29.873289532476292 -110.63397075427838 0 0 0 0 -130.64009949258798 97.332385537122491 0 97.332385537122491 -247.64445645660817 0 0 0 0 10.209412951783685 -0.10761833535352139 0 -0.10761833535352139 -0.048290802042208369 0 0 0 0 -30.532596251405266 85.481103232585838 0 85.481103232585838 -133.78140397904656 0 0 0 0 8.4520127655275594 -4.0832077271571876 0 -4.0832077271571876 12.531263068901698 0 0 0 0 72.655042318579945 -14.319244072176616 0 -14.319244072176616 -6.6024618047408694 0 0 0 0 34.697275972924658 13.46342109613335 0 13.46342109613335 -1.7238422147600581 0 0 0 0 103.81919088548511 116.2370884209347 0 116.2370884209347 -87.578518297152414 0 0 0 0 -20.702902696653382 48.865884038577576 0 48.865884038577576 -12.27583787107551 0 0 0 0 141.7889742376592 -308.08033313197143 0 -308.08033313197143 210.65847855241623 0 0 0 0 124.00169323974615 -37.250031185732723 0 -37.250031185732723 -77.400198355395787 0 0 0 0 15.070804873705129 17.013173309856711 0 17.013173309856711 -3.6334692366586978 0 0 0 0 360.92357822803569 111.99536846473227 0 111.99536846473227 -210.00536750795999 0 0 0 0 285.46804696635081 -291.49324801550097 0 -291.49324801550097 73.420652155522816 0 0 0 0 -6.3181944035131892 -325.72269116311145 0 -325.72269116311145 125.71730195155351 0 0 0 0 -22.826689839948813 62.925678917016285 0 62.925678917016285 -75.083204270590159 0 0 0 0 2.7468087471506539 -1.0593632044064334 0 -1.0593632044064334 2.5027668967483514 0 0 0 0 4.7900829648500789 1.1715035484481007 0 1.1715035484481007 0.63374769564933331 0 0 0 0 566.39999909866947 -448.0724658726449 0 -448.0724658726449 175.2440825068818 0 0 0 0 675.71451225401279 2.4537688182707598 0 2.4537688182707598 -81.933549705858695 0 0 0 0 -21.1294299210399 -20.929419573398036 0 -20.929419573398036 8.1177295730335572 0 0 0 0 14.034097109714057 -1.3163821405863025 0 -1.3163821405863025 -4.6579831418563398 0 0 0 0 6.9239667252834618 -13.04785003545854 0 -13.04785003545854 3.0445055524598423 0 0 0 0 776.59242769357024 -193.9297347720094 0 -193.9297347720094 -870.23618478355093 0 0 0 0 8.3722129776556766 14.285065377282336 0 14.285065377282336 -6.13100473715616 0 0 0 0 -206.63009920929017 185.17159081467946 0 185.17159081467946 119.33028846296975 0 0 0 0 -39.185427540498495 134.43014736280543 0 134.43014736280543 2.8948578731240673 0 0 0 0 581.42639673241388 729.40099396710616 0 729.40099396710616 -931.4189624077278 0 0 0 0 6.5443688149836179 -0.31263845300403936 0 -0.31263845300403936 -2.9888588116961414 0 0 0 0 4937.9353092950732 -103.87870340484589 0 -103.87870340484589 -223.04689103293069 0 0 0 0 -38.312882256299986 -503.65414511080269 0 -503.65414511080269 147.96829480609659 0 0 0 0 32.816698820995043 -298.24075226939271 0 -298.24075226939271 -293.0886072833041 0 0 0 0 20.428552039347778 4.6111979221569754 0 4.6111979221569754 -134.45088274086038 0 0 0 0 1812.6611607753284 546.53013014382771 0 546.53013014382771 -1049.390480434417 0 0 0 0 10.461746161524166 -1.8802382792182231 0 -1.8802382792182231 -5.4744458872910133 0 0 0 0 18.102857016370976 5.0443641349598121 0 5.0443641349598121 -2.0437822104760297 0 0 0 0 37.892883950579744 -2.58621649704628 0 -2.58621649704628 -304.68136339872217 0 0 0 0 -16.356538226997145 68.688303118565727 0 68.688303118565727 -105.05969359595326 0 0 0 0 4991.8279253893161 -2222.7507217369302 0 -2222.7507217369302 -220.24358945587684 0 0 0 0 13.001197518489173 -0.15194374752251338 0 -0.15194374752251338 -1.7978217817327162 0 0 0 0 1919.2378432973401 -544.57827868104027 0 -544.57827868104027 -863.80299591761775 0 0 0 0 3858.822804936739 -576.79862529880256 0 -576.79862529880256 -1026.8288381331952 0 0 0 0 -311.43508295457377 481.14141795366413 0 481.14141795366413 -781.74137732324084 0 0 0 0 3.7851986625686393 4.470420953254731 0 4.470420953254731 3.4716495325789927 0 0 0 0 1605.0371682510804 18.064653914317006 0 18.064653914317006 -540.48021956673756 0 0 0 0 1938.7728589779772 852.21533345373825 0 852.21533345373825 -204.08935394645187 0 0 0 0 5000.0472262407402 292.7203173240365 0 292.7203173240365 -1322.5897930551871 0 0 0 0 4331.4342463874818 1666.6864890818165 0 1666.6864890818165 -422.5044626527515 0 0 0 0 4185.5631604684913 396.82030346525721 0 396.82030346525721 -742.7998596277672 0 0 0 0 4.8519854171967021 -2.2604948478450329 0 -2.2604948478450329 -0.72621751525333966 0 0 0 0 32.056970736040967 -236.4920272499445 0 -236.4920272499445 363.07422317705868 0 0 0 0 4.5856815274437652 -1.2126552767736207 0 -1.2126552767736207 0.30313528558308978 0 0 0 0 -154.48785240519692 282.97369054768302 0 282.97369054768302 -689.43498512080259 0 0 0 0 448.51097676068434 256.70315852728106 0 256.70315852728106 -1045.2970608204878 0 0 0 0 0.6845167601163844 -0.28505883587139458 0 -0.28505883587139458 -0.79468120707410694 0 0 0 0 -144.78040418470482 620.36488654751417 0 620.36488654751417 -1110.5408219734475 0 0 0 0 425.0231373664609 -45.506144730599104 0 -45.506144730599104 -157.4385357922863 0 0 0 0 -54.128579344511309 412.65432934086209 0 412.65432934086209 -1082.6080469320441 0 0 0 0 -240.41408284675344 293.20301041535345 0 293.20301041535345 -564.54637011669956 0 0 0 0 -0.20350759809653729 -0.088778154173310142 0 -0.088778154173310142 -0.020832733652667745 0 0 0 0 27.530961046998527 191.24924551758068 0 191.24924551758068 -785.05544417045473 0 0 0 0 -172.00118990686542 -152.37993324543658 0 -152.37993324543658 -822.27901710457775 0 0 0 0 -172.94561030266686 -186.64024950629818 0 -186.64024950629818 -702.39697369517091 0 0 0 0 158.46424220751942 173.74864202187962 0 173.74864202187962 -817.83176444619357 0 0 0 0 -145.36451051934773 61.385674087003622 0 61.385674087003622 -419.0412249119986 0 0 0 0 -475.16246567238341 216.40142236575866 0 216.40142236575866 -155.99744330292515 0 0 0 0 4.8589309750687484 1.3475673291547086 0 1.3475673291547086 -5.8371941046980407 0 0 0 0 145.85101271728399 301.90908622361655 0 301.90908622361655 -130.29470422342206 0 0 0 0 4.8294939627112488 1.3257710320204268 0 1.3257710320204268 0.27615488163926116 0 0 0 0 -231.01065243194898 262.82492793879464 0 262.82492793879464 -351.99201496906267 0 0 0 0 -230.91817971090404 294.13399357660217 0 294.13399357660217 -564.60880668751713 0 0 0 0 19.681110207841812 10.809891012126251 0 10.809891012126251 -8.5742274570610419 0 0 0 0 70.245638352887113 39.41086557068985 0 39.41086557068985 -10.327132394403979 0 0 0 0 -197.27873212959003 305.92996523874217 0 305.92996523874217 -154.59965907685984 0 0 0 0 -191.29151723810457 242.01531538907503 0 242.01531538907503 -130.03970774300416 0 0 0 0 97.956273957368467 342.43655073372344 0 342.43655073372344 -145.17654694846451 0 0 0 0 15.367756276637365 -5.2718174825397739 0 -5.2718174825397739 2.8056468263731036 0 0 0 0 5305.3600522502456 1506.3350203106886 0 1506.3350203106886 -661.20252635516385 0 0 0 0 5001.3387443365682 934.68583178784399 0 934.68583178784399 -391.97072565710801 0 0 0 0 5512.1364317376956 314.45102953292383 0 314.45102953292383 161.50310575984608 0 0 0 0 63.378083055449679 137.71090233471131 0 137.71090233471131 13.81321623436861 0 0 0 0 34.22913046635189 19.861177795288832 0 19.861177795288832 4.1361286456671609 0 0 0 0 10.187265679487155 -141.96943485659455 0 -141.96943485659455 171.11840805392291 0 0 0 0 53.475947644434598 -14.298722775226178 0 -14.298722775226178 6.5883902508691206 0 0 0 0 397.08084567968763 -98.004299487490698 0 -98.004299487490698 -41.096683678984874 0 0 0 0 544.57004558331028 -445.05046706950401 0 -445.05046706950401 201.40497747480572 0 0 0 0 3618.4531905211234 1818.1887272904 0 1818.1887272904 355.83777217462693 0 0 0 0 3884.8208331567494 736.06134356969369 0 736.06134356969369 54.192542266084828 0 0 0 0 18.27333280859969 -9.137177426505172 0 -9.137177426505172 6.5786623082518005 0 0 0 0 4496.3178672631348 1829.4347663054518 0 1829.4347663054518 310.97699395618679 0 0 0 0 4992.8513767021796 1371.8419500807333 0 1371.8419500807333 -27.210321868941069 0 0 0 0 345.4634916848081 -1405.6754871582409 0 -1405.6754871582409 959.59164543599525 0 0 0 0 -12.877442367703225 312.12337010448789 0 312.12337010448789 196.34041964818607 0 0 0 0 280.28616195006543 -106.19844248766452 0 -106.19844248766452 -612.13484222057696 0 0 0 0 813.89996496051754 -863.80370583848503 0 -863.80370583848503 864.59339907063566 0 0 0 0 2652.9573139536078 -720.01608021397556 0 -720.01608021397556 -270.40367597494674 0 0 0 0 4989.2298576242674 -2649.5320307644347 0 -2649.5320307644347 126.43518312474448 0 0 0 0 140.48252958394005 394.13081946447579 0 394.13081946447579 -281.86547321028513 0 0 0 0 169.95067881214709 -126.74442574874396 0 -126.74442574874396 -92.567003682396262 0 0 0 0 366.88784372239024 128.63367755688341 0 128.63367755688341 227.78338094653719 0 0 0 0 68.175032971319041 48.811008026795484 0 48.811008026795484 -0.42672664210263545 0 0 0 0 -145.86927935288622 626.84157678711199 0 626.84157678711199 -80.527940949425812 0 0 0 0 -30.779335735735913 223.22088543029582 0 223.22088543029582 -172.51063047206492 0 0 0 0 36.932743329481127 123.23366528885913 0 123.23366528885913 -93.053957513437808 0 0 0 0 60.956215557666837 212.43355848935019 0 212.43355848935019 -214.05229622304671 0 0 0 0 46.106336065953656 200.37559218230331 0 200.37559218230331 -188.81395437904641 0 0 0 0 157.05727125788871 153.50768169619465 0 153.50768169619465 -235.90921132296853 0 0 0 0 127.47018638236477 148.86778353748133 0 148.86778353748133 -205.13538510130064 0 0 0 0 111.21888807471714 130.59556548650232 0 130.59556548650232 -206.1948268625784 0 0 0 0 118.43248129208837 109.46906932237485 0 109.46906932237485 -155.05758177151199 0 0 0 0 131.54533532328105 75.947034175527961 0 75.947034175527961 -240.2153128871426 0 0 0 0 129.78793964472516 67.718898872240402 0 67.718898872240402 -171.78179996851105 0 0 0 0 111.00405433436458 15.760562949731188 0 15.760562949731188 -309.25873630106651 0 0 0 0 160.77481996557867 120.71446390562113 0 120.71446390562113 -282.07856981621103 0 0 0 0 169.72285766890536 115.43425566309816 0 115.43425566309816 -284.84918969848081 0 0 0 0 162.93071693425111 130.8535243342252 0 130.8535243342252 -243.39453546799416 0 0 0 0 161.29207596686865 126.90079951870393 0 126.90079951870393 -248.85362816710926 0 0 0 0 189.67897154968159 150.28089334329002 0 150.28089334329002 -253.55635261795737 0 0 0 0 161.29038292848554 141.31499759181338 0 141.31499759181338 -210.81941809777481 0 0 0 0 139.69778358016538 181.2422893530329 0 181.2422893530329 -284.20039697328821 0 0 0 0 182.72751961107724 222.22716426510976 0 222.22716426510976 -247.31335769269617 0 0 0 0 88.506725105533405 256.12064347076398 0 256.12064347076398 -259.17256424730374 0 0 0 0 189.34559706669984 307.80823566350466 0 307.80823566350466 -242.15008982342943 0 0 0 0 162.85708619129218 192.51871117023973 0 192.51871117023973 -238.37906258014789 0 0 0 0 85.285327315926082 191.71336786947836 0 191.71336786947836 -188.21038622413153 0 0 0 0 164.14179670187525 207.23271681548727 0 207.23271681548727 -70.006317956564089 0 0 0 0 299.12820389222452 163.19646441678299 0 163.19646441678299 -220.80515482749774 0 0 0 0 254.44364253757612 335.70821016104605 0 335.70821016104605 -67.393879119997564 0 0 0 0 113.58986307383748 320.01614418096256 0 320.01614418096256 -68.666201330635445 0 0 0 0 223.57329215870504 283.51479773447471 0 283.51479773447471 -86.463264378727843 0 0 0 0 200.4387805408478 245.66032436294176 0 245.66032436294176 -58.002658141121174 0 0 0 0 234.82103500596077 271.13148407679626 0 271.13148407679626 -159.14835216758138 0 0 0 0 80.040882291558319 223.48394457133591 0 223.48394457133591 -172.09799764278705 0 0 0 0 177.18661387491557 217.99591870341021 0 217.99591870341021 -224.04991698512157 0 0 0 0 179.08666327184164 150.46543651315039 0 150.46543651315039 -236.61552200024414 0 0 0 0 174.05054163718933 164.79827791168853 0 164.79827791168853 -203.77631124472828 0 0 0 0 491.9861104397969 -460.41725899763264 0 -460.41725899763264 108.66565137095949 0 0 0 0 259.23230004485595 -443.02499145992078 0 -443.02499145992078 146.22295354510607 0 0 0 0 557.42751201657848 -743.4036288539819 0 -743.4036288539819 228.34104538954767 0 0 0 0 226.52264003764321 -606.34681774878572 0 -606.34681774878572 212.92115189564629 0 0 0 0 4.1619751086250218 -0.77229171584065881 0 -0.77229171584065881 -3.563708911353169 0 0 0 0 -13.156358369124064 -113.44195313892214 0 -113.44195313892214 -561.39252392638809 0 0 0 0 468.74014004081255 -272.07567144201414 0 -272.07567144201414 -533.81621777070995 0 0 0 0 540.75550725101402 -217.87575823453062 0 -217.87575823453062 -147.33823755742878 0 0 0 0 537.88244033762567 -223.982062030012 0 -223.982062030012 4.8652374881457945 0 0 0 0 838.10858928945777 -29.376967032945117 0 -29.376967032945117 128.80867162524373 0 0 0 0 338.99519908874936 -215.16134594986806 0 -215.16134594986806 382.34267218747664 0 0 0 0 577.986569272015 -542.18862778795392 0 -542.18862778795392 56.63371684116737 0 0 0 0 629.40667698336983 -150.99269781990188 0 -150.99269781990188 -489.90854330199636 0 0 0 0 194.10606452343836 -227.58179641540846 0 -227.58179641540846 -141.17800942008762 0 0 0 0 270.55772890317439 -432.74323384979016 0 -432.74323384979016 -233.02160261875179 0 0 0 0 402.01649860751604 -496.92980418993557 0 -496.92980418993557 87.445878726110095 0 0 0 0 -143.93129903956651 -439.20302925728447 0 -439.20302925728447 81.850676130878128 0 0 0 0 366.02924032750343 -598.07321147488074 0 -598.07321147488074 -98.469349325459916 0 0 0 0 935.48423844418357 -658.17684124233892 0 -658.17684124233892 -93.565262878630165 0 0 0 0 -642.59606097778851 -946.00935312211914 0 -946.00935312211914 -97.697342395222449 0 0 0 0 394.80948316422655 -916.30977680197748 0 -916.30977680197748 -117.84332195859679 0 0 0 0 7.2236676463172564 -6.3535747947318866 0 -6.3535747947318866 4.3663400668739882 0 0 0 0 -16.842785312092019 -62.101117142527983 0 -62.101117142527983 477.44019941202055 0 0 0 0 734.17883172635629 -657.46563014408639 0 -657.46563014408639 285.88491461940248 0 0 0 0 107.26214456739308 346.11218857981351 0 346.11218857981351 -191.51139077544394 0 0 0 0 -133.36378936715118 -219.01313554251101 0 -219.01313554251101 11.898071976893334 0 0 0 0 551.80273002548711 -2.7747000255267267 0 -2.7747000255267267 -194.22334309685175 0 0 0 0 221.33071775704957 -227.89627558772736 0 -227.89627558772736 -208.22736063805132 0 0 0 0 7.9960974209417337 11.267666748812914 0 11.267666748812914 0.5433006049896818 0 0 0 0 -86.818111206659523 -13.422100777349442 0 -13.422100777349442 88.614718240100046 0 0 0 0 0.82784399192605207 1.1464367621998122 0 1.1464367621998122 -3.6451678048353635 0 0 0 0 24.091460701078176 78.00253162206991 0 78.00253162206991 -33.108517341467632 0 0 0 0 529.46258729268084 -113.50425603287749 0 -113.50425603287749 -194.69320239101035 0 0 0 0 6.8373654365954479 -0.61219560594132716 0 -0.61219560594132716 -5.4438388289143695 0 0 0 0 994.07925221970072 -143.08056758338626 0 -143.08056758338626 -197.99956002477302 0 0 0 0 629.16316920264217 -35.947448424930371 0 -35.947448424930371 112.35620919848589 0 0 0 0 796.59959455572243 -32.912457637827174 0 -32.912457637827174 5.3114687128436344 0 0 0 0 1119.1926839059179 -356.56529456764565 0 -356.56529456764565 146.71413739128548 0 0 0 0 792.36516763903091 -2.6885271375012962 0 -2.6885271375012962 139.6587726177022 0 0 0 0 -6.8773238516039434 2.7654577679117125 0 2.7654577679117125 3.8813262146898637 0 0 0 0 767.67827266801487 -270.71720343213701 0 -270.71720343213701 73.942359587570536 0 0 0 0 678.47330271960527 -141.11501936632794 0 -141.11501936632794 41.430713413453304 0 0 0 0 761.69424996954967 -45.132931900488529 0 -45.132931900488529 -85.626349345700874 0 0 0 0 598.42512847721082 6.5611012623994611 0 6.5611012623994611 45.476283474620686 0 0 0 0 470.28819420447508 42.385300502964128 0 42.385300502964128 -27.712936797530347 0 0 0 0 608.24032179985625 4.8833125039250262 0 4.8833125039250262 -37.613232635525492 0 0 0 0 526.16955645669714 -54.151017511778264 0 -54.151017511778264 -183.3928734338042 0 0 0 0 607.7085765902666 -18.458833820198379 0 -18.458833820198379 -77.68224848665227 0 0 0 0 613.80464531166263 4.4774527200306693 0 4.4774527200306693 -160.23909987129082 0 0 0 0 437.20377252146318 -51.986172538491701 0 -51.986172538491701 223.79014488121084 0 0 0 0 601.86643021603959 119.4511282735275 0 119.4511282735275 -566.8065292132469 0 0 0 0 -16.90486889058775 865.03500232217993 0 865.03500232217993 -872.21709069969438 0 0 0 0 5.6143515897311786 -0.53134933083511626 0 -0.53134933083511626 -3.8489845355834262 0 0 0 0 1033.5749465815061 -740.03481516325974 0 -740.03481516325974 190.70491727805529 0 0 0 0 572.90942930518213 24.901418976932746 0 24.901418976932746 -176.78234990029159 0 0 0 0 1055.283705709362 -167.65108012828296 0 -167.65108012828296 -460.96949336146827 0 0 0 0 -30.746202708123747 -190.93928045940083 0 -190.93928045940083 -101.54995347157637 0 0 0 0 -95.290932951174909 -114.70672225542739 0 -114.70672225542739 -231.66979080619058 0 0 0 0 -180.88055126282052 -148.0097613253447 0 -148.0097613253447 -98.549596245970861 0 0 0 0 7.8359298452867296 13.116021717140733 0 13.116021717140733 -7.04729897520793 0 0 0 0 -228.45099795004353 -48.10873260675271 0 -48.10873260675271 -88.231772209167502 0 0 0 0 833.58450904829624 -210.21085457270328 0 -210.21085457270328 -466.14551739328999 0 0 0 0 -212.8954075101849 -127.23456280421453 0 -127.23456280421453 49.692892120483521 0 0 0 0 355.96876930084363 248.44902187238495 0 248.44902187238495 -790.93903540491374 0 0 0 0 9.7485364419071967 12.527077096997786 0 12.527077096997786 -7.3982069798720893 0 0 0 0 -510.47641372904582 -36.440621985399048 0 -36.440621985399048 -243.88591609643652 0 0 0 0 -17.52432073032287 -140.56595907080873 0 -140.56595907080873 -311.21884189875527 0 0 0 0 -265.06455060926601 -344.53156494381869 0 -344.53156494381869 -430.9515525943707 0 0 0 0 -382.69515392326139 -124.97141634373747 0 -124.97141634373747 -568.61576222257111 0 0 0 0 -95.962098592091934 -200.12593021416615 0 -200.12593021416615 -604.10500512266117 0 0 0 0 417.54794183998001 -37.180008714032738 0 -37.180008714032738 -513.76534381956299 0 0 0 0 3.5060246727881932 1.9714967148011802 0 1.9714967148011802 -7.3861763950728339 0 0 0 0 399.46878014600406 -263.31237201620752 0 -263.31237201620752 -540.31100772279649 0 0 0 0 19.316955926270566 -74.158677300575391 0 -74.158677300575391 -650.81559506190388 0 0 0 0 84.852909952848222 -173.76715179436906 0 -173.76715179436906 -534.69846175562634 0 0 0 0 7.5895807339273986 0.59532059234043544 0 0.59532059234043544 -14.9061096357051 0 0 0 0 19.333498347925882 15.228331563739223 0 15.228331563739223 -9.5287783856448911 0 0 0 0 -923.32722917965475 29.690867812487454 0 29.690867812487454 -970.65169952113774 0 0 0 0 -414.97890703511439 394.2753282907313 0 394.2753282907313 -234.37690094111042 0 0 0 0 21.44967639584841 11.189617840780166 0 11.189617840780166 -7.5109495385521328 0 0 0 0 511.63518904137527 -2.1641076225132565 0 -2.1641076225132565 -605.7181822722896 0 0 0 0 873.43537479333827 -203.47975432716521 0 -203.47975432716521 -516.50096584162748 0 0 0 0 556.47928314711498 -50.710786352254217 0 -50.710786352254217 -323.15386160113576 0 0 0 0 344.99911069660266 -84.760190546368904 0 -84.760190546368904 -108.33773422949616 0 0 0 0 445.59743478954806 -76.145934728905559 0 -76.145934728905559 -662.24726931820396 0 0 0 0 454.14782401288903 -86.635595747400657 0 -86.635595747400657 -655.55352520025099 0 0 0 0 564.3585002216837 -28.673863273490952 0 -28.673863273490952 -671.40956411302068 0 0 0 0 565.17552114195678 -27.666916136358054 0 -27.666916136358054 -666.51468201790885 0 0 0 0 496.86616756730109 3.283997116754108 0 3.283997116754108 -677.28388560143139 0 0 0 0 361.64257714890482 158.31624907366404 0 158.31624907366404 -569.89040742881616 0 0 0 0 307.2091013657942 -5.5724233667968122 0 -5.5724233667968122 -377.01074450808483 0 0 0 0 309.86515387215189 18.275085161658581 0 18.275085161658581 -364.64464027528811 0 0 0 0 132.95730063098381 -186.45894756594771 0 -186.45894756594771 -526.19266299051606 0 0 0 0 167.13755255768774 85.648747000843969 0 85.648747000843969 12.411896896312555 0 0 0 0 49.892530963654281 47.431135796156013 0 47.431135796156013 -100.04612706514854 0 0 0 0 148.58518185096611 -14.686961837459506 0 -14.686961837459506 -16.820483771861628 0 0 0 0 128.90900945068279 33.772341023141053 0 33.772341023141053 40.934257214288664 0 0 0 0 109.3435998486369 -14.991222335487198 0 -14.991222335487198 -9.1036456610058494 0 0 0 0 -282.95913566244781 673.12277290794702 0 673.12277290794702 427.19721599483546 0 0 0 0 -106.0534557459905 637.2723902595535 0 637.2723902595535 -386.39673683502042 0 0 0 0 298.16167763418707 73.294598865187126 0 73.294598865187126 1.4030175042080639 0 0 0 0 50.531478629531392 38.747728897194555 0 38.747728897194555 14.772910303468514 0 0 0 0 32.92254393717073 36.827582372382366 0 36.827582372382366 18.533265504188893 0 0 0 0 -356.74471834840188 387.3713531095616 0 387.3713531095616 -242.95376452366418 0 0 0 0 103.4991997595489 75.778285467015849 0 75.778285467015849 17.5579125822469 0 0 0 0 144.08748902142543 -314.66112078883725 0 -314.66112078883725 -767.69869436341332 0 0 0 0 78.165209606149105 3.6207291252668945 0 3.6207291252668945 -32.790080667886848 0 0 0 0 85.066368759235047 86.936838871142299 0 86.936838871142299 80.242170594660365 0 0 0 0 118.8181659871625 82.496220936705186 0 82.496220936705186 -82.45169452716209 0 0 0 0 86.725921548808401 1.2621230385393574 0 1.2621230385393574 66.491442530011 0 0 0 0 195.62095228483668 74.148963610421561 0 74.148963610421561 -44.38796716235629 0 0 0 0 94.405353843893209 35.291776136889794 0 35.291776136889794 -16.804846257988153 0 0 0 0 180.63639055660315 38.435819278303825 0 38.435819278303825 -50.442165225846111 0 0 0 0 162.41068426043785 84.682630076062424 0 84.682630076062424 28.744758848011315 0 0 0 0 125.2190623833672 28.982877276302613 0 28.982877276302613 -22.047878901616468 0 0 0 0 111.21517378705903 10.905558207935655 0 10.905558207935655 -44.850669356264007 0 0 0 0 135.55100205633607 190.09888908553057 0 190.09888908553057 113.86367750554791 0 0 0 0 108.89856760614748 201.59171588460867 0 201.59171588460867 120.83881372738665 0 0 0 0 150.40721210748598 189.79223414400349 0 189.79223414400349 -0.5369720520948249 0 0 0 0 132.91205309207976 172.07294318735296 0 172.07294318735296 206.23262993268963 0 0 0 0 205.28639183162704 293.67436953536026 0 293.67436953536026 193.6251443444396 0 0 0 0 20.3937771139299 383.38243137544839 0 383.38243137544839 286.85425477124363 0 0 0 0 1240.3005935747242 487.8855391263769 0 487.8855391263769 -862.34026973527398 0 0 0 0 307.77452246653047 91.30781131101844 0 91.30781131101844 -1008.2765185425576 0 0 0 0 16.950706654398338 14.25034453113525 0 14.25034453113525 -1.1682880705483067 0 0 0 0 -367.76685380195181 759.00794009840388 0 759.00794009840388 48.518025844924978 0 0 0 0 8.2268558319783232 1.4242003059739456 0 1.4242003059739456 -3.9160952027361642 0 0 0 0 -637.8525594405437 -684.04287001140165 0 -684.04287001140165 -455.31979249127835 0 0 0 0 1558.1727571755637 -76.736667070908652 0 -76.736667070908652 -4.6242744359601602 0 0 0 0 1.2039379590087478 -1.2039638613738317 0 -1.2039638613738317 -0.57393220631265152 0 0 0 0 1593.4124622435256 265.85343786405122 0 265.85343786405122 -339.18587874474179 0 0 0 0 -197.12545710951463 -302.8824708076026 0 -302.8824708076026 22.001625353286272 0 0 0 0 541.81077341026321 71.778351939821732 0 71.778351939821732 -170.07443476307208 0 0 0 0 595.61649087831211 -71.234933851135793 0 -71.234933851135793 -333.1471643741952 0 0 0 0 493.77883839501669 -166.82500337173826 0 -166.82500337173826 -93.016111084481054 0 0 0 0 418.77161479773622 -20.560201101959592 0 -20.560201101959592 -190.2004395126387 0 0 0 0 547.79544298433575 -38.989699065742116 0 -38.989699065742116 -354.32131783205205 0 0 0 0 82.001614575077838 -609.52748336781224 0 -609.52748336781224 -578.06225876008466 0 0 0 0 737.02775851832575 -54.707441458989109 0 -54.707441458989109 -135.04320796757315 0 0 0 0 662.51075295447663 -223.28100275145607 0 -223.28100275145607 -418.39197536179211 0 0 0 0 836.57514471579771 -157.38249246068767 0 -157.38249246068767 -208.09899603026497 0 0 0 0 699.16879580027489 -61.311966435529257 0 -61.311966435529257 55.852310279239191 0 0 0 0 800.83630329023822 -118.10421097605897 0 -118.10421097605897 88.935953500616961 0 0 0 0 4.0290596173340596 -3.4737458840221733 0 -3.4737458840221733 0.044093090997383899 0 0 0 0 364.40514018778958 531.46253227963666 0 531.46253227963666 727.55994766266997 0 0 0 0 274.99364921233087 -663.24671648534684 0 -663.24671648534684 -821.33922836896056 0 0 0 0 946.23585409964289 376.11177416018347 0 376.11177416018347 102.29834004684062 0 0 0 0 399.01214787936715 221.07504592725263 0 221.07504592725263 101.51683363219908 0 0 0 0 359.02574874374591 -51.577965058483642 0 -51.577965058483642 99.017113843675588 0 0 0 0 447.88705068117997 -208.33145282025589 0 -208.33145282025589 104.39771483050572 0 0 0 0 681.50657629524267 -251.26482554300082 0 -251.26482554300082 86.079173270931506 0 0 0 0 668.73463636567521 -415.1730283083989 0 -415.1730283083989 92.378805333169112 0 0 0 0 403.72806147580098 -254.53167303855753 0 -254.53167303855753 142.90724813710585 0 0 0 0 591.86692475238715 -178.65459554251424 0 -178.65459554251424 135.01680710360284 0 0 0 0 558.86926199097866 -121.05039901377006 0 -121.05039901377006 39.044301685759592 0 0 0 0 520.77933878034537 -115.97316731672566 0 -115.97316731672566 89.39802854322204 0 0 0 0 441.8197326668369 35.88698072819534 0 35.88698072819534 63.748480513266429 0 0 0 0 442.09811289172558 53.211166753679549 0 53.211166753679549 51.770358357159239 0 0 0 0 791.87015783557263 84.097304424544006 0 84.097304424544006 -137.27375540374214 0 0 0 0 892.51841943182899 -322.54180324423032 0 -322.54180324423032 -0.12374414606983919 0 0 0 0 1461.1651665340996 36.059334087337447 0 36.059334087337447 -225.79148176980652 0 0 0 0 -46.231107496402728 187.76952034938699 0 187.76952034938699 155.3462801586752 0 0 0 0 523.14524685666174 352.16109581946625 0 352.16109581946625 45.888039904616107 0 0 0 0 334.94935991669627 190.48061340474845 0 190.48061340474845 91.972099835895449 0 0 0 0 -64.415967387182718 -55.583255364575962 0 -55.583255364575962 93.480586687440208 0 0 0 0 95.615465109040088 -8.9559647574437804 0 -8.9559647574437804 -282.3332836636182 0 0 0 0 16.74604575367448 78.816667259462477 0 78.816667259462477 279.23495500641468 0 0 0 0 86.35822280753564 97.028487353561303 0 97.028487353561303 93.517847990553349 0 0 0 0 191.52425229100845 62.241504434119179 0 62.241504434119179 198.39892819952763 0 0 0 0 68.020136706816629 87.664627754746533 0 87.664627754746533 193.78014870379911 0 0 0 0 297.51367921572978 -45.287088625784293 0 -45.287088625784293 178.89691651590249 0 0 0 0 233.27853054711261 -11.391534056305403 0 -11.391534056305403 162.88553404041909 0 0 0 0 36.854234002165413 26.428272587232016 0 26.428272587232016 292.93229183531037 0 0 0 0 48.754305069208385 11.958976695674437 0 11.958976695674437 280.68461100147533 0 0 0 0 70.543343057720449 -28.211064676363094 0 -28.211064676363094 301.37663411869175 0 0 0 0 -9.8185459930912202 -96.955175983486015 0 -96.955175983486015 245.42173106589235 0 0 0 0 31.218958835128433 -106.52972003648347 0 -106.52972003648347 230.72549951952988 0 0 0 0 119.53810620141485 -123.73149631928595 0 -123.73149631928595 232.27067972907889 0 0 0 0 498.97659775244665 -165.92935848818706 0 -165.92935848818706 83.180426050360666 0 0 0 0 510.31118916879922 -198.6690958248696 0 -198.6690958248696 -42.335401471925707 0 0 0 0 543.35905784226554 -101.02948024109673 0 -101.02948024109673 150.94706835777572 0 0 0 0 358.31073162492794 -144.03558452656443 0 -144.03558452656443 84.977512279773691 0 0 0 0 544.05937800727952 -89.018966314960323 0 -89.018966314960323 63.873477947767014 0 0 0 0 1348.6191115774648 -641.00859321235839 0 -641.00859321235839 251.13287750479026 0 0 0 0 787.19669994749347 -608.16632670760828 0 -608.16632670760828 399.90969186785514 0 0 0 0 531.0127591026212 -701.91919306707302 0 -701.91919306707302 597.84623348338209 0 0 0 0 -146.38861789793737 76.593567171406903 0 76.593567171406903 200.05342259379404 0 0 0 0 709.04917841998395 -1558.2797950034642 0 -1558.2797950034642 1239.7889773926245 0 0 0 0 321.59457527974337 -10.629392306026602 0 -10.629392306026602 -434.625217529152 0 0 0 0 -216.86503343316872 127.93546522795123 0 127.93546522795123 10.005240230602567 0 0 0 0 192.77248217642273 69.840799150937698 0 69.840799150937698 -28.968147630511112 0 0 0 0 147.76457451884198 -316.85206438474449 0 -316.85206438474449 282.85281119221656 0 0 0 0 2.7388687018374576 1.311733590616484 0 1.311733590616484 -2.3581113939313134 0 0 0 0 -244.12780000121074 195.30764860214163 0 195.30764860214163 303.94310549070588 0 0 0 0 10.995597078202849 -1.5672239102543024 0 -1.5672239102543024 -3.7871231945336703 0 0 0 0 73.956610884029942 -79.171905546641256 0 -79.171905546641256 -188.14830853879994 0 0 0 0 -0.011058679641791969 -113.15227015927621 0 -113.15227015927621 -4.1247591206451943 0 0 0 0 -10.656441628587345 41.99435978679594 0 41.99435978679594 30.758304452010407 0 0 0 0 185.36371231239536 93.843876447996024 0 93.843876447996024 39.81849392315867 0 0 0 0 210.40735364954162 -80.931701800293013 0 -80.931701800293013 -12.205638543561179 0 0 0 0 64.663572941168241 70.093779122680871 0 70.093779122680871 350.75722256227027 0 0 0 0 74.641852141114214 -109.54520675330741 0 -109.54520675330741 248.09262705452102 0 0 0 0 -42.118398136559108 -19.516115984858402 0 -19.516115984858402 423.87018861215529 0 0 0 0 562.81929319443771 -132.62598164693463 0 -132.62598164693463 356.39545338367861 0 0 0 0 74.765698367714322 27.223608187367518 0 27.223608187367518 451.55468154466416 0 0 0 0 134.1977043876168 -61.510627115752754 0 -61.510627115752754 366.27293111097219 0 0 0 0 264.93093421649064 43.525566545274614 0 43.525566545274614 403.14450319549996 0 0 0 0 527.55213730595187 -346.75495343109162 0 -346.75495343109162 385.52420420024737 0 0 0 0 749.84639093432997 -216.3118734680213 0 -216.3118734680213 241.43295861661204 0 0 0 0 1192.8903066137464 -237.21630967356896 0 -237.21630967356896 247.69812092285702 0 0 0 0 601.25472978903963 -72.704430439879161 0 -72.704430439879161 390.43920753602652 0 0 0 0 1147.9577910333228 -425.98761133791572 0 -425.98761133791572 376.10587926109429 0 0 0 0 10.418421617888598 12.073491384849333 0 12.073491384849333 -1.8624407046850031 0 0 0 0 2028.5804611920321 -509.36732766784553 0 -509.36732766784553 146.62229092976986 0 0 0 0 1600.7893493225711 -379.41109681883552 0 -379.41109681883552 215.0874972967772 0 0 0 0 2958.4405581461469 -374.52820132639499 0 -374.52820132639499 -454.38326089497968 0 0 0 0 -384.90042609677039 425.69019112461706 0 425.69019112461706 -19.449712128833198 0 0 0 0 4.7515935730195462 4.1797677638651241 0 4.1797677638651241 -1.505799251336768 0 0 0 0 508.16199533881809 554.26229894683092 0 554.26229894683092 -271.75861067914957 0 0 0 0 1221.8475086416402 -113.56943448415177 0 -113.56943448415177 289.44684834693089 0 0 0 0 1096.5162638836227 -253.0873707231849 0 -253.0873707231849 245.15725603170858 0 0 0 0 1883.6185872549941 -587.37587252923822 0 -587.37587252923822 190.8737004211996 0 0 0 0 1179.5661589274778 399.4549028152087 0 399.4549028152087 -433.4882982626641 0 0 0 0 1141.4023441172631 166.29149286859638 0 166.29149286859638 -989.41947680201247 0 0 0 0 1736.0296041906804 -467.69749256485011 0 -467.69749256485011 -375.69574235422448 0 0 0 0 1456.4454218781921 -209.76589507701647 0 -209.76589507701647 696.33571968794422 0 0 0 0 -316.31297719406939 282.80725026595064 0 282.80725026595064 -26.754953220539392 0 0 0 0 583.364844887049 -141.24155251044408 0 -141.24155251044408 104.37679602706066 0 0 0 0 618.24776754534832 141.00760937459609 0 141.00760937459609 140.12020346409099 0 0 0 0 -85.597602089495922 13.244703419826692 0 13.244703419826692 154.11789397719258 0 0 0 0 -133.80567796010291 -398.84204537770211 0 -398.84204537770211 -93.910135115959292 0 0 0 0 89.704913409186702 -172.37263599353901 0 -172.37263599353901 -694.98678022781132 0 0 0 0 -50.798072552172471 -408.02174224623741 0 -408.02174224623741 -79.341532452225124 0 0 0 0 257.16388311604032 -431.18832034321167 0 -431.18832034321167 -875.20942272289949 0 0 0 0 27.726582013384288 -9.2534349542168588 0 -9.2534349542168588 -0.53239575615555346 0 0 0 0 -31.748575338432374 -655.02773337702911 0 -655.02773337702911 285.75678026280366 0 0 0 0 -64.128654491056295 -458.0090644102238 0 -458.0090644102238 -208.76620996452402 0 0 0 0 135.75639397809482 -667.20057015667589 0 -667.20057015667589 -18.540170615622628 0 0 0 0 878.40203569789298 -562.58903901164661 0 -562.58903901164661 -642.56711738690501 0 0 0 0 -1974.0119477298413 -343.91572559430097 0 -343.91572559430097 -256.69714310901054 0 0 0 0 3.1013362811099183 -2.1483704280524645 0 -2.1483704280524645 -0.40875248593758329 0 0 0 0 110.37280811180699 -760.97099080745465 0 -760.97099080745465 51.300173256384369 0 0 0 0 -115.14323243999024 -608.25474789534246 0 -608.25474789534246 721.69699415773175 0 0 0 0 -69.706135619186625 -528.81932074509496 0 -528.81932074509496 162.69919398666434 0 0 0 0 157.68076574469887 -832.42444196474571 0 -832.42444196474571 883.97949790323514 0 0 0 0 12.320097911518136 -5.213426349230307 0 -5.213426349230307 0.25075932173911486 0 0 0 0 2169.5152036550408 -339.42314276193224 0 -339.42314276193224 -201.46199725625775 0 0 0 0 820.76149813283337 -1019.8732893898759 0 -1019.8732893898759 589.18380211218027 0 0 0 0 271.13640223774382 -475.45238801880805 0 -475.45238801880805 51.754841102982027 0 0 0 0 -212.63803790162638 -932.62040079621329 0 -932.62040079621329 -245.26765777138826 0 0 0 0 418.02467977048764 -105.17588488812999 0 -105.17588488812999 -338.10487339763131 0 0 0 0 -402.74681030357169 -322.7136312638122 0 -322.7136312638122 -529.04495693232275 0 0 0 0 618.67677691140489 -316.89505738968546 0 -316.89505738968546 -610.40353883774787 0 0 0 0 801.85030417423968 184.36138190148131 0 184.36138190148131 -723.92066393301502 0 0 0 0 985.66975700699913 -487.18192031350918 0 -487.18192031350918 -132.48092317281044 0 0 0 0 1088.1416965188655 -41.636786652570663 0 -41.636786652570663 -558.26570687551521 0 0 0 0 1483.358616125126 245.5286754983872 0 245.5286754983872 -393.05068639882302 0 0 0 0 1058.7201629922074 250.32093885387178 0 250.32093885387178 -257.23235668137931 0 0 0 0 1195.704377391754 312.21911263123002 0 312.21911263123002 -268.50507644634172 0 0 0 0 871.99854079451143 -307.64744165659704 0 -307.64744165659704 -698.81423592813053 0 0 0 0 1155.8981748063834 -173.57438589483172 0 -173.57438589483172 -480.43040413783319 0 0 0 0 1042.1876830563779 194.61528334000832 0 194.61528334000832 -375.80271357659694 0 0 0 0 985.73344088736303 174.85363467501884 0 174.85363467501884 -95.346633552668209 0 0 0 0 786.83646818431225 214.77628310855471 0 214.77628310855471 -59.154200242072875 0 0 0 0 635.36833631970148 286.06048077226478 0 286.06048077226478 58.803040350867832 0 0 0 0 954.58056754408426 446.70063281651892 0 446.70063281651892 74.926605432159704 0 0 0 0 1196.0637946766965 362.41108346964938 0 362.41108346964938 -95.463198919042043 0 0 0 0 1530.2334029661506 250.3951366472993 0 250.3951366472993 -110.70839453756139 0 0 0 0 2111.7494719873171 749.9526717405854 0 749.9526717405854 274.69557210328639 0 0 0 0 1267.4252989423057 154.73914889332173 0 154.73914889332173 -97.847390491791884 0 0 0 0 1265.8681555493386 93.648826149159504 0 93.648826149159504 1141.6202872936683 0 0 0 0 1005.2604258595748 636.44462401929377 0 636.44462401929377 269.04707080986191 0 0 0 0 418.48348393758647 -564.44012548654382 0 -564.44012548654382 393.71024154605556 0 0 0 0 10.383622653059906 -3.4679802962726463 0 -3.4679802962726463 0.2488289039555216 0 0 0 0 1013.1730719023952 -310.59246113619542 0 -310.59246113619542 -76.225559514829911 0 0 0 0 736.98341500708523 -280.85437010704106 0 -280.85437010704106 -62.397376310870641 0 0 0 0 230.47322353140817 -280.04947013912397 0 -280.04947013912397 150.03515804422841 0 0 0 0 55.191639805450677 -99.569042175510049 0 -99.569042175510049 111.88173505476243 0 0 0 0 50.551777146875793 -72.676403446221229 0 -72.676403446221229 218.6735713831149 0 0 0 0 -36.822004460835558 -213.10101563713988 0 -213.10101563713988 100.42038941817191 0 0 0 0 -59.359301708988824 -66.313120286768935 0 -66.313120286768935 -10.808373996991122 0 0 0 0 109.76319317846219 -178.71588658941528 0 -178.71588658941528 -213.94964397055082 0 0 0 0 25.864174401995982 -6.858536237922813 0 -6.858536237922813 -0.60403477994384902 0 0 0 0 350.83269792023066 129.2268573507863 0 129.2268573507863 -1185.1620155235184 0 0 0 0 204.43765629365839 -631.22200755921222 0 -631.22200755921222 -273.61841648241534 0 0 0 0 267.64889240535797 442.43135325773881 0 442.43135325773881 -484.08325908655934 0 0 0 0 401.65288283724658 -523.38529544909579 0 -523.38529544909579 -262.74953681852276 0 0 0 0 1553.926871825422 885.97377584828064 0 885.97377584828064 343.21774513672062 0 0 0 0 1590.4473977895982 -1135.7465250928417 0 -1135.7465250928417 -33.441086689988879 0 0 0 0 46.729682517950096 481.31301642964263 0 481.31301642964263 191.75539574558024 0 0 0 0 461.18695181751173 55.753730262038516 0 55.753730262038516 -248.9367109718869 0 0 0 0 24.808774809010401 185.96038798725249 0 185.96038798725249 -128.26788687827502 0 0 0 0 -62.3674323848727 270.60729331848597 0 270.60729331848597 -209.52695556010758 0 0 0 0 -80.986551336970024 136.49580225981072 0 136.49580225981072 -246.17967603187208 0 0 0 0 992.67143756247492 -75.194686382735881 0 -75.194686382735881 -378.26279820293257 0 0 0 0 223.91290276609652 406.23310436883366 0 406.23310436883366 -328.16320800964377 0 0 0 0 179.80343102035658 64.819678242380178 0 64.819678242380178 -393.29964742704192 0 0 0 0 105.38750365174656 14.972807595246195 0 14.972807595246195 -388.34037524442465 0 0 0 0 49.455330930988566 33.901686814190725 0 33.901686814190725 -394.7330917789368 0 0 0 0 256.43166999768846 -78.717777454185125 0 -78.717777454185125 -541.37862081668936 0 0 0 0 56.519743910394936 123.92588199210354 0 123.92588199210354 -500.07533997293831 0 0 0 0 44.789065084564548 8.1660786626938915 0 8.1660786626938915 -5.3275490144913462 0 0 0 0 -262.14481318214393 -178.24735439720371 0 -178.24735439720371 -700.30397647320206 0 0 0 0 93.561883378794846 109.80381167999167 0 109.80381167999167 -866.15946611891241 0 0 0 0 61.152743877701141 23.605432739799653 0 23.605432739799653 -575.21995535362112 0 0 0 0 -248.27148434384435 -86.761329225727422 0 -86.761329225727422 -361.00315516557384 0 0 0 0 -132.93776519857443 183.11142788207599 0 183.11142788207599 -371.70852813724559 0 0 0 0 -57.557511327198881 -60.010656952597856 0 -60.010656952597856 44.245535898068283 0 0 0 0 477.89022086779369 398.91734934297256 0 398.91734934297256 -692.86761016177843 0 0 0 0 -400.26313948376128 679.62468647894093 0 679.62468647894093 -639.01985984759381 0 0 0 0 -723.45008302079896 99.358832637099113 0 99.358832637099113 -377.59721879982453 0 0 0 0 1159.8951321580089 1094.3931384905081 0 1094.3931384905081 -1946.4456481922189 0 0 0 0 -45.157906811440853 -712.885095181613 0 -712.885095181613 248.73227118682644 0 0 0 0 2031.2310025140141 -10.010749329672763 0 -10.010749329672763 -263.16437706796569 0 0 0 0 8.9049790516818685 -6.9683505339206793 0 -6.9683505339206793 5.2461353880219583 0 0 0 0 2798.6051210356982 147.63085597957388 0 147.63085597957388 -1791.4974727376321 0 0 0 0 954.99237141250796 -458.84827210632102 0 -458.84827210632102 679.02457251618807 0 0 0 0 3253.6557662215146 205.57800523733522 0 205.57800523733522 -552.51968339693849 0 0 0 0 1388.417076014648 -1605.4623429309077 0 -1605.4623429309077 715.70132120512608 0 0 0 0 22.30452040031297 3.057051689742682 0 3.057051689742682 -3.0220364739593748 0 0 0 0 1844.7946372394345 -256.95950999273373 0 -256.95950999273373 47.595914544959669 0 0 0 0 2742.2708315943187 -1178.0997434899018 0 -1178.0997434899018 -7.8645778881218575 0 0 0 0 1134.0652856686647 -917.9696148787225 0 -917.9696148787225 269.53671434757962 0 0 0 0 1141.9919241651351 -1252.8537593800488 0 -1252.8537593800488 525.81164684214309 0 0 0 0 1038.5575136005973 -874.50180459143758 0 -874.50180459143758 250.13757210048789 0 0 0 0 701.56676673624315 -1033.905832587734 0 -1033.905832587734 419.07375122580561 0 0 0 0 837.6404904383694 -209.01333202947831 0 -209.01333202947831 81.648744099638861 0 0 0 0 115.71448278503954 -327.42158360173994 0 -327.42158360173994 435.17126364546129 0 0 0 0 796.93934210155203 -941.81080175438547 0 -941.81080175438547 345.85070696858747 0 0 0 0 627.36954335667178 -1352.4088631265604 0 -1352.4088631265604 804.56044444879626 0 0 0 0 494.94991773237416 -1296.4348685816876 0 -1296.4348685816876 783.51742230065065 0 0 0 0 -155.53151344579783 -1014.8172309117385 0 -1014.8172309117385 835.25695032713338 0 0 0 0 -322.41953270051681 -28.372951095960616 0 -28.372951095960616 838.06243946205723 0 0 0 0 857.92595429276935 -197.84992425278642 0 -197.84992425278642 822.47437392172651 0 0 0 0 643.68612491797558 -955.72307293979156 0 -955.72307293979156 567.6971053870293 0 0 0 0 703.80219437502092 -795.60769892874305 0 -795.60769892874305 829.66444279164352 0 0 0 0 833.58639750501243 -771.00303039379105 0 -771.00303039379105 699.24606349584974 0 0 0 0 730.33335489756064 -639.28451821219824 0 -639.28451821219824 880.74317289274404 0 0 0 0 614.37749342027382 -739.57290226010446 0 -739.57290226010446 794.75334463851868 0 0 0 0 69.108686886038413 57.649570039758828 0 57.649570039758828 -202.85877544803225 0 0 0 0 630.09990399856542 -742.71999266416424 0 -742.71999266416424 464.67703153453476 0 0 0 0 436.20690982409542 -1380.4574117278535 0 -1380.4574117278535 -11.476877244975185 0 0 0 0 2.6473650045705917 6.5851156765382051 0 6.5851156765382051 -0.61152681262487718 0 0 0 0 793.64314056477451 -962.32823915889821 0 -962.32823915889821 453.44863670551786 0 0 0 0 709.6738331805027 -843.39136642410267 0 -843.39136642410267 591.99674938817043 0 0 0 0 854.10064070281078 -898.55128676186541 0 -898.55128676186541 442.23219117185363 0 0 0 0 810.37634420963877 -804.60335206907621 0 -804.60335206907621 272.26127993970294 0 0 0 0 762.29935751282756 -888.51918585497333 0 -888.51918585497333 592.02394096214687 0 0 0 0 838.78981521839887 -762.65096353443914 0 -762.65096353443914 769.32877731612052 0 0 0 0 30.61087663635746 17.313343073565676 0 17.313343073565676 7.398809087759048 0 0 0 0 44.36174172621395 -55.459040092036048 0 -55.459040092036048 88.905923565067496 0 0 0 0 53.395224012674589 -13.099496497037762 0 -13.099496497037762 -39.589136771035555 0 0 0 0 -19.774384398297116 -109.69594272986433 0 -109.69594272986433 -33.459151105071214 0 0 0 0 176.72359446878545 80.612018113044542 0 80.612018113044542 102.33977861480525 0 0 0 0 1569.850846191006 -1162.0747476003307 0 -1162.0747476003307 1044.5856557075067 0 0 0 0 10.743982560349934 5.3427761357723043 0 5.3427761357723043 3.4674091416187878 0 0 0 0 44.307100613677221 417.18968662028203 0 417.18968662028203 97.197394691727823 0 0 0 0 913.0966208760583 583.82008147141823 0 583.82008147141823 103.46258460781303 0 0 0 0 2388.5340959728974 990.08034853605523 0 990.08034853605523 -40.876035536144627 0 0 0 0 1425.0024255558765 -564.69584674247881 0 -564.69584674247881 -299.14794272352992 0 0 0 0 -214.223552848689 -143.88526237315727 0 -143.88526237315727 403.00916149874502 0 0 0 0 325.60187327661333 -198.24195952942137 0 -198.24195952942137 394.32480394443519 0 0 0 0 314.0423500898396 -257.08824097417528 0 -257.08824097417528 98.047551502808346 0 0 0 0 1.5267165468891868 1.2343786544530104 0 1.2343786544530104 7.9883682644437144 0 0 0 0 530.69901840842158 -1070.5251156233271 0 -1070.5251156233271 -169.36732379716886 0 0 0 0 281.57720574533232 309.92620844032808 0 309.92620844032808 950.55999914740278 0 0 0 0 1127.0997899590875 736.92990282471146 0 736.92990282471146 792.12819560337812 0 0 0 0 -202.09704027899869 42.024614522711516 0 42.024614522711516 -727.06981538740365 0 0 0 0 856.41282698486793 80.372232984488164 0 80.372232984488164 -565.64627652640775 0 0 0 0 12.51962823799451 -0.81453272620853667 0 -0.81453272620853667 -2.6858459823923582 0 0 0 0 39.833707919140579 153.91909739477705 0 153.91909739477705 -303.95498606900628 0 0 0 0 157.14166670023769 65.54481319943261 0 65.54481319943261 -325.11911160224372 0 0 0 0 -201.62090903355602 1382.1762000213139 0 1382.1762000213139 -1362.8473883866536 0 0 0 0 1117.4261306215149 -540.42368130709428 0 -540.42368130709428 -752.73113840366932 0 0 0 0 1830.1993507744137 414.40108024316851 0 414.40108024316851 -1240.1236591372999 0 0 0 0 954.56638863664193 -46.975817058852044 0 -46.975817058852044 -541.82160036312416 0 0 0 0 603.55633504062098 -356.76588482286843 0 -356.76588482286843 -659.98942199101748 0 0 0 0 683.47378321506039 -38.043719311465793 0 -38.043719311465793 -1049.8126845314 0 0 0 0 342.46493580636889 -383.63583128635219 0 -383.63583128635219 -632.99423252337328 0 0 0 0 425.20303707989706 -568.83635298490753 0 -568.83635298490753 -685.90103488230307 0 0 0 0 -858.01305924742837 744.12373811388852 0 744.12373811388852 -1700.9752528271165 0 0 0 0 7.2692963777759481 -3.2078024512256782 0 -3.2078024512256782 -2.4891382934528039 0 0 0 0 -135.5494826867407 -638.78174518519154 0 -638.78174518519154 -570.59983808639845 0 0 0 0 -490.71012296665867 -536.27107437623363 0 -536.27107437623363 -235.00654689249859 0 0 0 0 -238.97893719950662 -272.69350999932885 0 -272.69350999932885 -252.36697371123955 0 0 0 0 227.49872922675104 -101.18357626701959 0 -101.18357626701959 -200.02662344168311 0 0 0 0 304.67868233481386 -201.92795980465053 0 -201.92795980465053 -399.78728971764212 0 0 0 0 47.411128899146206 10.430293572790106 0 10.430293572790106 1.5088738429949444 0 0 0 0 18.641469863020198 -12.2744794909595 0 -12.2744794909595 -2.3428001215432133 0 0 0 0 32.995340081298991 -3.9490998321307416 0 -3.9490998321307416 -7.4223201410777619 0 0 0 0 31.076013151465951 -6.8190366354378824 0 -6.8190366354378824 -3.8492531166886117 0 0 0 0 337.38249869981064 -156.53690857524634 0 -156.53690857524634 -911.1713374270239 0 0 0 0 29.127953721453522 -4.2337391497435366 0 -4.2337391497435366 -9.0559525382749015 0 0 0 0 -42.139676176468129 149.60716444295213 0 149.60716444295213 -843.77561320796303 0 0 0 0 -143.78544018313187 -749.04683839033532 0 -749.04683839033532 -25.506154979786515 0 0 0 0 23.178305122510814 -11.292175171751062 0 -11.292175171751062 8.8309483731571241 0 0 0 0 150.58633440783723 -171.82350269517156 0 -171.82350269517156 -554.48977735992594 0 0 0 0 114.80220025622657 -404.05108178449609 0 -404.05108178449609 -197.8592485551053 0 0 0 0 3.360801984669024 -195.33170242899359 0 -195.33170242899359 -551.97376976373198 0 0 0 0 -248.20735634952257 -248.169643258203 0 -248.169643258203 -177.55340447723211 0 0 0 0 -552.28201262278799 -208.83879090498613 0 -208.83879090498613 470.85395915870322 0 0 0 0 628.70017372647999 2457.5946197259709 0 2457.5946197259709 347.46246879635646 0 0 0 0 1087.1186771256998 371.41525283788542 0 371.41525283788542 222.88365834664091 0 0 0 0 28.067666790876654 7.6543068977651885 0 7.6543068977651885 1.503345164329275 0 0 0 0 669.7063708212554 73.019373313034521 0 73.019373313034521 35.312138862100255 0 0 0 0 1098.1658341099301 91.222195331711191 0 91.222195331711191 16.548872251416469 0 0 0 0 472.81468357489575 -276.67286379562574 0 -276.67286379562574 -187.70083148183494 0 0 0 0 64.704061037926294 -8.9497861862455466 0 -8.9497861862455466 -70.925690453197603 0 0 0 0 44.02714671130343 -1.9642469573300332 0 -1.9642469573300332 -5.2649776423313597 0 0 0 0 36.194662604033006 8.5529403174364589 0 8.5529403174364589 0.15012740651698309 0 0 0 0 32.229026488872478 -7.6115326860708592 0 -7.6115326860708592 -20.904306932374311 0 0 0 0 58.35454629412925 -39.322904163962448 0 -39.322904163962448 3.6511554647913727 0 0 0 0 65.533543969821039 -6.6021357961817557 0 -6.6021357961817557 -37.17517400343786 0 0 0 0 37.074269926353736 -9.0850079587316941 0 -9.0850079587316941 4.3088530091772554 0 0 0 0 42.859440868884121 -20.423257411587201 0 -20.423257411587201 -29.196414857804484 0 0 0 0 64.127926707220468 6.3431098277142155 0 6.3431098277142155 -11.925619576393728 0 0 0 0 47.116089342438883 2.7822092411534527 0 2.7822092411534527 -2.3697160326845843 0 0 0 0 36.449489963579282 6.4833567293227699 0 6.4833567293227699 0.86769075084446712 0 0 0 0 99.347508303982977 -49.934590829112494 0 -49.934590829112494 -204.7911657171212 0 0 0 0 58.761620923192247 -10.739289915525786 0 -10.739289915525786 -12.232482382511339 0 0 0 0 62.024170600887373 1.3544060454623832 0 1.3544060454623832 -16.361832015614709 0 0 0 0 47.265445952484839 -14.384659703806534 0 -14.384659703806534 -16.026194922076009 0 0 0 0 151.55520370880549 -11.830229308456182 0 -11.830229308456182 -46.89203176400224 0 0 0 0 59.017211241095104 4.5952369825276378 0 4.5952369825276378 -5.118279940524296 0 0 0 0 59.76285658561028 1.5141224845101533 0 1.5141224845101533 -16.004748046732857 0 0 0 0 95.89915558618668 25.660245395942184 0 25.660245395942184 4.2574910169405484 0 0 0 0 94.522050670500903 9.9938473745096417 0 9.9938473745096417 19.531228434399964 0 0 0 0 11.839710253425153 1.5727683219063309 0 1.5727683219063309 0.65238815159922581 0 0 0 0 17.454616605020831 -4.2650704454222677 0 -4.2650704454222677 -11.51693562639651 0 0 0 0 55.412406658033433 21.261306545692605 0 21.261306545692605 27.743143949279329 0 0 0 0 50.095898853706096 2.71607238346391 0 2.71607238346391 -13.515752624008528 0 0 0 0 79.941387126578775 17.658008446473104 0 17.658008446473104 -3.3228302883653669 0 0 0 0 90.346754420821526 26.37272630082316 0 26.37272630082316 3.9742158215303789 0 0 0 0 65.443207376049031 14.48263602130919 0 14.48263602130919 -6.4552562692115316 0 0 0 0 43.507527537485657 -6.7382980507354659 0 -6.7382980507354659 -45.023193358612843 0 0 0 0 26.933441617027587 -3.1394375604168561 0 -3.1394375604168561 -6.8951116183537415 0 0 0 0 65.714483839132527 13.329875057726099 0 13.329875057726099 -12.393350180125708 0 0 0 0 48.256057032253011 30.572781690847478 0 30.572781690847478 5.4124360032765253 0 0 0 0 30.566023673046452 9.8552895716267059 0 9.8552895716267059 -9.4777391331364242 0 0 0 0 36.21693161957058 6.3946935801668188 0 6.3946935801668188 -8.1338127952672394 0 0 0 0 120.71203885070918 28.412689942122597 0 28.412689942122597 -112.64461057949666 0 0 0 0 51.275433102102781 24.20662269633641 0 24.20662269633641 -1.6551522640473948 0 0 0 0 49.348827695587246 12.788894804442162 0 12.788894804442162 -5.1790325744052872 0 0 0 0 65.901969774533427 24.211488826343157 0 24.211488826343157 -43.930046030462108 0 0 0 0 82.466449135780408 30.852702797843648 0 30.852702797843648 -41.953216673868155 0 0 0 0 49.028568173609528 37.106648523885269 0 37.106648523885269 -1.4158294752978691 0 0 0 0 81.546158006796759 37.996398233633045 0 37.996398233633045 -4.9623261742744944 0 0 0 0 68.022940463648411 36.387428961215846 0 36.387428961215846 3.935382258712707 0 0 0 0 71.524200795147863 14.739562944361069 0 14.739562944361069 2.2390498785425734 0 0 0 0 -1.0577855774588585 -0.55326300800253847 0 -0.55326300800253847 0.12087344246002374 0 0 0 0 54.075955819833325 30.085681414861938 0 30.085681414861938 -8.030229309835704 0 0 0 0 54.450812286007022 54.413462314017124 0 54.413462314017124 -50.818257330442066 0 0 0 0 31.947627356119483 12.729060836946701 0 12.729060836946701 20.190204292695853 0 0 0 0 33.358442735298013 -6.226363218046572 0 -6.226363218046572 2.120558399696165 0 0 0 0 36.111846609266649 -6.9987666108472695 0 -6.9987666108472695 77.312033473397605 0 0 0 0 36.369308901776094 4.7952298928457822 0 4.7952298928457822 42.454051481563511 0 0 0 0 50.722955435037875 45.148170060276925 0 45.148170060276925 40.529637801973877 0 0 0 0 120.62019029094154 66.245492980611743 0 66.245492980611743 41.948136703238561 0 0 0 0 121.57240531480056 63.725616225409794 0 63.725616225409794 -72.41589096773896 0 0 0 0 98.111559339205996 57.225390845858101 0 57.225390845858101 -226.6542829802529 0 0 0 0 60.519945580126659 67.914870978517683 0 67.914870978517683 -229.5216879848831 0 0 0 0 92.144355819574685 86.810830037684696 0 86.810830037684696 -176.72834314253851 0 0 0 0 123.70837580210718 41.381806855731156 0 41.381806855731156 -247.54966102011622 0 0 0 0 116.25192463563872 54.473041006457606 0 54.473041006457606 -200.67887128640268 0 0 0 0 74.961965575465001 33.095645670919566 0 33.095645670919566 -66.291561984096916 0 0 0 0 -0.47215138918105737 -0.13413591039313388 0 -0.13413591039313388 -0.02020657875412013 0 0 0 0 22.837756118097332 34.721671017839753 0 34.721671017839753 -96.196493460329293 0 0 0 0 102.93876659950911 22.856552126913357 0 22.856552126913357 -174.46180603535504 0 0 0 0 -22.738743547728518 25.421108835108498 0 25.421108835108498 -206.05465827236424 0 0 0 0 43.794103952423029 4.0390686073105826 0 4.0390686073105826 -208.9551923910285 0 0 0 0 21.888775748488115 53.045685845248954 0 53.045685845248954 -122.34539078532362 0 0 0 0 78.326791744695583 16.00303307309855 0 16.00303307309855 -101.08219889890825 0 0 0 0 22.284193495797808 -1.2718233569394215 0 -1.2718233569394215 -53.677487841744551 0 0 0 0 52.758258609945187 49.940939673057073 0 49.940939673057073 -54.200039975363325 0 0 0 0 645.83980602491647 -293.39050943446637 0 -293.39050943446637 165.98692558944458 0 0 0 0 413.73195556816063 -57.969117887679204 0 -57.969117887679204 -51.101862290403005 0 0 0 0 264.95994999553659 -309.70938534725201 0 -309.70938534725201 313.98456214247926 0 0 0 0 270.57520254850533 -289.83308205408684 0 -289.83308205408684 347.06979069644694 0 0 0 0 279.78145064224373 -297.37082457072574 0 -297.37082457072574 288.62469999820314 0 0 0 0 271.14463490131311 -492.36858942782101 0 -492.36858942782101 100.77377124487248 0 0 0 0 -0.32777559805626311 -2.1626900259890647 0 -2.1626900259890647 14.009879456347214 0 0 0 0 1326.5839930723814 -1381.5987045570801 0 -1381.5987045570801 -214.05107893347736 0 0 0 0 1713.5886446707882 154.3149822751875 0 154.3149822751875 -267.96651815139194 0 0 0 0 228.35477486994932 57.514592883322621 0 57.514592883322621 77.95843853257611 0 0 0 0 566.89014059327383 231.18293259509846 0 231.18293259509846 126.60024143599594 0 0 0 0 767.80424083669641 -174.28581891790236 0 -174.28581891790236 -202.28393948667326 0 0 0 0 301.55783667792639 -7.0216931328586725 0 -7.0216931328586725 63.413313363023917 0 0 0 0 116.65742330506691 62.222629451822286 0 62.222629451822286 116.90127556051812 0 0 0 0 236.28740641782861 49.26113656531561 0 49.26113656531561 32.268342397845117 0 0 0 0 130.92288251812192 4.8261875897852633 0 4.8261875897852633 89.338590447921888 0 0 0 0 636.5629816008709 -214.36595137245206 0 -214.36595137245206 -117.78077661040152 0 0 0 0 326.49313411963158 -258.87471228867525 0 -258.87471228867525 133.14596083963988 0 0 0 0 642.54808978367873 -289.86295830381096 0 -289.86295830381096 29.976208521042281 0 0 0 0 -54.831118126177898 -236.2267191291653 0 -236.2267191291653 115.16414667816389 0 0 0 0 63.946394927857909 141.20222319812729 0 141.20222319812729 -84.916729826953997 0 0 0 0 102.29317551929125 -3.7950038456001494 0 -3.7950038456001494 25.424557808897589 0 0 0 0 49.301186191099987 72.918715366365177 0 72.918715366365177 6.4755524752790734 0 0 0 0 -48.971349171752081 42.125158030368766 0 42.125158030368766 -228.65071448001618 0 0 0 0 168.96310661306779 97.901590896533889 0 97.901590896533889 -242.7193793601964 0 0 0 0 59.850737842622038 -31.262601547557097 0 -31.262601547557097 -424.93057457194845 0 0 0 0 890.04297168265475 -321.06353739124006 0 -321.06353739124006 491.73893508309629 0 0 0 0 -440.80338396920706 41.335820526086536 0 41.335820526086536 -69.915749318570306 0 0 0 0 1083.6264008060971 -14.872497492799084 0 -14.872497492799084 -293.51258331102372 0 0 0 0 1.8435160681620317 -2.1750531900406038 0 -2.1750531900406038 -0.52321310115828368 0 0 0 0 813.28388638565229 -119.21059271094691 0 -119.21059271094691 24.77928039764447 0 0 0 0 1197.8561962437798 -625.21065052174345 0 -625.21065052174345 60.470009159538677 0 0 0 0 74.209642427607832 26.530109861984783 0 26.530109861984783 159.81718854528117 0 0 0 0 0.29062719108063462 -1.5469761912209705 0 -1.5469761912209705 5.1809917811803601 0 0 0 0 256.67108938044839 -149.11284085839907 0 -149.11284085839907 249.70579348711181 0 0 0 0 834.20171082016168 -203.28520086322078 0 -203.28520086322078 -13.633011591789909 0 0 0 0 554.20010058301705 -253.90700071953688 0 -253.90700071953688 236.58414913809975 0 0 0 0 836.20632167376971 24.862110066849709 0 24.862110066849709 -223.53491051279161 0 0 0 0 398.64553974253795 -73.28822995382825 0 -73.28822995382825 84.313728564804478 0 0 0 0 404.08180522668408 -43.454699216451445 0 -43.454699216451445 178.94549870997832 0 0 0 0 375.87757289114234 40.665763955966213 0 40.665763955966213 184.14336022539646 0 0 0 0 367.99181390799822 7.3546986576243398 0 7.3546986576243398 112.98242735302665 0 0 0 0 308.77358720360644 21.563998263268331 0 21.563998263268331 186.28637078687643 0 0 0 0 331.79074042858883 -5.9941993774523326 0 -5.9941993774523326 198.34991188326421 0 0 0 0 233.3477893841773 -53.072330712726398 0 -53.072330712726398 187.69293616503273 0 0 0 0 334.5182213314929 -38.38548128191087 0 -38.38548128191087 139.96431481099717 0 0 0 0 313.25945106099607 -27.891918688199439 0 -27.891918688199439 181.35129708106206 0 0 0 0 375.73133355949176 77.163552390079531 0 77.163552390079531 194.11521076732834 0 0 0 0 406.17677982649366 55.982799312073894 0 55.982799312073894 171.10420842913118 0 0 0 0 374.91833838719685 52.941052857649993 0 52.941052857649993 135.26145871485642 0 0 0 0 378.30136151064653 41.642077812882235 0 41.642077812882235 202.32583129206228 0 0 0 0 267.95652297856577 37.158990366560829 0 37.158990366560829 225.5718536626855 0 0 0 0 351.31768433508842 61.824367370780237 0 61.824367370780237 222.06884852065741 0 0 0 0 410.7523906654751 57.937426216752556 0 57.937426216752556 203.12822749102907 0 0 0 0 606.7095303337378 -30.964531865913614 0 -30.964531865913614 214.35348925530889 0 0 0 0 515.15548232947549 18.743123706589358 0 18.743123706589358 188.8533817416901 0 0 0 0 445.69126525664069 30.533598661318138 0 30.533598661318138 219.04282461230105 0 0 0 0 180.13566514092236 95.744267890359879 0 95.744267890359879 258.1258288473532 0 0 0 0 384.18458604195803 111.53347363795638 0 111.53347363795638 243.6055881646771 0 0 0 0 93.154265927780216 243.0304966343956 0 243.0304966343956 265.04011773834463 0 0 0 0 1.6079186133904386 1.3625702038135614 0 1.3625702038135614 0.75609452523365661 0 0 0 0 537.87776087175735 242.09485728840627 0 242.09485728840627 220.9481063941239 0 0 0 0 618.43380967168559 76.570508368679839 0 76.570508368679839 215.60284030657203 0 0 0 0 397.26595256420728 -216.72204950714263 0 -216.72204950714263 176.87340113009486 0 0 0 0 248.47596221619824 -228.14580665694848 0 -228.14580665694848 289.19132136581175 0 0 0 0 312.89369129768966 -129.23697090035603 0 -129.23697090035603 86.219059607854433 0 0 0 0 309.18773885804512 -119.6539237910938 0 -119.6539237910938 240.85753170675162 0 0 0 0 210.7618283596621 29.101125819624485 0 29.101125819624485 279.182298561891 0 0 0 0 285.08322318662977 12.975062796287602 0 12.975062796287602 259.43539541213249 0 0 0 0 141.48584368791489 -9.1498653444414231 0 -9.1498653444414231 264.46880499922599 0 0 0 0 117.78422597460303 -143.06421241136832 0 -143.06421241136832 252.38771959845326 0 0 0 0 -79.341461303727556 -51.822159694583206 0 -51.822159694583206 283.21595051759351 0 0 0 0 67.284551942843336 56.517409442846883 0 56.517409442846883 -51.349246645013409 0 0 0 0 31.662083455925313 -89.181404817709335 0 -89.181404817709335 288.01490134752993 0 0 0 0 6.6355844637131796 -0.54794563046607614 0 -0.54794563046607614 1.0913989244289155 0 0 0 0 290.93490338449692 -137.26945618844206 0 -137.26945618844206 34.480527119454564 0 0 0 0 71.256080744669816 156.86306557974626 0 156.86306557974626 -83.917885732427749 0 0 0 0 43.494037173440979 3.8777301244877975 0 3.8777301244877975 -3.7239770845876237 0 0 0 0 46.108892825449402 -58.234570525915842 0 -58.234570525915842 -249.73599998504119 0 0 0 0 90.835521361211249 -13.243203471589368 0 -13.243203471589368 -260.10149495670044 0 0 0 0 25.856012245155192 -20.113537046525149 0 -20.113537046525149 13.952680164710017 0 0 0 0 45.8411202164692 -79.996421698519669 0 -79.996421698519669 -292.1569772655057 0 0 0 0 46.889183032928486 -28.260384718370915 0 -28.260384718370915 18.499810558385434 0 0 0 0 7.9946988419091269 -2.528690783421208 0 -2.528690783421208 3.3921269024466909 0 0 0 0 588.3634469411827 -106.17047971085731 0 -106.17047971085731 -64.232623507721655 0 0 0 0 596.84028034729272 113.13840303195457 0 113.13840303195457 155.37673843179437 0 0 0 0 672.21789913375687 114.87065739555601 0 114.87065739555601 66.83127605592199 0 0 0 0 684.22516994965008 -63.606572520976897 0 -63.606572520976897 5.6935489991328723 0 0 0 0 504.38091863954651 104.93812602488879 0 104.93812602488879 0.12270372136026708 0 0 0 0 50.165317415045138 10.040662353836524 0 10.040662353836524 154.02299692958877 0 0 0 0 17.494669926209504 -16.146257208246265 0 -16.146257208246265 10.433737986660148 0 0 0 0 769.59420375101399 222.61660901285541 0 222.61660901285541 -24.843368647954776 0 0 0 0 366.15585587156238 -83.393822187490514 0 -83.393822187490514 30.680428349289969 0 0 0 0 1730.1480289986466 380.93229584956953 0 380.93229584956953 -18.465389805402083 0 0 0 0 -65.288674624559007 -478.68099121796922 0 -478.68099121796922 -523.88228135345526 0 0 0 0 -189.13271327795042 -188.6561363408282 0 -188.6561363408282 -359.27211666225958 0 0 0 0 176.43819096729658 -122.22857378771641 0 -122.22857378771641 -488.50744610671501 0 0 0 0 61.396281531171553 -51.23838877025355 0 -51.23838877025355 -308.45371954116854 0 0 0 0 129.57443014805381 -144.76226324471349 0 -144.76226324471349 -385.81277894941377 0 0 0 0 547.443564690524 376.99104904887736 0 376.99104904887736 -445.15843769210915 0 0 0 0 -720.13798247173145 145.82496031498613 0 145.82496031498613 281.13382140037311 0 0 0 0 1.79670045574629 2.3224109434256022 0 2.3224109434256022 2.6387647838796369 0 0 0 0 664.85346334569294 170.48534403823987 0 170.48534403823987 78.181336706902584 0 0 0 0 1674.5133096315603 -203.26726610889 0 -203.26726610889 -119.70428896297017 0 0 0 0 1173.4109777398103 144.15832811796537 0 144.15832811796537 -39.27689798553547 0 0 0 0 1110.0505870363195 -295.41048605701781 0 -295.41048605701781 133.02990701721501 0 0 0 0 927.77305757837166 -126.01856312000746 0 -126.01856312000746 104.39608825804567 0 0 0 0 976.69328843735457 -83.858268512643917 0 -83.858268512643917 26.282742894953117 0 0 0 0 822.55286362897459 2.0658457989648014 0 2.0658457989648014 9.5758799385585007 0 0 0 0 975.91256354134998 -140.9725351764547 0 -140.9725351764547 48.016795046507468 0 0 0 0 875.60814207357907 -166.83102472286373 0 -166.83102472286373 122.7849059196293 0 0 0 0 -467.46569245735736 332.05283714670713 0 332.05283714670713 179.86630058536684 0 0 0 0 4.7146253861093221 8.3980485923602508 0 8.3980485923602508 2.4989447141331667 0 0 0 0 987.62260157744822 -33.920259462030117 0 -33.920259462030117 7.7306957644395879 0 0 0 0 111.96747554591639 33.382778210492688 0 33.382778210492688 23.583256997955687 0 0 0 0 786.18842512914125 -198.40461814051378 0 -198.40461814051378 -117.3186011128364 0 0 0 0 1692.8749450947744 -312.06861788694823 0 -312.06861788694823 -220.08061095255107 0 0 0 0 830.85334432467789 -347.74362676955116 0 -347.74362676955116 -69.686366995121716 0 0 0 0 851.95978046460368 -165.70335868992242 0 -165.70335868992242 -16.789354950160487 0 0 0 0 1009.1429120801322 -231.5096866114875 0 -231.5096866114875 4.4664615571145987 0 0 0 0 730.97431004474856 -309.81236001376874 0 -309.81236001376874 78.583681242624152 0 0 0 0 858.4735000281471 -66.144716503054951 0 -66.144716503054951 345.78269458152863 0 0 0 0 1258.2375446887879 -315.92142308423814 0 -315.92142308423814 61.33296606958902 0 0 0 0 858.19262738307589 -106.05036280900003 0 -106.05036280900003 126.02163860391556 0 0 0 0 1204.6803221853947 29.709478633274443 0 29.709478633274443 91.423495149403607 0 0 0 0 790.49636345103499 56.04366079646843 0 56.04366079646843 115.80313117775404 0 0 0 0 766.48849343401889 -14.945456894030031 0 -14.945456894030031 137.8057248674013 0 0 0 0 700.92109906563201 76.882943564474772 0 76.882943564474772 100.70324116710435 0 0 0 0 1064.3053015746955 -108.4546624111008 0 -108.4546624111008 64.593255045710976 0 0 0 0 763.18372952818754 -87.251969094586457 0 -87.251969094586457 68.563756173990441 0 0 0 0 724.54282764421077 -85.862430494270484 0 -85.862430494270484 91.941615317186006 0 0 0 0 774.92840393872393 -353.46514950198798 0 -353.46514950198798 184.35714051543255 0 0 0 0 812.27353115368169 -161.00870423597007 0 -161.00870423597007 81.486393142302404 0 0 0 0 506.08996915878379 -201.35441328894012 0 -201.35441328894012 170.44764621163995 0 0 0 0 508.19356985197874 -158.44561038785321 0 -158.44561038785321 159.3105812079375 0 0 0 0 1351.659299179395 -0.74546364848265512 0 -0.74546364848265512 -189.08822946592545 0 0 0 0 1153.0123671983165 -218.28344129116522 0 -218.28344129116522 -250.09961601428222 0 0 0 0 652.32109328383558 -332.75790847455937 0 -332.75790847455937 182.95052352179846 0 0 0 0 3.4994796822864735 3.9419333492079218 0 3.9419333492079218 5.7955278250358404 0 0 0 0 -367.51477194352083 153.77742434001721 0 153.77742434001721 54.182990148319732 0 0 0 0 1247.3433888054606 339.18645854238275 0 339.18645854238275 198.05724228162035 0 0 0 0 969.04385880721111 -46.753006602018786 0 -46.753006602018786 86.536424363008337 0 0 0 0 1940.0054252419577 200.85731390241472 0 200.85731390241472 -192.82287203800297 0 0 0 0 1388.5987965168279 121.96406773130093 0 121.96406773130093 -5.2984643749286988 0 0 0 0 1189.16139222942 144.03834539418676 0 144.03834539418676 51.279405011876406 0 0 0 0 1530.6623531665682 330.66649103062173 0 330.66649103062173 -29.179460167997604 0 0 0 0 -309.62689531240568 -653.11427975055324 0 -653.11427975055324 151.25824016084152 0 0 0 0 3.6243137875072762 -5.7731319607080707 0 -5.7731319607080707 10.192706064420392 0 0 0 0 352.64974734934185 -965.95590643896344 0 -965.95590643896344 9.183943210848156 0 0 0 0 282.07977422285421 -497.87597004009206 0 -497.87597004009206 -7.9202442641508242 0 0 0 0 715.71375795350468 -924.1725522523484 0 -924.1725522523484 -29.419528002400966 0 0 0 0 882.39777476924792 -2560.106472532987 0 -2560.106472532987 -298.8309646089765 0 0 0 0 580.22250219897251 -178.09581483318834 0 -178.09581483318834 -13.963240261713509 0 0 0 0 591.72177815300529 -219.72754903428722 0 -219.72754903428722 -33.182242549204602 0 0 0 0 8.8189902517539878 9.811304694752117 0 9.811304694752117 13.127040711552915 0 0 0 0 524.57548009632592 -136.470115061049 0 -136.470115061049 89.842933039319178 0 0 0 0 585.74948746527662 -169.49780451497463 0 -169.49780451497463 57.816490094788605 0 0 0 0 581.30510676372796 -194.18936223092896 0 -194.18936223092896 123.13034250068449 0 0 0 0 616.56265143624478 -176.91140572574477 0 -176.91140572574477 106.83868816749236 0 0 0 0 657.29298706767804 -182.08554624228873 0 -182.08554624228873 101.32041134601968 0 0 0 0 633.08779787132517 -210.40028105088641 0 -210.40028105088641 119.2934522320611 0 0 0 0 620.31339278768428 -212.376307423865 0 -212.376307423865 86.570734080416514 0 0 0 0 596.70466165756807 -211.5453813937911 0 -211.5453813937911 110.32015098794363 0 0 0 0 576.81102125223015 -171.54102881614847 0 -171.54102881614847 24.613017577619758 0 0 0 0 576.5101644640331 -176.69278385993164 0 -176.69278385993164 85.71875105980871 0 0 0 0 595.21435295486299 -239.00368920105029 0 -239.00368920105029 47.150218269169272 0 0 0 0 596.17560161928122 -236.96897395645647 0 -236.96897395645647 11.387123704806072 0 0 0 0 564.82551927349414 -271.1780776885189 0 -271.1780776885189 111.18109798997867 0 0 0 0 514.10675482767692 -309.03974216865299 0 -309.03974216865299 279.73774117040921 0 0 0 0 571.65840212599869 -230.13305438800671 0 -230.13305438800671 241.51157774119929 0 0 0 0 520.98672137954418 -216.1129884175989 0 -216.1129884175989 240.18528123379383 0 0 0 0 513.93678068625741 -202.01875753230888 0 -202.01875753230888 360.74138930539812 0 0 0 0 6.7534574342537397 5.8618054209636554 0 5.8618054209636554 6.9355893775820405 0 0 0 0 1689.8881730699322 -700.77554194991353 0 -700.77554194991353 -32.216558111812446 0 0 0 0 418.96616124053435 -272.41095414800088 0 -272.41095414800088 464.34500081165606 0 0 0 0 2033.4343758906944 -200.35812945833823 0 -200.35812945833823 554.8421635101015 0 0 0 0 505.92934444067578 -360.72191450974151 0 -360.72191450974151 63.623711451002237 0 0 0 0 602.81937022836428 17.230054733964607 0 17.230054733964607 256.68871690590004 0 0 0 0 598.26720700809028 -31.453661106865241 0 -31.453661106865241 136.20814846867506 0 0 0 0 651.09053516745917 -82.021100436068082 0 -82.021100436068082 183.48054206159713 0 0 0 0 627.37734516217097 -126.38166479816891 0 -126.38166479816891 122.2436152163682 0 0 0 0 657.45987083930231 -178.8229090149689 0 -178.8229090149689 82.848233380585384 0 0 0 0 709.74316275775345 -110.70497418707237 0 -110.70497418707237 124.79007654989982 0 0 0 0 631.28852999538503 -183.94304982824906 0 -183.94304982824906 147.88107535593736 0 0 0 0 619.2311791803877 -154.48091949069203 0 -154.48091949069203 164.66538088376183 0 0 0 0 594.1003009403139 -167.88190553281311 0 -167.88190553281311 162.3137179350947 0 0 0 0 592.74534678869531 -199.36430992949681 0 -199.36430992949681 145.80928055232675 0 0 0 0 526.25289542332939 -164.13205103561859 0 -164.13205103561859 341.96001573487592 0 0 0 0 514.49531187626781 -125.88483276461648 0 -125.88483276461648 221.63622313140513 0 0 0 0 586.57450217331279 -141.20966093831794 0 -141.20966093831794 224.27793086070051 0 0 0 0 553.99552151084572 -92.576281178496174 0 -92.576281178496174 187.15482875280691 0 0 0 0 570.25536746645957 -67.012089636627934 0 -67.012089636627934 224.93773009572396 0 0 0 0 460.6725750008618 -16.900669024257468 0 -16.900669024257468 251.52136044130748 0 0 0 0 477.24136427351914 -25.463634773073863 0 -25.463634773073863 209.35901016783782 0 0 0 0 486.83837969049273 -103.96171660527398 0 -103.96171660527398 319.91776639601085 0 0 0 0 486.15302253912705 -93.825460999022766 0 -93.825460999022766 302.36596464680042 0 0 0 0 428.67180319363615 22.739659937305078 0 22.739659937305078 330.62886744642623 0 0 0 0 384.5563865354743 59.558174860557301 0 59.558174860557301 227.09235744604348 0 0 0 0 442.77199382987965 4.6422694863945253 0 4.6422694863945253 236.05678317221827 0 0 0 0 1143.0418337717983 40.839123974584709 0 40.839123974584709 194.31457988582952 0 0 0 0 446.38444198034858 -79.57522728879735 0 -79.57522728879735 718.53010001704206 0 0 0 0 648.10689063690404 183.98294084902952 0 183.98294084902952 608.68911062223742 0 0 0 0 484.23435221110776 -193.2210120009504 0 -193.2210120009504 359.81626335748842 0 0 0 0 484.08829978418362 -109.56021006245737 0 -109.56021006245737 309.07073775026947 0 0 0 0 473.46541150536541 -128.8217940875561 0 -128.8217940875561 509.43499835453986 0 0 0 0 659.9375899362276 26.973130121381473 0 26.973130121381473 355.10247719726749 0 0 0 0 521.26780844248606 -73.973599224304508 0 -73.973599224304508 305.84379822911978 0 0 0 0 588.34457270245184 -174.14531712468761 0 -174.14531712468761 156.97902636340132 0 0 0 0 404.35252280406348 12.065660407432915 0 12.065660407432915 296.11429943059557 0 0 0 0 579.44161034892124 -10.694736789853806 0 -10.694736789853806 137.20436073120254 0 0 0 0 270.54619049089888 -67.060282067469416 0 -67.060282067469416 131.37816158486567 0 0 0 0 836.23077277372067 -154.80744753921317 0 -154.80744753921317 -15.304822033946948 0 0 0 0 359.33502061495892 -459.88414064945482 0 -459.88414064945482 -108.64639934119259 0 0 0 0 -379.73236004286809 -420.90144082689767 0 -420.90144082689767 -29.409676086297623 0 0 0 0 211.19192804873182 35.419651031347257 0 35.419651031347257 -12.577305744867772 0 0 0 0 126.0345774856105 -107.82931906868544 0 -107.82931906868544 -114.67800251787776 0 0 0 0 -216.86995777217726 54.639433738654589 0 54.639433738654589 -148.01208969171421 0 0 0 0 42.787870562347962 -63.689136626277104 0 -63.689136626277104 -333.32009200841094 0 0 0 0 0.084809995711125907 -0.8476772239419148 0 -0.8476772239419148 -0.34565479170313296 0 0 0 0 1118.4159117331656 -94.939171043356509 0 -94.939171043356509 74.904427301466058 0 0 0 0 215.20307430711182 127.85931941771923 0 127.85931941771923 -77.747369454316868 0 0 0 0 397.61316632865964 186.86093350185502 0 186.86093350185502 -144.71621048787893 0 0 0 0 29.476629458770731 62.926813939222711 0 62.926813939222711 -134.92439963342804 0 0 0 0 250.13528582444633 55.503609789099755 0 55.503609789099755 -208.00435538407146 0 0 0 0 117.96304364519165 121.61088778385783 0 121.61088778385783 -69.078587747082565 0 0 0 0 284.57076762553697 57.354754980045072 0 57.354754980045072 -48.880789302411358 0 0 0 0 263.00533823320802 148.40227055864489 0 148.40227055864489 12.238916429983874 0 0 0 0 374.13128102614428 151.56779697655384 0 151.56779697655384 -102.08173911386984 0 0 0 0 365.7059116023629 126.8422252031869 0 126.8422252031869 16.750979083826678 0 0 0 0 347.34501228796762 129.41439667800614 0 129.41439667800614 104.88131173712463 0 0 0 0 294.0336134841732 129.00197286963589 0 129.00197286963589 39.022499469585455 0 0 0 0 280.50482210145128 92.48928831044941 0 92.48928831044941 149.24176933033323 0 0 0 0 429.19777719223566 59.083667698895624 0 59.083667698895624 151.87270777859783 0 0 0 0 391.78528624793034 102.94538595123004 0 102.94538595123004 102.83546706463858 0 0 0 0 352.57364068375318 81.256678725219444 0 81.256678725219444 228.42530952274683 0 0 0 0 401.34065700261635 95.680645955175351 0 95.680645955175351 68.446581527799935 0 0 0 0 372.97712389897788 105.43279210543278 0 105.43279210543278 167.92099909574677 0 0 0 0 398.46422210119636 87.334189185526157 0 87.334189185526157 131.5968159496806 0 0 0 0 410.54057749587082 63.372260166860542 0 63.372260166860542 45.452201066427733 0 0 0 0 434.08850470789184 115.92849542998238 0 115.92849542998238 -37.06357124810711 0 0 0 0 444.77887725056644 84.799592632523854 0 84.799592632523854 50.611221970276574 0 0 0 0 401.80639307036654 137.56192537953802 0 137.56192537953802 -15.745481693089459 0 0 0 0 404.04591040540618 118.79741582872248 0 118.79741582872248 69.480804098780141 0 0 0 0 563.89647841652913 -85.816171623730042 0 -85.816171623730042 61.797810246845984 0 0 0 0 473.28276830033701 8.1450905319759386 0 8.1450905319759386 -23.732972857127606 0 0 0 0 424.0932301905741 33.621676138549446 0 33.621676138549446 110.74231671003213 0 0 0 0 472.15580570888778 8.9879223184811963 0 8.9879223184811963 20.523298856654947 0 0 0 0 458.6551077306558 76.461257321572702 0 76.461257321572702 -31.14266969923483 0 0 0 0 465.09541931340573 58.280165020371896 0 58.280165020371896 17.938459658691386 0 0 0 0 481.67613557036748 62.449794523613036 0 62.449794523613036 -51.175684772038949 0 0 0 0 509.41873938792924 30.218476651844867 0 30.218476651844867 -14.427307777510578 0 0 0 0 459.86026110280727 95.178804995834071 0 95.178804995834071 -55.030369424187484 0 0 0 0 472.6778700560244 103.77800184962598 0 103.77800184962598 -50.281506466302744 0 0 0 0 482.94812647152321 101.76858821249834 0 101.76858821249834 -75.728697332553566 0 0 0 0 486.14221609548258 75.049039361498217 0 75.049039361498217 -41.965708120873387 0 0 0 0 473.96090763201391 76.834799662074147 0 76.834799662074147 -51.572142537095715 0 0 0 0 473.81754886356612 81.355317500032015 0 81.355317500032015 -30.013019453126617 0 0 0 0 478.62508726323358 45.884630201147047 0 45.884630201147047 -23.291168187004587 0 0 0 0 440.08555011686622 78.303745758249534 0 78.303745758249534 -50.527665694575944 0 0 0 0 450.91672471048514 147.79300441703708 0 147.79300441703708 6.207723635631055 0 0 0 0 433.73989652848104 109.13498045612164 0 109.13498045612164 -50.582678859474981 0 0 0 0 445.44434451734378 155.59735807163861 0 155.59735807163861 -115.67989547518846 0 0 0 0 374.09097615258725 136.36970964306511 0 136.36970964306511 -14.858792426499349 0 0 0 0 476.07861740372209 95.097160395577248 0 95.097160395577248 -79.660529868629965 0 0 0 0 477.51612818221111 105.15798581259514 0 105.15798581259514 -38.808321335729715 0 0 0 0 576.95880093952746 13.563967604431355 0 13.563967604431355 -69.025889217957229 0 0 0 0 478.77468121646598 63.144513417197231 0 63.144513417197231 -92.372415307274878 0 0 0 0 533.55833275498298 136.30321503806317 0 136.30321503806317 -177.22589750353836 0 0 0 0 443.92715209817834 118.96174254788366 0 118.96174254788366 -105.1538037428586 0 0 0 0 585.65016468576141 267.09499353672481 0 267.09499353672481 -129.71476260272357 0 0 0 0 785.39503899858028 42.192811541083756 0 42.192811541083756 -151.7677520821876 0 0 0 0 648.47654566422716 -117.48832731535595 0 -117.48832731535595 -7.8372672814530233 0 0 0 0 395.76354855177851 14.599526397471891 0 14.599526397471891 173.55214447367598 0 0 0 0 5.8792554552701688 -0.11914189508699735 0 -0.11914189508699735 1.5206281152327001 0 0 0 0 230.97909539659304 237.79392764361 0 237.79392764361 5.385273446498104 0 0 0 0 12.45477113857487 92.888142253483238 0 92.888142253483238 0.48251456829893868 0 0 0 0 278.52598968138409 110.70856996985185 0 110.70856996985185 143.01842522067818 0 0 0 0 350.96551058322075 -1.1507691003007494 0 -1.1507691003007494 -7.9214931455499027 0 0 0 0 375.55687916067836 174.04557288380056 0 174.04557288380056 8.1871537212902012 0 0 0 0 440.62730976268358 34.606489026146846 0 34.606489026146846 -23.998826303179158 0 0 0 0 440.89557819659603 -9.0971467403414863 0 -9.0971467403414863 -61.918565099124862 0 0 0 0 318.24177832816713 105.79355877707121 0 105.79355877707121 -26.452311301589361 0 0 0 0 416.03601958774198 45.19550148014423 0 45.19550148014423 -64.68347175033341 0 0 0 0 274.8673940309518 215.24481297629768 0 215.24481297629768 -352.23510681594053 0 0 0 0 219.0051553514204 80.560303808124445 0 80.560303808124445 2.8944375763039716 0 0 0 0 302.59958276037651 152.47776892688671 0 152.47776892688671 -659.81785764978486 0 0 0 0 107.3450860953235 339.09464902687887 0 339.09464902687887 -173.4654329658697 0 0 0 0 304.95155690501451 21.133275973498712 0 21.133275973498712 -39.441273828137128 0 0 0 0 26.386204369926588 47.493040820275333 0 47.493040820275333 -6.794056037318061 0 0 0 0 321.13716206393275 98.082145285556606 0 98.082145285556606 0.21676910090926427 0 0 0 0 433.66506067762384 1181.2437131260631 0 1181.2437131260631 -444.76258723520004 0 0 0 0 -1533.6800744734064 -1519.4018463429211 0 -1519.4018463429211 -2969.233633067056 0 0 0 0 105.03437855933589 359.78752177955653 0 359.78752177955653 -851.14239234188426 0 0 0 0 485.44520062324591 88.342816380034492 0 88.342816380034492 -1203.2397841143638 0 0 0 0 908.97784797882196 -79.663515606009923 0 -79.663515606009923 -13.782835467291079 0 0 0 0 -896.96333365238388 222.60516249951615 0 222.60516249951615 -98.358469426990268 0 0 0 0 1040.7912242312177 32.759118019618882 0 32.759118019618882 -7.9221018354564876 0 0 0 0 6.2886181271482684 -2.5802524997684513 0 -2.5802524997684513 3.3339095857943448 0 0 0 0 47.676239136862932 -48.236965762315094 0 -48.236965762315094 133.7544625806986 0 0 0 0 860.77861615452275 0.21048509009233385 0 0.21048509009233385 -35.476487111074675 0 0 0 0 438.05962637270568 70.444978852667191 0 70.444978852667191 -35.365492508321594 0 0 0 0 875.89801632867238 -245.15430079827638 0 -245.15430079827638 -103.0466202669013 0 0 0 0 2084.1447569581942 -347.66652555204564 0 -347.66652555204564 -496.88378289290995 0 0 0 0 329.28385334051961 -11.116754575588999 0 -11.116754575588999 -19.160959481959598 0 0 0 0 6931.7521943242755 -1668.3424223205948 0 -1668.3424223205948 -3365.9535465219296 0 0 0 0 308.29950411463869 -264.8300331576911 0 -264.8300331576911 -19.731373413418623 0 0 0 0 43.546558007343606 -26.449468416221436 0 -26.449468416221436 -12.195228899282661 0 0 0 0 2835.2632307282474 2262.5304255048795 0 2262.5304255048795 -3288.9705346187757 0 0 0 0 30.231007136122173 24.295665073849776 0 24.295665073849776 9.4945076121636074 0 0 0 0 -2580.0725727377139 -395.56551010539397 0 -395.56551010539397 -830.33640290632684 0 0 0 0 47.49595218152156 13.341398398942033 0 13.341398398942033 1.1513925401520808 0 0 0 0 544.4172961008444 542.21424857447528 0 542.21424857447528 -1805.7953420365568 0 0 0 0 488.24933354140376 205.94424780023837 0 205.94424780023837 -1890.1992035597086 0 0 0 0 584.0725400383235 762.77640753392916 0 762.77640753392916 -1378.1802781853012 0 0 0 0 223.38419558609894 -224.14115644744743 0 -224.14115644744743 -352.18162875463531 0 0 0 0 224.13570680432002 13.528279730233352 0 13.528279730233352 -13.7644459424457 0 0 0 0 34.713655609678057 -25.019178733073591 0 -25.019178733073591 -19.434809483943393 0 0 0 0 -184.90317355992738 -41.467820054611366 0 -41.467820054611366 -401.72090913751163 0 0 0 0 23.237637892820558 -6.5320400068209814 0 -6.5320400068209814 -2.1659803168802512 0 0 0 0 47.938608476331865 -53.486504759680429 0 -53.486504759680429 -69.0170090256197 0 0 0 0 1.9278743282629875 -6.159115721424314 0 -6.159115721424314 32.444620832242435 0 0 0 0 25.243061676988141 5.3941330492382704 0 5.3941330492382704 1.5799767565450296 0 0 0 0 26.950271525456628 56.781876665487289 0 56.781876665487289 19.899277253667606 0 0 0 0 31.266425136098405 -18.150191123710101 0 -18.150191123710101 -4.5716853627363889 0 0 0 0 69.457428899660442 21.931401114126338 0 21.931401114126338 -2.3326543216718925 0 0 0 0 98.431335333231914 38.643766137283791 0 38.643766137283791 13.563000517596329 0 0 0 0 61.637527117749229 46.408801108327168 0 46.408801108327168 31.444146822683166 0 0 0 0 40.611434126883978 18.268738176688203 0 18.268738176688203 -34.854467480636231 0 0 0 0 -56.524961903662188 65.13222516920905 0 65.13222516920905 58.725257209815027 0 0 0 0 6.7064703126848713 12.869092381462226 0 12.869092381462226 4.1303906326310642 0 0 0 0 -146.73515992521061 503.53211082829921 0 503.53211082829921 -983.23185650997402 0 0 0 0 74.281693737095665 46.289796202244347 0 46.289796202244347 27.172778827954929 0 0 0 0 -129.49067087868025 539.24135272677358 0 539.24135272677358 -988.25598537172118 0 0 0 0 72.09034795028856 187.34153774884908 0 187.34153774884908 -2.2494211443827226 0 0 0 0 -56.906964061883627 -51.110134382076467 0 -51.110134382076467 132.90350578846665 0 0 0 0 966.8074489416249 -451.91465686446918 0 -451.91465686446918 187.97807777036178 0 0 0 0 1582.0816558780716 -102.40790749617736 0 -102.40790749617736 -253.06134724643607 0 0 0 0 1108.6104173181229 222.88147473300069 0 222.88147473300069 -237.27752880148182 0 0 0 0 946.72153604142659 -34.082421449564208 0 -34.082421449564208 -189.84976147719226 0 0 0 0 551.86645274315379 105.7662466722677 0 105.7662466722677 -48.655617068234278 0 0 0 0 425.02995477033983 185.84424120561016 0 185.84424120561016 52.693431539975791 0 0 0 0 826.00005302011414 195.71156774576411 0 195.71156774576411 -37.246449704905899 0 0 0 0 821.86917714756373 235.59447760530327 0 235.59447760530327 -139.25811840665483 0 0 0 0 -23.028643846773775 31.155232544246246 0 31.155232544246246 132.77965905768906 0 0 0 0 134.45801310999377 88.926855325556971 0 88.926855325556971 26.435706714999469 0 0 0 0 517.73559105077402 3.6829571371135899 0 3.6829571371135899 26.628159635707561 0 0 0 0 136.62168113571533 75.766183282235943 0 75.766183282235943 84.480373235284787 0 0 0 0 436.19615139765665 88.177441634194111 0 88.177441634194111 43.61565449126465 0 0 0 0 273.67812177653104 22.332270282313402 0 22.332270282313402 40.033244780158839 0 0 0 0 118.31205195102666 147.91940262005573 0 147.91940262005573 116.5009379373987 0 0 0 0 25.920920508098092 -8.3577970985314529 0 -8.3577970985314529 -1.2698575211415886 0 0 0 0 742.50896471930537 352.37298099830195 0 352.37298099830195 -6.1904089278141328 0 0 0 0 744.73126164286077 334.97067435482677 0 334.97067435482677 107.95325125380077 0 0 0 0 133.14326004659961 150.67941581926243 0 150.67941581926243 310.78731515679829 0 0 0 0 480.59613019613244 564.66884761695383 0 564.66884761695383 479.23878284555394 0 0 0 0 -200.70394892512195 31.424485129148707 0 31.424485129148707 96.898075545715983 0 0 0 0 9.4997003914942866 -1.4875340918283335 0 -1.4875340918283335 -4.0477583807832858 0 0 0 0 -172.77286846887728 -160.23338785475698 0 -160.23338785475698 -208.64210481011105 0 0 0 0 219.81930035598816 88.865951093082458 0 88.865951093082458 -484.55277730773923 0 0 0 0 71.109385889914847 -45.501153568978225 0 -45.501153568978225 -206.60842930396939 0 0 0 0 -94.648103910197278 17.019629190024034 0 17.019629190024034 -169.2151423730611 0 0 0 0 217.71149780070118 92.515523562015005 0 92.515523562015005 -112.28585780571302 0 0 0 0 162.11153894027666 126.92543323458085 0 126.92543323458085 -98.610159120511526 0 0 0 0 87.938222489847249 -31.69030487162081 0 -31.69030487162081 -153.08778208065632 0 0 0 0 63.841021964612082 -99.689758703802681 0 -99.689758703802681 -202.16890985532154 0 0 0 0 11.822621470986633 -17.047184336537612 0 -17.047184336537612 -130.50554881583139 0 0 0 0 59.582139144335088 11.434551805875344 0 11.434551805875344 -45.350586933360319 0 0 0 0 27.267504298792772 -9.8492033405820294 0 -9.8492033405820294 -0.65558705605990752 0 0 0 0 -4.2650674401666038 -104.11633269953018 0 -104.11633269953018 -284.4071818514858 0 0 0 0 45.00865814770259 -24.742695476554786 0 -24.742695476554786 -55.661366652720062 0 0 0 0 334.85939553403296 -57.945670548077487 0 -57.945670548077487 -169.2168926248637 0 0 0 0 327.07713404271635 83.014448589470703 0 83.014448589470703 -70.460608418194283 0 0 0 0 180.28295025830448 -91.471031006984504 0 -91.471031006984504 -113.30284967018702 0 0 0 0 151.77857256948846 8.9693425580584289 0 8.9693425580584289 -81.151938793311274 0 0 0 0 90.421924836977269 -32.785946192554263 0 -32.785946192554263 -76.823817327419874 0 0 0 0 16.223056732449656 -8.5830088751342686 0 -8.5830088751342686 -1.663686490908411 0 0 0 0 133.4673821468532 -1.1793068268335674 0 -1.1793068268335674 -79.185313491283637 0 0 0 0 81.42570608966642 -5.1930882286057241 0 -5.1930882286057241 -16.327346050926685 0 0 0 0 56.862094564719882 -11.477015705052906 0 -11.477015705052906 -20.538943750100771 0 0 0 0 65.588528694148408 -15.831422570865016 0 -15.831422570865016 -22.709451054514602 0 0 0 0 59.078739549080183 -10.976642922070617 0 -10.976642922070617 -0.41285293856614924 0 0 0 0 111.99068579194136 -20.287558615863816 0 -20.287558615863816 -114.61781189965598 0 0 0 0 128.60717268895104 -170.26670905832168 0 -170.26670905832168 -70.203659876956408 0 0 0 0 66.431202238367405 -12.101856044400847 0 -12.101856044400847 -22.204181854373473 0 0 0 0 58.533120989615298 -4.6440962718038712 0 -4.6440962718038712 -0.21965465289579011 0 0 0 0 76.375182890886208 -13.518993528295141 0 -13.518993528295141 -25.605260180909681 0 0 0 0 78.662684803712182 -15.255403472732723 0 -15.255403472732723 -24.948687410453203 0 0 0 0 69.027713133313227 74.72158144547484 0 74.72158144547484 -401.2197367613162 0 0 0 0 4.0306791252633047 -3.5302020149198015 0 -3.5302020149198015 1.9289826968278732 0 0 0 0 -15.598099948372692 151.0998109693619 0 151.0998109693619 -381.61171085590126 0 0 0 0 -39.65463970480414 77.630349819163712 0 77.630349819163712 -305.96024696996119 0 0 0 0 98.290974852126965 9.3593112106170793 0 9.3593112106170793 -266.95446484367676 0 0 0 0 7.0459081817905158 -0.64264263402884581 0 -0.64264263402884581 -0.17114374745116123 0 0 0 0 162.93007934589696 13.841615791694494 0 13.841615791694494 -361.61563560933837 0 0 0 0 3.1711525088981318 9.7746934014337548 0 9.7746934014337548 -2.6490266020478255 0 0 0 0 -10.618317969630425 31.274378397053283 0 31.274378397053283 32.222298480042809 0 0 0 0 -159.92685432468716 -9.5268325787346839 0 -9.5268325787346839 -224.1269499959817 0 0 0 0 59.074334871365352 -2.1450426265112768 0 -2.1450426265112768 -0.85519313377625394 0 0 0 0 8.1657066684456368 2.3259882658494462 0 2.3259882658494462 -39.598192328194273 0 0 0 0 36.091564500029421 -9.7583310001945662 0 -9.7583310001945662 2.3489914478361094 0 0 0 0 24.369042286068492 10.35349333292654 0 10.35349333292654 -13.916674030650618 0 0 0 0 61.630285124470745 -10.794153212048755 0 -10.794153212048755 -2.4214981199759658 0 0 0 0 82.657266286340018 -11.660529346226554 0 -11.660529346226554 -27.96675517713993 0 0 0 0 67.635876608692342 0.25980531765890191 0 0.25980531765890191 -36.639571056607565 0 0 0 0 62.120571615516383 -1.3770891134038266 0 -1.3770891134038266 -47.780221573492327 0 0 0 0 95.360261008034286 114.86543727358094 0 114.86543727358094 -21.879808711086298 0 0 0 0 65.017299510446293 2.4276204914793595 0 2.4276204914793595 -12.293843191176267 0 0 0 0 76.804545928407606 32.591750787307774 0 32.591750787307774 -202.61262423743119 0 0 0 0 61.499854970236186 14.975975762250487 0 14.975975762250487 -16.437082013415313 0 0 0 0 135.62872887897356 -5.4098108507229199 0 -5.4098108507229199 -228.8396502958185 0 0 0 0 155.20195550790231 52.820560526503868 0 52.820560526503868 -269.31574754014582 0 0 0 0 107.28924020172053 54.293573430784818 0 54.293573430784818 -256.8893875770118 0 0 0 0 38.758568071534683 -28.949698653884298 0 -28.949698653884298 -279.47527745754314 0 0 0 0 115.28231548899385 47.775118910931042 0 47.775118910931042 -314.61557313169578 0 0 0 0 44.67941422122648 7.2040241128408615 0 7.2040241128408615 -9.1089731009553301 0 0 0 0 54.916739787855477 26.67652010378697 0 26.67652010378697 -14.590606517256674 0 0 0 0 76.303974624783223 -30.714933645021574 0 -30.714933645021574 -395.4771791812891 0 0 0 0 55.146086644548632 17.576882425445547 0 17.576882425445547 -41.813255560529797 0 0 0 0 74.836198958590103 34.281590538714227 0 34.281590538714227 -55.561610837518401 0 0 0 0 77.757814992084661 10.388964492950883 0 10.388964492950883 -30.856912145630115 0 0 0 0 55.412911558181804 21.025909397626492 0 21.025909397626492 -64.925862575722931 0 0 0 0 76.845449095942286 -3.012972662656054 0 -3.012972662656054 -24.330023566081728 0 0 0 0 130.17004529981205 5.5624117474508807 0 5.5624117474508807 -90.028720689704187 0 0 0 0 128.3329955210138 3.8743868124989831 0 3.8743868124989831 -85.95676380412533 0 0 0 0 128.65595876831503 9.4915702563953346 0 9.4915702563953346 -92.776929557144058 0 0 0 0 126.86069358102395 7.8507788070787683 0 7.8507788070787683 -86.620094584524907 0 0 0 0 107.81650049026211 17.521170918577127 0 17.521170918577127 -14.831307943601132 0 0 0 0 104.34178653918207 5.064202035759763 0 5.064202035759763 -59.184054220289681 0 0 0 0 61.732206544314977 32.687483888650377 0 32.687483888650377 -44.178541731310361 0 0 0 0 161.97284678331926 19.638330842856249 0 19.638330842856249 -90.25711234310188 0 0 0 0 132.41192623572715 99.25359717504125 0 99.25359717504125 116.09318516850362 0 0 0 0 13.604705092756909 -0.16179645657490482 0 -0.16179645657490482 -0.38516880101700579 0 0 0 0 74.131787729813368 14.346341025005131 0 14.346341025005131 3.7861922937181589 0 0 0 0 62.682905976574915 14.553693215192084 0 14.553693215192084 -38.379583930902669 0 0 0 0 110.09949196660909 29.989360277405979 0 29.989360277405979 -60.393771386089611 0 0 0 0 92.132858577984734 28.390750773392483 0 28.390750773392483 -73.626292154414614 0 0 0 0 66.340790779853705 58.498431238379908 0 58.498431238379908 -78.57096860889169 0 0 0 0 25.12931670458056 85.368149199347499 0 85.368149199347499 -96.52779809605272 0 0 0 0 18.280988817912029 28.239101462630089 0 28.239101462630089 16.453705268852993 0 0 0 0 112.45474631372781 11.045905638958629 0 11.045905638958629 -68.755268153857287 0 0 0 0 528.04383040434186 215.00964661191574 0 215.00964661191574 -147.26126608168852 0 0 0 0 43.551136713467713 110.04094430430632 0 110.04094430430632 -119.95369190927386 0 0 0 0 75.211528292955492 23.862417950539793 0 23.862417950539793 -18.991245903066314 0 0 0 0 115.57094586986403 48.546175243650055 0 48.546175243650055 -0.27271779608091862 0 0 0 0 179.1368979927347 83.935900438263843 0 83.935900438263843 -92.450512760684433 0 0 0 0 520.80047916357944 238.48674266859325 0 238.48674266859325 -56.092030997060647 0 0 0 0 38.675352180991545 4.8946519123770358 0 4.8946519123770358 -0.73532361858929818 0 0 0 0 188.67235665004227 170.19514614409627 0 170.19514614409627 -232.63810195641054 0 0 0 0 242.60021784660421 63.117732119103493 0 63.117732119103493 -113.78178081274382 0 0 0 0 -15.960831599775041 26.151875825233102 0 26.151875825233102 34.508767940620352 0 0 0 0 81.112126124586212 109.72381698634126 0 109.72381698634126 26.839186507611885 0 0 0 0 414.85842324803525 244.6297062151134 0 244.6297062151134 125.46614575301646 0 0 0 0 210.44795987133148 149.11438491400668 0 149.11438491400668 3.3155722594165127 0 0 0 0 377.48137932180543 196.04766850790838 0 196.04766850790838 8.862394014657184 0 0 0 0 397.58974797790142 156.45042558433488 0 156.45042558433488 50.981082182539467 0 0 0 0 33.326731844056553 9.0359827170950666 0 9.0359827170950666 -19.807989504042986 0 0 0 0 45.587570995954593 38.526776469754623 0 38.526776469754623 -29.146405283963759 0 0 0 0 72.609511268456117 42.818222312867874 0 42.818222312867874 -63.604263171997445 0 0 0 0 49.805807686776504 11.920159715105338 0 11.920159715105338 -36.689411437365791 0 0 0 0 76.774743191426751 49.537119652980778 0 49.537119652980778 -25.538779401957072 0 0 0 0 59.211408505085274 88.316314893054368 0 88.316314893054368 -116.36973314508214 0 0 0 0 42.683215804760493 23.369043040871247 0 23.369043040871247 7.8139351868885569 0 0 0 0 120.19812821381856 43.369557510392042 0 43.369557510392042 -414.16208816460494 0 0 0 0 -10.006815956512582 -49.543182999229884 0 -49.543182999229884 -341.2760352018031 0 0 0 0 40.406897835995551 -33.192224952855213 0 -33.192224952855213 -621.03730092611477 0 0 0 0 35.793479135221546 11.982850236650528 0 11.982850236650528 -9.3522842842589675 0 0 0 0 -238.67433904892823 -36.717442849347208 0 -36.717442849347208 -390.38413622127246 0 0 0 0 7.8900407883680757 0.92752451331875108 0 0.92752451331875108 -0.23263879429035228 0 0 0 0 2.1372850797723686 3.6580414075412939 0 3.6580414075412939 1.1900335725922719 0 0 0 0 2.9389440872699737 14.207356644767771 0 14.207356644767771 16.816354821986792 0 0 0 0 33.343031388714735 28.788014274494344 0 28.788014274494344 19.845192190753551 0 0 0 0 205.14140350922162 372.58955554150907 0 372.58955554150907 -29.717397125066782 0 0 0 0 174.91559002512395 45.962984008193985 0 45.962984008193985 28.893428773619235 0 0 0 0 454.30763613942327 266.06622536202394 0 266.06622536202394 131.96456574453259 0 0 0 0 13.906398697589665 8.2334589833422172 0 8.2334589833422172 1.9496738704166212 0 0 0 0 372.86340459766507 171.00379079939739 0 171.00379079939739 43.789239036890649 0 0 0 0 401.41805328520422 157.90831361987875 0 157.90831361987875 43.067432700863719 0 0 0 0 439.71243547317135 198.09759554573429 0 198.09759554573429 -7.6610920437424284 0 0 0 0 367.47663500325871 150.91233900189218 0 150.91233900189218 -27.491649421635884 0 0 0 0 373.25097209502565 270.87107446586924 0 270.87107446586924 -87.279704128919548 0 0 0 0 433.47364257984736 270.81166338660478 0 270.81166338660478 -90.098520799068865 0 0 0 0 333.12899959475908 240.07868956710445 0 240.07868956710445 107.39135447747503 0 0 0 0 261.5702469951284 -6.4671733794439206 0 -6.4671733794439206 -653.60667414611817 0 0 0 0 390.73487777608898 381.67237101497085 0 381.67237101497085 -296.87271749008505 0 0 0 0 439.48211188327696 509.28044105408117 0 509.28044105408117 27.018777093027893 0 0 0 0 488.65678663880681 182.42260007354162 0 182.42260007354162 -452.31613603741607 0 0 0 0 522.10688462798862 256.56787944166717 0 256.56787944166717 -264.23628111703511 0 0 0 0 528.70712213104252 180.22012321367458 0 180.22012321367458 -156.76695815744824 0 0 0 0 488.79130412309314 204.29690145769018 0 204.29690145769018 -192.35188459503843 0 0 0 0 686.70576341979631 22.227044632603452 0 22.227044632603452 -139.60258594742118 0 0 0 0 703.74849489660073 167.88260363291988 0 167.88260363291988 -350.18531782627542 0 0 0 0 230.99031402276432 142.2102007407741 0 142.2102007407741 -188.30272925880126 0 0 0 0 436.6406195784657 364.36739249055972 0 364.36739249055972 -197.82767907303514 0 0 0 0 568.5059279897614 -24.820237292222373 0 -24.820237292222373 -125.89652089055289 0 0 0 0 631.8942987246046 119.21551033840115 0 119.21551033840115 -250.56372421040396 0 0 0 0 642.45616609902822 19.047975936256648 0 19.047975936256648 -101.92721995414104 0 0 0 0 519.70528259959974 98.964322913427168 0 98.964322913427168 -124.81122231302015 0 0 0 0 539.53976266778045 70.337108817283479 0 70.337108817283479 -84.457442696311773 0 0 0 0 557.56611136972424 147.49392103767605 0 147.49392103767605 -125.17269883061817 0 0 0 0 432.02887854650544 172.97058134643021 0 172.97058134643021 -87.792775444129802 0 0 0 0 454.36395613990317 143.2308569390334 0 143.2308569390334 -63.397405170315324 0 0 0 0 478.48610383865162 103.9790849862402 0 103.9790849862402 -75.842409078440141 0 0 0 0 473.78889944576804 101.39962049968108 0 101.39962049968108 -72.407919954956014 0 0 0 0 477.85466638217986 100.01718873555819 0 100.01718873555819 -72.62073691968908 0 0 0 0 463.70257933220637 118.20555869867349 0 118.20555869867349 -70.206434162798359 0 0 0 0 452.27412328858554 102.05103930288897 0 102.05103930288897 -92.391821172750497 0 0 0 0 440.0427776561628 111.24652727247303 0 111.24652727247303 -68.191898657923957 0 0 0 0 387.40458944803686 105.79778538043502 0 105.79778538043502 -48.243574112592796 0 0 0 0 425.67164811324255 128.47386244236532 0 128.47386244236532 -40.395638498986955 0 0 0 0 328.23447290276818 110.66396809895559 0 110.66396809895559 6.4071222455786483 0 0 0 0 388.47642912588344 107.2733012661447 0 107.2733012661447 -50.469152808425861 0 0 0 0 349.04022982928291 101.00864512599583 0 101.00864512599583 -51.462707652006429 0 0 0 0 379.10015275971818 68.700142978905205 0 68.700142978905205 -95.010679629853257 0 0 0 0 454.18681519548409 93.140936348036121 0 93.140936348036121 -131.17605112286947 0 0 0 0 310.94157917477787 53.672979010122617 0 53.672979010122617 -89.195000793828513 0 0 0 0 395.72263995627509 29.472675264235477 0 29.472675264235477 -167.49941335309268 0 0 0 0 273.05965967875818 96.707633034744504 0 96.707633034744504 -98.574459114196998 0 0 0 0 527.64026278728306 99.070783907128771 0 99.070783907128771 -204.36796545801189 0 0 0 0 414.56691939495795 90.69546461300888 0 90.69546461300888 -119.6393248424265 0 0 0 0 584.55523169151274 239.83869156545552 0 239.83869156545552 -53.94308891995388 0 0 0 0 455.33850800048094 152.0036382357539 0 152.0036382357539 -110.38552424832778 0 0 0 0 460.88827582689555 126.95676359574099 0 126.95676359574099 -81.147622330272497 0 0 0 0 583.3831978356975 440.58595619600419 0 440.58595619600419 169.03633923132111 0 0 0 0 398.76130495804045 260.33642611732012 0 260.33642611732012 -0.12494929865715676 0 0 0 0 709.09454637549425 247.51546773204518 0 247.51546773204518 -142.23774897333351 0 0 0 0 471.08519311197779 30.01549208446113 0 30.01549208446113 -237.34583876737452 0 0 0 0 -8.9400171655556164 52.193270169142878 0 52.193270169142878 4.4598006300572273 0 0 0 0 178.31322344410364 54.601353098219988 0 54.601353098219988 -112.07456020418249 0 0 0 0 399.98557536641601 114.7266391189678 0 114.7266391189678 -203.25351899651969 0 0 0 0 332.956534972089 109.78786690219454 0 109.78786690219454 4.9841679726390851 0 0 0 0 385.73406537433038 116.80941325517597 0 116.80941325517597 -203.45012477781438 0 0 0 0 328.07786619829494 782.57933179965767 0 782.57933179965767 -41.1647494114859 0 0 0 0 263.1018038563343 -50.421665380909872 0 -50.421665380909872 -91.253005434981787 0 0 0 0 46.601584410778742 16.876933240579092 0 16.876933240579092 465.63884844451059 0 0 0 0 286.49142243272217 287.14213083169625 0 287.14213083169625 -495.63489499451316 0 0 0 0 310.02204892092976 119.21869403313492 0 119.21869403313492 6.9372772643691327 0 0 0 0 319.45293140553986 316.01277457649849 0 316.01277457649849 -703.38586469274378 0 0 0 0 544.21156306835474 2.0506495048734905 0 2.0506495048734905 -576.79330163484337 0 0 0 0 417.29664754628902 191.41610219541508 0 191.41610219541508 -816.8205917198211 0 0 0 0 518.82607768604066 -96.574953865205316 0 -96.574953865205316 -666.98367773450946 0 0 0 0 522.21012952068122 -9.3466236449485223 0 -9.3466236449485223 -499.56449013847532 0 0 0 0 545.62758499447955 -54.667620990542673 0 -54.667620990542673 -412.22333951879409 0 0 0 0 427.40403650853841 122.80617423957847 0 122.80617423957847 -334.19714330361967 0 0 0 0 455.40177214474534 81.28814747497745 0 81.28814747497745 -152.28589353624102 0 0 0 0 497.18692561485659 -73.955158254994785 0 -73.955158254994785 -217.28090599013012 0 0 0 0 590.21248385630315 -308.79354388172305 0 -308.79354388172305 -359.79517954378116 0 0 0 0 359.42771876658662 -353.15375064183854 0 -353.15375064183854 215.53328438088647 0 0 0 0 3.4094101180486405 -10.561067259676193 0 -10.561067259676193 0.69454328419499767 0 0 0 0 230.47714245046518 -175.54751518507874 0 -175.54751518507874 45.016196212280192 0 0 0 0 410.12505967060861 -45.178480780378777 0 -45.178480780378777 -203.52855750681556 0 0 0 0 42.11414384193948 -50.808720854955823 0 -50.808720854955823 -22.745030235220725 0 0 0 0 440.55474623407645 76.271938580999631 0 76.271938580999631 -139.95220980905469 0 0 0 0 68.524578209774972 -41.376701075155609 0 -41.376701075155609 -32.705449763690076 0 0 0 0 411.15793805010617 141.07257600062803 0 141.07257600062803 -154.53799030099526 0 0 0 0 448.31643100104702 62.883293392545966 0 62.883293392545966 -198.51145987772179 0 0 0 0 414.82906808695407 92.029029420986262 0 92.029029420986262 5.4895026448939461 0 0 0 0 107.98592296196148 70.964846631381988 0 70.964846631381988 -142.53155626733496 0 0 0 0 225.39887703688564 69.615517729496929 0 69.615517729496929 -12.102005219860313 0 0 0 0 94.219006157225522 193.93646121490383 0 193.93646121490383 -181.37252976844866 0 0 0 0 134.45878889037158 252.149334113647 0 252.149334113647 -240.30722857721776 0 0 0 0 159.61581959047123 26.795944002150492 0 26.795944002150492 -14.706980299933118 0 0 0 0 156.23511543578934 46.024578409747846 0 46.024578409747846 -126.96829683875694 0 0 0 0 180.83212585648289 26.11784923165942 0 26.11784923165942 -114.55488476066694 0 0 0 0 184.34913651717579 32.249435821905081 0 32.249435821905081 -107.90250110895067 0 0 0 0 31.438966615691584 -9.824818665342292 0 -9.824818665342292 -9.7331618576025889 0 0 0 0 123.88928446092157 -1.1931783977189099 0 -1.1931783977189099 -1.5359837783702011 0 0 0 0 152.50276996767934 10.564700947733058 0 10.564700947733058 -62.307663002600748 0 0 0 0 222.66795412853841 20.193983257676649 0 20.193983257676649 -9.2444041812033433 0 0 0 0 162.91499657145687 47.501155411625405 0 47.501155411625405 -113.87827868105705 0 0 0 0 102.40159319544114 -0.53754856160117015 0 -0.53754856160117015 -10.358705507349701 0 0 0 0 137.26436498548719 -17.809480544947746 0 -17.809480544947746 -45.649373488101787 0 0 0 0 63.032391825338323 -21.960560039221644 0 -21.960560039221644 -19.929488381709049 0 0 0 0 66.475678439909785 -19.804699159054138 0 -19.804699159054138 -15.705872415480041 0 0 0 0 -14.046766173949436 -34.91306488881628 0 -34.91306488881628 -7.6651533459125858 0 0 0 0 67.304438212814148 -13.758204655346333 0 -13.758204655346333 -6.0111895373485442 0 0 0 0 32.23350769575336 -15.534942701211548 0 -15.534942701211548 -34.066046725067736 0 0 0 0 136.36343998106895 -14.273378495784527 0 -14.273378495784527 -19.003720047043316 0 0 0 0 147.64268477521546 -23.176677174023553 0 -23.176677174023553 -34.96188319433486 0 0 0 0 29.650672844356521 -19.201996522261169 0 -19.201996522261169 -6.7917493996439156 0 0 0 0 137.54366514864159 -18.764020529761751 0 -18.764020529761751 -35.635403073648376 0 0 0 0 137.64803701741039 -19.257259164146035 0 -19.257259164146035 -33.867568342817322 0 0 0 0 131.40773996011558 -20.026306238890015 0 -20.026306238890015 -31.420795854211974 0 0 0 0 180.5246139289593 -10.837408036375336 0 -10.837408036375336 -43.048111772776792 0 0 0 0 150.56332559289876 -8.6712252210786573 0 -8.6712252210786573 -33.427052927317163 0 0 0 0 124.80706914493652 7.073168031873351 0 7.073168031873351 -10.645795981919104 0 0 0 0 172.66415362869157 2.3554743238873925 0 2.3554743238873925 -17.318979412150384 0 0 0 0 175.51248136389768 -40.704195340580327 0 -40.704195340580327 -280.8880997919714 0 0 0 0 15.26508122753927 -4.3985186923049469 0 -4.3985186923049469 -4.2621794757440838 0 0 0 0 48.118646754814165 -18.181561966171138 0 -18.181561966171138 -5.6050896957802978 0 0 0 0 52.257627253333339 -55.56441225186245 0 -55.56441225186245 -54.075520468964896 0 0 0 0 30.076852267299671 0.42995399382962773 0 0.42995399382962773 -5.4252066220637012 0 0 0 0 88.934414764473331 -23.870948907530874 0 -23.870948907530874 -57.069194128152958 0 0 0 0 92.352698599235737 -25.208393030341313 0 -25.208393030341313 -29.560439896933531 0 0 0 0 90.836084805188875 -30.515004471628117 0 -30.515004471628117 -47.783241392988202 0 0 0 0 153.79204611110617 -28.641004140803943 0 -28.641004140803943 -54.170096746009222 0 0 0 0 122.12191820671433 -51.676466334144607 0 -51.676466334144607 -53.85922445980691 0 0 0 0 116.57156956393737 -16.822913966960186 0 -16.822913966960186 -35.342654044559822 0 0 0 0 76.854042029881384 -6.0694948502991792 0 -6.0694948502991792 -26.725095639623305 0 0 0 0 93.320387360203313 -7.0427485659167814 0 -7.0427485659167814 -42.169762262353743 0 0 0 0 68.79366717657831 -15.108652219377518 0 -15.108652219377518 -32.883840629632232 0 0 0 0 16.771112638692721 -25.759558370458763 0 -25.759558370458763 -8.5393677622412021 0 0 0 0 51.288127460167743 -5.2726546683593369 0 -5.2726546683593369 -29.873523644438933 0 0 0 0 79.898644625034649 -16.333436640448781 0 -16.333436640448781 -29.214848189169629 0 0 0 0 50.393297441524794 -14.796635206131491 0 -14.796635206131491 -3.0624148920037833 0 0 0 0 85.900040850814548 -16.095495893455791 0 -16.095495893455791 -48.373313492269517 0 0 0 0 123.25433095480548 -21.677139785363352 0 -21.677139785363352 -30.967779598274092 0 0 0 0 70.000120736743497 -8.4310964041304004 0 -8.4310964041304004 -11.32051759183115 0 0 0 0 85.097205710364506 -36.845225237915315 0 -36.845225237915315 -20.288551224038457 0 0 0 0 79.20369269058574 -24.663555517949135 0 -24.663555517949135 -22.21879725543721 0 0 0 0 10.073598209499153 -5.8686301609410805 0 -5.8686301609410805 -1.1293854952806062 0 0 0 0 68.457917313920831 -5.3919055292405602 0 -5.3919055292405602 -23.352734491922547 0 0 0 0 29.133634697105983 -11.522722691911724 0 -11.522722691911724 -2.2921674543944821 0 0 0 0 67.298023841547547 -3.9390282318418031 0 -3.9390282318418031 -29.187251940501483 0 0 0 0 56.690515288515599 -14.319382694162869 0 -14.319382694162869 -37.522152672492894 0 0 0 0 21.19374617542482 -12.726775770369301 0 -12.726775770369301 -16.683377662975985 0 0 0 0 124.16157474539796 48.264255601816444 0 48.264255601816444 9.1753452729199125 0 0 0 0 16.54262957215542 -1.958291283055587 0 -1.958291283055587 -3.6157395856489529 0 0 0 0 18.826838506701392 -5.868362743036883 0 -5.868362743036883 -6.6392532048347492 0 0 0 0 89.442121687257895 31.182249404899721 0 31.182249404899721 18.146199709668963 0 0 0 0 44.028940781553572 17.830074789094539 0 17.830074789094539 8.2012968810354856 0 0 0 0 56.25188536491973 -23.193163476165722 0 -23.193163476165722 -17.500951258211018 0 0 0 0 78.806902495603936 -10.184730475787489 0 -10.184730475787489 -28.715494189606488 0 0 0 0 98.841342181811342 16.011294332934995 0 16.011294332934995 22.044150113739306 0 0 0 0 3.2154970571223203 1.0900243237602183 0 1.0900243237602183 0.010983694763428531 0 0 0 0 21.034538600169981 -7.124243281138547 0 -7.124243281138547 14.733269955439937 0 0 0 0 228.49282352812588 15.014504090868286 0 15.014504090868286 -22.647739331122921 0 0 0 0 5.2515766928423346 -6.6384016185228489 0 -6.6384016185228489 -1.228468127711416 0 0 0 0 3.7643389693812139 -9.5276848168553485 0 -9.5276848168553485 -1.4662834687845945 0 0 0 0 123.42585474447696 -86.220098939908894 0 -86.220098939908894 11.455298347033022 0 0 0 0 313.36235192697495 188.82166779367799 0 188.82166779367799 116.35576582824433 0 0 0 0 93.10312567690562 27.536386502279129 0 27.536386502279129 -49.426185565062724 0 0 0 0 133.23111611518198 2.7912830579506931 0 2.7912830579506931 -37.516342668560355 0 0 0 0 22.177055480661892 -23.273883121478462 0 -23.273883121478462 -14.225539357664982 0 0 0 0 145.91053645170177 -42.382988347319724 0 -42.382988347319724 -96.458772840479469 0 0 0 0 -109.49224249554391 -55.904616191342541 0 -55.904616191342541 -25.04587362145719 0 0 0 0 -157.31416886735678 -99.167619142281637 0 -99.167619142281637 55.582331817894101 0 0 0 0 -28.018033979911706 -59.107328964044655 0 -59.107328964044655 -96.613457909500994 0 0 0 0 23.550564543794422 -23.693962662497995 0 -23.693962662497995 -13.798442804366744 0 0 0 0 -131.19132809558505 -128.15334525046705 0 -128.15334525046705 88.467348530801246 0 0 0 0 -152.23957103933208 -149.4286537821763 0 -149.4286537821763 16.578089604077832 0 0 0 0 112.11632523016306 -31.451089503563708 0 -31.451089503563708 5.9043752795378168 0 0 0 0 -112.34168485779082 -55.875916929012192 0 -55.875916929012192 58.042303822213398 0 0 0 0 91.477285622720956 15.816662339394952 0 15.816662339394952 -74.347332308313526 0 0 0 0 291.55727281310828 -75.140589152854318 0 -75.140589152854318 -59.383018128976801 0 0 0 0 205.92555246382835 55.687553728617104 0 55.687553728617104 16.272502691305817 0 0 0 0 595.24070591543568 182.14514858846997 0 182.14514858846997 -44.109563700094441 0 0 0 0 455.6803034528275 19.928702835611148 0 19.928702835611148 -236.67440897385677 0 0 0 0 92.474688767193584 -26.422098699184403 0 -26.422098699184403 -46.773153158638252 0 0 0 0 1579.0540088815615 864.49416867100626 0 864.49416867100626 301.28413924151209 0 0 0 0 80.947597766107833 -6.0081627305553287 0 -6.0081627305553287 -1.1926310955359998 0 0 0 0 457.8338905392884 -147.87735969284699 0 -147.87735969284699 -123.54058055412679 0 0 0 0 102.58319988415133 -151.2546262474248 0 -151.2546262474248 21.064146037511819 0 0 0 0 99.797814765865496 -47.696330765953874 0 -47.696330765953874 1.5261629945143795 0 0 0 0 127.19818522266723 -2.9374366879407603 0 -2.9374366879407603 -11.765510143653501 0 0 0 0 74.128473067808955 -15.296330293160622 0 -15.296330293160622 -4.9458689528946707 0 0 0 0 70.110778071175446 -26.985572291004473 0 -26.985572291004473 -7.8210571853176134 0 0 0 0 23.126455734646328 -20.324131813213171 0 -20.324131813213171 -6.9834079018236181 0 0 0 0 -150.23905225479393 -76.041232304946789 0 -76.041232304946789 19.919165479004732 0 0 0 0 22.203113793781881 -45.2005769250678 0 -45.2005769250678 -9.7966689960044668 0 0 0 0 -4.0320316514116712 -15.353899964525226 0 -15.353899964525226 -200.12072345989952 0 0 0 0 -143.30223900463898 -124.63508699051908 0 -124.63508699051908 52.098304107853437 0 0 0 0 -334.3745597503148 4.6640323390347476 0 4.6640323390347476 13.499678957183278 0 0 0 0 14.515441540709958 -2.6144894981844118 0 -2.6144894981844118 -1.1852028097160439 0 0 0 0 -70.972625368915033 -49.922965331904834 0 -49.922965331904834 -184.33511510202567 0 0 0 0 -1.17858745824077 -9.6266476034186859 0 -9.6266476034186859 -3.3704148105704004 0 0 0 0 -4.3067912673286628 -283.28912803614821 0 -283.28912803614821 175.73179826013802 0 0 0 0 73.767966033497942 -19.245333561971051 0 -19.245333561971051 -8.2391437254905213 0 0 0 0 20.522033417233615 -145.46512748045961 0 -145.46512748045961 -35.50093257808112 0 0 0 0 49.511821380548213 -31.180072576938926 0 -31.180072576938926 -16.332002077579304 0 0 0 0 9.907042003236711 -257.14015634908992 0 -257.14015634908992 -63.358912885269092 0 0 0 0 86.593028121627867 -110.71813476271655 0 -110.71813476271655 -321.14189366238315 0 0 0 0 37.418692515500879 -95.657476669418202 0 -95.657476669418202 -500.84435108181424 0 0 0 0 48.504015281389002 -203.25395596563249 0 -203.25395596563249 -162.28535204383479 0 0 0 0 -382.23204789984447 -158.34351241312834 0 -158.34351241312834 -398.46722729036264 0 0 0 0 45.043968500511255 -236.15451713874427 0 -236.15451713874427 -172.27124423960231 0 0 0 0 94.878646911703981 -282.86060401697705 0 -282.86060401697705 -56.092024539093472 0 0 0 0 0.18654375167466242 -0.34163415094542415 0 -0.34163415094542415 0.094543985513791284 0 0 0 0 -23.773798336050731 -36.116541158390319 0 -36.116541158390319 439.19295155009695 0 0 0 0 -18.75098170536512 -125.87908444790332 0 -125.87908444790332 -76.528629612139412 0 0 0 0 -55.59827195147227 36.949002119583611 0 36.949002119583611 196.55752014527206 0 0 0 0 -1.4597583405720798 -0.57564808021948011 0 -0.57564808021948011 1.7373344350794824 0 0 0 0 -95.586666155271814 42.361752966847916 0 42.361752966847916 12.900318076251665 0 0 0 0 85.903229250761797 74.962882236617133 0 74.962882236617133 178.64169390560369 0 0 0 0 677.02977629518136 -212.38977860253976 0 -212.38977860253976 -63.392416299570186 0 0 0 0 1.7254290707274151 -2.2457405148947203 0 -2.2457405148947203 2.4398864197237717 0 0 0 0 266.04515475212247 -342.9169843276245 0 -342.9169843276245 348.12369968895609 0 0 0 0 547.92489613068756 -76.766813050670407 0 -76.766813050670407 487.21056751747437 0 0 0 0 811.84329978041933 -673.15696005278824 0 -673.15696005278824 503.9415486125763 0 0 0 0 -48.973228844246478 -141.35531099613763 0 -141.35531099613763 392.90838640176298 0 0 0 0 -124.84871624340303 -376.74505211258747 0 -376.74505211258747 -128.28902816925074 0 0 0 0 84.438792683482461 -165.71031284148256 0 -165.71031284148256 8.3455953811590007 0 0 0 0 355.49781753780553 -424.26537034156991 0 -424.26537034156991 246.04849982468113 0 0 0 0 485.23512446196401 -443.90095815579753 0 -443.90095815579753 -297.10877388578865 0 0 0 0 169.07380071934313 76.337431251045928 0 76.337431251045928 -816.34566422806211 0 0 0 0 140.34529719897546 -336.49015937164404 0 -336.49015937164404 -198.85857972835038 0 0 0 0 264.40568209913909 -124.83319807250791 0 -124.83319807250791 -723.60807154769645 0 0 0 0 668.42876072914805 -294.44449067097048 0 -294.44449067097048 -401.14535335863093 0 0 0 0 482.91528497074341 -287.29375342398299 0 -287.29375342398299 -262.03883786614642 0 0 0 0 817.19184936804231 -490.21376132985006 0 -490.21376132985006 -142.63374807639138 0 0 0 0 357.97318067763331 -252.8569805944831 0 -252.8569805944831 114.91510835561166 0 0 0 0 897.46151917343377 -188.69063355207163 0 -188.69063355207163 12.138325257534035 0 0 0 0 771.55763737851521 -318.39382366089558 0 -318.39382366089558 -378.63622248737738 0 0 0 0 664.19406717925449 -318.58988803253396 0 -318.58988803253396 14.894322246709493 0 0 0 0 699.65594245644752 -201.65375548297106 0 -201.65375548297106 -578.15359389776927 0 0 0 0 643.89258028891345 -218.98812179973993 0 -218.98812179973993 -392.99166751148368 0 0 0 0 634.60108793835388 -358.36233433795587 0 -358.36233433795587 -410.377085374942 0 0 0 0 667.86861293116817 -91.418444065103358 0 -91.418444065103358 -747.52122827539006 0 0 0 0 673.5576648315473 -439.03631005791385 0 -439.03631005791385 -8.5297156704302779 0 0 0 0 624.13233640178805 -229.30371758395768 0 -229.30371758395768 -120.27816090394299 0 0 0 0 567.69539130688645 -417.42952327888793 0 -417.42952327888793 309.16654116220252 0 0 0 0 951.91850935461116 -489.30803464485393 0 -489.30803464485393 321.61143850761982 0 0 0 0 612.36940404813504 -594.12934233771171 0 -594.12934233771171 602.5064976534328 0 0 0 0 570.75359737765393 -321.73136520749426 0 -321.73136520749426 626.61627762333865 0 0 0 0 489.84266647202458 -601.72373801642902 0 -601.72373801642902 692.99691892819646 0 0 0 0 481.29062932316447 -0.83188825323043147 0 -0.83188825323043147 519.26263531004497 0 0 0 0 -0.0057208930363970012 -1.0612814769602323 0 -1.0612814769602323 5.9945340854743154 0 0 0 0 733.73527417406149 -150.42928244616286 0 -150.42928244616286 -297.11807798908546 0 0 0 0 666.93450654447952 -722.75430071840776 0 -722.75430071840776 557.77744250314549 0 0 0 0 749.96159703313606 19.858752599982552 0 19.858752599982552 1160.0867000502703 0 0 0 0 768.26612536430184 -389.97657669980765 0 -389.97657669980765 38.735848850209834 0 0 0 0 1.3923659105373076 0.2992375178794191 0 0.2992375178794191 5.2881945870906257 0 0 0 0 1551.2460364541184 -96.89697658076409 0 -96.89697658076409 -94.170969964343556 0 0 0 0 143.7594852852344 176.28171043913721 0 176.28171043913721 472.88816841926496 0 0 0 0 0.80940295285186892 0.89272219530838015 0 0.89272219530838015 9.8795276866053428 0 0 0 0 653.82096117897891 -258.51579997090977 0 -258.51579997090977 -99.213666947070124 0 0 0 0 363.19934957714577 -188.7516516898894 0 -188.7516516898894 222.37011557267169 0 0 0 0 730.67100577765086 -200.80849602049514 0 -200.80849602049514 -89.538733302864387 0 0 0 0 631.16258283820935 59.71549372904235 0 59.71549372904235 69.884227436032347 0 0 0 0 1286.556598349518 -114.62944857767471 0 -114.62944857767471 -166.29268675885885 0 0 0 0 1017.2425480514066 130.18427336935815 0 130.18427336935815 -96.446879636983667 0 0 0 0 2.0240581862187526 1.890232837209652 0 1.890232837209652 5.9322772226328873 0 0 0 0 1101.4955419044127 -150.7246543018245 0 -150.7246543018245 17.256054352341096 0 0 0 0 928.91588361765025 -221.41775521886359 0 -221.41775521886359 28.446980714154051 0 0 0 0 719.91553367679444 -99.211017188434539 0 -99.211017188434539 -65.247329659810191 0 0 0 0 2.3428641865514948 0.75569358821141464 0 0.75569358821141464 1.5411139791933368 0 0 0 0 1319.5363163464062 -76.664215390619958 0 -76.664215390619958 -68.799501785902507 0 0 0 0 1145.4626748931041 132.87103102332441 0 132.87103102332441 0.0074731388622329559 0 0 0 0 435.22093088066322 -166.64163698237843 0 -166.64163698237843 0.042593371773340077 0 0 0 0 355.4822864131711 -121.68122057853961 0 -121.68122057853961 118.30567591641611 0 0 0 0 78.350448069148115 50.370086489128596 0 50.370086489128596 -41.256458694089474 0 0 0 0 334.77284801968199 -177.41520685096913 0 -177.41520685096913 -27.172433305670836 0 0 0 0 182.57786344693159 15.180388241072567 0 15.180388241072567 16.483729524113642 0 0 0 0 78.794788554390834 -136.46260997775317 0 -136.46260997775317 -53.896057213300793 0 0 0 0 -235.99434954841854 -98.563595622234217 0 -98.563595622234217 -0.07441311635233902 0 0 0 0 -296.84500917055993 -189.7577178738166 0 -189.7577178738166 -24.481971232399452 0 0 0 0 0.011148501348827722 -0.90616269378282177 0 -0.90616269378282177 1.494007193266198 0 0 0 0 -459.24132733099395 22.584075892350686 0 22.584075892350686 -17.848301077767545 0 0 0 0 1.7418791724048788 -2.6967753167326691 0 -2.6967753167326691 -2.1500450780809035 0 0 0 0 0.8940276063059116 -4.412620156937237 0 -4.412620156937237 10.178143942334264 0 0 0 0 38.464814404243953 36.563693091360733 0 36.563693091360733 23.911917218606504 0 0 0 0 -316.23630530611263 -146.50153925731149 0 -146.50153925731149 99.961262317029991 0 0 0 0 74.116392275798717 43.941416729889056 0 43.941416729889056 -23.203594772156066 0 0 0 0 1.8873027322369182 -3.9421488747173044 0 -3.9421488747173044 7.7018709235528373 0 0 0 0 -19.452213631622726 -231.18636825178555 0 -231.18636825178555 27.687154568616592 0 0 0 0 329.04009487213443 33.753830194152101 0 33.753830194152101 -72.599890352626971 0 0 0 0 587.26350056545925 -175.53142927187571 0 -175.53142927187571 -71.322941712679494 0 0 0 0 20.590513550174364 -33.222025901563597 0 -33.222025901563597 1.1802880187174196 0 0 0 0 -127.57345643261215 -52.951465543403174 0 -52.951465543403174 -19.695710018171212 0 0 0 0 -155.99001670966391 -145.832282945207 0 -145.832282945207 -108.22421584742233 0 0 0 0 -29.439448476245161 -11.004679458471173 0 -11.004679458471173 -42.753137551419059 0 0 0 0 -23.437316114184796 27.144171173508994 0 27.144171173508994 39.388420258597307 0 0 0 0 -28.307439559721388 -23.896296377027284 0 -23.896296377027284 -11.667499746631165 0 0 0 0 1.0838484922948624 -6.135128753352209 0 -6.135128753352209 0.84700188859865744 0 0 0 0 12.155606114596594 -19.512964743196964 0 -19.512964743196964 -6.4717391570333627 0 0 0 0 -6.7548710353803472 12.87337469993679 0 12.87337469993679 74.972317885128177 0 0 0 0 0.48895225737942383 -9.9189957888220999 0 -9.9189957888220999 -0.061534467957737794 0 0 0 0 -14.670764355076244 31.917151760594606 0 31.917151760594606 44.628640648109467 0 0 0 0 -8.4435819674026789 -29.641355311089711 0 -29.641355311089711 -6.3580782648314198 0 0 0 0 0.10981366384169178 -6.372763630235168 0 -6.372763630235168 -0.069308698549447004 0 0 0 0 -57.417048328206874 -10.240459451997362 0 -10.240459451997362 0.017353449251604584 0 0 0 0 -5.4409174009633716 -2.2861915462757452 0 -2.2861915462757452 0.19186480045654974 0 0 0 0 -80.060798767561209 -27.423540093427846 0 -27.423540093427846 91.148354091908914 0 0 0 0 -62.4802033022861 -3.9883122381904688 0 -3.9883122381904688 -0.59167532636184372 0 0 0 0 0.090190954632021203 -7.293185683371382 0 -7.293185683371382 -0.30057067492523093 0 0 0 0 -48.398755548390909 -34.619165013028351 0 -34.619165013028351 -41.659874992771279 0 0 0 0 -141.45548813175992 -43.878051951074667 0 -43.878051951074667 23.69961784638781 0 0 0 0 -108.79370229528286 -97.90179474849333 0 -97.90179474849333 -54.811834954286098 0 0 0 0 24.687701267000818 -19.510778885952249 0 -19.510778885952249 -19.58913915552187 0 0 0 0 -8.3990609707166186 -4.2651179525641112 0 -4.2651179525641112 1.0578591126886021 0 0 0 0 -63.05404056772386 -48.388798246315901 0 -48.388798246315901 -95.536410258143405 0 0 0 0 -100.16358510221471 -41.351221916484974 0 -41.351221916484974 5.6432060960487433 0 0 0 0 6.4349572581995744 44.499127530626538 0 44.499127530626538 -27.980283432388205 0 0 0 0 -117.04653908355976 -145.28576773328041 0 -145.28576773328041 -106.25447038314314 0 0 0 0 -2.0315805135045366 -0.057347342980875737 0 -0.057347342980875737 2.4526473398843223 0 0 0 0 1576.048749770227 809.62879909136564 0 809.62879909136564 1037.8061098788658 0 0 0 0 38.075692856713431 657.61205766035664 0 657.61205766035664 2516.3184662755602 0 0 0 0 747.76534891308984 720.74509122709048 0 720.74509122709048 266.19639657178794 0 0 0 0 205.52107079921552 221.54477574289746 0 221.54477574289746 1178.134441566591 0 0 0 0 581.20816149198799 1981.5120661619412 0 1981.5120661619412 2863.6925375084511 0 0 0 0 1183.1830208722677 931.08686141569183 0 931.08686141569183 1405.1025628196089 0 0 0 0 106.56053758846161 -17.945113409008584 0 -17.945113409008584 -8.8210259578690629 0 0 0 0 97.547499564287136 -199.55305188327952 0 -199.55305188327952 -568.96087817945613 0 0 0 0 143.92451661344967 -43.25350935749546 0 -43.25350935749546 -274.46294093434994 0 0 0 0 178.94580065197079 -36.241343212201002 0 -36.241343212201002 -292.37263433116914 0 0 0 0 223.98145302898047 6.9197948139344518 0 6.9197948139344518 -193.2794845325584 0 0 0 0 204.48189948152867 -48.855626685175693 0 -48.855626685175693 -294.18916149869119 0 0 0 0 243.23258474195609 0.12397967312080027 0 0.12397967312080027 -220.51375828553432 0 0 0 0 158.00382445417927 -62.164163165787159 0 -62.164163165787159 -176.85565490858653 0 0 0 0 239.78654905321309 -40.755273855791927 0 -40.755273855791927 -139.97032354793646 0 0 0 0 215.55825432593701 -84.817365242381356 0 -84.817365242381356 -215.88934838209482 0 0 0 0 274.20256350919954 -125.71388956636468 0 -125.71388956636468 -180.98934653353854 0 0 0 0 241.52330977719976 -68.114318816248897 0 -68.114318816248897 -254.47604714318595 0 0 0 0 161.03248149938923 -34.010938798634413 0 -34.010938798634413 -7.4009585971713978 0 0 0 0 336.84017503623909 2062.6044740768662 0 2062.6044740768662 3089.4229373158255 0 0 0 0 143.84542292926926 -149.12126964190224 0 -149.12126964190224 -325.08533333484877 0 0 0 0 1162.9329181320936 377.89303572025892 0 377.89303572025892 -240.39159398743323 0 0 0 0 147.17330462817336 -10.302481060489299 0 -10.302481060489299 1979.7265779868449 0 0 0 0 51.936020219066847 35.49433566886858 0 35.49433566886858 -10.940892928814838 0 0 0 0 234.21726278634713 -60.017004867154192 0 -60.017004867154192 -0.33793716577459776 0 0 0 0 148.96704688970931 -238.2896566933573 0 -238.2896566933573 -188.2092842016815 0 0 0 0 892.73712427564897 1945.0013011346928 0 1945.0013011346928 2685.2904088080086 0 0 0 0 1342.7455478979318 1995.0154533219643 0 1995.0154533219643 1832.1989118547644 0 0 0 0 1397.0857190413808 1263.1912655378346 0 1263.1912655378346 1285.7869218425622 0 0 0 0 1231.37931218624 1959.6125130243636 0 1959.6125130243636 2337.4634005748267 0 0 0 0 5.5432952957971224 -4.9390045365321811 0 -4.9390045365321811 -8.1274671459345882 0 0 0 0 539.82561799450195 1090.7347617834239 0 1090.7347617834239 2270.8429052267375 0 0 0 0 23.607695704850997 16.715799465911168 0 16.715799465911168 10.445682256741527 0 0 0 0 2602.7562504842062 1687.1998344095864 0 1687.1998344095864 -3861.1361080649149 0 0 0 0 -321.50428875205398 376.44608060606413 0 376.44608060606413 -1537.6394375473574 0 0 0 0 111.88794818846327 27.51305010063615 0 27.51305010063615 -13.024621193671207 0 0 0 0 -250.65626339919618 636.84346985730588 0 636.84346985730588 -1205.2909496450866 0 0 0 0 68.625194976436205 17.701773763718627 0 17.701773763718627 -1.4033036397814538 0 0 0 0 -164.76263853563796 538.12898841132301 0 538.12898841132301 -980.73094305198538 0 0 0 0 -185.94628964556614 497.42858128935495 0 497.42858128935495 -980.25540577072024 0 0 0 0 52.461336675885832 37.586040544799516 0 37.586040544799516 -70.580216737258979 0 0 0 0 45.83268013723864 35.799828104643893 0 35.799828104643893 -38.616567805165687 0 0 0 0 51.299320714704095 35.873957954570912 0 35.873957954570912 14.605327271067818 0 0 0 0 -840.74705915967934 491.45467689346333 0 491.45467689346333 1241.9825636612127 0 0 0 0 891.24436306364078 -143.44082100992364 0 -143.44082100992364 -1019.7926370597797 0 0 0 0 40.896113965998836 27.327075303484385 0 27.327075303484385 -10.895063510548649 0 0 0 0 -1019.2314065353712 -818.21863130153361 0 -818.21863130153361 -803.95794086028764 0 0 0 0 14.727990049344953 689.84419138527301 0 689.84419138527301 283.90421142408331 0 0 0 0 41.870091465279984 38.254678074970684 0 38.254678074970684 -24.31571941552852 0 0 0 0 8.4263141274414011 10.690618718409382 0 10.690618718409382 8.7725103301681777 0 0 0 0 465.4896142896323 -68.366155887728382 0 -68.366155887728382 15.347321990119781 0 0 0 0 3034.8168983135547 -336.1562084388388 0 -336.1562084388388 -1868.4630951775689 0 0 0 0 1487.771234483429 -852.6421927728934 0 -852.6421927728934 521.60774845371725 0 0 0 0 1785.2603187753411 85.777613000764177 0 85.777613000764177 -558.23805636220641 0 0 0 0 1336.5085817898507 496.85302178892198 0 496.85302178892198 -565.53372770403121 0 0 0 0 1738.2954517153557 1005.5391623780724 0 1005.5391623780724 -1108.3924656287199 0 0 0 0 -963.30541558956611 1670.9759765177141 0 1670.9759765177141 -1209.9424766994161 0 0 0 0 -600.18462649639696 662.89100299174788 0 662.89100299174788 -285.98075835457712 0 0 0 0 613.23518172075273 1307.3276223665434 0 1307.3276223665434 -816.61216300902288 0 0 0 0 1138.5184339241823 794.57800812817004 0 794.57800812817004 -581.00157323572785 0 0 0 0 1449.3354165328201 567.73840882858713 0 567.73840882858713 -574.79381947017464 0 0 0 0 768.20332494846662 652.81782312072801 0 652.81782312072801 -201.85786394288698 0 0 0 0 624.43808675362379 796.85496645815783 0 796.85496645815783 -276.72213574079069 0 0 0 0 1034.9679741514265 619.44848540660269 0 619.44848540660269 -131.58631748642074 0 0 0 0 1081.2069012646389 546.93531880954197 0 546.93531880954197 -187.25713496377307 0 0 0 0 1123.9826889130927 533.06058930535164 0 533.06058930535164 -412.51595311817073 0 0 0 0 1175.0199143459322 438.03608278028605 0 438.03608278028605 -246.56131108047884 0 0 0 0 -558.97737499902723 -150.13948349335078 0 -150.13948349335078 161.95671760627192 0 0 0 0 694.65988587599713 -860.14482811305061 0 -860.14482811305061 -2129.7047817087996 0 0 0 0 1.0338908516214644 3.2675369414302509 0 3.2675369414302509 3.0896498542199495 0 0 0 0 751.84295869097696 -434.73280948868705 0 -434.73280948868705 -2039.7831469945013 0 0 0 0 4.5960094506852442 10.497322052121003 0 10.497322052121003 4.9770306851547623 0 0 0 0 1277.4576061558619 708.12750151974797 0 708.12750151974797 -169.07445356217067 0 0 0 0 1388.1557100001955 957.53948821735867 0 957.53948821735867 104.81155420948835 0 0 0 0 1316.0019013950368 588.94527200959055 0 588.94527200959055 -418.71133894937043 0 0 0 0 1303.3613978182257 468.5018344751561 0 468.5018344751561 -469.12863528707021 0 0 0 0 1488.1407441805277 741.49971185523873 0 741.49971185523873 -340.22162282719 0 0 0 0 543.64292785801808 -79.875445026166517 0 -79.875445026166517 -604.77532403074474 0 0 0 0 -58.640200097230263 135.6975595294607 0 135.6975595294607 -651.3249190779843 0 0 0 0 247.95012787193991 -301.48777362927376 0 -301.48777362927376 -770.5799678526655 0 0 0 0 253.95837295206729 317.64457177694476 0 317.64457177694476 -1556.8438312555409 0 0 0 0 -295.75824847814511 -247.66997657602951 0 -247.66997657602951 -717.57900382507614 0 0 0 0 8.0812455340055749 233.09116878901932 0 233.09116878901932 -41.483240506779111 0 0 0 0 390.50125946541084 180.39216241677514 0 180.39216241677514 -515.04726586282777 0 0 0 0 752.17194264102727 480.28411798777415 0 480.28411798777415 23.17250757215561 0 0 0 0 604.5597015247331 -145.12692955884268 0 -145.12692955884268 -8.0683069880526546 0 0 0 0 137.71391033037798 11.88679877852428 0 11.88679877852428 -48.637444821293684 0 0 0 0 384.46987268471275 -351.73165645034805 0 -351.73165645034805 -176.30220988562814 0 0 0 0 737.40696175259654 -207.85857794585809 0 -207.85857794585809 -121.96870056571333 0 0 0 0 571.00322160674841 -108.64562231827222 0 -108.64562231827222 -705.4498789623168 0 0 0 0 831.0686543113261 -187.95171767727925 0 -187.95171767727925 542.51383739214089 0 0 0 0 754.25638660586992 -451.35072013657395 0 -451.35072013657395 219.63324419007495 0 0 0 0 615.68183280120502 109.74222735887321 0 109.74222735887321 386.01508374431887 0 0 0 0 1437.4244161515671 4.6028532768195873 0 4.6028532768195873 372.97612919317339 0 0 0 0 931.6375488366175 653.53280105644387 0 653.53280105644387 1146.5090468357155 0 0 0 0 927.93084993975936 -351.10502554489409 0 -351.10502554489409 752.28394728349963 0 0 0 0 750.69214721594471 -63.361527084785166 0 -63.361527084785166 863.92581920009548 0 0 0 0 423.11539766850183 615.16974510189107 0 615.16974510189107 504.35078636086496 0 0 0 0 672.24695137853269 -56.484751069563117 0 -56.484751069563117 -292.19279753981527 0 0 0 0 765.08871372581052 230.59599407491896 0 230.59599407491896 426.8117910862502 0 0 0 0 597.33685419530957 460.90612468072845 0 460.90612468072845 391.68575382118979 0 0 0 0 1038.7274374123954 275.4047686050078 0 275.4047686050078 440.28890031589629 0 0 0 0 1016.2317279646231 827.07620361580939 0 827.07620361580939 846.19135176053896 0 0 0 0 1051.4494342836988 602.12760537526947 0 602.12760537526947 1168.5156440080739 0 0 0 0 1167.6691722683172 1558.9568685376312 0 1558.9568685376312 2371.6189066663001 0 0 0 0 502.19096048047504 419.98502136786681 0 419.98502136786681 1691.3369173500678 0 0 0 0 70.848860281184898 -385.02664036757272 0 -385.02664036757272 -1170.5982651744832 0 0 0 0 65.766656715174406 -9.4053112218197725 0 -9.4053112218197725 -6.885276896687599 0 0 0 0 24.394590655337197 -2.624265402961143 0 -2.624265402961143 -2.3375921446061563 0 0 0 0 -52.144070794369327 -100.81254873311357 0 -100.81254873311357 -356.27122215678651 0 0 0 0 1194.5362121373037 -1179.2770301710066 0 -1179.2770301710066 -1784.3429810779558 0 0 0 0 181.06460650447843 161.91834536794209 0 161.91834536794209 -746.10994980427722 0 0 0 0 162.12276942265453 -249.4929362628387 0 -249.4929362628387 1116.1018829387244 0 0 0 0 1434.4829957458569 -868.77116445169986 0 -868.77116445169986 -115.68568573394259 0 0 0 0 2749.5396504597156 2234.5038904818157 0 2234.5038904818157 2372.4000393267397 0 0 0 0 2635.1647103048599 29.106137424636472 0 29.106137424636472 171.91595559050506 0 0 0 0 2885.5908615225635 247.01609489693237 0 247.01609489693237 -839.11043138926107 0 0 0 0 871.86246145666155 308.75555644251369 0 308.75555644251369 244.38517427480747 0 0 0 0 3.534742426588906 4.7971257160626237 0 4.7971257160626237 7.0961845859273378 0 0 0 0 1973.4782199531037 1244.3923298603604 0 1244.3923298603604 962.44377023974812 0 0 0 0 2501.1286686686799 432.6749707796256 0 432.6749707796256 -102.44093317393708 0 0 0 0 2357.4292018726228 -31.90849544545884 0 -31.90849544545884 -870.77942788801784 0 0 0 0 2065.4588116745144 488.29690255274448 0 488.29690255274448 -0.33406889095313341 0 0 0 0 1180.8254216729401 31.460312349343727 0 31.460312349343727 -41.398639722060835 0 0 0 0 2812.8507527710171 167.5762372084979 0 167.5762372084979 -444.87221854296894 0 0 0 0 917.60517407367297 25.932639316189469 0 25.932639316189469 92.09620992267007 0 0 0 0 4.3642501690318056 3.1378984047335621 0 3.1378984047335621 2.1579893305785411 0 0 0 0 1162.2213102045353 -78.895225930210302 0 -78.895225930210302 -364.62135155443747 0 0 0 0 352.41648219437047 314.06277824151999 0 314.06277824151999 0.26265198913493198 0 0 0 0 159.22285534218827 268.41444908719791 0 268.41444908719791 0.080605698565954398 0 0 0 0 306.10756736703479 235.3874979079489 0 235.3874979079489 -64.469255603656507 0 0 0 0 221.65609232547649 254.72372951142233 0 254.72372951142233 -1.9719888358185358 0 0 0 0 219.09221275674645 325.24278156747414 0 325.24278156747414 52.473233383577622 0 0 0 0 157.9739162074402 273.02370332076629 0 273.02370332076629 -43.1405813770549 0 0 0 0 207.50966389459791 220.86636778815532 0 220.86636778815532 4.5202896833847035 0 0 0 0 131.31457340071211 111.43450388689934 0 111.43450388689934 -142.28694262293601 0 0 0 0 15.955537983994873 205.40915768311751 0 205.40915768311751 -193.41538797587191 0 0 0 0 184.8200426302501 104.77116496357752 0 104.77116496357752 -587.39579879825737 0 0 0 0 202.56133911630604 107.9551203204793 0 107.9551203204793 -212.08804841454025 0 0 0 0 168.56878171485732 154.43394403426794 0 154.43394403426794 -252.50337168196836 0 0 0 0 222.2717560316305 14.944847084297237 0 14.944847084297237 -476.76980431071775 0 0 0 0 106.72090726564056 -8.3218824753226954 0 -8.3218824753226954 -423.70638727860796 0 0 0 0 -16.097924292800599 -130.84301132785248 0 -130.84301132785248 -497.73006368156121 0 0 0 0 236.46553939985461 55.753610877062158 0 55.753610877062158 -198.22534849899711 0 0 0 0 235.31899922725279 54.598076179244714 0 54.598076179244714 -197.41230263394291 0 0 0 0 240.08527841474279 36.958491650491823 0 36.958491650491823 -223.72252144647942 0 0 0 0 259.51692215530784 34.088481357701724 0 34.088481357701724 -240.52665973695861 0 0 0 0 268.10563188718515 101.25280831806839 0 101.25280831806839 -267.93916403119169 0 0 0 0 207.77941130794352 -37.025332484058396 0 -37.025332484058396 -335.58484943068038 0 0 0 0 186.16060745920549 52.449536583564182 0 52.449536583564182 -212.63197468773512 0 0 0 0 253.65042116016411 215.54147979695634 0 215.54147979695634 -176.17871777411074 0 0 0 0 303.21575821845909 171.93335662903132 0 171.93335662903132 -102.03816631053284 0 0 0 0 166.00759929661581 162.32772063661253 0 162.32772063661253 141.57282799404561 0 0 0 0 226.14895176075515 84.538025251386557 0 84.538025251386557 -117.32104233596783 0 0 0 0 188.67838314431719 106.79177656588797 0 106.79177656588797 -30.11998974559242 0 0 0 0 260.40187628938293 110.90407363375489 0 110.90407363375489 -155.91404745108491 0 0 0 0 3.2200154860699968 0.32695324180201624 0 0.32695324180201624 -1.8440050052309005 0 0 0 0 1.2177837223280221 -18.676039783966438 0 -18.676039783966438 1.6283681403010988 0 0 0 0 239.90130533110914 263.82724516541845 0 263.82724516541845 120.41166540262918 0 0 0 0 204.23235387302702 156.46263965509013 0 156.46263965509013 41.200664895395562 0 0 0 0 295.37176556809573 274.13621093278971 0 274.13621093278971 0.31494295605048706 0 0 0 0 229.14314254402962 143.08656745324342 0 143.08656745324342 327.79038862374352 0 0 0 0 174.71961071374244 277.83924784631859 0 277.83924784631859 198.99312388979979 0 0 0 0 276.71235632768366 497.01367475938662 0 497.01367475938662 291.17951149012805 0 0 0 0 75.156869292375632 290.76675180587438 0 290.76675180587438 -0.37947203120886591 0 0 0 0 1.0793013726258778 0.43937585831503156 0 0.43937585831503156 -0.61079246666031461 0 0 0 0 -3.7495828036626335 -17.820895265527454 0 -17.820895265527454 -89.116445783565055 0 0 0 0 375.06829244195251 380.12292143756986 0 380.12292143756986 62.201280190724873 0 0 0 0 22.054694837133866 33.264496398501116 0 33.264496398501116 -26.833904391428881 0 0 0 0 -0.021651199933671705 -0.04522980129405596 0 -0.04522980129405596 -0.05023693842878163 0 0 0 0 50.721888628890156 -15.120901301946873 0 -15.120901301946873 -0.31006891670483422 0 0 0 0 -7.1601133826188743 -29.469206787405291 0 -29.469206787405291 0.0057264672186158449 0 0 0 0 -4.9511807871458586 30.386551697052088 0 30.386551697052088 21.915886943066248 0 0 0 0 0.16794914369449998 -0.059086755346953623 0 -0.059086755346953623 -0.071080286394790068 0 0 0 0 34.564842444597161 14.669976472666889 0 14.669976472666889 -20.409981213792562 0 0 0 0 0.91851270794165885 0.058460384805670174 0 0.058460384805670174 -0.28514911840517199 0 0 0 0 4.9137314867984969 -9.0323865241622769 0 -9.0323865241622769 -21.155024564712456 0 0 0 0 22.429386712399719 13.53388611321952 0 13.53388611321952 -9.9195371210763597 0 0 0 0 17.99620415744721 -11.754255675602884 0 -11.754255675602884 -6.3665880227764831 0 0 0 0 474.82184731946472 91.981534292522085 0 91.981534292522085 18.200931169851323 0 0 0 0 386.95817703925422 -20.488521121242307 0 -20.488521121242307 0.048270859498749513 0 0 0 0 9.5237718161661178 30.135283697836996 0 30.135283697836996 17.464610485029208 0 0 0 0 0.98082157427083416 0.56256445962230828 0 0.56256445962230828 -0.025280220654683438 0 0 0 0 -4.5558095355518162 10.105562992666279 0 10.105562992666279 0.30782231013164107 0 0 0 0 605.74353621318005 -34.054359437517995 0 -34.054359437517995 13.256607762437341 0 0 0 0 583.49032039153462 22.982221805897144 0 22.982221805897144 24.033492144969305 0 0 0 0 713.57434540640679 127.95389895117387 0 127.95389895117387 64.674717857394214 0 0 0 0 449.61474682982225 56.19798625933781 0 56.19798625933781 51.052198776935171 0 0 0 0 531.99589405459119 -55.899088131087836 0 -55.899088131087836 -73.284337952228896 0 0 0 0 328.81177633017069 -17.576903983663207 0 -17.576903983663207 29.458964198410783 0 0 0 0 468.54439726560668 -103.68008710026911 0 -103.68008710026911 -42.900987421455739 0 0 0 0 501.62288412818452 -77.836886435401539 0 -77.836886435401539 -85.230100412985564 0 0 0 0 501.084302879186 -68.611289982404273 0 -68.611289982404273 9.9318799935985567 0 0 0 0 1.4384027233753613 0.50601743018955858 0 0.50601743018955858 -0.6567803558257379 0 0 0 0 3.547985998486638 0.47508198950600899 0 0.47508198950600899 -0.27380103470810702 0 0 0 0 6.1466042368119815 -5.5821853014334408 0 -5.5821853014334408 10.333420096812119 0 0 0 0 -3.1988407219614601 -231.04999797132604 0 -231.04999797132604 -23.968062277597483 0 0 0 0 2.9804331429826334 -1.3430846273992927 0 -1.3430846273992927 0.11938907340581428 0 0 0 0 537.80051226960495 124.36848330034843 0 124.36848330034843 20.767162029571921 0 0 0 0 -38.489403685394791 -190.77437139982234 0 -190.77437139982234 -43.851791959970342 0 0 0 0 418.12713346953751 117.94610412902357 0 117.94610412902357 24.450583242740663 0 0 0 0 394.26183551257054 -42.210305418126666 0 -42.210305418126666 -33.618926302997352 0 0 0 0 1.9094271197381261 2.0894668330647335 0 2.0894668330647335 3.6949215499092825 0 0 0 0 608.87914826802808 -112.11445433776589 0 -112.11445433776589 -43.319183818174679 0 0 0 0 631.77393396626576 21.714848137122658 0 21.714848137122658 -17.359080965039993 0 0 0 0 1.3383672857930264 0.43623872404967301 0 0.43623872404967301 -0.0066499931792340927 0 0 0 0 139.2108643221145 60.092102665683683 0 60.092102665683683 -63.129317739117823 0 0 0 0 4.904752019939508 -0.85072513847092068 0 -0.85072513847092068 -1.8499399570481727 0 0 0 0 97.960866589390207 39.263433120587123 0 39.263433120587123 -64.791879299529043 0 0 0 0 182.19167092692805 83.258637488339559 0 83.258637488339559 -99.518008539811831 0 0 0 0 181.78225822205422 59.178461805608833 0 59.178461805608833 -113.27817240664999 0 0 0 0 148.55518874232075 46.424133577658608 0 46.424133577658608 -48.822835636535956 0 0 0 0 152.59515682619531 61.375949467222199 0 61.375949467222199 -9.1284180795055363 0 0 0 0 10.179462131360197 8.4947779040977167 0 8.4947779040977167 2.2912047112576204 0 0 0 0 10.196787633554777 0.67283385347428748 0 0.67283385347428748 -3.2944450108130354 0 0 0 0 6.7540338048328863 -1.4467520183482634 0 -1.4467520183482634 -1.6633345115588756 0 0 0 0 2.6391131054841139 0.48976525061289067 0 0.48976525061289067 -0.50168408213810567 0 0 0 0 161.87473430176033 -30.203520050990601 0 -30.203520050990601 -153.75364263703068 0 0 0 0 -31.395822411446716 -215.17389204868874 0 -215.17389204868874 -87.487339967212392 0 0 0 0 -40.026173134479905 -117.48564294105151 0 -117.48564294105151 -167.12134792748228 0 0 0 0 106.39606071892194 -129.56723129347233 0 -129.56723129347233 -214.24892136736841 0 0 0 0 39.293602809018921 -121.86582460511437 0 -121.86582460511437 -214.19253889568895 0 0 0 0 143.92306092847139 -57.938510535865646 0 -57.938510535865646 -177.63127444473884 0 0 0 0 156.29666996820015 -16.394541017648784 0 -16.394541017648784 -148.2921721830204 0 0 0 0 156.18785708188079 -23.569588545739244 0 -23.569588545739244 -159.12063232127389 0 0 0 0 209.59775331261335 7.484034501392955 0 7.484034501392955 -154.44459645439528 0 0 0 0 152.85433138895314 7.5674859961541294 0 7.5674859961541294 -152.9322546951235 0 0 0 0 207.8634551029827 41.556680061554133 0 41.556680061554133 -162.94245361906991 0 0 0 0 161.96353329851991 21.762675460317595 0 21.762675460317595 -159.46642639564283 0 0 0 0 238.66509756986488 66.987818373520753 0 66.987818373520753 -167.61678873645855 0 0 0 0 241.11006734913099 25.870983727459389 0 25.870983727459389 -176.29944787556192 0 0 0 0 208.30735226813704 42.860540244484852 0 42.860540244484852 -185.05853168247501 0 0 0 0 244.78540139549295 15.694679815845745 0 15.694679815845745 -187.90898380254336 0 0 0 0 229.12147996280692 -15.657632610492897 0 -15.657632610492897 -127.94263101675119 0 0 0 0 262.33387348911492 -35.334549576975547 0 -35.334549576975547 -156.33825284082604 0 0 0 0 200.81646481384814 -94.79471774974283 0 -94.79471774974283 23.769011812151348 0 0 0 0 292.85750626312802 -45.387261466225368 0 -45.387261466225368 -192.70909742479671 0 0 0 0 270.85985182365403 -84.727133429607306 0 -84.727133429607306 -46.530390170070177 0 0 0 0 238.26165662361018 -11.809658458994662 0 -11.809658458994662 -131.43404260562386 0 0 0 0 510.88706159146386 -215.05654282020691 0 -215.05654282020691 -161.9667684842716 0 0 0 0 0.32181140837187172 0.25585510457335658 0 0.25585510457335658 0.94703822308793706 0 0 0 0 356.82868928008247 -115.53755091605717 0 -115.53755091605717 -178.28592458103776 0 0 0 0 335.81162662644056 -226.80975111843404 0 -226.80975111843404 0.48462511342381731 0 0 0 0 543.08326884824783 -66.7796521712703 0 -66.7796521712703 -197.72212899669239 0 0 0 0 357.35957496165065 -163.33267627755436 0 -163.33267627755436 -132.22063698868737 0 0 0 0 331.39535020891344 -60.628339020234989 0 -60.628339020234989 -141.98321255856536 0 0 0 0 1038.892697854244 111.44186056014493 0 111.44186056014493 -252.62955092566133 0 0 0 0 -2.1080407459339057 -2.8093521005594937 0 -2.8093521005594937 0.51800839514800856 0 0 0 0 326.46541797700593 366.54573433495977 0 366.54573433495977 47.613761477464777 0 0 0 0 -717.20487184291414 -484.34971417527004 0 -484.34971417527004 54.315816091264423 0 0 0 0 470.56212693281122 -698.17294885572414 0 -698.17294885572414 -613.07893499694364 0 0 0 0 505.85444529305096 58.516430034080031 0 58.516430034080031 5.1036822212975039 0 0 0 0 -7.2110698022588622 -124.79434213940537 0 -124.79434213940537 196.69714531897921 0 0 0 0 154.49147556588287 -33.391656081923088 0 -33.391656081923088 -136.36064658107728 0 0 0 0 2.645874957697373 0.56124942457938687 0 0.56124942457938687 -1.003713100788133 0 0 0 0 190.89818798424676 -36.368269414309736 0 -36.368269414309736 -136.76589493726311 0 0 0 0 155.51149323311984 -23.771139193872614 0 -23.771139193872614 -87.442656548989135 0 0 0 0 -23.263715834065806 -256.59108348994664 0 -256.59108348994664 -209.69117571735296 0 0 0 0 -42.247611779370345 -267.20120480563997 0 -267.20120480563997 -61.948785187114652 0 0 0 0 -8.0786647727654781 -200.91746433618488 0 -200.91746433618488 -47.342338896656202 0 0 0 0 110.02486609989137 -322.62838294768977 0 -322.62838294768977 1.9064350180840393 0 0 0 0 399.04827115789521 -338.04511538140957 0 -338.04511538140957 -116.0498897919781 0 0 0 0 33.982410427939612 -231.9474273251667 0 -231.9474273251667 -24.260438713562394 0 0 0 0 -60.450336421432439 -439.40602665641131 0 -439.40602665641131 -254.93198914425659 0 0 0 0 -102.31947837118059 -376.0081683202601 0 -376.0081683202601 -54.635352905075479 0 0 0 0 577.8833071293775 -38.573255873790373 0 -38.573255873790373 174.13972112012431 0 0 0 0 647.9463177194848 -14.138669807514219 0 -14.138669807514219 -8.4751036699151427 0 0 0 0 446.25002921893611 -298.46236830469621 0 -298.46236830469621 -255.80801954206277 0 0 0 0 -51.758821200288367 -7.807728171695075 0 -7.807728171695075 44.506242162133788 0 0 0 0 -2.448202038733541 -0.39851071784391934 0 -0.39851071784391934 4.3710337458284885 0 0 0 0 -1.175281729345329 2.370434075400766 0 2.370434075400766 3.6364901172711193 0 0 0 0 12.867061976081459 -93.585135300633752 0 -93.585135300633752 199.10824598406833 0 0 0 0 250.68332049803576 -277.77368050385559 0 -277.77368050385559 -17.96264478734383 0 0 0 0 213.95823029012536 -395.30296721090991 0 -395.30296721090991 -190.25466251662658 0 0 0 0 -277.34850184213428 -89.875708485659118 0 -89.875708485659118 -30.892139804179351 0 0 0 0 -19.072109368746169 -248.27514936621606 0 -248.27514936621606 32.523509727316195 0 0 0 0 59.441926829647173 -23.725065323479868 0 -23.725065323479868 4.8841519964100497 0 0 0 0 169.87976210712804 -302.91043501566764 0 -302.91043501566764 -104.51610044498966 0 0 0 0 -290.07525706471642 -273.69755152100197 0 -273.69755152100197 -217.1167465181552 0 0 0 0 -99.034182834569947 -146.47773547925379 0 -146.47773547925379 0.53818736856192118 0 0 0 0 112.90726073710539 -118.30161671990464 0 -118.30161671990464 167.15600611083437 0 0 0 0 88.739374344790122 -216.70495457220773 0 -216.70495457220773 -191.23170412630259 0 0 0 0 533.08296870882623 -223.6348154311448 0 -223.6348154311448 -35.716072414628471 0 0 0 0 328.74048587772995 -271.07577359421725 0 -271.07577359421725 -119.5555206241379 0 0 0 0 6.2339143129740648 -1.2700860064883557 0 -1.2700860064883557 0.23918021744570872 0 0 0 0 606.90473304444458 -139.43384010819682 0 -139.43384010819682 -105.74621564116205 0 0 0 0 283.59416160761612 -270.63509293680136 0 -270.63509293680136 -3.0487622039161124 0 0 0 0 1037.4360366790206 -288.11151648711711 0 -288.11151648711711 431.01556587243613 0 0 0 0 306.93136238757296 -77.358475575166807 0 -77.358475575166807 6.4267142663217847 0 0 0 0 13.380049262341345 -637.59576919334813 0 -637.59576919334813 -414.17567419028933 0 0 0 0 200.43100098339164 -184.49101356979065 0 -184.49101356979065 -41.776769225559292 0 0 0 0 550.03643204935361 -146.36326376200986 0 -146.36326376200986 -104.94614589802836 0 0 0 0 186.52574929638013 -484.51713672330993 0 -484.51713672330993 -238.9038860150149 0 0 0 0 -319.33306875286507 -265.4002860260216 0 -265.4002860260216 13.4093129932794 0 0 0 0 7.5878336673486046 -306.62841998464137 0 -306.62841998464137 -388.28610620098885 0 0 0 0 229.38482738586026 -170.28843276719999 0 -170.28843276719999 -186.53737121818449 0 0 0 0 208.66367648268351 -101.40824022155039 0 -101.40824022155039 -164.43507478573883 0 0 0 0 202.07180888559344 -6.0297373772866791 0 -6.0297373772866791 -45.160389586087831 0 0 0 0 140.78288134536706 -20.122730581137148 0 -20.122730581137148 -101.96473347111714 0 0 0 0 271.50480031713698 28.039444457347599 0 28.039444457347599 2.8055072504515373 0 0 0 0 73.1830366029169 12.9300152090394 0 12.9300152090394 0.71126731301328405 0 0 0 0 70.285161059524398 228.10751015868254 0 228.10751015868254 231.31833491826364 0 0 0 0 243.4920098039147 -9.1632860128011089 0 -9.1632860128011089 -174.96579868315166 0 0 0 0 171.28987262678856 -34.227074306965733 0 -34.227074306965733 14.481444457072939 0 0 0 0 144.4036189923645 -5.9695411500224509 0 -5.9695411500224509 -99.428878595739661 0 0 0 0 341.53353841135117 -46.133202109124511 0 -46.133202109124511 9.1661775804805892 0 0 0 0 151.05577390416875 14.66255345470563 0 14.66255345470563 -12.39765705301761 0 0 0 0 193.00646012966121 -56.000667001103182 0 -56.000667001103182 3.3187204102263337 0 0 0 0 131.80518923428968 35.749500225796041 0 35.749500225796041 21.028412254925325 0 0 0 0 162.21205967367715 18.555596493559975 0 18.555596493559975 1.9203809446724733 0 0 0 0 6528.4417069995106 1086.7810765948334 0 1086.7810765948334 2850.535254309782 0 0 0 0 6395.4947338107013 2412.0905409272727 0 2412.0905409272727 -2409.9422260754254 0 0 0 0 -376.90897066851903 5920.3834008249978 0 5920.3834008249978 2089.1520234637683 0 0 0 0 -7279.9695110805369 1138.4496803687061 0 1138.4496803687061 386.01292223874043 0 0 0 0 297.18117484725917 -89.053567554299676 0 -89.053567554299676 5.1709085919833235 0 0 0 0 1099.6671854548622 -473.79629596750783 0 -473.79629596750783 -108.58670736260683 0 0 0 0 -92.020393535185576 -26.229408004296346 0 -26.229408004296346 -124.80786995289964 0 0 0 0 31.412975412721778 23.591264150168499 0 23.591264150168499 -0.14992074976246172 0 0 0 0 4443.8963260102355 -782.59118185969419 0 -782.59118185969419 -2382.4785266945219 0 0 0 0 1244.4437221256085 -827.25146223910815 0 -827.25146223910815 -1598.9389271744822 0 0 0 0 48.739979399571496 9.2017246995993656 0 9.2017246995993656 -3.3897937200680683 0 0 0 0 1690.1044135714037 -2237.9736961247081 0 -2237.9736961247081 -3089.0374500983971 0 0 0 0 -552.91635477688396 1841.0605838965748 0 1841.0605838965748 5970.6787132194131 0 0 0 0 -68.046010452555493 2115.1606709984262 0 2115.1606709984262 5617.5909633523952 0 0 0 0 1191.9208506055584 -940.33810380293835 0 -940.33810380293835 -793.18216033462591 0 0 0 0 -1214.4050990943797 -2642.574995866471 0 -2642.574995866471 -929.5180499153671 0 0 0 0 -3506.7571662202972 -626.85718066689878 0 -626.85718066689878 2098.4907976755385 0 0 0 0 666.11273705468921 895.88071523063627 0 895.88071523063627 726.23438766569961 0 0 0 0 -876.54417840810493 414.12875516848726 0 414.12875516848726 -354.02136420455463 0 0 0 0 773.27908953855513 716.13679676677657 0 716.13679676677657 -616.11312146970749 0 0 0 0 232.73400916036917 2203.6047435531673 0 2203.6047435531673 2680.1441755783999 0 0 0 0 449.69216302817949 854.86494955136368 0 854.86494955136368 4150.4972588353048 0 0 0 0 -146.39898269996047 -228.17163037355476 0 -228.17163037355476 65.922992922574849 0 0 0 0 396.99008498938201 134.69234233382696 0 134.69234233382696 -57.090292152934126 0 0 0 0 385.55894788040314 -99.641832032183629 0 -99.641832032183629 -182.88806032193179 0 0 0 0 685.26836774958065 271.34753828895737 0 271.34753828895737 -384.54767491044231 0 0 0 0 -853.08588246256113 256.60347860545698 0 256.60347860545698 703.09549056719698 0 0 0 0 684.64128430758137 404.74195925279128 0 404.74195925279128 -299.61488725305662 0 0 0 0 513.16063723621482 -267.33207313608256 0 -267.33207313608256 263.18969378633028 0 0 0 0 43.409573914130966 -1.7611715075882444 0 -1.7611715075882444 1.9596300748149647 0 0 0 0 1155.5560059170239 -145.91996477554949 0 -145.91996477554949 -280.48094381031615 0 0 0 0 1287.7061465472798 392.09234399251454 0 392.09234399251454 -820.12220467031602 0 0 0 0 -358.65366794532747 77.975908845476624 0 77.975908845476624 -71.070228738575224 0 0 0 0 -52.43546924344264 172.10717063162383 0 172.10717063162383 -87.466183381397173 0 0 0 0 379.58779609698104 453.84805061696943 0 453.84805061696943 -110.72050328174765 0 0 0 0 207.84270453214413 19.174896659324531 0 19.174896659324531 -274.19482528703702 0 0 0 0 7.1401982495226548 2.7460701776492868 0 2.7460701776492868 -4.2482087371146786 0 0 0 0 40.272897607646883 -98.664569079711328 0 -98.664569079711328 -435.64206003760671 0 0 0 0 -12.224285138625419 598.56264242950033 0 598.56264242950033 412.94967556955015 0 0 0 0 -177.54789253784111 251.58000187793573 0 251.58000187793573 312.12565663373346 0 0 0 0 -26.022122767753899 363.12691432400953 0 363.12691432400953 174.45617864136466 0 0 0 0 37.110372888702841 199.6256416376857 0 199.6256416376857 -178.95366479630684 0 0 0 0 -117.68019664927124 266.04274463205894 0 266.04274463205894 137.38747853298923 0 0 0 0 16.709026864351472 42.901931888554827 0 42.901931888554827 -275.09168040519489 0 0 0 0 -208.92148853637627 105.9313069805703 0 105.9313069805703 16.062960722754269 0 0 0 0 -318.12962985044578 27.68921586354918 0 27.68921586354918 502.17999875134183 0 0 0 0 -12.067576072993688 204.15811149172077 0 204.15811149172077 -379.959847981449 0 0 0 0 17.466626181279764 -1.1401545875158234 0 -1.1401545875158234 7.3748431900982947 0 0 0 0 -13.185136427899124 173.79249594358657 0 173.79249594358657 -260.77675360438661 0 0 0 0 -89.71806571164052 122.01129525842771 0 122.01129525842771 -263.09947488773577 0 0 0 0 -157.01792801031843 210.83880688152567 0 210.83880688152567 -370.94304374119201 0 0 0 0 -364.24070163117722 325.91713539301486 0 325.91713539301486 -165.67652313186818 0 0 0 0 -61.301255590078654 334.18525817634645 0 334.18525817634645 -261.0757238112742 0 0 0 0 1775.6075686070471 -401.25975148830037 0 -401.25975148830037 -302.81693107565707 0 0 0 0 0.50020005089592701 3.4936990025913417 0 3.4936990025913417 9.5961327897835282 0 0 0 0 548.65069817312178 287.22103390139 0 287.22103390139 -155.98496721847368 0 0 0 0 1361.5524244395783 305.04401327005098 0 305.04401327005098 -310.42763613731586 0 0 0 0 1826.0154654477665 -60.287840823472152 0 -60.287840823472152 -453.72827361350664 0 0 0 0 502.03889916132903 -32.403766413597623 0 -32.403766413597623 -97.893725066364823 0 0 0 0 1120.2213010246633 -19.692268898436851 0 -19.692268898436851 -174.53892375979763 0 0 0 0 643.10440414283948 -195.61073712565997 0 -195.61073712565997 -88.314032939417302 0 0 0 0 1133.6404884750918 -108.33058766481753 0 -108.33058766481753 -217.57938730846308 0 0 0 0 1394.6593077636207 -144.72802247618938 0 -144.72802247618938 -247.31942359454729 0 0 0 0 1338.6487052222074 -120.55397533142946 0 -120.55397533142946 -259.12402034392096 0 0 0 0 1055.8559732152389 -174.09276461689527 0 -174.09276461689527 -130.20570617091471 0 0 0 0 1060.5048905108706 -195.90465202049052 0 -195.90465202049052 -136.99637827310818 0 0 0 0 508.9605999821797 -323.83298863224627 0 -323.83298863224627 -71.306528784268892 0 0 0 0 1414.8061335819475 -334.67027856293589 0 -334.67027856293589 -17.122292381706075 0 0 0 0 1340.0055891481461 -91.453649400477204 0 -91.453649400477204 -6.8203199565648838 0 0 0 0 172.75280122009281 156.79082118461145 0 156.79082118461145 353.63266700690792 0 0 0 0 12.163137298492245 1.2534301304874305 0 1.2534301304874305 0.56743273586768894 0 0 0 0 1319.8653628876782 893.07310914681977 0 893.07310914681977 308.78680035599609 0 0 0 0 88.170138040084566 -744.36673106117769 0 -744.36673106117769 398.9213757525547 0 0 0 0 1358.875728986226 -510.5730018693373 0 -510.5730018693373 -49.058068939227496 0 0 0 0 1296.4136024171603 -219.24745625874363 0 -219.24745625874363 -347.92453325182782 0 0 0 0 2773.9065122067113 -397.8269993460583 0 -397.8269993460583 -374.10934445136002 0 0 0 0 1134.0489940539992 -1136.6652897450017 0 -1136.6652897450017 302.26088296177886 0 0 0 0 3.6894102821705133 2.1920594502184088 0 2.1920594502184088 1.2201375224207394 0 0 0 0 52.905488613483612 -28.207541542328244 0 -28.207541542328244 -29.341965845928371 0 0 0 0 1994.4205948260205 460.56836284347861 0 460.56836284347861 465.98958994723029 0 0 0 0 2139.4626778607344 -601.12681462930016 0 -601.12681462930016 -90.365652242711462 0 0 0 0 1155.5782881788327 -134.57421241511383 0 -134.57421241511383 81.586336744005507 0 0 0 0 128.07920556073077 -469.49188254441447 0 -469.49188254441447 555.47855999309002 0 0 0 0 1433.0419582652976 -922.63736198730669 0 -922.63736198730669 475.05181296421677 0 0 0 0 309.91589660703903 -99.937739144523078 0 -99.937739144523078 -51.654285753930722 0 0 0 0 29.4625818150908 7.9107508574581225 0 7.9107508574581225 4.1183697695789414 0 0 0 0 33.578733338770689 264.98673637832235 0 264.98673637832235 37.379228187034641 0 0 0 0 193.78665669725524 -1.8142784064215931 0 -1.8142784064215931 6.6670317558632632 0 0 0 0 17.31006447900748 11.967814847556099 0 11.967814847556099 16.437819996065656 0 0 0 0 10.322848097299357 137.89188518644983 0 137.89188518644983 -291.90888809543594 0 0 0 0 44.723205338377738 -7.6968004526615914 0 -7.6968004526615914 -439.33456378150777 0 0 0 0 -17.640837771468796 31.073830821587308 0 31.073830821587308 -133.49911716315728 0 0 0 0 136.98549773153354 -25.330144349165892 0 -25.330144349165892 -78.88059840742028 0 0 0 0 79.136801552503869 24.853272169478682 0 24.853272169478682 7.0583389016411306 0 0 0 0 11.887561708389342 0.0061071513746924211 0 0.0061071513746924211 -3.7888370844203445 0 0 0 0 527.53331887006061 -84.362164811167673 0 -84.362164811167673 -29.284024319533714 0 0 0 0 79.189180807872617 40.263448692033421 0 40.263448692033421 166.72319183140559 0 0 0 0 241.82538528105943 -235.26578778291213 0 -235.26578778291213 21.567173128328744 0 0 0 0 48.705877532804152 21.22320441060678 0 21.22320441060678 83.261442879086616 0 0 0 0 521.51064975386544 -146.70169463095345 0 -146.70169463095345 49.531324082890706 0 0 0 0 210.81626570217486 256.29978634291871 0 256.29978634291871 274.31538609694297 0 0 0 0 1232.7525911747653 -46.835157909733667 0 -46.835157909733667 -226.93606219388036 0 0 0 0 1066.091275778017 -325.08436304104646 0 -325.08436304104646 -21.662995918090218 0 0 0 0 1092.7952696712309 -30.386285935918046 0 -30.386285935918046 -196.35441445504327 0 0 0 0 1.5529719951159677 1.295638255274298 0 1.295638255274298 1.9051854884125266 0 0 0 0 906.48919652307814 63.309466750625845 0 63.309466750625845 30.412952331044401 0 0 0 0 675.59375461223681 -150.02199184019776 0 -150.02199184019776 12.720514807362918 0 0 0 0 818.69777747396438 -21.331090892693865 0 -21.331090892693865 -53.142827104646017 0 0 0 0 721.6618683267443 -6.7142337899969515 0 -6.7142337899969515 -0.13375329411765444 0 0 0 0 223.9574792460262 -67.735480318686044 0 -67.735480318686044 -21.444812709407159 0 0 0 0 199.51553163813514 -92.707127393595215 0 -92.707127393595215 82.273071577393068 0 0 0 0 527.89228684796399 -30.589295387526072 0 -30.589295387526072 -0.0081151861646028417 0 0 0 0 367.00633766858664 -172.8641045381755 0 -172.8641045381755 6.6290181522811693 0 0 0 0 205.37392881208507 -26.810657197678371 0 -26.810657197678371 0.074484303371518137 0 0 0 0 57.66179590633692 -0.11379419442189388 0 -0.11379419442189388 0.1116258382782877 0 0 0 0 29.234928936362849 -67.570576643512368 0 -67.570576643512368 52.491564676920824 0 0 0 0 251.27543898986187 -58.870346667901543 0 -58.870346667901543 41.939585362522934 0 0 0 0 308.67049919981218 40.868369849483926 0 40.868369849483926 7.1595528100076677 0 0 0 0 390.23082568330574 -78.677837118341259 0 -78.677837118341259 28.38869224172765 0 0 0 0 1.3054579296180293 0.56467900855517428 0 0.56467900855517428 -0.09623661599476771 0 0 0 0 302.88670582871418 47.499447953403113 0 47.499447953403113 0.26685838409790352 0 0 0 0 252.42986497645325 36.666404795499837 0 36.666404795499837 39.225618024059301 0 0 0 0 225.7084142904132 74.363978446214119 0 74.363978446214119 -0.12968717043230321 0 0 0 0 216.56604795283056 32.553158890329129 0 32.553158890329129 57.214243990186645 0 0 0 0 283.77650145316875 13.591695528380406 0 13.591695528380406 55.832891196349721 0 0 0 0 331.13359326432692 48.317292866482603 0 48.317292866482603 -15.252630775677858 0 0 0 0 302.4355176399531 314.51783880911353 0 314.51783880911353 205.98711709140426 0 0 0 0 263.1063289342419 95.54662232999182 0 95.54662232999182 -283.8457300264738 0 0 0 0 108.83564832029515 80.947615831227409 0 80.947615831227409 -10.944923268042103 0 0 0 0 162.90040602002409 -59.132106092110817 0 -59.132106092110817 -66.537523710405253 0 0 0 0 156.30439609211317 42.18384883351726 0 42.18384883351726 -214.01018730857774 0 0 0 0 81.087900651298696 -18.721107471569155 0 -18.721107471569155 7.0708538857107159 0 0 0 0 194.94768046746321 -95.739829248650409 0 -95.739829248650409 6.0775718846721816 0 0 0 0 0.1710751928315517 1.1819213265175108 0 1.1819213265175108 0.35886926289106846 0 0 0 0 134.60748548808624 -10.281867194191761 0 -10.281867194191761 22.778922190245794 0 0 0 0 124.61220667428279 -46.881292777104932 0 -46.881292777104932 -12.73889837119529 0 0 0 0 116.62681046569196 -24.747708671127398 0 -24.747708671127398 -67.250634504247955 0 0 0 0 198.07244428544072 -3.5296150447163455 0 -3.5296150447163455 -17.435326442623211 0 0 0 0 111.3956052716967 -29.950720100782092 0 -29.950720100782092 -0.10531098895574449 0 0 0 0 72.591426511738973 5.6150688338708221 0 5.6150688338708221 -29.297807415628611 0 0 0 0 94.681043272445095 -39.78336738852996 0 -39.78336738852996 -48.104521027120853 0 0 0 0 112.32177464370034 -33.107254113567109 0 -33.107254113567109 -100.76829070112021 0 0 0 0 -35.378747527196538 -104.93541586857945 0 -104.93541586857945 -102.70778687426176 0 0 0 0 81.261183465336217 -25.337974642021678 0 -25.337974642021678 -60.331227565496164 0 0 0 0 34.826609895375441 -6.1281077426314274 0 -6.1281077426314274 0.056154171909747509 0 0 0 0 -2.099076564400832 -2.1208294111154373 0 -2.1208294111154373 0.56632794737960657 0 0 0 0 103.68100285348191 41.669757880316723 0 41.669757880316723 59.328557756339592 0 0 0 0 23.187643449684742 9.83356354671389 0 9.83356354671389 -0.66063909129181009 0 0 0 0 200.22782230944722 188.06277725713423 0 188.06277725713423 -59.497805790032899 0 0 0 0 170.82585112260915 32.728061025659407 0 32.728061025659407 0.066774109852989483 0 0 0 0 94.892371117603034 -40.593188246964672 0 -40.593188246964672 -102.22721400848909 0 0 0 0 71.791257420889451 -4.659608060911296 0 -4.659608060911296 -105.43014564793415 0 0 0 0 93.671111621370073 -38.170271672385411 0 -38.170271672385411 -96.698718000768565 0 0 0 0 107.22293256781995 -36.827206425547615 0 -36.827206425547615 -98.817252353631716 0 0 0 0 116.4948258002114 -33.306295828524725 0 -33.306295828524725 -120.48714322399155 0 0 0 0 97.350882928837336 -6.6145957280335281 0 -6.6145957280335281 -9.6374843500395819 0 0 0 0 110.35948074574117 17.156708284587239 0 17.156708284587239 -98.726478097183644 0 0 0 0 98.952495019766502 5.8435354687055678 0 5.8435354687055678 -105.56065765846233 0 0 0 0 103.6588152812983 -35.888860048427155 0 -35.888860048427155 -64.522440722179226 0 0 0 0 124.73858141628443 -52.041673446361997 0 -52.041673446361997 -98.566145569707089 0 0 0 0 39.996466797230823 24.491129741465272 0 24.491129741465272 -62.9153784030932 0 0 0 0 32.352874520180194 85.523410186414139 0 85.523410186414139 -91.792462259306376 0 0 0 0 47.992494324476866 74.77225214193345 0 74.77225214193345 -94.405873624103151 0 0 0 0 74.729649585067818 49.76231171455953 0 49.76231171455953 -69.672589786843673 0 0 0 0 23.876604780176422 64.161588524731087 0 64.161588524731087 -81.712735914677069 0 0 0 0 75.67995956458617 53.163482957958877 0 53.163482957958877 -86.875545718392459 0 0 0 0 86.953407907579503 7.0860112541944176 0 7.0860112541944176 -12.667610656869 0 0 0 0 45.403886183168908 13.070059021431405 0 13.070059021431405 -35.008184779334833 0 0 0 0 30.142282967211941 39.473269811798218 0 39.473269811798218 12.578198573595728 0 0 0 0 126.28989750845358 123.94366541038289 0 123.94366541038289 71.094499164280023 0 0 0 0 7.0548482288395462 -9.1190126796894155 0 -9.1190126796894155 -15.060831433944568 0 0 0 0 187.18370093566773 -179.24039915280082 0 -179.24039915280082 -50.414336436982012 0 0 0 0 112.26426278021569 12.248733573572153 0 12.248733573572153 -37.367480042712877 0 0 0 0 392.61295330495341 113.03124412986972 0 113.03124412986972 -72.040378456690632 0 0 0 0 189.36027737852419 39.641752289237559 0 39.641752289237559 -94.370086947787058 0 0 0 0 173.26190713600954 111.819413962824 0 111.819413962824 -30.615403079071712 0 0 0 0 148.39737412834074 81.856054247116617 0 81.856054247116617 -99.676149387752957 0 0 0 0 170.69971238347352 33.205892795399222 0 33.205892795399222 -119.65052896422139 0 0 0 0 198.60085988804349 56.738304692553129 0 56.738304692553129 -103.36584873581342 0 0 0 0 165.30623279587599 -35.152406295787841 0 -35.152406295787841 -61.114182472755147 0 0 0 0 190.60030130189261 -43.962888584512712 0 -43.962888584512712 -68.679459239439211 0 0 0 0 244.26535534962022 -5.9103285502559402 0 -5.9103285502559402 -121.4269344606073 0 0 0 0 294.26454793947778 -106.13097997908676 0 -106.13097997908676 -28.772213739577637 0 0 0 0 221.22271329518117 23.661796319602217 0 23.661796319602217 -174.10208669047734 0 0 0 0 251.88673888266567 143.20891327687747 0 143.20891327687747 46.951051641173763 0 0 0 0 110.40031535906746 15.835264634215491 0 15.835264634215491 -35.585274476410632 0 0 0 0 155.10909123634337 -49.487927879266408 0 -49.487927879266408 -65.420579163400816 0 0 0 0 163.58691505698516 -40.362226716806845 0 -40.362226716806845 -74.757237046300361 0 0 0 0 150.62319168639078 -35.570115061585852 0 -35.570115061585852 -49.809880984038045 0 0 0 0 139.14657446791171 6.9430734386755546 0 6.9430734386755546 -82.925100623222534 0 0 0 0 144.10188953363104 -13.900376295568435 0 -13.900376295568435 -109.73130931769475 0 0 0 0 276.54026486183284 42.902212770371989 0 42.902212770371989 -475.98966220434522 0 0 0 0 181.71719736806699 26.361720844995943 0 26.361720844995943 -150.22843920906553 0 0 0 0 172.08774674510519 -2.5709455617823025 0 -2.5709455617823025 -5.8659375721197886 0 0 0 0 361.28654362764792 -114.06957167113796 0 -114.06957167113796 -375.20511940646884 0 0 0 0 242.38293059477292 -45.959993119255159 0 -45.959993119255159 -155.59295392487547 0 0 0 0 139.31137823062579 -1.3235709051389293 0 -1.3235709051389293 -13.656631099964725 0 0 0 0 90.374765207881865 -146.57570608740116 0 -146.57570608740116 -40.866647903345438 0 0 0 0 19.021609971707221 -13.963388629643305 0 -13.963388629643305 -153.83475827413349 0 0 0 0 217.37462207180215 -138.35456226553652 0 -138.35456226553652 -177.54950672477617 0 0 0 0 168.07137579625123 -181.77668710313992 0 -181.77668710313992 -96.832923538508112 0 0 0 0 173.26394009700743 26.863443903377629 0 26.863443903377629 -150.53646998203703 0 0 0 0 136.27469134501007 21.192909004322928 0 21.192909004322928 -117.84339473807165 0 0 0 0 186.25506933091674 -12.681059106100292 0 -12.681059106100292 -105.14578992862403 0 0 0 0 144.86650971076597 -14.276764644807656 0 -14.276764644807656 -87.065119328897708 0 0 0 0 174.84599955687008 21.906439808356197 0 21.906439808356197 -129.7090305358488 0 0 0 0 135.24519106660591 66.000702699174099 0 66.000702699174099 -141.23012882819808 0 0 0 0 126.8803728492494 58.489999508433357 0 58.489999508433357 -121.98457898559658 0 0 0 0 -4.777006187840044 17.180509815650012 0 17.180509815650012 -3.267541171464817 0 0 0 0 164.51864469717839 13.776953366898169 0 13.776953366898169 -136.09075840119226 0 0 0 0 18.891746573059805 -12.763469571480684 0 -12.763469571480684 -0.52332440292618898 0 0 0 0 45.111562683123339 -25.690364867717108 0 -25.690364867717108 -27.248642033478973 0 0 0 0 167.6252265060466 -25.435311641303997 0 -25.435311641303997 -65.407364349726777 0 0 0 0 36.753779930919336 3.911413968906345 0 3.911413968906345 4.5096463430309086 0 0 0 0 90.614739409371396 -31.324957721786632 0 -31.324957721786632 26.55030451156199 0 0 0 0 101.52726478913974 35.523456676106434 0 35.523456676106434 -51.477767773714731 0 0 0 0 149.70601874712156 13.423509186195588 0 13.423509186195588 -41.440396083786254 0 0 0 0 32.340009352978086 96.402140395118749 0 96.402140395118749 50.35435344047437 0 0 0 0 127.35712429617706 151.4211361623893 0 151.4211361623893 -97.267095968210924 0 0 0 0 102.47934361381286 4.1539484041188643 0 4.1539484041188643 -21.313497832389125 0 0 0 0 -25.297609929766622 6.2903835190245445 0 6.2903835190245445 56.266877294097071 0 0 0 0 80.128454429708654 31.362959951964513 0 31.362959951964513 -131.34272910199525 0 0 0 0 50.68371952095913 -7.3284317020688832 0 -7.3284317020688832 -116.04444316736408 0 0 0 0 80.967773028387455 82.024199979707191 0 82.024199979707191 -155.32802416565482 0 0 0 0 80.79920192908321 33.760549030580933 0 33.760549030580933 -233.69745556099042 0 0 0 0 90.336308479716536 86.311133088844144 0 86.311133088844144 -192.24575078185316 0 0 0 0 34.948683661245013 49.164734905591644 0 49.164734905591644 -237.08811928065461 0 0 0 0 112.69883310091245 28.420656386383783 0 28.420656386383783 5.3732931350122612 0 0 0 0 146.33279445115477 124.55083237291956 0 124.55083237291956 -207.51707171817702 0 0 0 0 111.85884372514556 22.961451746861258 0 22.961451746861258 -145.92429625326167 0 0 0 0 142.5322630910988 35.31169474463838 0 35.31169474463838 7.8719842343066784 0 0 0 0 188.35441467154305 53.779364876625095 0 53.779364876625095 -237.24548198622017 0 0 0 0 157.89361311601533 -67.842214011196006 0 -67.842214011196006 -1.0317340686956413 0 0 0 0 336.30771988627384 -13.563698344032787 0 -13.563698344032787 -151.13389812276645 0 0 0 0 178.80977236860781 133.68427990596513 0 133.68427990596513 -133.32572908719646 0 0 0 0 53.17410873726476 73.895828126456408 0 73.895828126456408 -81.552563462718211 0 0 0 0 34.781296636967454 42.384693742991033 0 42.384693742991033 -94.527030012069133 0 0 0 0 6.7238593570951934 -3.2752110786011457 0 -3.2752110786011457 5.0198299354026812 0 0 0 0 171.72715857421281 77.199516657582535 0 77.199516657582535 -41.695800305512421 0 0 0 0 141.10755286355925 -7.8655914441938677 0 -7.8655914441938677 23.494305684455867 0 0 0 0 286.10446944852447 361.56308040279146 0 361.56308040279146 -114.4141200697045 0 0 0 0 200.77510409833943 -6.35781802094656 0 -6.35781802094656 -2.7530524178648861 0 0 0 0 193.97245152305277 -88.210611306476949 0 -88.210611306476949 -64.648674667590967 0 0 0 0 414.90871184938442 -31.195834182389717 0 -31.195834182389717 -155.64626288629643 0 0 0 0 20.032586126286418 18.812259532915011 0 18.812259532915011 -7.0810649860084816 0 0 0 0 251.70276193135214 -192.30923226715686 0 -192.30923226715686 62.96216273056416 0 0 0 0 137.88741161501821 22.042354493921231 0 22.042354493921231 -14.216104894332744 0 0 0 0 95.63616994037875 24.709289296590214 0 24.709289296590214 -74.193164021005032 0 0 0 0 123.83403653659656 14.757517112510357 0 14.757517112510357 -6.2815630493000443 0 0 0 0 258.29800537225674 81.29828350648495 0 81.29828350648495 -371.75446543091175 0 0 0 0 607.14406505797524 347.15935587417607 0 347.15935587417607 -30.26193847919194 0 0 0 0 -449.76602434078814 235.23369345911533 0 235.23369345911533 -39.353033822419093 0 0 0 0 117.81512019403746 -10.61876964945094 0 -10.61876964945094 1.5584942542306965 0 0 0 0 36.904949945746921 4.5988749285719166 0 4.5988749285719166 -144.01168774071482 0 0 0 0 30.40278851335097 4.8699215681916996 0 4.8699215681916996 -130.08150890132174 0 0 0 0 57.153916974028107 6.271480055609004 0 6.271480055609004 -187.60806473952542 0 0 0 0 85.4656759937061 43.127680106147665 0 43.127680106147665 -141.60535443217691 0 0 0 0 -31.960581404389814 -87.273259773104655 0 -87.273259773104655 -280.5897375807736 0 0 0 0 18.469698931541643 3.4894016770650325 0 3.4894016770650325 -143.74494995740608 0 0 0 0 -2.181837547395844 226.43695346131676 0 226.43695346131676 129.64275866747801 0 0 0 0 611.88801698433235 -104.1749595708261 0 -104.1749595708261 294.83614268626206 0 0 0 0 19.562067456516274 7.1895375733781037 0 7.1895375733781037 -6.4425461395330945 0 0 0 0 252.7369253495126 -416.96690329698959 0 -416.96690329698959 370.90708092949899 0 0 0 0 755.68049677147064 74.843905283471031 0 74.843905283471031 -453.18688914493032 0 0 0 0 -2.4000925832583562 5.1084910165670152 0 5.1084910165670152 6.4555509608028681 0 0 0 0 120.28230382150525 16.959436869932588 0 16.959436869932588 -1.6897797346174972 0 0 0 0 863.59481919842074 -283.49977262566199 0 -283.49977262566199 -225.66297802250847 0 0 0 0 263.49048854052671 178.27538509051374 0 178.27538509051374 -165.67224743403017 0 0 0 0 99.949329637696763 25.770202677026859 0 25.770202677026859 3.326540258364993 0 0 0 0 111.57785670437443 18.540232317817754 0 18.540232317817754 13.691416113180821 0 0 0 0 194.23426500392816 351.78847244055214 0 351.78847244055214 3.9855656591844308 0 0 0 0 3.5103336745638387 -0.050277302114324129 0 -0.050277302114324129 -0.37505303989922645 0 0 0 0 -35.916595256883738 -103.04963268065785 0 -103.04963268065785 175.58663177512608 0 0 0 0 223.55312298771605 10.596197280056003 0 10.596197280056003 -49.490681802225481 0 0 0 0 226.36269862225163 182.71255841075163 0 182.71255841075163 164.36707391152322 0 0 0 0 307.69385653403879 176.31430378403275 0 176.31430378403275 72.087576886877287 0 0 0 0 131.47673785949155 -53.055814593762079 0 -53.055814593762079 77.715384088462088 0 0 0 0 272.93561099775252 -52.481742739040328 0 -52.481742739040328 -170.91308226776164 0 0 0 0 203.47668526673624 -129.05768291904405 0 -129.05768291904405 -319.27996754261039 0 0 0 0 126.09025905980525 74.746695024270593 0 74.746695024270593 -101.28260158281955 0 0 0 0 286.06310688502708 105.88827947882055 0 105.88827947882055 -92.569539118587272 0 0 0 0 262.12122016453759 41.596353094043934 0 41.596353094043934 127.97411462407945 0 0 0 0 307.14088991799872 -24.21447121177971 0 -24.21447121177971 55.73482970229179 0 0 0 0 191.27135328395161 119.39614263302201 0 119.39614263302201 71.81996655686271 0 0 0 0 332.36271212800057 -34.654351585383665 0 -34.654351585383665 -5.3302085612849623 0 0 0 0 222.67118153201955 195.27669861785807 0 195.27669861785807 165.76519949246995 0 0 0 0 440.80069247669599 149.31897114323601 0 149.31897114323601 74.689370724814353 0 0 0 0 301.66775088888608 -38.274949576209565 0 -38.274949576209565 173.06206913935102 0 0 0 0 477.17068413479046 -81.88043651666726 0 -81.88043651666726 74.829592803791456 0 0 0 0 734.88981359495665 -309.64625299858926 0 -309.64625299858926 342.63043106367331 0 0 0 0 174.02667499712697 -476.60795321413389 0 -476.60795321413389 433.80343724014529 0 0 0 0 658.59555669212568 297.9813571410341 0 297.9813571410341 179.95255661204146 0 0 0 0 5.9957207763645783 -3.7928938442558309 0 -3.7928938442558309 2.8475733912268382 0 0 0 0 212.81311596627347 -94.380646266334679 0 -94.380646266334679 -312.7348460301755 0 0 0 0 92.325472373304365 171.54597555767577 0 171.54597555767577 188.97124280526168 0 0 0 0 -16.133452765959646 206.45777542209294 0 206.45777542209294 200.00368696968144 0 0 0 0 -42.45567981221393 -6.6875383139449696 0 -6.6875383139449696 182.53582750502483 0 0 0 0 219.55074272613274 146.03490862182116 0 146.03490862182116 83.286006683099913 0 0 0 0 4.0183658976056904 -15.330996590620089 0 -15.330996590620089 59.360788242291164 0 0 0 0 14.848723837521291 -9.5605294860581722 0 -9.5605294860581722 4.6399158721650373 0 0 0 0 153.62658616677436 58.467440122059315 0 58.467440122059315 64.360431078555848 0 0 0 0 167.40891172884585 48.293472411689436 0 48.293472411689436 53.153083035362215 0 0 0 0 -64.692676015743928 -33.164144533867784 0 -33.164144533867784 214.86946367438304 0 0 0 0 35.906316213600803 -66.004329288142799 0 -66.004329288142799 -101.76722611752393 0 0 0 0 6.5133147963603619 -1.4870369917356143 0 -1.4870369917356143 -0.61256849948689895 0 0 0 0 95.087706333863025 39.282867419090508 0 39.282867419090508 -252.53364211402459 0 0 0 0 -49.220813409701805 2.4319327153598351 0 2.4319327153598351 -51.317672353277885 0 0 0 0 -58.890039192297991 30.89382099178647 0 30.89382099178647 150.60152485043909 0 0 0 0 68.736802663173876 -18.500537867493676 0 -18.500537867493676 -107.94289148093003 0 0 0 0 184.81142004699359 111.75144689455146 0 111.75144689455146 -99.857362070171803 0 0 0 0 70.577642757569265 -138.11142255575032 0 -138.11142255575032 -20.006251345061173 0 0 0 0 3.3032765521478495 -1.5070849985328323 0 -1.5070849985328323 -0.36047324647101853 0 0 0 0 165.40672694037494 -225.60781372644851 0 -225.60781372644851 47.708861598494877 0 0 0 0 137.47269023419358 -201.95138663550279 0 -201.95138663550279 -46.076201160052733 0 0 0 0 474.50762304909586 -135.52105353919615 0 -135.52105353919615 -113.23077831610772 0 0 0 0 172.90761053813185 -136.27881279931262 0 -136.27881279931262 -111.25294782730634 0 0 0 0 403.71363467132323 94.783989937091974 0 94.783989937091974 -85.39441987087821 0 0 0 0 365.74897349128878 -72.312641116936902 0 -72.312641116936902 64.959421015070802 0 0 0 0 373.42541273812822 -53.077050746364876 0 -53.077050746364876 44.110174853220997 0 0 0 0 310.53190568181799 -97.547607640604667 0 -97.547607640604667 208.66048387866795 0 0 0 0 64.805161029442388 -18.988473037236417 0 -18.988473037236417 343.09657322726571 0 0 0 0 112.13620301720221 31.24601408050421 0 31.24601408050421 125.05762305279723 0 0 0 0 127.74396373276704 -40.687560219698867 0 -40.687560219698867 175.49870633562023 0 0 0 0 22.216009449301055 -5.7222605019424009 0 -5.7222605019424009 261.30529409155952 0 0 0 0 52.160334533262358 15.240238788688657 0 15.240238788688657 250.67031790467809 0 0 0 0 42.671388088416279 -10.059426768916182 0 -10.059426768916182 185.88174446092989 0 0 0 0 187.10606287443079 -79.272768589483803 0 -79.272768589483803 159.95024266933342 0 0 0 0 146.98085249088035 -88.534792370664945 0 -88.534792370664945 244.92106661744037 0 0 0 0 194.05352462558221 -58.84051834431466 0 -58.84051834431466 178.46810472432571 0 0 0 0 -18.609789652067775 -84.002677136844 0 -84.002677136844 264.20016400614895 0 0 0 0 237.96921589066187 -11.346025787022654 0 -11.346025787022654 -15.877406368150332 0 0 0 0 163.00364686908324 -35.939825980732849 0 -35.939825980732849 143.25455621955825 0 0 0 0 180.9156492885395 -68.656259474545323 0 -68.656259474545323 160.3996292316624 0 0 0 0 138.96287339752598 35.229919816787515 0 35.229919816787515 96.450088400865297 0 0 0 0 131.12083993246779 69.185922359989945 0 69.185922359989945 -2.1275024787523762 0 0 0 0 92.809785459445266 25.474121910291387 0 25.474121910291387 129.96031471968945 0 0 0 0 123.09423661129404 122.8720951572509 0 122.8720951572509 192.06313640367989 0 0 0 0 159.71533518435535 120.26910586404733 0 120.26910586404733 -76.841838716434722 0 0 0 0 91.920408953745209 -81.064582335305204 0 -81.064582335305204 -203.59436790629434 0 0 0 0 -82.740500152463937 -80.162245238627747 0 -80.162245238627747 -127.65491566564583 0 0 0 0 144.01500061745719 55.137486658395858 0 55.137486658395858 -98.873353781751121 0 0 0 0 185.50449399857462 -3.1037019163675268 0 -3.1037019163675268 -30.70691523214407 0 0 0 0 164.71703537266148 -40.88230170730435 0 -40.88230170730435 -130.27866214082729 0 0 0 0 249.43528377521579 -7.4220357384060662 0 -7.4220357384060662 -84.951457021236365 0 0 0 0 170.7287518914527 19.923969662743048 0 19.923969662743048 -79.904461981183204 0 0 0 0 183.13938640603487 32.546511249458973 0 32.546511249458973 -45.567227337271106 0 0 0 0 1707.8842610775573 -82.377329511007247 0 -82.377329511007247 -196.72997361268017 0 0 0 0 524.63805739088275 -162.50601200579695 0 -162.50601200579695 439.41581556604888 0 0 0 0 520.16986867314768 87.37166861387611 0 87.37166861387611 9.4634386257857841 0 0 0 0 1028.1132142040515 -430.03368180605776 0 -430.03368180605776 185.77602998118527 0 0 0 0 274.20618603173352 -216.91796093989706 0 -216.91796093989706 192.06442878073722 0 0 0 0 690.44652291399689 118.52824252946675 0 118.52824252946675 142.7803540744535 0 0 0 0 -53.289064018812496 1.7819881730974885 0 1.7819881730974885 28.333152425737353 0 0 0 0 1.2688521570640958 6.1888096520854461 0 6.1888096520854461 20.03040202578574 0 0 0 0 -115.04714515713204 292.68432455545053 0 292.68432455545053 161.05709141389161 0 0 0 0 -41.726615271851188 11.869859191698197 0 11.869859191698197 35.948826315550832 0 0 0 0 96.271516513108509 244.80427648778459 0 244.80427648778459 224.70855721168664 0 0 0 0 27.497918032793677 -465.89987343937628 0 -465.89987343937628 -607.38026378615541 0 0 0 0 -253.46118644653325 28.98042737801552 0 28.98042737801552 203.79885195938186 0 0 0 0 -2.5615662398087267 -0.75895429946149662 0 -0.75895429946149662 6.7919961146908037 0 0 0 0 51.320661845180439 214.97424655950635 0 214.97424655950635 1012.2329221977488 0 0 0 0 612.69253764342284 526.56572233494808 0 526.56572233494808 83.664689236327831 0 0 0 0 62.396060610104541 267.35735113461897 0 267.35735113461897 573.63427706261791 0 0 0 0 38.677606544653827 222.783996788487 0 222.783996788487 572.53258671205185 0 0 0 0 -56.083764049988531 -27.959430927806352 0 -27.959430927806352 11.403364975295517 0 0 0 0 1.8674574107216415 -8.1104101235869344 0 -8.1104101235869344 9.8567746296133745 0 0 0 0 0.12190345584345152 -1.4948709268688916 0 -1.4948709268688916 3.5727808209425547 0 0 0 0 360.87921839665705 384.73046962239914 0 384.73046962239914 375.58472519766656 0 0 0 0 -19.648333165119766 -257.31319274211512 0 -257.31319274211512 306.95941342123842 0 0 0 0 284.37186541503615 -35.014384535016575 0 -35.014384535016575 402.3676759373393 0 0 0 0 627.24678731287349 408.03240636648434 0 408.03240636648434 587.59443216716136 0 0 0 0 443.46812842218787 160.8621186700484 0 160.8621186700484 266.26903346150129 0 0 0 0 590.09385358048348 -90.238850884883959 0 -90.238850884883959 236.4545891477137 0 0 0 0 541.38135331998637 -545.06296860235989 0 -545.06296860235989 -5.8430845191378467 0 0 0 0 137.98191350070965 -0.8840200270534524 0 -0.8840200270534524 612.41388227042262 0 0 0 0 399.9497365445859 237.75214382738068 0 237.75214382738068 85.000289209061975 0 0 0 0 76.245036653058378 -125.97265887204787 0 -125.97265887204787 -147.21022532427924 0 0 0 0 -607.48015547922114 -794.61073034155982 0 -794.61073034155982 -296.52011855848724 0 0 0 0 598.45307610929012 -380.36715262154257 0 -380.36715262154257 -390.57731335895232 0 0 0 0 1887.3902294135587 1150.2586809378963 0 1150.2586809378963 296.99221541968791 0 0 0 0 5.3112049475886067 -3.5315897109083849 0 -3.5315897109083849 0.91753231949078184 0 0 0 0 -20.638322847546078 -33.88755873635364 0 -33.88755873635364 -231.54712701066364 0 0 0 0 -228.51324308879339 -371.27123011052197 0 -371.27123011052197 -375.2346339011188 0 0 0 0 16.39884963933924 -12.762938241755599 0 -12.762938241755599 1.4599010835512338 0 0 0 0 755.79649854425588 201.8774409173808 0 201.8774409173808 392.63923801749996 0 0 0 0 1111.3688036971707 737.74358047504461 0 737.74358047504461 248.32294827236274 0 0 0 0 780.11320743411852 205.51163982976163 0 205.51163982976163 -166.96184990809388 0 0 0 0 113.99748833147532 160.78080794005882 0 160.78080794005882 563.33037167191219 0 0 0 0 1150.6382433034669 412.19275730920572 0 412.19275730920572 73.135045853577139 0 0 0 0 403.57646126257896 42.994202207104536 0 42.994202207104536 250.95404156117775 0 0 0 0 79.2904813600544 -303.98236905703152 0 -303.98236905703152 52.271389616520764 0 0 0 0 114.19861043482888 -301.81451214173057 0 -301.81451214173057 -152.64894210169768 0 0 0 0 93.230654037422028 134.56528107997227 0 134.56528107997227 -216.30981183314361 0 0 0 0 98.416950709855882 196.66009311285143 0 196.66009311285143 401.5017764234899 0 0 0 0 405.00503202719847 114.21198616848278 0 114.21198616848278 196.81923831277209 0 0 0 0 24.785881047893781 0.03693236219874052 0 0.03693236219874052 17.538762351051446 0 0 0 0 11.622969448016178 -4.5806694744683902 0 -4.5806694744683902 6.6577025033661208 0 0 0 0 20.597541992920014 35.401054870116468 0 35.401054870116468 30.531190111401429 0 0 0 0 -189.30147890572516 120.90354201304217 0 120.90354201304217 23.033522525303852 0 0 0 0 8.2586272359630897 11.536341638394113 0 11.536341638394113 20.521980572854169 0 0 0 0 -25.024188256389607 52.49620910846852 0 52.49620910846852 22.047336759456812 0 0 0 0 -43.439081188742421 3.7279239921117551 0 3.7279239921117551 -84.275797365571634 0 0 0 0 -236.39462836251914 28.938993697083788 0 28.938993697083788 37.87595753808273 0 0 0 0 -89.672202674628352 -23.272484985220217 0 -23.272484985220217 -100.03975780788824 0 0 0 0 -91.334050543424382 39.248011657462484 0 39.248011657462484 -3.206855805034138 0 0 0 0 -158.91354500297894 -29.67822936891389 0 -29.67822936891389 -65.687187284282118 0 0 0 0 -69.788855713573867 37.693911736812879 0 37.693911736812879 30.399797055117233 0 0 0 0 -150.19475679571042 83.399055125701125 0 83.399055125701125 45.936604326139786 0 0 0 0 -122.30949652279378 67.934881309993216 0 67.934881309993216 42.028428699391043 0 0 0 0 -158.42945598275401 15.016442962243218 0 15.016442962243218 47.638822367138346 0 0 0 0 -74.33554486612411 34.056597534936373 0 34.056597534936373 67.436987734079594 0 0 0 0 17.432778163740295 4.0604571693565958 0 4.0604571693565958 -5.2071559517862624 0 0 0 0 17.012755766798364 34.249840381676449 0 34.249840381676449 47.127901521384047 0 0 0 0 -46.439286804758012 13.004139070548263 0 13.004139070548263 90.699527791526634 0 0 0 0 -63.707871777638502 48.178035201415696 0 48.178035201415696 76.100330568871868 0 0 0 0 -105.96747678658721 78.554070930669695 0 78.554070930669695 46.955829184473259 0 0 0 0 -126.19478454986529 57.635556572571659 0 57.635556572571659 64.917307743062338 0 0 0 0 -72.077013812711812 29.990315260271018 0 29.990315260271018 39.188263968026149 0 0 0 0 -79.108104582774104 21.282097061388413 0 21.282097061388413 72.941175745174405 0 0 0 0 -61.315124508386361 -6.7859428891424614 0 -6.7859428891424614 71.567648151027015 0 0 0 0 -37.028397027548635 25.177581301908504 0 25.177581301908504 108.60876138008825 0 0 0 0 34.725765825802227 3.4006546167292981 0 3.4006546167292981 70.971927693513862 0 0 0 0 -100.33273567407741 57.014325727206597 0 57.014325727206597 -103.67670088204613 0 0 0 0 -118.35424319542653 113.85637905760996 0 113.85637905760996 -44.002977953990921 0 0 0 0 -105.45671599776688 91.861921268779952 0 91.861921268779952 1.3034516281331889 0 0 0 0 -167.55691509326425 103.90521633363642 0 103.90521633363642 39.010055241600639 0 0 0 0 -95.826396764488891 51.936129724421335 0 51.936129724421335 11.769779962317443 0 0 0 0 -106.48496235099446 76.055850688826467 0 76.055850688826467 -27.139267420570832 0 0 0 0 -125.99882514865021 -2.5505243967745628 0 -2.5505243967745628 8.3626071772305295 0 0 0 0 -92.1803234727995 3.9420306032479857 0 3.9420306032479857 51.239197160502954 0 0 0 0 -101.48306307762687 60.358424900852697 0 60.358424900852697 34.470268206838227 0 0 0 0 -104.48126115497871 19.786603974842819 0 19.786603974842819 67.159710263527813 0 0 0 0 -98.558633576380089 35.564600103492921 0 35.564600103492921 39.398326721044214 0 0 0 0 -25.469602396198752 39.899975198883112 0 39.899975198883112 42.546243626318756 0 0 0 0 -88.873487175238552 55.008317320367496 0 55.008317320367496 60.381358645408909 0 0 0 0 -36.24404496254283 67.547120058774453 0 67.547120058774453 58.433426244348084 0 0 0 0 -123.59989535698696 -18.017940520921002 0 -18.017940520921002 -96.289990638579184 0 0 0 0 -2.39103321577862 2.5642078946891722 0 2.5642078946891722 8.3953515202773588 0 0 0 0 -50.60072586502065 31.159776261069055 0 31.159776261069055 50.268644596748345 0 0 0 0 -61.736385923315538 13.949009076859511 0 13.949009076859511 55.392470125025284 0 0 0 0 -75.254808000623598 23.719969825044245 0 23.719969825044245 48.664781093571946 0 0 0 0 -70.835160206919682 7.426474885602147 0 7.426474885602147 63.617256476394687 0 0 0 0 -77.259529715731333 9.4990243389456737 0 9.4990243389456737 64.569203626720991 0 0 0 0 -70.81906299019829 13.898085103158337 0 13.898085103158337 67.140554206132947 0 0 0 0 -67.552015891551491 -17.213611287737876 0 -17.213611287737876 85.56347316360916 0 0 0 0 -26.018929276142444 -35.285476961897075 0 -35.285476961897075 95.371554910261921 0 0 0 0 -44.58485803403164 -5.8553441849771843 0 -5.8553441849771843 64.485649717053093 0 0 0 0 -61.646492895513802 -21.734336384643029 0 -21.734336384643029 81.495883227707964 0 0 0 0 -65.374792661277752 -120.12689999588019 0 -120.12689999588019 -52.033723409287632 0 0 0 0 -60.93730851541477 -25.915054918094029 0 -25.915054918094029 53.528308382249179 0 0 0 0 393.56905248588737 27.31076363100874 0 27.31076363100874 46.628857362168674 0 0 0 0 396.56822448210823 50.826054489915578 0 50.826054489915578 210.48805180472482 0 0 0 0 535.10806212303578 -87.710953677000361 0 -87.710953677000361 130.24647406357417 0 0 0 0 236.85174543371977 -79.482756325782248 0 -79.482756325782248 135.95119547521972 0 0 0 0 -102.90625983666177 -2.6497228247726525 0 -2.6497228247726525 121.46785201839157 0 0 0 0 147.76461866783097 28.464708806924648 0 28.464708806924648 144.44111666241952 0 0 0 0 4.4091885413254204 24.712379247936951 0 24.712379247936951 133.87007596640979 0 0 0 0 149.73059128913883 -7.3910739230468607 0 -7.3910739230468607 62.182949517412453 0 0 0 0 168.29902772435889 8.9858711168326408 0 8.9858711168326408 71.302996813157733 0 0 0 0 169.97961917814246 -4.4482383914300954 0 -4.4482383914300954 120.13746625494969 0 0 0 0 419.07075624830941 11.917528547101483 0 11.917528547101483 132.19845447168154 0 0 0 0 404.64680659934675 52.344557664800959 0 52.344557664800959 72.816678322652479 0 0 0 0 374.56342785600327 -4.6839488151674686 0 -4.6839488151674686 78.516132870694491 0 0 0 0 366.57008357219365 39.535585173504501 0 39.535585173504501 59.089015307832597 0 0 0 0 34.199978530938097 0.95518227150000712 0 0.95518227150000712 107.15798445973633 0 0 0 0 171.76619381601631 -24.356400650423893 0 -24.356400650423893 73.537265941036821 0 0 0 0 30.086859073215237 -18.013051003006012 0 -18.013051003006012 71.747999773593619 0 0 0 0 154.7171531853237 38.216274307162166 0 38.216274307162166 66.002737078910286 0 0 0 0 43.617859102952934 47.609733391924237 0 47.609733391924237 59.619961362769573 0 0 0 0 152.73724255488196 -41.140829502379347 0 -41.140829502379347 25.091855904393014 0 0 0 0 281.89101452533214 54.081518151167984 0 54.081518151167984 46.091844636521728 0 0 0 0 38.87084989304276 43.118164532156698 0 43.118164532156698 44.047130890412973 0 0 0 0 44.387987202986551 75.308570377930664 0 75.308570377930664 -84.677344516672747 0 0 0 0 572.16608574831116 51.038359081419003 0 51.038359081419003 22.491763408828774 0 0 0 0 368.95142946614214 72.658083292347328 0 72.658083292347328 41.592068396574831 0 0 0 0 363.1677576305683 -43.849527699739156 0 -43.849527699739156 43.965444906138146 0 0 0 0 622.48904713849333 -55.17154743064566 0 -55.17154743064566 70.645442848447601 0 0 0 0 761.56505109551654 1.1872870892084393 0 1.1872870892084393 26.304820911105253 0 0 0 0 947.88075204994675 -94.734055620999243 0 -94.734055620999243 -4.4218313005439995 0 0 0 0 767.88121613936892 -78.703399869375971 0 -78.703399869375971 137.88224023639577 0 0 0 0 986.33646003180547 -123.75184699788042 0 -123.75184699788042 6.4092991686793539 0 0 0 0 876.50894821205293 11.022822044105396 0 11.022822044105396 6.1242801660828263 0 0 0 0 726.65360416515614 -29.938206397480826 0 -29.938206397480826 47.43898487844308 0 0 0 0 681.29788864159855 52.198786435937109 0 52.198786435937109 54.07103236153398 0 0 0 0 1117.7568746664474 -165.69886904843497 0 -165.69886904843497 25.840793976913119 0 0 0 0 1117.7848293935094 -162.18871108184749 0 -162.18871108184749 -28.449246316427889 0 0 0 0 987.1409685132021 -180.84313612231199 0 -180.84313612231199 110.00470594838768 0 0 0 0 1031.5322340288967 -102.78229752130437 0 -102.78229752130437 -69.352178532475591 0 0 0 0 879.1203079872289 -295.54786422970665 0 -295.54786422970665 -2.6289085187909222 0 0 0 0 1008.783143226734 -311.34525589154964 0 -311.34525589154964 -45.517786884362067 0 0 0 0 1199.9928354127696 -334.55445738192157 0 -334.55445738192157 -76.425722040438814 0 0 0 0 1307.4603821213859 -56.190040178109484 0 -56.190040178109484 -62.834754330945543 0 0 0 0 1542.8298839111376 288.25579989404923 0 288.25579989404923 242.45487027843865 0 0 0 0 1824.0908538112926 -484.24539045116398 0 -484.24539045116398 -228.12374339080088 0 0 0 0 670.16762366591865 -4.2908039457797713 0 -4.2908039457797713 70.687487958561178 0 0 0 0 1050.7975045182502 23.903557291290781 0 23.903557291290781 19.593088685028306 0 0 0 0 1030.7150150059388 -38.111291541469654 0 -38.111291541469654 57.334240599556324 0 0 0 0 789.34840035514208 -85.421456444859359 0 -85.421456444859359 195.45235264703979 0 0 0 0 710.85634714863772 87.590629576856372 0 87.590629576856372 246.26583031101291 0 0 0 0 595.78852695996102 19.645873553490674 0 19.645873553490674 309.82817326469558 0 0 0 0 689.6857517115277 -30.533886670052198 0 -30.533886670052198 403.60828375615256 0 0 0 0 654.42332059316868 -109.48476797833018 0 -109.48476797833018 240.25352381509583 0 0 0 0 500.67755465212394 -129.64800354707222 0 -129.64800354707222 485.71777541883785 0 0 0 0 1012.4329139258377 -108.37727353781104 0 -108.37727353781104 623.75815463892286 0 0 0 0 1006.0200054366542 45.98050481253631 0 45.98050481253631 228.53027012284292 0 0 0 0 736.86915664181652 -256.97328636726934 0 -256.97328636726934 233.1646078986505 0 0 0 0 1169.272157721949 68.733549083906837 0 68.733549083906837 148.99203433884122 0 0 0 0 -3.1843615210223035 1.0494724890809195 0 1.0494724890809195 1.2139251300192839 0 0 0 0 870.21475210609788 -136.8213304196297 0 -136.8213304196297 300.42103587849488 0 0 0 0 716.06216448523628 167.50903988595564 0 167.50903988595564 -37.629813350609766 0 0 0 0 378.25310434850689 96.986434119016849 0 96.986434119016849 493.52628922644118 0 0 0 0 1386.4186272274019 974.94837154482775 0 974.94837154482775 663.85863534221789 0 0 0 0 12.138723234937544 -2.4812232982510238 0 -2.4812232982510238 0.4471714240173057 0 0 0 0 648.90577227726317 -806.35588335391367 0 -806.35588335391367 -284.22921774616771 0 0 0 0 2053.695449436269 422.00036041007661 0 422.00036041007661 31.175038441495417 0 0 0 0 1651.7506221511467 -269.33226121525604 0 -269.33226121525604 385.75727793948954 0 0 0 0 1340.6359604636964 225.90843548519297 0 225.90843548519297 -11.297865008982626 0 0 0 0 1284.7610034701647 334.80460822270834 0 334.80460822270834 -89.084867004597982 0 0 0 0 1340.2883720066384 605.53296848939135 0 605.53296848939135 66.594378766661976 0 0 0 0 1105.6370685123547 254.354102420657 0 254.354102420657 -207.50354106823761 0 0 0 0 1114.8993701840409 245.04880812387182 0 245.04880812387182 -263.87829244737077 0 0 0 0 1111.9255831076152 372.97499042316485 0 372.97499042316485 -82.087706859716491 0 0 0 0 1170.3905842321783 231.73310947308983 0 231.73310947308983 -181.61996526120129 0 0 0 0 1256.3277205908998 198.90461668442913 0 198.90461668442913 -339.10248160852643 0 0 0 0 1148.2768267011561 288.50172356029907 0 288.50172356029907 -207.33340476249941 0 0 0 0 1254.5094870675093 230.06035419149975 0 230.06035419149975 -215.61699815907923 0 0 0 0 1434.782843984638 206.0547095410584 0 206.0547095410584 -225.78847512360881 0 0 0 0 1346.2938971147687 20.344433932259562 0 20.344433932259562 -83.114180755230336 0 0 0 0 1125.8653754942497 196.4758101948737 0 196.4758101948737 -107.27751353157873 0 0 0 0 1296.3000888051538 257.15739825372748 0 257.15739825372748 -408.36006543859912 0 0 0 0 1045.9689287570436 425.75289545440501 0 425.75289545440501 473.47644540149486 0 0 0 0 1029.0788722529505 591.02053731290982 0 591.02053731290982 -671.06416067999817 0 0 0 0 2074.1554714876984 711.67962559107036 0 711.67962559107036 -770.29821738692408 0 0 0 0 42.855229582400597 -8.9438091130080934 0 -8.9438091130080934 -7.5265369431999005 0 0 0 0 386.68373243430688 3121.684060317486 0 3121.684060317486 -894.00921387026301 0 0 0 0 645.14023165102117 2034.8175981116074 0 2034.8175981116074 -1929.7029019615984 0 0 0 0 1168.836930652702 -127.12520000183758 0 -127.12520000183758 -756.79235782466094 0 0 0 0 1956.3252280601919 -44.606625787421535 0 -44.606625787421535 -1101.8082403592198 0 0 0 0 1405.1002243929834 274.8297690688687 0 274.8297690688687 -405.50058224130225 0 0 0 0 1362.0143116852632 149.75569217846396 0 149.75569217846396 -600.85220101688901 0 0 0 0 1663.0365258355632 488.11672735235288 0 488.11672735235288 -305.89127748886676 0 0 0 0 1143.1604750094557 178.7924732982101 0 178.7924732982101 -334.12411109181494 0 0 0 0 1157.501715595281 154.39089987156513 0 154.39089987156513 -426.7694142455257 0 0 0 0 1044.520928068072 18.184182166485698 0 18.184182166485698 -322.09946105907602 0 0 0 0 1079.8440067925549 9.2968783380683817 0 9.2968783380683817 -384.66863620044751 0 0 0 0 -122.14330855946173 -413.51744598373261 0 -413.51744598373261 -137.61188115808909 0 0 0 0 968.30441338425589 120.31380003833874 0 120.31380003833874 -237.81101999181556 0 0 0 0 1105.3753883115569 225.32044335142928 0 225.32044335142928 -237.59318768683079 0 0 0 0 1077.6969711472193 196.80169080394262 0 196.80169080394262 -262.60221038143521 0 0 0 0 1120.3062107241271 -698.48169906919441 0 -698.48169906919441 -119.63906903737734 0 0 0 0 1045.783969737681 31.878780515542019 0 31.878780515542019 -87.513351944062379 0 0 0 0 1204.2423787442822 -791.67331837904021 0 -791.67331837904021 -710.29868990656541 0 0 0 0 -2.7054827865849091 4.5784490791507793 0 4.5784490791507793 5.8496158690909041 0 0 0 0 277.91263117449125 760.74425219533259 0 760.74425219533259 -337.13482732434386 0 0 0 0 214.42679138931999 6.4835835926642176 0 6.4835835926642176 111.74681489274917 0 0 0 0 286.78903142903619 64.517379901650656 0 64.517379901650656 -58.691421008828911 0 0 0 0 1006.9479491855636 275.80082103154518 0 275.80082103154518 -73.474541804538603 0 0 0 0 32.014357559358757 2.7666640997046628 0 2.7666640997046628 0.19968207776884128 0 0 0 0 254.53612864999741 97.921054704373091 0 97.921054704373091 -93.200130098892259 0 0 0 0 266.80321998598629 73.809779162309496 0 73.809779162309496 -195.97238639243005 0 0 0 0 146.85358595888829 125.5407725085679 0 125.5407725085679 -43.230001162650296 0 0 0 0 264.32119161792161 -591.92189036989851 0 -591.92189036989851 653.85942123458153 0 0 0 0 973.96389401971828 -1168.8021286511812 0 -1168.8021286511812 17.285878285291801 0 0 0 0 -2145.8816217725107 1877.5138122515891 0 1877.5138122515891 57.45214510294818 0 0 0 0 8.5846842398432699 -7.6070799403106557 0 -7.6070799403106557 6.7480816233032002 0 0 0 0 320.79781050932456 -77.881158694097536 0 -77.881158694097536 -0.1097944620797886 0 0 0 0 2508.1335007881717 -1261.743913457467 0 -1261.743913457467 418.43332482542974 0 0 0 0 1390.6635513384244 -361.67572394769741 0 -361.67572394769741 -542.02469019788487 0 0 0 0 156.97175640170462 -482.90295536712438 0 -482.90295536712438 -470.89932331873024 0 0 0 0 480.16006511470005 1153.2415767211953 0 1153.2415767211953 -662.50392155474765 0 0 0 0 279.84282425303536 -66.854610874643186 0 -66.854610874643186 -540.45176506937787 0 0 0 0 1111.0130100111492 -1107.6503199303497 0 -1107.6503199303497 -108.96838623402436 0 0 0 0 46.444772913764126 -37.80289659636891 0 -37.80289659636891 -5.1676533269697202 0 0 0 0 137.58367561220075 -383.40109983805451 0 -383.40109983805451 93.999878072994761 0 0 0 0 138.9487325647242 -201.67825012092908 0 -201.67825012092908 82.730587754411317 0 0 0 0 21.218307940274826 336.1816409598232 0 336.1816409598232 -509.84329110815997 0 0 0 0 467.09834875552406 519.26515498921378 0 519.26515498921378 -94.807017359367819 0 0 0 0 -6.6680402653117881 22.369108943688872 0 22.369108943688872 0.85074192492371914 0 0 0 0 186.75859850057935 10.920645022163939 0 10.920645022163939 2.1967334095125182 0 0 0 0 157.0271176166716 526.63910617115289 0 526.63910617115289 -277.14397878098805 0 0 0 0 175.43545240718231 16.696395105982447 0 16.696395105982447 11.47324061045947 0 0 0 0 156.89908967143856 20.340902607315002 0 20.340902607315002 12.849464379945857 0 0 0 0 198.77444629199454 -171.55102847416401 0 -171.55102847416401 -150.17409728203256 0 0 0 0 136.53549501492284 16.995043477258037 0 16.995043477258037 -2.4048778731919196 0 0 0 0 120.881784293284 3.3878804389446486 0 3.3878804389446486 23.381307668321824 0 0 0 0 165.69672556177829 -1.3590208570940376 0 -1.3590208570940376 23.831585229617986 0 0 0 0 -79.501405027671353 117.41199955234822 0 117.41199955234822 42.273584035248859 0 0 0 0 -14.345315363578266 37.223403815171878 0 37.223403815171878 27.119579217884166 0 0 0 0 97.004916456425647 31.124575344533824 0 31.124575344533824 2.8297589859557171 0 0 0 0 5.3124315278740539 6.6349143545232536 0 6.6349143545232536 5.3114968426689888 0 0 0 0 142.04577694398949 -22.853598459719088 0 -22.853598459719088 2.7502302104056042 0 0 0 0 138.43719488555507 -98.182226330292906 0 -98.182226330292906 -61.68532327449384 0 0 0 0 185.88845209803549 2.5061250622161424 0 2.5061250622161424 5.93835228626358 0 0 0 0 169.41557119521167 -162.02114872182665 0 -162.02114872182665 -55.693351288518897 0 0 0 0 215.8104856891332 84.889719693286679 0 84.889719693286679 -25.033634049463217 0 0 0 0 82.72275541021736 120.94713154050123 0 120.94713154050123 -30.931549596114564 0 0 0 0 21.341472069338494 -8.16330531926506 0 -8.16330531926506 -1.8042630604044589 0 0 0 0 185.52357671757272 -4.9450983769588674 0 -4.9450983769588674 124.37501333481123 0 0 0 0 -52.438243340862755 -77.062936164973507 0 -77.062936164973507 8.120514582915348 0 0 0 0 74.677993424862507 112.04263494215229 0 112.04263494215229 213.15069596666217 0 0 0 0 76.533919092675205 -139.8269574568767 0 -139.8269574568767 -135.75959743764179 0 0 0 0 28.435340724799033 -1.9267964593796982 0 -1.9267964593796982 6.1103922203866823 0 0 0 0 157.1223429718666 -61.832601642750888 0 -61.832601642750888 -187.90813842162606 0 0 0 0 44.697736859394354 21.911955672238037 0 21.911955672238037 69.753996017914687 0 0 0 0 -52.43824334081728 -77.062936165079009 0 -77.062936165079009 8.1205145828425884 0 0 0 0 -52.438243340875488 -77.062936164845269 0 -77.062936164845269 8.1205145828716923 0 0 0 0 -52.438243340875488 -77.062936164926214 0 -77.062936164926214 8.1205145828862442 0 0 0 0 -52.43824334081728 -77.062936164958955 0 -77.062936164958955 8.1205145828935201 0 0 0 0 140.29856822977308 4.0807060959796218 0 4.0807060959796218 58.178054668234836 0 0 0 0 115.58828652383818 152.87494226345007 0 152.87494226345007 -98.877755536125733 0 0 0 0 195.82356135882401 226.25961910689557 0 226.25961910689557 273.41694385179653 0 0 0 0 37.98060636784794 91.488327961373216 0 91.488327961373216 318.08260665395574 0 0 0 0 97.041827187123999 71.193462599772829 0 71.193462599772829 322.05566899595578 0 0 0 0 -0.15359539576458303 -4.7539762128021712 0 -4.7539762128021712 5.6412212560946173 0 0 0 0 48.349839528542361 304.16572948851672 0 304.16572948851672 697.43010020813017 0 0 0 0 100.00554262407968 -43.335849470946414 0 -43.335849470946414 399.99562740240253 0 0 0 0 -0.1255291840655417 -1.418549003421691 0 -1.418549003421691 2.0881912572462085 0 0 0 0 206.98439455528569 -304.38438044420218 0 -304.38438044420218 -172.79696664618768 0 0 0 0 149.87482733936122 70.737006434727846 0 70.737006434727846 -115.90423528208703 0 0 0 0 402.46815783968486 47.165730106742558 0 47.165730106742558 105.98579828863876 0 0 0 0 496.17517009863514 -93.123783274970265 0 -93.123783274970265 300.33775988828711 0 0 0 0 132.10508078468411 -163.81391422326487 0 -163.81391422326487 387.5397405293661 0 0 0 0 416.97604520441382 -202.07428143747893 0 -202.07428143747893 153.92997789563697 0 0 0 0 668.80127327756054 45.726551137614479 0 45.726551137614479 213.82989785751943 0 0 0 0 504.74378003143647 -28.858602432344924 0 -28.858602432344924 322.81604974600486 0 0 0 0 376.16828078731487 75.947573268487758 0 75.947573268487758 1017.7140759078047 0 0 0 0 473.46845150808804 -270.40147616469039 0 -270.40147616469039 562.7403826909358 0 0 0 0 -165.48942396653001 213.47077628610896 0 213.47077628610896 179.87043210400589 0 0 0 0 850.93909577166778 245.88018604903482 0 245.88018604903482 159.85325920483592 0 0 0 0 806.66341997242125 -336.12290840357491 0 -336.12290840357491 45.108788864796225 0 0 0 0 159.63227940839715 -16.695943415877991 0 -16.695943415877991 170.0479322132469 0 0 0 0 218.67427855501228 -584.33683020407898 0 -584.33683020407898 511.10627220282004 0 0 0 0 4.1811113301341152 2.3331734801594095 0 2.3331734801594095 1.4292684925980179 0 0 0 0 -112.17723588290391 358.55107213330666 0 358.55107213330666 853.92586065098112 0 0 0 0 1393.4528877789271 612.24475376261535 0 612.24475376261535 -1292.0507216853823 0 0 0 0 5000.4302652800252 -717.40946429268649 0 -717.40946429268649 -895.1705231994531 0 0 0 0 1781.4261351630994 -1195.4119902705756 0 -1195.4119902705756 -298.95637655162733 0 0 0 0 2364.6904231041553 -237.06842662593465 0 -237.06842662593465 -792.07392649477447 0 0 0 0 2282.2086030142091 263.31180616266852 0 263.31180616266852 397.09597068989063 0 0 0 0 1371.8988910141779 -627.60576694356405 0 -627.60576694356405 -439.12182212327843 0 0 0 0 -337.61501278440119 915.01501834024054 0 915.01501834024054 -922.90088579746453 0 0 0 0 -484.39374177083664 1346.2231547811205 0 1346.2231547811205 614.58898245315743 0 0 0 0 12.543845053090365 2.4384186495682716 0 2.4384186495682716 0.048675987458736483 0 0 0 0 1050.1590310152969 -887.13126958612395 0 -887.13126958612395 362.13976336498263 0 0 0 0 1102.2753894260386 -751.52311604954502 0 -751.52311604954502 362.21426104152511 0 0 0 0 14.982324614197978 5.54866023302381 0 5.54866023302381 1.0416033609258424 0 0 0 0 34.548250279765455 9.177753134271228 0 9.177753134271228 -1.5002540306204277 0 0 0 0 485.97788967702127 -154.47833516757652 0 -154.47833516757652 -415.75055778143962 0 0 0 0 507.47420205874641 -344.83355023477992 0 -344.83355023477992 87.911228800104595 0 0 0 0 316.83032541394277 -369.13786569325782 0 -369.13786569325782 51.262867394281443 0 0 0 0 368.31805556225299 -544.48869427083503 0 -544.48869427083503 500.25111910371288 0 0 0 0 858.78086074988823 -676.90511390253778 0 -676.90511390253778 -82.464077403997479 0 0 0 0 367.88160309066006 768.29239363144029 0 768.29239363144029 -220.09754648186578 0 0 0 0 20.614274023608289 2.2967316927254302 0 2.2967316927254302 -0.99321370572381573 0 0 0 0 4989.925746375593 -2312.1434434515231 0 -2312.1434434515231 83.678130362959095 0 0 0 0 4986.0564307936265 -425.79236693578906 0 -425.79236693578906 -136.26835090671224 0 0 0 0 1055.9742690098501 -402.4415542270342 0 -402.4415542270342 332.4742795105231 0 0 0 0 25.26176686889346 4.8319766293278548 0 4.8319766293278548 2.4509403553134428 0 0 0 0 4994.4938418812962 -2111.2758891713538 0 -2111.2758891713538 1045.1828684436489 0 0 0 0 2206.6691668803105 287.60272582205528 0 287.60272582205528 1.1538708361522774 0 0 0 0 2212.2919382061227 2078.2494122664816 0 2078.2494122664816 772.90804359304002 0 0 0 0 -0.14033439440942175 0.54881410906962458 0 0.54881410906962458 0.47256081591308635 0 0 0 0 13.22359249121655 -424.68492526281375 0 -424.68492526281375 573.71460634094899 0 0 0 0 4980.5955023196475 1573.9509894638143 0 1573.9509894638143 -653.87660066011756 0 0 0 0 -100.96244096086593 146.21541618336178 0 146.21541618336178 408.25359472498997 0 0 0 0 1.8376233426011481 -2.0507609031426455 0 -2.0507609031426455 1.609126662690834 0 0 0 0 222.64825773437769 117.48603890393179 0 117.48603890393179 -65.403587570368146 0 0 0 0 201.53081446398573 -210.74271597097766 0 -210.74271597097766 -152.80415039492868 0 0 0 0 9.932002289337106 -169.49727063754739 0 -169.49727063754739 161.98780889418936 0 0 0 0 0.65378277238306737 -2.295173031678658 0 -2.295173031678658 2.6897595979015705 0 0 0 0 63.34736237227537 -20.981694612254216 0 -20.981694612254216 5.3810178284110926 0 0 0 0 126.89814468877012 -121.12329605441857 0 -121.12329605441857 -24.901385394638055 0 0 0 0 60.546913105790736 28.077780013957181 0 28.077780013957181 -248.02105710804716 0 0 0 0 57.917830142569073 12.736293439143523 0 12.736293439143523 -0.40914516403059187 0 0 0 0 1011.359776469395 -492.32409439633233 0 -492.32409439633233 539.17775934057977 0 0 0 0 200.12761242239503 -270.3651728024804 0 -270.3651728024804 553.00469914780558 0 0 0 0 249.15488028959953 -232.29815580993761 0 -232.29815580993761 277.75963870958049 0 0 0 0 105.84393134724814 -44.822778841369427 0 -44.822778841369427 -8.3367893606501866 0 0 0 0 10.737262074342482 -11.668983196970188 0 -11.668983196970188 -0.92780273465416818 0 0 0 0 23.240363266246277 41.54012084101123 0 41.54012084101123 17.445022180626182 0 0 0 0 290.68152824093704 -112.51433256818318 0 -112.51433256818318 2.3567922248885074 0 0 0 0 88.952411363687133 -58.691916051795488 0 -58.691916051795488 38.670171098717219 0 0 0 0 5.7934283858341189 -7.054225079456927 0 -7.054225079456927 24.868036087465587 0 0 0 0 109.167387137888 -60.200843267924938 0 -60.200843267924938 34.576957232704444 0 0 0 0 41.376102364648602 -21.744495107946808 0 -21.744495107946808 1.4335340818961706 0 0 0 0 60.426772877020994 -73.89196377043956 0 -73.89196377043956 -94.113968839941236 0 0 0 0 30.130620080082736 -23.893057271397538 0 -23.893057271397538 -16.192164881500503 0 0 0 0 24.95271922784741 -27.015716408112212 0 -27.015716408112212 -3.9971419804255106 0 0 0 0 24.309126763056241 -21.479353234022142 0 -21.479353234022142 15.547862455553286 0 0 0 0 54.791978675987878 -24.816351369295177 0 -24.816351369295177 13.076703456238267 0 0 0 0 75.590030385632417 -43.83797386471376 0 -43.83797386471376 -39.365843396453059 0 0 0 0 50.211481108897715 -47.347008085539507 0 -47.347008085539507 -15.560849947641586 0 0 0 0 34.307912744450732 -69.594352523265883 0 -69.594352523265883 -46.154883810059729 0 0 0 0 29.477634541952284 -89.075231097675939 0 -89.075231097675939 -26.735996728862574 0 0 0 0 29.050702047388768 -67.874149106893199 0 -67.874149106893199 -0.23696500353498878 0 0 0 0 19.205716927972389 -15.97387578664812 0 -15.97387578664812 -22.645009180318532 0 0 0 0 -7.0082582360191736 -11.950662283900359 0 -11.950662283900359 -0.036567095489397891 0 0 0 0 8.896266820003575 1.7532780056377391 0 1.7532780056377391 0.74880891379354064 0 0 0 0 32.8878527241759 -33.806487884728625 0 -33.806487884728625 0.010157922084632552 0 0 0 0 22.634999899019022 -21.514127286769124 0 -21.514127286769124 -22.442340373579089 0 0 0 0 43.120222572470084 -29.702404364304922 0 -29.702404364304922 -35.85150429235739 0 0 0 0 9.0486656598834827 0.29190288523028585 0 0.29190288523028585 -0.6124576763916425 0 0 0 0 60.988442495181857 -14.341142096955188 0 -14.341142096955188 0.29950257889731624 0 0 0 0 48.992029961606022 -18.533474441494036 0 -18.533474441494036 -23.089620482816372 0 0 0 0 54.390949980286109 -11.478360880067243 0 -11.478360880067243 -3.2473166501700419 0 0 0 0 64.653658153227298 -31.120252670531002 0 -31.120252670531002 -36.623485314018794 0 0 0 0 -367.87357463287481 -32.853430407099978 0 -32.853430407099978 66.637709727138599 0 0 0 0 54.990268381723496 3.1063519541621929 0 3.1063519541621929 -4.3346194525676278 0 0 0 0 649.4749087447417 96.154353361327367 0 96.154353361327367 -35.621079873403289 0 0 0 0 609.1906441039755 -86.311314591032556 0 -86.311314591032556 -178.50990994931016 0 0 0 0 58.37109132585465 -325.17421001667253 0 -325.17421001667253 12.040027695668186 0 0 0 0 124.67073549737688 -42.881009611018044 0 -42.881009611018044 -104.85908942875903 0 0 0 0 214.13560903130565 -122.68381920472137 0 -122.68381920472137 -147.00705459994833 0 0 0 0 534.63556124066963 151.96190797211631 0 151.96190797211631 -139.99710827420358 0 0 0 0 252.44971583111328 109.76192678216027 0 109.76192678216027 -109.13610005105352 0 0 0 0 -176.42959575084387 -336.03442203888244 0 -336.03442203888244 -299.38612336211372 0 0 0 0 -63.071735077246558 -76.828953966514518 0 -76.828953966514518 33.024369992153879 0 0 0 0 15.501417986285588 -4.1422047649005549 0 -4.1422047649005549 1.0852726228864285 0 0 0 0 114.01515096411043 -6.1479814759251141 0 -6.1479814759251141 -8.8747111807410199 0 0 0 0 123.06570616638055 -36.608220571756647 0 -36.608220571756647 -20.191896585083668 0 0 0 0 152.51619749188103 -71.168309770557244 0 -71.168309770557244 20.024911056550991 0 0 0 0 110.33636142445175 -67.55078089537983 0 -67.55078089537983 54.610772943272423 0 0 0 0 -60.600011399044888 -56.491790947166919 0 -56.491790947166919 -4.3497024372224189 0 0 0 0 276.44849598561632 -184.29176522747821 0 -184.29176522747821 27.261956568084315 0 0 0 0 -1.7011459619366178 1.7447396035412339 0 1.7447396035412339 -0.37616403838770296 0 0 0 0 137.12143478174403 115.40789029177085 0 115.40789029177085 -0.50785491782698955 0 0 0 0 -109.19115001919272 28.878274303817307 0 28.878274303817307 55.824388857501617 0 0 0 0 -10.135542191419518 -53.681719396559856 0 -53.681719396559856 109.16711688380792 0 0 0 0 -9.3843148747303076 -6.5007857312186559 0 -6.5007857312186559 18.033020574783734 0 0 0 0 100.1000198865222 -73.606500162515658 0 -73.606500162515658 54.426453198411494 0 0 0 0 -94.380899649142521 63.685392176801457 0 63.685392176801457 29.342920066010556 0 0 0 0 -11.270951598696456 -3.063900169049532 0 -3.063900169049532 22.434868568758692 0 0 0 0 147.91766880062642 -160.99626959192273 0 -160.99626959192273 230.13777744211302 0 0 0 0 498.07483763911296 -391.30426664098025 0 -391.30426664098025 45.302570586238744 0 0 0 0 353.19448762251704 18.330270121439924 0 18.330270121439924 -81.921279501357276 0 0 0 0 229.18745131547621 -98.193567867215393 0 -98.193567867215393 -10.794834744230855 0 0 0 0 -378.62866023243987 -304.69262451781054 0 -304.69262451781054 46.974858553598892 0 0 0 0 1931.8503243285522 -290.35501840122856 0 -290.35501840122856 13.676462278725799 0 0 0 0 477.86880358505005 27.484884986350039 0 27.484884986350039 16.701140170486497 0 0 0 0 30.584042334265519 -1.1698778700025656 0 -1.1698778700025656 -0.40657041275232919 0 0 0 0 2232.2928232091072 -223.98861561255285 0 -223.98861561255285 -814.50458376092911 0 0 0 0 -126.1284018917504 648.85059048211292 0 648.85059048211292 393.44562854440528 0 0 0 0 14.033672323508654 -3.6202024628033769 0 -3.6202024628033769 1.6897948108451004 0 0 0 0 -127.24224056454841 -173.75701716748995 0 -173.75701716748995 -233.93585835565051 0 0 0 0 22.445445724576246 -9.4951217981960241 0 -9.4951217981960241 5.2752422548588083 0 0 0 0 19.224278093559974 -5.4427585548594521 0 -5.4427585548594521 1.4617288842882807 0 0 0 0 0.39666033256798983 190.0659666425554 0 190.0659666425554 -1264.7054018292642 0 0 0 0 27.931997986277565 551.46710246002021 0 551.46710246002021 -915.00274460891433 0 0 0 0 0.36324202302313324 3.3855864092390675 0 3.3855864092390675 -0.33293054170903075 0 0 0 0 8.7754951685201377 681.39249328832284 0 681.39249328832284 -662.71272801569739 0 0 0 0 -555.67519397985598 37.698896462528182 0 37.698896462528182 1317.1777090786291 0 0 0 0 -735.80837675509974 -367.21877851734325 0 -367.21877851734325 410.6253315142867 0 0 0 0 -1.4366611163131893 -26.2671902403888 0 -26.2671902403888 -429.74460360537296 0 0 0 0 11.018522719374459 -0.81074362741193795 0 -0.81074362741193795 4.842838827368265 0 0 0 0 -1018.3054934411412 411.50973700995473 0 411.50973700995473 294.95117721903716 0 0 0 0 -136.51679986537783 -211.76746252181442 0 -211.76746252181442 -472.31178264725168 0 0 0 0 229.26126208202913 -762.33770534137295 0 -762.33770534137295 597.22762054627492 0 0 0 0 -214.48791053466266 -165.14147556416992 0 -165.14147556416992 289.55952022839483 0 0 0 0 243.96092639147901 -345.06569719302246 0 -345.06569719302246 -7.6564985189670551 0 0 0 0 237.59050383682552 -383.04467696285843 0 -383.04467696285843 80.620885670803546 0 0 0 0 -9.3677937871923405 -2.111426372355794 0 -2.111426372355794 10.313446714491457 0 0 0 0 -182.14935784743284 -66.071811277895449 0 -66.071811277895449 260.60822186546011 0 0 0 0 -169.64676209636673 162.16138674064985 0 162.16138674064985 138.24933627776147 0 0 0 0 33.916901258082362 -350.85835377236708 0 -350.85835377236708 -328.33879134036215 0 0 0 0 679.96165332131204 182.77701250100199 0 182.77701250100199 -674.15954562373736 0 0 0 0 252.38076966283552 208.38928650953176 0 208.38928650953176 -466.25901705008255 0 0 0 0 1042.0324284316157 209.43660918297087 0 209.43660918297087 38.55538083140118 0 0 0 0 96.955245622142684 -551.88931164510404 0 -551.88931164510404 265.25265503064475 0 0 0 0 402.22751525207423 142.47790693284969 0 142.47790693284969 51.686145754622203 0 0 0 0 9.540597121271901 -11.036518389744231 0 -11.036518389744231 10.803552520470717 0 0 0 0 927.54335098885349 -493.83891977694225 0 -493.83891977694225 58.669500957538276 0 0 0 0 -46.289002677280223 -866.06566416224769 0 -866.06566416224769 256.28687027923343 0 0 0 0 1386.3921068569762 -738.52990668581174 0 -738.52990668581174 -417.58898499886209 0 0 0 0 724.49581367283827 879.96082806689856 0 879.96082806689856 591.14179274225864 0 0 0 0 1846.9554376592569 119.38340366515968 0 119.38340366515968 -561.50212487173872 0 0 0 0 601.41877028380986 207.04967026276245 0 207.04967026276245 -567.27830698100763 0 0 0 0 726.48009813515819 104.84169188944725 0 104.84169188944725 -935.21803352388861 0 0 0 0 665.85410387397314 -727.39350852116343 0 -727.39350852116343 -413.47505442142335 0 0 0 0 -766.47176255504019 -599.91625768981112 0 -599.91625768981112 131.23118102211737 0 0 0 0 -61.667375785153126 -2.3252193772709688 0 -2.3252193772709688 -1081.3355036761745 0 0 0 0 96.282812386314617 -1293.2418920764612 0 -1293.2418920764612 146.34335539883062 0 0 0 0 944.52105509629473 982.88866824477736 0 982.88866824477736 1370.6186848912412 0 0 0 0 17.569273866781145 -9.6517253668458238 0 -9.6517253668458238 5.8400064690978297 0 0 0 0 90.910116777347866 -864.74561423973319 0 -864.74561423973319 144.97360606271852 0 0 0 0 1030.9142681682715 -1012.1470222753233 0 -1012.1470222753233 -11.715652150046481 0 0 0 0 -57.488116548323887 -1103.4996020995145 0 -1103.4996020995145 75.666543266392182 0 0 0 0 1220.8270629166218 -1569.2341748973552 0 -1569.2341748973552 124.8404251199654 0 0 0 0 616.72638979498879 -216.08641098548014 0 -216.08641098548014 -1354.8382685490469 0 0 0 0 3306.0469135318999 -1613.5364084075436 0 -1613.5364084075436 -659.34535274543884 0 0 0 0 4334.255841477614 2153.4538235241284 0 2153.4538235241284 -3371.0000069320431 0 0 0 0 4361.5638785932097 -1743.2567257632472 0 -1743.2567257632472 2041.8976044483786 0 0 0 0 -25.725708522615605 -72.678030249924632 0 -72.678030249924632 4.8916788028636802 0 0 0 0 -18.117160157751641 -92.252110199867275 0 -92.252110199867275 49.209639213648188 0 0 0 0 -3.3418597789568594 -114.7371635401305 0 -114.7371635401305 -19.384099740369493 0 0 0 0 -418.88561802232289 1401.0943464885208 0 1401.0943464885208 -789.15860385837004 0 0 0 0 7.0850095266650897 -88.952569564422447 0 -88.952569564422447 10.750950131070567 0 0 0 0 6.9986798511090456 -94.846287668671721 0 -94.846287668671721 46.055357614155582 0 0 0 0 10.339345233660424 -95.242358164181496 0 -95.242358164181496 14.357746948178828 0 0 0 0 -11.469446767427144 -112.87502400867015 0 -112.87502400867015 26.498927155760612 0 0 0 0 42.858018130355049 -117.44620379597654 0 -117.44620379597654 25.241827398675014 0 0 0 0 -55.131622791479458 -79.432014955053091 0 -79.432014955053091 13.811449279644876 0 0 0 0 36.139445638444158 -69.633570161891839 0 -69.633570161891839 -19.871484976254578 0 0 0 0 12.458599888894241 -109.84974495924325 0 -109.84974495924325 11.839919547419868 0 0 0 0 20.761841886378534 -45.531716150217107 0 -45.531716150217107 -44.538586327751545 0 0 0 0 79.551836751910741 -93.942213762082247 0 -93.942213762082247 -22.285618005793367 0 0 0 0 -417.88380309866295 306.43295558908193 0 306.43295558908193 -130.59443350453512 0 0 0 0 -150.36133115614939 81.186884890170404 0 81.186884890170404 55.557921669947973 0 0 0 0 -40.577992177117267 -132.24525842707044 0 -132.24525842707044 9.8788556554063689 0 0 0 0 44.139104123241566 -44.382743474457499 0 -44.382743474457499 32.096849582152089 0 0 0 0 -169.36638419621158 191.96641287042803 0 191.96641287042803 -289.84061054915583 0 0 0 0 148.01360954344273 -43.90015067875629 0 -43.90015067875629 -36.90586187511326 0 0 0 0 -129.99051569768926 -142.19815520030716 0 -142.19815520030716 -183.99875126875759 0 0 0 0 37.760842533795397 -27.230065273729409 0 -27.230065273729409 20.270150795382843 0 0 0 0 -108.50025055368314 -275.82313494226219 0 -275.82313494226219 236.30846216020291 0 0 0 0 7.7639288613572717 6.4211276280057064 0 6.4211276280057064 -9.8347251163345391 0 0 0 0 87.756029508884239 -81.370515722039272 0 -81.370515722039272 -35.680059274269297 0 0 0 0 80.341578877181746 -66.320542693079915 0 -66.320542693079915 -48.380113495892147 0 0 0 0 231.54744466819466 -43.300111369814658 0 -43.300111369814658 -157.7838155094887 0 0 0 0 48.692050692861727 -24.921103110237937 0 -24.921103110237937 0.50320790823199246 0 0 0 0 6.8460327685277775 -118.70225622557909 0 -118.70225622557909 34.896941925238025 0 0 0 0 48.751344983619219 -48.15169819116386 0 -48.15169819116386 33.629334417960706 0 0 0 0 53.673189360182732 -51.688770220483093 0 -51.688770220483093 57.45605113118927 0 0 0 0 63.377299282816239 -108.56240491435642 0 -108.56240491435642 27.458761957920615 0 0 0 0 134.60143340462105 -66.004204893524673 0 -66.004204893524673 27.635030710369392 0 0 0 0 31.309926273504971 -35.313087545892813 0 -35.313087545892813 42.274973213664452 0 0 0 0 163.24345389709924 -105.86188585161835 0 -105.86188585161835 78.800836085683841 0 0 0 0 152.71214458459872 -47.412189576868514 0 -47.412189576868514 20.382229116371491 0 0 0 0 295.24513053945702 36.221978446995081 0 36.221978446995081 -25.925037943061398 0 0 0 0 133.88395876713435 -6.943121095918201 0 -6.943121095918201 -6.3784836373379221 0 0 0 0 230.99141496565426 -51.272840909708975 0 -51.272840909708975 3.5879814888767214 0 0 0 0 150.10862571054895 -50.585065060210582 0 -50.585065060210582 -21.058791888874111 0 0 0 0 145.753840905576 19.289139697716621 0 19.289139697716621 -10.899490831978255 0 0 0 0 199.71044610708486 75.370024137571818 0 75.370024137571818 34.467923039295783 0 0 0 0 583.90476276956906 -134.35663465346897 0 -134.35663465346897 -71.174705265319062 0 0 0 0 288.02503295014321 85.932498614501583 0 85.932498614501583 -41.248700525416098 0 0 0 0 247.69499814666051 -163.91955190594763 0 -163.91955190594763 -67.058015126056944 0 0 0 0 281.45155606599292 64.284933125474709 0 64.284933125474709 -76.126163736736999 0 0 0 0 148.67760283718235 39.099465498171412 0 39.099465498171412 -20.173701401616199 0 0 0 0 521.85082716101897 128.8075483820603 0 128.8075483820603 -31.226954117100831 0 0 0 0 44.416094923217315 173.96920127144585 0 173.96920127144585 180.08749516271382 0 0 0 0 375.89379256672692 -152.9826087283891 0 -152.9826087283891 69.849236201363965 0 0 0 0 336.13009078409232 -105.2106253572706 0 -105.2106253572706 90.44099382020795 0 0 0 0 776.39295684176614 -183.17816766170472 0 -183.17816766170472 75.111218887578616 0 0 0 0 113.68460857628105 -7.8786096269977151 0 -7.8786096269977151 -5.5567531179048357 0 0 0 0 342.94712884747423 -279.0304812463628 0 -279.0304812463628 352.49643775571531 0 0 0 0 -555.45113399252295 -169.18543195112215 0 -169.18543195112215 -417.1474576452797 0 0 0 0 1490.0394443071127 539.55685130724396 0 539.55685130724396 -739.25664773278913 0 0 0 0 -64.309222595096799 -103.09622313190653 0 -103.09622313190653 92.594666728723496 0 0 0 0 12.440073810637216 1.5220855517791279 0 1.5220855517791279 -0.0016349839059248694 0 0 0 0 123.6999268871441 -110.4191612878185 0 -110.4191612878185 37.013167376148886 0 0 0 0 242.23384681058815 -81.04365428287656 0 -81.04365428287656 -69.29334935078839 0 0 0 0 -711.80809317130479 249.39345077608232 0 249.39345077608232 665.41863831940827 0 0 0 0 822.89501130275312 422.91367410586463 0 422.91367410586463 243.02682559523419 0 0 0 0 4.1286861846718352 -0.86448786862987959 0 -0.86448786862987959 -0.040142642808191686 0 0 0 0 391.02312599032302 213.48008003938986 0 213.48008003938986 -85.180463655353378 0 0 0 0 -28.098454825987574 -122.36011510168788 0 -122.36011510168788 -105.71075170206711 0 0 0 0 301.12501813040581 194.1724469022908 0 194.1724469022908 -87.890347984369271 0 0 0 0 -179.74895300051139 28.846871165218573 0 28.846871165218573 -19.026216711747452 0 0 0 0 -138.72332810785156 -88.294787383347739 0 -88.294787383347739 91.17738527074448 0 0 0 0 -281.78063316264888 -67.493085212637652 0 -67.493085212637652 131.19222310057307 0 0 0 0 323.90398847179313 45.015588724625474 0 45.015588724625474 -206.03970344878888 0 0 0 0 6.2919990223908826 -1.4674686401999253 0 -1.4674686401999253 -0.15569008000757523 0 0 0 0 -173.89915640398976 -0.24477937397318783 0 -0.24477937397318783 -1.6993538779674964 0 0 0 0 158.15631380560808 75.258528639655651 0 75.258528639655651 7.7216897207420061 0 0 0 0 163.07815775228664 -60.022711975874699 0 -60.022711975874699 -57.922394287574321 0 0 0 0 141.29317940719193 18.691240429976915 0 18.691240429976915 -179.93603469074128 0 0 0 0 192.56788909051102 -80.795689974552261 0 -80.795689974552261 -190.97145006897836 0 0 0 0 214.31694240990328 -37.725443655892263 0 -37.725443655892263 -176.23730597931808 0 0 0 0 225.27121859742329 -24.767709805046707 0 -24.767709805046707 -280.65656641508463 0 0 0 0 -293.95148152170805 229.50032048114852 0 229.50032048114852 101.36642857401011 0 0 0 0 -235.8484243110579 -94.931983908805506 0 -94.931983908805506 -38.653649424954892 0 0 0 0 -119.46730292623397 -241.37076492510818 0 -241.37076492510818 -58.482943098400369 0 0 0 0 59.957103511187597 -145.84524538213481 0 -145.84524538213481 0.51948976816629322 0 0 0 0 -10.487315743201179 -235.40191791392084 0 -235.40191791392084 -74.793453539492873 0 0 0 0 73.077752690704074 -103.03745236584783 0 -103.03745236584783 -54.685734259338048 0 0 0 0 -26.608269573334837 -212.87176408810953 0 -212.87176408810953 -177.77908613087661 0 0 0 0 -66.233854054589756 -104.29367206289113 0 -104.29367206289113 -9.4394142087624502 0 0 0 0 443.55523866802105 -31.845106468263964 0 -31.845106468263964 -108.51714860604073 0 0 0 0 325.01240898238029 170.40126533752502 0 170.40126533752502 -68.610470898016558 0 0 0 0 543.20177293446613 366.32943262366291 0 366.32943262366291 36.509338052837819 0 0 0 0 2.1006369117939698 -0.42771946645632397 0 -0.42771946645632397 0.28775283115762373 0 0 0 0 -47.927772011549678 58.018931028748057 0 58.018931028748057 -14.158054822011877 0 0 0 0 2.3447675907233929 -0.35670619771154577 0 -0.35670619771154577 -0.097502452116977806 0 0 0 0 15.822714928421192 -26.897690472930702 0 -26.897690472930702 -23.766560717663218 0 0 0 0 112.77140035427874 63.747773046347618 0 63.747773046347618 -125.40619582833492 0 0 0 0 63.913451197673567 112.79361480143385 0 112.79361480143385 -18.233018434964258 0 0 0 0 -61.399542142164137 -30.262615512179103 0 -30.262615512179103 -0.24335451585062318 0 0 0 0 57.681457733677235 12.756441880727458 0 12.756441880727458 -144.5774745393656 0 0 0 0 4.2562432745306751 0.11714873872324461 0 0.11714873872324461 -0.69606484113445233 0 0 0 0 -61.184750962187536 -27.522675919671201 0 -27.522675919671201 32.590602809050267 0 0 0 0 20.307990441564471 57.489626759916518 0 57.489626759916518 -154.39605108702062 0 0 0 0 61.768867779290304 45.658702028324342 0 45.658702028324342 -151.28032645902249 0 0 0 0 -43.783956325263716 -58.030729264650205 0 -58.030729264650205 -177.9164304089127 0 0 0 0 5.2523374832817353 -163.43224970633912 0 -163.43224970633912 -192.0529511827749 0 0 0 0 -218.82898027755436 -10.349862326147843 0 -10.349862326147843 -68.169586660127607 0 0 0 0 -161.81632195971906 -104.19724775502686 0 -104.19724775502686 -91.136668766410367 0 0 0 0 2.1252642658211585 0.084912519849638102 0 0.084912519849638102 -0.54985411757022407 0 0 0 0 -38.712782773829531 -32.974579764797795 0 -32.974579764797795 -11.740139400264525 0 0 0 0 165.00350986234844 -126.28272236483917 0 -126.28272236483917 -282.87181831937346 0 0 0 0 -61.126131632248871 -105.84273623122272 0 -105.84273623122272 -114.38430429470577 0 0 0 0 -70.736378660967603 14.507417292537717 0 14.507417292537717 -68.860899045477254 0 0 0 0 175.07699087436777 -81.632206101873635 0 -81.632206101873635 -207.57153627637007 0 0 0 0 172.18938020191854 -74.020004351017633 0 -74.020004351017633 -147.56898052978659 0 0 0 0 185.41532854488469 -52.548250216841609 0 -52.548250216841609 -171.87513804862101 0 0 0 0 52.595338283048477 -102.06830438020461 0 -102.06830438020461 -134.00748784725988 0 0 0 0 147.59198469917465 -15.006113526639439 0 -15.006113526639439 -56.695333528527044 0 0 0 0 130.52226703451015 -17.360280697916096 0 -17.360280697916096 -53.526053131557774 0 0 0 0 168.25898137153126 -50.344083138583983 0 -50.344083138583983 -77.010145646606816 0 0 0 0 17.489563679177081 18.981004373835503 0 18.981004373835503 -33.857852115698279 0 0 0 0 -20.96496451710118 -24.718830346117556 0 -24.718830346117556 17.606236737446579 0 0 0 0 54.961030839884188 -32.390368116000445 0 -32.390368116000445 -73.355441165406319 0 0 0 0 40.125030562223401 -0.72389071178281483 0 -0.72389071178281483 25.692800465811956 0 0 0 0 65.814890961395577 -5.5926177865944737 0 -5.5926177865944737 25.031839773215722 0 0 0 0 -4.2585540881264023 19.182065199262979 0 19.182065199262979 23.140270099192321 0 0 0 0 53.225325888575753 55.43555645712047 0 55.43555645712047 -41.794345619784963 0 0 0 0 15.993176097603282 43.002584887963963 0 43.002584887963963 -44.947067275149948 0 0 0 0 -4.3627801670809276 76.438393948479529 0 76.438393948479529 -97.305970167198439 0 0 0 0 -54.818029382557143 -6.6935238110352202 0 -6.6935238110352202 -42.349132929106645 0 0 0 0 17.299166916141985 73.986698770585093 0 73.986698770585093 -122.26684500507599 0 0 0 0 9.6535371713762288 39.321666342493614 0 39.321666342493614 -112.91840326950523 0 0 0 0 -92.092019389849156 97.729869652759362 0 97.729869652759362 -139.24475705444263 0 0 0 0 60.144518512257491 39.46867210997101 0 39.46867210997101 -84.820885323794073 0 0 0 0 65.578218490700237 37.234028429216551 0 37.234028429216551 -138.14912932283642 0 0 0 0 31.042588343378156 51.436574054598168 0 51.436574054598168 -88.317474562130428 0 0 0 0 54.792253588442691 72.8001940789743 0 72.8001940789743 -53.97646927965252 0 0 0 0 61.909999041410629 64.39753734000783 0 64.39753734000783 -97.556165657141605 0 0 0 0 77.527014878578484 70.749463006012093 0 70.749463006012093 -92.157676346722837 0 0 0 0 77.745518375770189 58.093742205602439 0 58.093742205602439 -46.428423450568516 0 0 0 0 82.088759293292242 78.282799393087274 0 78.282799393087274 -21.617633124806616 0 0 0 0 71.737786488141865 25.482305306220496 0 25.482305306220496 -3.8337702003718732 0 0 0 0 142.2681274493043 53.573843580815868 0 53.573843580815868 -11.653916083831973 0 0 0 0 -208.48543996497756 -147.98256866325573 0 -147.98256866325573 -261.35577354633733 0 0 0 0 82.584252446366008 50.547707149965163 0 50.547707149965163 3.1772666352840133 0 0 0 0 60.597925654932624 -65.285487285301429 0 -65.285487285301429 127.63937758033899 0 0 0 0 50.182776305009611 33.808138914790106 0 33.808138914790106 20.794874064970372 0 0 0 0 149.76451211929088 -32.68151543947306 0 -32.68151543947306 37.670903643585632 0 0 0 0 14.828728674910963 -11.751465367613719 0 -11.751465367613719 194.57039441059464 0 0 0 0 424.53935225616442 282.86897061993295 0 282.86897061993295 -574.90758282071056 0 0 0 0 101.61726296197526 -5.0171675926009698 0 -5.0171675926009698 -4.2590450986265971 0 0 0 0 99.492705860931892 82.374850680466125 0 82.374850680466125 146.82689643347248 0 0 0 0 290.26648804085562 -2.0855319434701869 0 -2.0855319434701869 -67.756643545487265 0 0 0 0 219.13227404284407 82.583526543973903 0 82.583526543973903 54.199908799630975 0 0 0 0 36.65725488809403 16.177123441563822 0 16.177123441563822 106.10358870050686 0 0 0 0 3.9257146812160499 11.586542966617117 0 11.586542966617117 106.53055236667637 0 0 0 0 54.642570895288372 -105.26654143043743 0 -105.26654143043743 260.87656119065923 0 0 0 0 14.881161714583868 -21.048959160957111 0 -21.048959160957111 122.61718232953899 0 0 0 0 27.930248344666325 -74.313835526694675 0 -74.313835526694675 143.10983509321159 0 0 0 0 62.629405769868754 34.89196197162164 0 34.89196197162164 -230.50784346051114 0 0 0 0 38.756916366384701 6.7475138249562079 0 6.7475138249562079 1.965591887278066 0 0 0 0 33.93327687663259 -28.382806933771462 0 -28.382806933771462 85.854900005188028 0 0 0 0 50.189886778913205 -28.27346790287811 0 -28.27346790287811 84.712513008485075 0 0 0 0 13.677235843507333 -7.6036964807345555 0 -7.6036964807345555 -5.643075679110467 0 0 0 0 25.047441981463635 -57.429328590344539 0 -57.429328590344539 66.162120869617866 0 0 0 0 26.082974942459259 29.182353970425538 0 29.182353970425538 -267.75988928306697 0 0 0 0 53.099089881958207 -66.643325216602534 0 -66.643325216602534 23.68272662876916 0 0 0 0 52.518023595170234 78.455868992406067 0 78.455868992406067 -314.81001503296193 0 0 0 0 71.539922771451529 -21.568801376670308 0 -21.568801376670308 45.442967479910067 0 0 0 0 71.277399326179875 -34.954317563378936 0 -34.954317563378936 3.4354768339580914 0 0 0 0 38.891475427021987 -17.181860393716235 0 -17.181860393716235 -2.9404894879965688 0 0 0 0 41.777501260119607 -9.3451387826235077 0 -9.3451387826235077 -27.529124798104021 0 0 0 0 83.769284071792185 -59.47104983200424 0 -59.47104983200424 -6.2299856956376622 0 0 0 0 56.288181772339158 -31.792760739759615 0 -31.792760739759615 -69.354985707663218 0 0 0 0 92.036504446971378 9.8261536431345888 0 9.8261536431345888 -22.555893042090759 0 0 0 0 86.225010717974612 10.385773018298977 0 10.385773018298977 -25.481378631435298 0 0 0 0 57.037076468819862 -0.66439613093286454 0 -0.66439613093286454 -10.022994955127164 0 0 0 0 108.86625413181173 46.150989759676577 0 46.150989759676577 -203.03623459101163 0 0 0 0 77.735430509407536 8.9210500935067074 0 8.9210500935067074 -4.651581843232524 0 0 0 0 113.31516703131638 37.033360894861858 0 37.033360894861858 -80.654605630323204 0 0 0 0 104.53365378084874 -1.7273118091837389 0 -1.7273118091837389 -3.3303155095076176 0 0 0 0 19.548743777877974 3.0171970893661921 0 3.0171970893661921 -4.8796446195644467 0 0 0 0 55.379277082454792 -11.880557389281147 0 -11.880557389281147 -78.42764818135322 0 0 0 0 87.022284357565809 -7.0166507756540852 0 -7.0166507756540852 -8.0043283344048675 0 0 0 0 77.324546782823745 45.886131945373108 0 45.886131945373108 10.713067549250695 0 0 0 0 65.897451728698798 33.221351898360126 0 33.221351898360126 1.0854520319039693 0 0 0 0 170.98089459364564 221.38368371962792 0 221.38368371962792 -354.65268697722513 0 0 0 0 58.880376157663704 11.517869712480348 0 11.517869712480348 -34.039868506559287 0 0 0 0 101.76212338055484 51.296412265224035 0 51.296412265224035 -39.308822781412431 0 0 0 0 95.791369600570761 70.091673648018059 0 70.091673648018059 -28.909712182848011 0 0 0 0 92.922533728706185 69.031365512747357 0 69.031365512747357 -29.069205343029239 0 0 0 0 86.806029371953628 84.716855287377257 0 84.716855287377257 -52.544092147749097 0 0 0 0 71.327753756195307 72.102506220958503 0 72.102506220958503 -55.843175975695544 0 0 0 0 88.145836870571657 81.394573274091655 0 81.394573274091655 -59.728714941383714 0 0 0 0 42.608112039044499 51.398250265129832 0 51.398250265129832 -48.209310763878591 0 0 0 0 85.252923350635683 90.351716157465731 0 90.351716157465731 -42.730792840756749 0 0 0 0 85.478461681399494 88.798961451128434 0 88.798961451128434 -43.728999988328042 0 0 0 0 124.89627379260492 91.209483503650631 0 91.209483503650631 -57.268090832745656 0 0 0 0 94.560773240329581 70.567704909333912 0 70.567704909333912 -69.046215568775551 0 0 0 0 121.26604977338684 46.681174465103446 0 46.681174465103446 -136.24874629057069 0 0 0 0 81.170045214792481 8.4405717641281939 0 8.4405717641281939 -117.57911581434701 0 0 0 0 149.33756884642935 112.05455870134729 0 112.05455870134729 -100.37177084558465 0 0 0 0 2.224764984276419 0.170959427413095 0 0.170959427413095 -0.17750332385922069 0 0 0 0 169.64983262628084 176.1590824842784 0 176.1590824842784 16.375997514873063 0 0 0 0 50.430324364890112 159.84711141686864 0 159.84711141686864 173.85337462610457 0 0 0 0 62.205874824896455 6.9730320333687148 0 6.9730320333687148 0.076066165257442087 0 0 0 0 -78.165018109895755 -169.32778793648433 0 -169.32778793648433 30.349418691782777 0 0 0 0 201.89846039836993 175.3910443864068 0 175.3910443864068 -152.71552857257515 0 0 0 0 40.603139420156367 -22.557413486045391 0 -22.557413486045391 -94.103766604864404 0 0 0 0 19.131040153952199 0.62605320329660685 0 0.62605320329660685 11.357841106421915 0 0 0 0 67.318668329564389 45.252848487212248 0 45.252848487212248 -81.156559788511686 0 0 0 0 71.718979113327805 86.226985963070604 0 86.226985963070604 -6.679356175293492 0 0 0 0 27.508745624392759 43.849285448871115 0 43.849285448871115 123.65419055429652 0 0 0 0 97.282886726781726 134.98230616977816 0 134.98230616977816 55.770477657818105 0 0 0 0 323.95793581407634 -23.987151930849194 0 -23.987151930849194 -48.532032712665824 0 0 0 0 197.05948211324994 -43.530047567485902 0 -43.530047567485902 23.677573292456426 0 0 0 0 -1.8634270164242253 -0.44632127254911325 0 -0.44632127254911325 0.57162071040917994 0 0 0 0 175.6492013981333 -7.5110261343433287 0 -7.5110261343433287 0.34563170636809848 0 0 0 0 75.219370306731435 -209.64027113668897 0 -209.64027113668897 -93.764799663250869 0 0 0 0 369.98588738498802 173.02474029625512 0 173.02474029625512 5.2268830427130126 0 0 0 0 191.31572144378151 38.168348388195923 0 38.168348388195923 -28.286904441057601 0 0 0 0 136.56961776726166 23.450744232725739 0 23.450744232725739 -192.27878651768134 0 0 0 0 169.21022746042581 -48.3048457400823 0 -48.3048457400823 -104.98049220657525 0 0 0 0 160.76530055976036 103.48558729781161 0 103.48558729781161 -141.55736624173983 0 0 0 0 102.54325099838024 61.748425980294485 0 61.748425980294485 -0.2220418948400642 0 0 0 0 36.796380636922549 54.458709781164544 0 54.458709781164544 -130.07513770963351 0 0 0 0 138.69644365391287 23.674288115054424 0 23.674288115054424 -189.42475849770835 0 0 0 0 79.499146854987146 14.674074340811998 0 14.674074340811998 3.3844006279845185 0 0 0 0 99.355875037681869 1.6612594904441451 0 1.6612594904441451 -1.7386902904567791 0 0 0 0 67.74048495705938 18.91536535418345 0 18.91536535418345 -102.60862094497179 0 0 0 0 85.953243794102946 -10.642974535361915 0 -10.642974535361915 -24.106649016894153 0 0 0 0 80.394082701997831 51.266336070303396 0 51.266336070303396 -67.918491654774357 0 0 0 0 84.484926531766178 -5.6735744907008012 0 -5.6735744907008012 -35.960961441193966 0 0 0 0 46.78037855130961 11.232415584709855 0 11.232415584709855 -41.484136876239354 0 0 0 0 100.38724551064661 -29.87471259688391 0 -29.87471259688391 -143.74563490675064 0 0 0 0 79.841803233546671 24.20674149676961 0 24.20674149676961 -98.592359451678931 0 0 0 0 104.93420911853499 19.30608055519815 0 19.30608055519815 -33.314147362582332 0 0 0 0 150.39612172878697 46.850082165433378 0 46.850082165433378 -123.60002508630896 0 0 0 0 133.04846082085351 -5.30201775563296 0 -5.30201775563296 -84.466995810944354 0 0 0 0 150.94258823641576 46.39505211449432 0 46.39505211449432 -125.22124643465804 0 0 0 0 209.56602559056773 -40.801989419060192 0 -40.801989419060192 -91.39648203680099 0 0 0 0 208.05732575882575 11.222431721220346 0 11.222431721220346 -130.86677645850068 0 0 0 0 111.66615533725417 74.637621258359104 0 74.637621258359104 -112.09211565839496 0 0 0 0 100.76989455914008 -38.770374129965603 0 -38.770374129965603 -69.57062822435023 0 0 0 0 126.32532587573223 -43.698601267773483 0 -43.698601267773483 -30.668649767612806 0 0 0 0 99.444789355220394 10.579992197718354 0 10.579992197718354 -27.298482633463856 0 0 0 0 87.874511774549319 -66.575969328743668 0 -66.575969328743668 -25.921288087471112 0 0 0 0 126.44172453427745 -31.104202592723595 0 -31.104202592723595 4.4807954126154073 0 0 0 0 67.951718082986304 -27.007274955253493 0 -27.007274955253493 4.0338066183825845 0 0 0 0 52.312013988674153 -56.308561080799336 0 -56.308561080799336 47.405301578903504 0 0 0 0 41.619720665476052 -37.586846008980501 0 -37.586846008980501 -32.046583011111579 0 0 0 0 68.216798425647085 -40.76986855198048 0 -40.76986855198048 -0.4110463707341161 0 0 0 0 139.09264056106622 -67.609341838862747 0 -67.609341838862747 -42.012349713053482 0 0 0 0 99.915698366370634 -86.179800101843284 0 -86.179800101843284 -44.695126412749232 0 0 0 0 151.51930879522115 -35.655833842105494 0 -35.655833842105494 -34.904083307140354 0 0 0 0 136.15089886302303 -58.945577654281351 0 -58.945577654281351 -67.467034941222664 0 0 0 0 183.4585702305194 -72.159717781449217 0 -72.159717781449217 -63.858609412931401 0 0 0 0 228.1895788399197 -76.031227044430125 0 -76.031227044430125 -78.870322098664474 0 0 0 0 174.97344366917969 -59.121079864839885 0 -59.121079864839885 -80.927020108127181 0 0 0 0 181.33308412786573 -97.418144591485543 0 -97.418144591485543 -45.568743821762837 0 0 0 0 180.01439013378695 -93.827353516380754 0 -93.827353516380754 -42.813820260897046 0 0 0 0 296.95282572058204 -94.114079024235252 0 -94.114079024235252 -79.622629901663458 0 0 0 0 224.48963767293026 -74.136365962878699 0 -74.136365962878699 -77.985460950047127 0 0 0 0 94.67144246098178 -73.748760628404852 0 -73.748760628404852 -47.979216335909769 0 0 0 0 134.75727790476776 -98.222896368200736 0 -98.222896368200736 -38.418144821356691 0 0 0 0 139.15318334891344 -79.653936001262991 0 -79.653936001262991 -51.92335974526577 0 0 0 0 139.98170543333254 -110.01643995696577 0 -110.01643995696577 -11.449969683650124 0 0 0 0 117.35145739237487 -85.452317098561252 0 -85.452317098561252 -33.243913629944473 0 0 0 0 76.607738680853799 -106.59923283500211 0 -106.59923283500211 3.7833695401459408 0 0 0 0 109.27664360956987 -125.55240584705007 0 -125.55240584705007 39.673990268433045 0 0 0 0 97.915849809869542 -90.791848560220387 0 -90.791848560220387 48.648724192793907 0 0 0 0 65.239078151200374 -88.100381848276356 0 -88.100381848276356 9.3929142118904565 0 0 0 0 180.67622411520279 -110.58481223196577 0 -110.58481223196577 -11.442085882174013 0 0 0 0 310.99903361631004 -186.49513348142591 0 -186.49513348142591 45.167964657272933 0 0 0 0 232.74457059125416 -129.23425717392092 0 -129.23425717392092 -19.053692987659815 0 0 0 0 180.08125104643113 -107.96059105804477 0 -107.96059105804477 1.1789936357999977 0 0 0 0 402.82208738857298 29.317658253165973 0 29.317658253165973 -90.742180333816776 0 0 0 0 420.47167735104449 -107.02314056927207 0 -107.02314056927207 -65.591905480157038 0 0 0 0 276.48729356331751 -44.112912671809681 0 -44.112912671809681 -93.059042982433311 0 0 0 0 243.71065064510913 134.92366591090695 0 134.92366591090695 -42.723912403146642 0 0 0 0 31.861415717015916 89.801932715206476 0 89.801932715206476 -12.467055757249909 0 0 0 0 104.10453141592734 53.581371012422096 0 53.581371012422096 -126.29685206991053 0 0 0 0 161.95390526919073 27.150493854263914 0 27.150493854263914 -94.518934237970825 0 0 0 0 183.16714498955116 54.30454409066806 0 54.30454409066806 -90.213144099403195 0 0 0 0 119.31658305060409 75.73002460661337 0 75.73002460661337 -15.849855582611781 0 0 0 0 170.59565634591127 19.630600735920325 0 19.630600735920325 -127.11716377160337 0 0 0 0 123.72791019192664 44.803963753980497 0 44.803963753980497 -97.091933792523378 0 0 0 0 171.3807579748136 14.958767148092875 0 14.958767148092875 -119.78151001143124 0 0 0 0 211.63044496427756 22.824102683287492 0 22.824102683287492 -121.85281220089018 0 0 0 0 173.68616306214244 -4.827511802479421 0 -4.827511802479421 -110.58997011371684 0 0 0 0 232.84080208689556 -30.675080486755178 0 -30.675080486755178 -102.57315581727926 0 0 0 0 239.84614510405299 -27.975215847008258 0 -27.975215847008258 -101.64883164625644 0 0 0 0 255.88269538646273 -45.612179848301821 0 -45.612179848301821 -86.588383728794724 0 0 0 0 265.4288713819551 -0.5839799958284857 0 -0.5839799958284857 -112.69300587655016 0 0 0 0 630.01617001739942 -70.995764715030418 0 -70.995764715030418 22.540485336761947 0 0 0 0 470.34213445521164 -101.38266426902919 0 -101.38266426902919 21.25850827492485 0 0 0 0 3.4723972594836994 -1.4474431165583255 0 -1.4474431165583255 -0.35524209701989129 0 0 0 0 26.134108665976896 159.8829930700569 0 159.8829930700569 -15.581693774433006 0 0 0 0 365.81744244490619 -193.64925317276402 0 -193.64925317276402 -28.429118115122947 0 0 0 0 175.30174028298643 -115.86132910235938 0 -115.86132910235938 135.14502792229541 0 0 0 0 178.04667024027003 -128.82917137324603 0 -128.82917137324603 56.725878639970688 0 0 0 0 40.133643696462968 -83.834152000768881 0 -83.834152000768881 75.995746348042303 0 0 0 0 75.573998726107675 -141.42089796857954 0 -141.42089796857954 141.43078905535367 0 0 0 0 19.277115099706862 -54.968528676413371 0 -54.968528676413371 145.99083254508537 0 0 0 0 45.822328156016738 -97.091752434113459 0 -97.091752434113459 192.70210851861339 0 0 0 0 457.32198443339075 -101.11684455150998 0 -101.11684455150998 81.431264649098011 0 0 0 0 4.2887356442929274 -2.7738876505590531 0 -2.7738876505590531 1.3017098550804604 0 0 0 0 333.27296958871011 -292.01550746719886 0 -292.01550746719886 223.93549057663586 0 0 0 0 34.61477504837967 -49.763634252135489 0 -49.763634252135489 -10.289328957724592 0 0 0 0 43.014618539694993 -20.104511492041141 0 -20.104511492041141 32.941362818834023 0 0 0 0 12.792837447595616 -3.5734012422603509 0 -3.5734012422603509 0.89504878163561674 0 0 0 0 43.039654302981944 7.0075698991834088 0 7.0075698991834088 27.787459343059709 0 0 0 0 64.013113610897562 7.4122262774342289 0 7.4122262774342289 -38.254580477850141 0 0 0 0 429.23645630965621 186.83977252232171 0 186.83977252232171 73.318170745901625 0 0 0 0 107.98092126245319 122.93413537031938 0 122.93413537031938 102.69677711983604 0 0 0 0 588.70095161293466 -104.50952976496649 0 -104.50952976496649 36.851224545674995 0 0 0 0 215.40904877192952 15.947323766095451 0 15.947323766095451 381.09893973109956 0 0 0 0 293.21306900958007 -218.71423009967157 0 -218.71423009967157 324.25656180755311 0 0 0 0 300.72170969921717 -39.230202655023049 0 -39.230202655023049 16.876003841125566 0 0 0 0 376.25753205377259 57.65280118074179 0 57.65280118074179 -11.516460451457533 0 0 0 0 278.47758700220584 -16.074853464927855 0 -16.074853464927855 49.859996323731423 0 0 0 0 243.28040986775522 45.188812234163493 0 45.188812234163493 -7.8011403888949644 0 0 0 0 268.70035058139911 6.4384634789673783 0 6.4384634789673783 -44.601769099812373 0 0 0 0 230.06591520820075 -3.055282988090994 0 -3.055282988090994 16.853918449858725 0 0 0 0 230.75534475212771 -5.9661983191165291 0 -5.9661983191165291 -47.807638892313207 0 0 0 0 233.41897839904595 1.4775281877545012 0 1.4775281877545012 -28.478594021379649 0 0 0 0 165.83683438708977 -23.296439562277101 0 -23.296439562277101 -35.910660698695551 0 0 0 0 254.40936479069205 -59.305737750797789 0 -59.305737750797789 -42.752839698503976 0 0 0 0 272.88280324526568 -29.130054596329273 0 -29.130054596329273 -96.802789819465943 0 0 0 0 251.54040865771094 -1.6239987368634274 0 -1.6239987368634274 -72.542715357686575 0 0 0 0 92.73938860659473 40.675451528170413 0 40.675451528170413 70.59607742592334 0 0 0 0 83.019405660626944 13.24319266128964 0 13.24319266128964 16.226455599001838 0 0 0 0 161.38101931165147 -18.32994420874752 0 -18.32994420874752 3.231333747885401 0 0 0 0 164.70336310929997 21.665300346693584 0 21.665300346693584 -14.553676945447023 0 0 0 0 166.85727535302431 33.629660147792492 0 33.629660147792492 21.015545789082353 0 0 0 0 109.89975689801213 57.490642036394775 0 57.490642036394775 19.502522096297071 0 0 0 0 184.92222410366958 50.713967054027307 0 50.713967054027307 3.2944435459689885 0 0 0 0 186.88938187850727 64.840265187935074 0 64.840265187935074 17.747139757248306 0 0 0 0 68.712558378552785 74.973358809668298 0 74.973358809668298 63.07833451485476 0 0 0 0 13.393364756222581 15.374975957131028 0 15.374975957131028 13.884475022602146 0 0 0 0 77.36829348430183 20.391925151283885 0 20.391925151283885 -0.9080552496106975 0 0 0 0 42.367633976413344 -9.7846473128802245 0 -9.7846473128802245 -7.798697292199904 0 0 0 0 -0.10667604992114121 2.7881511720901102 0 2.7881511720901102 0.072671283714381474 0 0 0 0 62.991508774885006 -2.9681823811206414 0 -2.9681823811206414 -16.835783377313419 0 0 0 0 78.503953477120376 25.984589561426219 0 25.984589561426219 18.921711671040157 0 0 0 0 73.03681688359211 43.626659645509562 0 43.626659645509562 34.812914585913859 0 0 0 0 101.39124518527569 38.995349219572404 0 38.995349219572404 20.606421958677856 0 0 0 0 103.59677963649301 58.012130239361341 0 58.012130239361341 35.468284375990152 0 0 0 0 98.309411100541183 28.852633570451189 0 28.852633570451189 15.647735965560742 0 0 0 0 0.65690337059652393 1.4851248355775795 0 1.4851248355775795 0.13903811326871285 0 0 0 0 226.97385327980192 101.98569056929182 0 101.98569056929182 49.198576358980972 0 0 0 0 337.53643849794753 -30.711650177334491 0 -30.711650177334491 2.4383975455434665 0 0 0 0 143.95329622513964 -20.400222975203633 0 -20.400222975203633 51.892863913122937 0 0 0 0 157.15513530054886 117.32176728059949 0 117.32176728059949 103.68733473157772 0 0 0 0 -160.55077031254586 -6.3788265293650284 0 -6.3788265293650284 87.066105735527799 0 0 0 0 51.274292699657963 107.70487729318756 0 107.70487729318756 -20.898039726454499 0 0 0 0 115.08645753042947 -15.84725638488635 0 -15.84725638488635 95.339472970612405 0 0 0 0 342.81082585458353 -2.1612085256047067 0 -2.1612085256047067 -128.86457929788776 0 0 0 0 140.45976101479755 120.14924089176657 0 120.14924089176657 19.917032329575704 0 0 0 0 50.735337292848271 21.885601087047689 0 21.885601087047689 -77.467157792109901 0 0 0 0 -114.04901523471199 99.265300795947041 0 99.265300795947041 41.390555884222522 0 0 0 0 16.332288207107624 -1.2762319125916974 0 -1.2762319125916974 -0.11471281018890522 0 0 0 0 46.841309376417485 27.202396548621891 0 27.202396548621891 -77.231719443938744 0 0 0 0 96.637622964163086 -22.989369887507124 0 -22.989369887507124 1.6171205030628215 0 0 0 0 73.784047096254653 -13.722405943276499 0 -13.722405943276499 -120.26226661544479 0 0 0 0 120.05466549979974 -0.87791336903615047 0 -0.87791336903615047 -159.57715715789436 0 0 0 0 94.728792521294963 3.9521076180990917 0 3.9521076180990917 17.212197813617422 0 0 0 0 175.19430263380127 -80.88736707918531 0 -80.88736707918531 -120.77489497923398 0 0 0 0 252.54303518262168 45.55909160131398 0 45.55909160131398 62.997414033850191 0 0 0 0 351.11572706772131 -50.636127119974731 0 -50.636127119974731 -86.129949620870775 0 0 0 0 305.59181337757764 110.90733187966646 0 110.90733187966646 35.320319939596629 0 0 0 0 -11.896378866644227 -62.51336567706494 0 -62.51336567706494 -13.933286327618816 0 0 0 0 129.78283167936024 -54.156527577675888 0 -54.156527577675888 -28.87458300889989 0 0 0 0 -21.042777852750078 -33.090760281393045 0 -33.090760281393045 -18.786126448188952 0 0 0 0 -0.79203090468694626 -41.709233421097267 0 -41.709233421097267 16.106572589330622 0 0 0 0 1.584097486542305 -38.846641105965773 0 -38.846641105965773 -63.212176177864421 0 0 0 0 31.361004032216442 -37.967055031471318 0 -37.967055031471318 -38.360634054871753 0 0 0 0 15.056419131189017 -9.9484209564879684 0 -9.9484209564879684 4.3613386925737965 0 0 0 0 -6.4398499027920479 -21.453428520807392 0 -21.453428520807392 16.011053906359848 0 0 0 0 -21.61405535360791 -49.77320204346114 0 -49.77320204346114 60.754991577634428 0 0 0 0 -21.463867933884103 -48.718982822155908 0 -48.718982822155908 28.614576481959375 0 0 0 0 -14.139154022603179 -73.27255785784655 0 -73.27255785784655 53.946836438120954 0 0 0 0 -30.384276124939788 -71.45675207934346 0 -71.45675207934346 47.844409638550133 0 0 0 0 -29.876642336821533 -72.197964916358615 0 -72.197964916358615 48.89501242289225 0 0 0 0 8.7078847154480172 -49.999870189588364 0 -49.999870189588364 17.107777951731919 0 0 0 0 15.447606234291015 -28.398077031489152 0 -28.398077031489152 64.877043402022537 0 0 0 0 7.7480245369370095 -89.398402294285916 0 -89.398402294285916 114.14064695788602 0 0 0 0 -5.5298505146420212 -61.760263499853409 0 -61.760263499853409 68.018688470398047 0 0 0 0 -11.0862671926443 -93.544636301365244 0 -93.544636301365244 80.381879669825139 0 0 0 0 49.880688863806427 -122.98099096190526 0 -122.98099096190526 84.864340442465618 0 0 0 0 36.54828187509338 -94.657592495015706 0 -94.657592495015706 41.124229194127111 0 0 0 0 -38.559253978666675 -80.276479023350021 0 -80.276479023350021 44.621422700522089 0 0 0 0 -27.333964541146997 -73.120027071978257 0 -73.120027071978257 46.885268931848259 0 0 0 0 -32.685620718268183 -84.728744533129202 0 -84.728744533129202 47.171451262536721 0 0 0 0 -28.269517008666298 -71.512125661290156 0 -71.512125661290156 44.310218823920877 0 0 0 0 -26.276321901823394 -84.836387862691481 0 -84.836387862691481 59.264351287054069 0 0 0 0 -24.507703539442446 -66.877531130485295 0 -66.877531130485295 58.746260669398907 0 0 0 0 -13.706339819167624 -83.248851266387646 0 -83.248851266387646 46.375736842703191 0 0 0 0 -34.269563660724089 -78.658113839339421 0 -78.658113839339421 54.560479217041575 0 0 0 0 -18.673836676462088 -79.392297083302765 0 -79.392297083302765 43.594247603581607 0 0 0 0 48.527153382408258 -51.42017483831745 0 -51.42017483831745 38.230953794074239 0 0 0 0 -36.811814177663109 -85.825412196662228 0 -85.825412196662228 40.69446472033087 0 0 0 0 1298.2870282723452 434.01788297628258 0 434.01788297628258 1199.553281418745 0 0 0 0 726.57469279831275 1151.1419408529528 0 1151.1419408529528 491.26500508832896 0 0 0 0 1715.2155412753636 559.9439789406199 0 559.9439789406199 -199.66370212265497 0 0 0 0 6.5740878493878796 -7.4505463558500367 0 -7.4505463558500367 2.6276792526065225 0 0 0 0 1169.2333414306049 146.51911784263439 0 146.51911784263439 -428.25970768639263 0 0 0 0 661.24408018318354 903.61266786576095 0 903.61266786576095 602.47427470508671 0 0 0 0 609.15322821220616 993.89824140432506 0 993.89824140432506 1096.6002811681271 0 0 0 0 373.50764678948326 789.19831193592768 0 789.19831193592768 1351.0902287122892 0 0 0 0 272.31193451856961 655.79688409125436 0 655.79688409125436 1186.62654511142 0 0 0 0 269.69425974326441 -541.45126966474072 0 -541.45126966474072 -1481.5761500601311 0 0 0 0 53.135131411918564 -22.790924451864399 0 -22.790924451864399 4.7368405424789923 0 0 0 0 248.70900908501062 451.49536499586304 0 451.49536499586304 714.38582374981559 0 0 0 0 404.19783472447307 375.18517220796315 0 375.18517220796315 513.61608213564818 0 0 0 0 -453.5982136822422 -26.430634222662775 0 -26.430634222662775 -942.37629907373571 0 0 0 0 397.10572953976225 397.88014554710662 0 397.88014554710662 515.51854278495443 0 0 0 0 380.62048221641453 426.58435248109481 0 426.58435248109481 556.60296023788533 0 0 0 0 490.76318100013305 407.36339369223452 0 407.36339369223452 477.60891497654296 0 0 0 0 374.60173426556867 269.41003326778241 0 269.41003326778241 444.93309479667323 0 0 0 0 369.62223364767851 291.82771750778545 0 291.82771750778545 567.48246841100331 0 0 0 0 619.63358295257785 773.39241537840132 0 773.39241537840132 234.32356106935151 0 0 0 0 668.78345831981278 652.3263739649293 0 652.3263739649293 478.75671505419302 0 0 0 0 620.1542688885238 474.92330174791215 0 474.92330174791215 345.5512490470723 0 0 0 0 508.58166146045551 388.91551080902087 0 388.91551080902087 380.29354328051772 0 0 0 0 658.2481768670259 391.21086899269574 0 391.21086899269574 352.69832441516093 0 0 0 0 540.40271008567652 281.16128443871867 0 281.16128443871867 287.12308177233774 0 0 0 0 766.08516548806801 485.95677847286856 0 485.95677847286856 322.01027645045036 0 0 0 0 868.05140152189415 428.97975993443674 0 428.97975993443674 31.605382875016858 0 0 0 0 1158.7935500529129 767.88974920070507 0 767.88974920070507 208.79051580140788 0 0 0 0 1187.0170118304086 306.96081288482037 0 306.96081288482037 59.726412755467891 0 0 0 0 769.60079981194576 75.174109235149217 0 75.174109235149217 72.483343461909726 0 0 0 0 387.59587119225762 64.019968116207338 0 64.019968116207338 139.62494212966669 0 0 0 0 352.36168667301718 246.1759313664439 0 246.1759313664439 246.70398024480096 0 0 0 0 336.13445033603057 183.35416334601416 0 183.35416334601416 298.15644241904181 0 0 0 0 360.47827923306613 138.65656243649551 0 138.65656243649551 198.63498069559955 0 0 0 0 538.32833776673215 272.99469735992102 0 272.99469735992102 265.05275687685662 0 0 0 0 466.72040592723351 113.08873809385216 0 113.08873809385216 60.937229086469188 0 0 0 0 -10.197217447387004 -38.854533388299444 0 -38.854533388299444 31.948041262061597 0 0 0 0 -13.372674062527949 -72.853335018206963 0 -72.853335018206963 24.7195360877231 0 0 0 0 326.06711909541627 -6.1940085948570527 0 -6.1940085948570527 62.464384087958933 0 0 0 0 -30.282908903216594 -73.048098850309543 0 -73.048098850309543 33.585886765203668 0 0 0 0 420.5579867537017 -257.6990489631371 0 -257.6990489631371 6.0984761790546145 0 0 0 0 -17.61079623999882 3.8559236934181911 0 3.8559236934181911 13.659193499095668 0 0 0 0 173.02114171654102 103.9315165834962 0 103.9315165834962 86.177922933617765 0 0 0 0 168.5546938359621 163.89259744832736 0 163.89259744832736 266.7646099520552 0 0 0 0 192.13551282141998 175.14364126892053 0 175.14364126892053 268.00949457963657 0 0 0 0 231.89621293944219 126.99248383012855 0 126.99248383012855 128.81936408937304 0 0 0 0 65.191521346462139 -14.695748757811572 0 -14.695748757811572 -0.49053409209004828 0 0 0 0 25.216222077178827 -130.37061955484342 0 -130.37061955484342 -398.23211482995151 0 0 0 0 111.46628831460839 287.46966295082132 0 287.46966295082132 630.09348582251778 0 0 0 0 16.915009908143531 -0.034085694418195089 0 -0.034085694418195089 -3.9790764702511785 0 0 0 0 28.844554914457888 2.594652776013703 0 2.594652776013703 -10.076477849635507 0 0 0 0 -358.96920072264038 557.8833548273642 0 557.8833548273642 -804.09469953507778 0 0 0 0 -92.206388630889705 -293.09077019437382 0 -293.09077019437382 -446.5412266839146 0 0 0 0 -108.59519532439299 -158.54302193838734 0 -158.54302193838734 -329.83739292882575 0 0 0 0 -48.933856478812231 36.786653040504518 0 36.786653040504518 -14.92826364432085 0 0 0 0 11.075277344862116 -200.42921239256626 0 -200.42921239256626 -316.2999727335154 0 0 0 0 13.814669024868635 -247.62195597453203 0 -247.62195597453203 -211.56829902283846 0 0 0 0 -27.711107234732481 79.916527097509061 0 79.916527097509061 -61.108827133653719 0 0 0 0 8.1112706904340257 -0.88714475091575196 0 -0.88714475091575196 1.576758479871087 0 0 0 0 -120.60190171479917 121.02136429725655 0 121.02136429725655 85.739948107925471 0 0 0 0 -274.06800256305723 -184.33827471598318 0 -184.33827471598318 -195.15306697321415 0 0 0 0 -84.912621761817718 -443.84588880108583 0 -443.84588880108583 -546.1940701323133 0 0 0 0 78.752377846179428 -21.838599376196768 0 -21.838599376196768 1.4729908722954224 0 0 0 0 313.85487287030992 149.43232536487392 0 149.43232536487392 100.11483032286401 0 0 0 0 126.58973934994356 31.368582574062543 0 31.368582574062543 175.49651423887417 0 0 0 0 157.78826274652602 5.7108726734115294 0 5.7108726734115294 -81.061970488879297 0 0 0 0 91.613432681156553 -24.755097638410199 0 -24.755097638410199 0.70597966434182036 0 0 0 0 31.202884765953058 -585.63146016281348 0 -585.63146016281348 -914.25782043314575 0 0 0 0 128.13816951451008 152.52973612842629 0 152.52973612842629 90.599791959160484 0 0 0 0 155.45358021844731 164.17061999705811 0 164.17061999705811 43.694643085895677 0 0 0 0 385.5995754198957 152.06865670413777 0 152.06865670413777 88.911318333339295 0 0 0 0 176.20099447229586 227.97725698597151 0 227.97725698597151 199.62318951553937 0 0 0 0 22.007630046413396 54.875297915046303 0 54.875297915046303 127.38392978312004 0 0 0 0 14.257486878168365 -3.5437519776279203 0 -3.5437519776279203 3.409180563441268 0 0 0 0 96.37811183303711 100.85644603641902 0 100.85644603641902 109.7845654743478 0 0 0 0 162.62760633318976 220.1462315182398 0 220.1462315182398 215.32109030182176 0 0 0 0 215.61785255292489 209.73343868707798 0 209.73343868707798 167.97709757647135 0 0 0 0 151.55093271078658 104.23836196626144 0 104.23836196626144 42.497064409526956 0 0 0 0 81.42825061257696 -13.975557289789851 0 -13.975557289789851 1.9974923395148974 0 0 0 0 152.92257445590803 -118.53432949035323 0 -118.53432949035323 -187.59154565408471 0 0 0 0 110.65183669720136 -25.655571700744531 0 -25.655571700744531 -100.68171689528435 0 0 0 0 55.533822968172899 -51.797247666530325 0 -51.797247666530325 -202.58029363275091 0 0 0 0 60.565406248060754 -107.82619775431112 0 -107.82619775431112 -283.86519537782897 0 0 0 0 9.2855128686978219 -9.0013572711259116 0 -9.0013572711259116 5.607515147774107 0 0 0 0 175.0225059468321 -187.63616019191306 0 -187.63616019191306 5.7913585564083405 0 0 0 0 52.774215920901042 -63.940518146956265 0 -63.940518146956265 -97.972154310388305 0 0 0 0 2.1021338562036078 -1.2563524379598192 0 -1.2563524379598192 3.7973556899927696 0 0 0 0 259.93532104806945 85.27840882991859 0 85.27840882991859 42.580864882541562 0 0 0 0 8.3470206595435741 6.4647001853606696 0 6.4647001853606696 6.1632773350673826 0 0 0 0 45.693844797118658 -3.0276132697783567 0 -3.0276132697783567 -0.88145992319945798 0 0 0 0 154.15479649463305 305.56348029117044 0 305.56348029117044 -557.0205595454247 0 0 0 0 133.42116507685569 85.193427647423619 0 85.193427647423619 -123.69569138811579 0 0 0 0 -332.88949409613997 330.91918231688635 0 330.91918231688635 -15.346875312977204 0 0 0 0 554.12861983584298 -80.319410039195816 0 -80.319410039195816 135.97264282222551 0 0 0 0 430.26887578432252 -580.81567551619628 0 -580.81567551619628 651.30957499481246 0 0 0 0 601.86808266397838 49.114655267396685 0 49.114655267396685 -22.342732943648571 0 0 0 0 -209.6657600594117 170.94393416630805 0 170.94393416630805 102.15679545427224 0 0 0 0 234.99241510430875 -473.7677936931949 0 -473.7677936931949 -247.03348693854286 0 0 0 0 732.16035497446865 69.550847782222263 0 69.550847782222263 -1010.6078020612772 0 0 0 0 509.92704834706092 8.9287900677688867 0 8.9287900677688867 -733.24667219716957 0 0 0 0 34.163323163666064 -3.6523676035212702 0 -3.6523676035212702 23.595143904342876 0 0 0 0 -100.11659475415945 207.74406503685941 0 207.74406503685941 -209.7075666136775 0 0 0 0 53.093512766756078 -3.0659366497152369 0 -3.0659366497152369 -2.7247860400534574 0 0 0 0 18.507035234048999 -3.1249321270590578 0 -3.1249321270590578 1.0228068429327499 0 0 0 0 -94.766061516274931 -160.00748341944427 0 -160.00748341944427 -130.32667908130497 0 0 0 0 -33.826712906098692 -35.310562291694623 0 -35.310562291694623 7.0752879889496398 0 0 0 0 142.98225603968604 56.800734590560296 0 56.800734590560296 55.701730083806979 0 0 0 0 36.510581066148831 -9.3414752350339008 0 -9.3414752350339008 3.1215807334344836 0 0 0 0 97.228223157289904 260.94865634134976 0 260.94865634134976 350.84492820087053 0 0 0 0 162.38292109407485 305.4608627307548 0 305.4608627307548 142.16400409175048 0 0 0 0 134.19892268067315 204.22607517636141 0 204.22607517636141 295.0454319501232 0 0 0 0 204.04710365191568 162.07241614231043 0 162.07241614231043 397.3107120854097 0 0 0 0 111.8044535025947 267.22234757359865 0 267.22234757359865 370.6093447981284 0 0 0 0 228.55650401167804 396.78537691198153 0 396.78537691198153 -3.8954965890779931 0 0 0 0 266.60040882296744 74.696145322092661 0 74.696145322092661 57.584654177315315 0 0 0 0 490.19382593149203 498.2701240205156 0 498.2701240205156 266.50812589987663 0 0 0 0 242.50012171147682 397.45110135353161 0 397.45110135353161 554.6511599877158 0 0 0 0 1258.7340620524483 530.04153772277596 0 530.04153772277596 358.00645042116594 0 0 0 0 26.224870775698889 -4.0525303561891732 0 -4.0525303561891732 0.61344626236436128 0 0 0 0 1806.4725947081752 -2143.6929056032923 0 -2143.6929056032923 1957.902665196412 0 0 0 0 476.18456537203019 171.48257963060405 0 171.48257963060405 660.86249948789009 0 0 0 0 555.47115216220845 356.12549237707663 0 356.12549237707663 373.87920735545049 0 0 0 0 161.13885921391193 545.98224965866052 0 545.98224965866052 904.48484166093158 0 0 0 0 797.22026442059723 -334.56306422116586 0 -334.56306422116586 -565.04996954702438 0 0 0 0 -1634.5866346667171 127.56454910009325 0 127.56454910009325 509.70625543103688 0 0 0 0 4.7413556619076189 -0.38153769691225392 0 -0.38153769691225392 0.92806028764042248 0 0 0 0 -185.95183717503096 218.27506791817189 0 218.27506791817189 255.94234159451003 0 0 0 0 347.45239759689503 -1481.1689218007659 0 -1481.1689218007659 1659.9088405554212 0 0 0 0 2297.9146081469626 -2111.8034819327963 0 -2111.8034819327963 1248.7731905497349 0 0 0 0 2180.030329944726 -1640.5787133437852 0 -1640.5787133437852 446.13575347519713 0 0 0 0 2595.8069656289226 -1926.4027409665919 0 -1926.4027409665919 469.07853632729035 0 0 0 0 2604.07457731873 -1935.0884914126818 0 -1935.0884914126818 316.17502533939523 0 0 0 0 1833.7219616240909 -702.42430103612946 0 -702.42430103612946 483.35968782624263 0 0 0 0 793.52925038001558 -956.58129512622281 0 -956.58129512622281 757.66918632283739 0 0 0 0 3233.1524254161486 -777.54262045996734 0 -777.54262045996734 -362.31082055707066 0 0 0 0 2813.7553118711076 -2136.8977981862627 0 -2136.8977981862627 426.72507268989938 0 0 0 0 2965.8430812981314 -2061.3960276915373 0 -2061.3960276915373 -194.30244608384021 0 0 0 0 2995.390395648471 -1806.5282400484953 0 -1806.5282400484953 802.58594466931015 0 0 0 0 3052.5078634413512 -2288.4749863752636 0 -2288.4749863752636 584.49785164480568 0 0 0 0 3230.7457364161528 -2124.498101191085 0 -2124.498101191085 1214.8006274858271 0 0 0 0 3548.2539814252086 -1435.3008356848632 0 -1435.3008356848632 1811.1563941313509 0 0 0 0 3668.8274373584281 -2175.0612878008192 0 -2175.0612878008192 997.96617783558759 0 0 0 0 5000.2954050915287 -1891.8004056338691 0 -1891.8004056338691 335.34757333481991 0 0 0 0 3632.5291294193939 -1940.1751248813403 0 -1940.1751248813403 1698.1873274966033 0 0 0 0 4079.3845773874782 -2881.4448651900916 0 -2881.4448651900916 2273.4039120800016 0 0 0 0 4990.9309101208273 -3670.1914634147724 0 -3670.1914634147724 1936.4470019828013 0 0 0 0 3399.6640510345169 -2122.9287159195756 0 -2122.9287159195756 1652.5280051093166 0 0 0 0 2761.6852251871023 -3455.8154062700592 0 -3455.8154062700592 3219.3097219075212 0 0 0 0 894.92907989412197 87.935717822771494 0 87.935717822771494 390.21620414325508 0 0 0 0 3350.9528893173156 -2123.3120834698484 0 -2123.3120834698484 3713.3644553304962 0 0 0 0 3058.7771954784112 -3556.5377301708286 0 -3556.5377301708286 3239.3998676187766 0 0 0 0 2720.7282136785507 -2441.6496734026882 0 -2441.6496734026882 2167.8484645859812 0 0 0 0 298.50173545524012 237.84404258286031 0 237.84404258286031 804.45048300368853 0 0 0 0 3360.344645022351 -1510.3310485313305 0 -1510.3310485313305 1386.3374235437122 0 0 0 0 17.306536960095883 -5.0015844228996258 0 -5.0015844228996258 0.73780841165621069 0 0 0 0 54.943795467406744 -353.99844486946745 0 -353.99844486946745 -324.9528671980849 0 0 0 0 522.2736407079683 200.18738867890136 0 200.18738867890136 -477.91923441744439 0 0 0 0 575.26488858874654 67.879663923805765 0 67.879663923805765 176.99321565686478 0 0 0 0 625.41579494977486 352.93723080864629 0 352.93723080864629 -256.42169425535849 0 0 0 0 428.02635243473924 343.27640223044364 0 343.27640223044364 439.49631209590279 0 0 0 0 1516.8971771783836 -2182.0967569277786 0 -2182.0967569277786 2926.8624347381119 0 0 0 0 2297.1919944191686 -4423.9751635435186 0 -4423.9751635435186 3757.7357498806482 0 0 0 0 1394.2713530768087 -2714.7584489974638 0 -2714.7584489974638 3032.9535356358006 0 0 0 0 13.714770712086136 -1.9788541942897808 0 -1.9788541942897808 11.837739519925247 0 0 0 0 -214.3519511020786 552.08100159601133 0 552.08100159601133 931.11972124969839 0 0 0 0 4988.1719297610107 -1.1415175708605918 0 -1.1415175708605918 20.053793867660048 0 0 0 0 17.705260450615071 7.5615596155744242 0 7.5615596155744242 14.627517195110793 0 0 0 0 845.6702916023205 2012.5721833366579 0 2012.5721833366579 1448.2467082332198 0 0 0 0 1483.3808773646597 321.86486376755971 0 321.86486376755971 -103.00200967685224 0 0 0 0 -126.32155315046839 371.55518036645253 0 371.55518036645253 239.80953839845506 0 0 0 0 567.51415856301901 -475.07456632668595 0 -475.07456632668595 -1192.3967917069492 0 0 0 0 501.36387804035621 -316.77276770250421 0 -316.77276770250421 -804.67468356517156 0 0 0 0 84.578610902340927 -15.993710203005001 0 -15.993710203005001 -2.6170717019396994 0 0 0 0 246.37411525983771 -82.956875287526145 0 -82.956875287526145 -539.86531810118311 0 0 0 0 85.914064617427584 324.59117180680499 0 324.59117180680499 -233.15497236275223 0 0 0 0 95.776180392664742 -23.935452756809291 0 -23.935452756809291 -2.2769789825905002 0 0 0 0 58.834043399067014 20.381196674157081 0 20.381196674157081 -56.098989391684086 0 0 0 0 81.324305100759375 195.22338667675814 0 195.22338667675814 -187.14580452601191 0 0 0 0 350.59131331746175 -651.89306151344044 0 -651.89306151344044 -1008.919215084581 0 0 0 0 728.89901878733826 742.52470090585393 0 742.52470090585393 408.78477310358744 0 0 0 0 696.32670314043935 -164.02607522175066 0 -164.02607522175066 -10.607286321279958 0 0 0 0 -197.05902997875819 -623.30370282372394 0 -623.30370282372394 -47.088720054572832 0 0 0 0 -0.10387815803011335 -1.2611628597800575 0 -1.2611628597800575 1.7633053380556072 0 0 0 0 -131.89368427808222 60.35004417102013 0 60.35004417102013 128.27010536378225 0 0 0 0 255.41255116701359 -231.63565213233903 0 -231.63565213233903 110.80892134881827 0 0 0 0 510.14970145563711 -238.7064183945547 0 -238.7064183945547 14.869998098926779 0 0 0 0 291.45276638588439 47.399754558477113 0 47.399754558477113 238.20288557169704 0 0 0 0 1499.4526463359798 59.378095865616132 0 59.378095865616132 -48.024190817195063 0 0 0 0 1468.3204581637169 633.72132221165998 0 633.72132221165998 229.53971199255204 0 0 0 0 5001.2437265467743 633.24130702148113 0 633.24130702148113 -658.89390915206207 0 0 0 0 2326.9400959124468 1152.3256228365422 0 1152.3256228365422 -386.61663523652123 0 0 0 0 4987.11045991641 1936.074787780389 0 1936.074787780389 -193.13161301304532 0 0 0 0 2238.5354344280349 556.34101919340401 0 556.34101919340401 -28.866114637106065 0 0 0 0 3302.8412835740455 -58.746601924216293 0 -58.746601924216293 -63.881938920140442 0 0 0 0 3401.2125243073824 315.24802950705066 0 315.24802950705066 -561.29329606036913 0 0 0 0 3857.4619510373814 592.46841196215041 0 592.46841196215041 -420.33886495323361 0 0 0 0 4998.7431086663855 1479.2943486825989 0 1479.2943486825989 -528.29799175267942 0 0 0 0 1448.2257043390273 -478.73405333584321 0 -478.73405333584321 143.47082626141886 0 0 0 0 2252.1177788426139 1380.9809531359238 0 1380.9809531359238 317.92514790237641 0 0 0 0 8.6742076693325885 0.13282758239222403 0 0.13282758239222403 -2.4594117300897009 0 0 0 0 5007.1640351111637 929.02350216156628 0 929.02350216156628 1972.7055652351387 0 0 0 0 4421.4530112441644 -64.097747486997889 0 -64.097747486997889 489.80157881507375 0 0 0 0 -199.03651693498978 -698.90865184604388 0 -698.90865184604388 642.57580428817869 0 0 0 0 15.945024462306748 -10.67099313120751 0 -10.67099313120751 9.5845876192014963 0 0 0 0 1503.5143328528211 -1384.3799313843604 0 -1384.3799313843604 824.46786351637422 0 0 0 0 3584.1923058491993 -1222.4059381989318 0 -1222.4059381989318 320.26583490894211 0 0 0 0 4475.2034603613829 1354.4787449691785 0 1354.4787449691785 348.16927666777042 0 0 0 0 2938.4445563437403 1330.2690773392264 0 1330.2690773392264 368.25524072842688 0 0 0 0 3493.8430159057243 -272.82444016990507 0 -272.82444016990507 135.30795268576321 0 0 0 0 3919.0730870898842 334.41843359182934 0 334.41843359182934 177.89863858542139 0 0 0 0 3348.4074632869233 -57.361339953795209 0 -57.361339953795209 -73.130451617523931 0 0 0 0 3215.7984611972306 -189.10243773120851 0 -189.10243773120851 -196.11389462512398 0 0 0 0 3175.6921499438104 283.86126997293161 0 283.86126997293161 -404.12706501981097 0 0 0 0 2859.6291943410142 99.848218501664007 0 99.848218501664007 -342.47228425757407 0 0 0 0 1232.152761029829 512.08558720767883 0 512.08558720767883 168.36438429353501 0 0 0 0 2542.6587871678148 726.54756572749397 0 726.54756572749397 -148.00841264365636 0 0 0 0 2206.1322992003115 217.55268669185239 0 217.55268669185239 -274.07901415817997 0 0 0 0 3566.0008501915763 -152.94968223717433 0 -152.94968223717433 -534.47449835663497 0 0 0 0 5001.0371256726394 73.29905923604592 0 73.29905923604592 -722.74874454388703 0 0 0 0 3434.7312152512459 -676.67838154397612 0 -676.67838154397612 -829.17687355706914 0 0 0 0 4989.0081071414825 -1053.3056271987255 0 -1053.3056271987255 -899.92105514738569 0 0 0 0 2610.3219301139252 -234.9458636480762 0 -234.9458636480762 -231.64970678589992 0 0 0 0 2362.3591855043196 -36.146745718576199 0 -36.146745718576199 -384.00463276192136 0 0 0 0 2501.0128192009797 11.309143884412322 0 11.309143884412322 -395.75588244445993 0 0 0 0 664.30894206218363 -2091.7567451638265 0 -2091.7567451638265 -311.91904399279593 0 0 0 0 2616.6767284372759 -2108.5592663481289 0 -2108.5592663481289 -312.6632185159329 0 0 0 0 4991.4860107793793 1018.4339661519175 0 1018.4339661519175 -1470.8678291818624 0 0 0 0 17.3542582840075 -7.8614751706322608 0 -7.8614751706322608 1.1653435197218212 0 0 0 0 101.49610944587766 484.25187100327992 0 484.25187100327992 -393.59407735760601 0 0 0 0 15.784961370326187 -8.4446089169846346 0 -8.4446089169846346 1.9336637324529466 0 0 0 0 594.49599326905081 -2687.7606586746906 0 -2687.7606586746906 -331.95230474295317 0 0 0 0 4999.7713449290022 -795.42980045690081 0 -795.42980045690081 -927.07798855149645 0 0 0 0 1948.7244601383027 768.09327814886399 0 768.09327814886399 -1324.2738725975191 0 0 0 0 1292.1733633306794 -1048.7155241445998 0 -1048.7155241445998 1078.4865702691211 0 0 0 0 3344.9323188162962 751.00530783875092 0 751.00530783875092 -918.40680774748444 0 0 0 0 3738.5042599830058 -1209.6194247493622 0 -1209.6194247493622 18.66436755251209 0 0 0 0 1990.0466825180338 -195.62536286314941 0 -195.62536286314941 -566.54713430314087 0 0 0 0 2454.8591739442054 61.883201478911701 0 61.883201478911701 -423.98002807533851 0 0 0 0 2456.7990797778621 62.937831716254436 0 62.937831716254436 -437.97186012522832 0 0 0 0 2789.2378420831374 -25.869958636599222 0 -25.869958636599222 -502.5003102390292 0 0 0 0 2620.9286396850148 253.6929845669269 0 253.6929845669269 -473.00198552769302 0 0 0 0 2072.1677407999232 112.99269060655229 0 112.99269060655229 -353.15049683848463 0 0 0 0 2036.4717523810768 286.12966653101086 0 286.12966653101086 -325.89144552752578 0 0 0 0 1217.7210399112664 373.9886689050586 0 373.9886689050586 -228.37705806574763 0 0 0 0 989.41456879930047 8.5266840132155721 0 8.5266840132155721 -230.48281010581081 0 0 0 0 1075.7947090230009 230.99657053728663 0 230.99657053728663 -93.125945938387645 0 0 0 0 990.29003827210909 -110.72036825008003 0 -110.72036825008003 224.27743887888016 0 0 0 0 692.24073964817944 -264.97165244830614 0 -264.97165244830614 208.18919740724061 0 0 0 0 1278.5340124320137 59.732251719090868 0 59.732251719090868 -124.31675308546528 0 0 0 0 1984.4516622370506 -184.64762768240362 0 -184.64762768240362 -71.812907731007954 0 0 0 0 1084.0528347107756 -406.92557128122957 0 -406.92557128122957 761.31403063742425 0 0 0 0 330.62708866275352 354.71873814111609 0 354.71873814111609 242.5732729732706 0 0 0 0 866.24020779267448 -389.22418474695445 0 -389.22418474695445 369.38316447163834 0 0 0 0 1279.40519377905 -574.8044228458748 0 -574.8044228458748 485.75972971490722 0 0 0 0 744.46162968701537 -416.65477117595833 0 -416.65477117595833 764.64000762672276 0 0 0 0 -563.46422502826681 264.92326769966832 0 264.92326769966832 168.8009689996918 0 0 0 0 1.6784556912377013 3.3648422738941974 0 3.3648422738941974 2.6612543313601256 0 0 0 0 -272.56004393399053 -152.37067625737632 0 -152.37067625737632 229.66823078916093 0 0 0 0 -122.17461072782316 104.34467502119901 0 104.34467502119901 660.07219522937896 0 0 0 0 377.80960590910399 -427.11173541454662 0 -427.11173541454662 692.44265506602551 0 0 0 0 6.9134875365955963 -0.1896602134245331 0 -0.1896602134245331 0.85828724110459365 0 0 0 0 20.087669892912828 1.4219846219249739 0 1.4219846219249739 0.59884072812280298 0 0 0 0 50.430566739076312 -122.26846814629533 0 -122.26846814629533 412.60460247711933 0 0 0 0 71.534167216086644 -154.60024703458112 0 -154.60024703458112 383.30121360565613 0 0 0 0 122.16048445437627 -76.541535616487295 0 -76.541535616487295 360.10598181130968 0 0 0 0 282.05979401979857 -242.45742679574573 0 -242.45742679574573 142.65835631467235 0 0 0 0 375.50226634679711 37.353606960406751 0 37.353606960406751 -63.035731740854771 0 0 0 0 28.490016232560265 -225.67344967662621 0 -225.67344967662621 127.00967589052425 0 0 0 0 63.24260155419779 -43.037866681188007 0 -43.037866681188007 -30.846974629770557 0 0 0 0 163.78714657441014 -64.846592238336598 0 -64.846592238336598 -245.26013107861581 0 0 0 0 136.43213474214645 -13.053196879174948 0 -13.053196879174948 -172.73035078498378 0 0 0 0 -5.5490913707981235 -83.55493171638318 0 -83.55493171638318 -188.76859907466269 0 0 0 0 168.24698005590471 -70.019110802778414 0 -70.019110802778414 -208.97859612186971 0 0 0 0 412.46645441288547 230.83130037315706 0 230.83130037315706 -134.1114216429678 0 0 0 0 7.9064764844038109 1.9752460491545634 0 1.9752460491545634 -3.8980843015902744 0 0 0 0 480.0074707698077 -106.18235680019848 0 -106.18235680019848 -222.17755634607806 0 0 0 0 -176.27888147161866 556.64662963755143 0 556.64662963755143 -66.431132222532369 0 0 0 0 16.735844690803788 -451.17571099545762 0 -451.17571099545762 -298.82757069645561 0 0 0 0 12.148524865519107 -2.9762622493051225 0 -2.9762622493051225 0.108616472398956 0 0 0 0 2136.9718736287268 446.69193236345609 0 446.69193236345609 -340.44612834086684 0 0 0 0 1504.6971271494549 293.07856216388416 0 293.07856216388416 -201.71521197683262 0 0 0 0 1290.4028796160201 426.69404441703222 0 426.69404441703222 -131.53123277495888 0 0 0 0 45.934427710682826 -29.214202318241725 0 -29.214202318241725 14.797612767866186 0 0 0 0 1209.2765062971448 33.642626825239617 0 33.642626825239617 -158.3876120112015 0 0 0 0 97.091517413042311 149.00867982620002 0 149.00867982620002 -137.41543044516376 0 0 0 0 67.642213691910001 69.545572387324455 0 69.545572387324455 -209.83032308228348 0 0 0 0 37.401468454180531 23.175338121885204 0 23.175338121885204 -30.128065200571484 0 0 0 0 134.85717842659596 -108.39421345823507 0 -108.39421345823507 -484.76132627625793 0 0 0 0 318.93458707051468 249.23447325465281 0 249.23447325465281 -291.08154383511135 0 0 0 0 553.71243985384353 -76.930957747236022 0 -76.930957747236022 81.29373708709565 0 0 0 0 134.55756066722097 -514.36926781155307 0 -514.36926781155307 687.76394480032786 0 0 0 0 88.961902457074757 111.67799309513987 0 111.67799309513987 184.08386962830764 0 0 0 0 149.3739676652549 97.458237616830047 0 97.458237616830047 -203.40619396606871 0 0 0 0 120.12815037437394 -26.480739774306585 0 -26.480739774306585 -60.061317021172727 0 0 0 0 113.9048933383674 -0.78461799821889144 0 -0.78461799821889144 -9.9256805785562392 0 0 0 0 36.375433679861693 29.351143599000785 0 29.351143599000785 -20.572007933089683 0 0 0 0 -207.46551856770384 194.99861347682571 0 194.99861347682571 119.95193539860742 0 0 0 0 46.46832246381382 -35.978355357902728 0 -35.978355357902728 19.245642829068231 0 0 0 0 41.195781795232918 -24.108353829737297 0 -24.108353829737297 4.9632318293377793 0 0 0 0 47.535114126068947 -11.835998267985815 0 -11.835998267985815 16.585808286326028 0 0 0 0 57.389042178518139 -70.599722336289688 0 -70.599722336289688 2.3355896368120739 0 0 0 0 52.422254837103537 -52.938601257168102 0 -52.938601257168102 -54.087893879757758 0 0 0 0 115.2268218210229 -58.777443749142094 0 -58.777443749142094 -59.979962370602152 0 0 0 0 86.655121760264592 -115.38844641679009 0 -115.38844641679009 -146.05311127398363 0 0 0 0 55.563123706131591 -45.360546729736598 0 -45.360546729736598 -104.41558254499932 0 0 0 0 -6.5207535691140492 -12.95243931073828 0 -12.95243931073828 4.9017125985349148 0 0 0 0 87.477112800581381 -95.701218696612614 0 -95.701218696612614 -252.17785908166388 0 0 0 0 -34.820517939882393 -98.910958447310293 0 -98.910958447310293 -111.06077101957999 0 0 0 0 104.84796171754715 -43.043483023781619 0 -43.043483023781619 -140.00899289450081 0 0 0 0 207.2170659317926 -8.8404034243191063 0 -8.8404034243191063 -143.42108858754727 0 0 0 0 113.4553805777814 -49.655981864109833 0 -49.655981864109833 -77.832194837908901 0 0 0 0 183.59501730716875 -31.768871373313686 0 -31.768871373313686 -175.9799182694785 0 0 0 0 90.701180495234439 1.5172554220325765 0 1.5172554220325765 -136.24455203221169 0 0 0 0 -106.60741303527357 -262.59628041531374 0 -262.59628041531374 23.055984030738756 0 0 0 0 101.12625484110717 -26.932088180352896 0 -26.932088180352896 3.975433166442004 0 0 0 0 583.80827032183515 344.6971536940589 0 344.6971536940589 -484.9225146778096 0 0 0 0 11.988421130438795 4.2359373161336062 0 4.2359373161336062 -1.9531878875803745 0 0 0 0 33.534265543557886 5.0197105020106534 0 5.0197105020106534 -0.1306928429311931 0 0 0 0 21.568594576765165 -9.6961109027899823 0 -9.6961109027899823 -2.6654776727016589 0 0 0 0 -33.596045997709439 -144.24613436065806 0 -144.24613436065806 -240.11203352080975 0 0 0 0 21.786806394826698 -15.069524349783325 0 -15.069524349783325 5.1157282541771005 0 0 0 0 16.583156863802287 -21.719864799840252 0 -21.719864799840252 -12.55077762338351 0 0 0 0 41.822812516649719 -19.929984838579401 0 -19.929984838579401 9.0304961546344202 0 0 0 0 16.470056737881077 -30.484146538537768 0 -30.484146538537768 0.81139590844014187 0 0 0 0 -52.880942334024439 283.07490782049672 0 283.07490782049672 683.3780107036664 0 0 0 0 59.670315234483496 -180.28751146761715 0 -180.28751146761715 -79.541889089175129 0 0 0 0 45.722107495021191 -22.684599689276411 0 -22.684599689276411 9.3747581410813154 0 0 0 0 -72.256465008938903 -157.48231653332277 0 -157.48231653332277 7.3297616163811199 0 0 0 0 -26.040595279413537 -195.1826707636136 0 -195.1826707636136 34.159765626812941 0 0 0 0 22.423735391988885 -200.49775543832811 0 -200.49775543832811 6.0842220916638325 0 0 0 0 -18.357191649671222 -140.39615219833195 0 -140.39615219833195 -74.639170381225085 0 0 0 0 -73.819044734389536 -92.653148148918035 0 -92.653148148918035 148.07577500283674 0 0 0 0 -105.23264439918239 -100.37604657806583 0 -100.37604657806583 226.05109923156215 0 0 0 0 9.6302985100983847 -12.919539690232916 0 -12.919539690232916 8.2340962107411038 0 0 0 0 9.7226555672812154 -5.787288675309906 0 -5.787288675309906 2.2202647488669127 0 0 0 0 376.40402724949308 230.345495953713 0 230.345495953713 164.27365793610443 0 0 0 0 744.57768452961682 -11.720653237532133 0 -11.720653237532133 43.866591419065571 0 0 0 0 -75.279074574183596 207.72041099145241 0 207.72041099145241 799.66674599361431 0 0 0 0 -0.14242468264459873 -0.10162071770278991 0 -0.10162071770278991 0.76757571120307855 0 0 0 0 56.253791238706981 -63.844395206792996 0 -63.844395206792996 116.14028609402618 0 0 0 0 48.468140645550797 -17.017913920959494 0 -17.017913920959494 3.6951771667706681 0 0 0 0 193.59615758483051 -526.29609431368453 0 -526.29609431368453 -881.36816327154338 0 0 0 0 353.57422813294033 -843.01720679017296 0 -843.01720679017296 388.68529429700129 0 0 0 0 -191.87046718231068 -761.93960147513144 0 -761.93960147513144 402.24851854557272 0 0 0 0 -214.02791397387591 -225.68057139848923 0 -225.68057139848923 107.0305788102644 0 0 0 0 -198.99069132210025 -37.034569088433614 0 -37.034569088433614 158.69830846020739 0 0 0 0 135.17620142046508 -11.7455958281937 0 -11.7455958281937 -171.92976888206567 0 0 0 0 64.339764427248156 -67.97287315470146 0 -67.97287315470146 -152.58313856370569 0 0 0 0 67.954058027142167 -8.0088038155104897 0 -8.0088038155104897 -0.85915920575781435 0 0 0 0 66.041527457462507 -37.618691392999608 0 -37.618691392999608 -90.094738400027381 0 0 0 0 124.35747467170586 -109.64231092213981 0 -109.64231092213981 -324.68929345364995 0 0 0 0 76.921916617502575 25.94933859198909 0 25.94933859198909 -213.9385440272365 0 0 0 0 68.43445816719759 73.375512283593139 0 73.375512283593139 22.420046786433886 0 0 0 0 77.829679832750116 -73.167102523762878 0 -73.167102523762878 -70.878250660390222 0 0 0 0 22.681648795625733 -59.819303091249907 0 -59.819303091249907 68.641562508907555 0 0 0 0 179.80403391060099 -142.80112861598025 0 -142.80112861598025 -4.8421954720381564 0 0 0 0 149.80690076468454 -67.960901933215155 0 -67.960901933215155 -44.415536889597888 0 0 0 0 183.89126155255508 -77.194171113186258 0 -77.194171113186258 -83.549713107968842 0 0 0 0 146.06816952844383 -54.255985025694144 0 -54.255985025694144 -87.603420117310634 0 0 0 0 349.27984494218254 20.325587627850837 0 20.325587627850837 -194.53746374063121 0 0 0 0 165.49926271937875 -31.864228775859829 0 -31.864228775859829 -206.81693736956004 0 0 0 0 50.281491264453507 -188.41534403585274 0 -188.41534403585274 -273.49348171112251 0 0 0 0 5.0100444608746457 0.2217017626514064 0 0.2217017626514064 -0.0063355709116930115 0 0 0 0 -256.33175866997044 -77.033232428247402 0 -77.033232428247402 -113.70520757174791 0 0 0 0 -31.177472933326499 -21.504006506143469 0 -21.504006506143469 -279.68548803775468 0 0 0 0 3.3750510132255442 1.762232596493277 0 1.762232596493277 0.66430834033760178 0 0 0 0 388.00779710317818 -271.200869096068 0 -271.200869096068 94.874263358988173 0 0 0 0 -42.282403063916718 -196.36683501334346 0 -196.36683501334346 -135.28990124454867 0 0 0 0 -0.13959192313472535 0.33660770399879425 0 0.33660770399879425 0.38448538551942057 0 0 0 0 -302.47003103537281 45.451673781421505 0 45.451673781421505 -64.267269509139965 0 0 0 0 86.323452096723486 -158.3759359394636 0 -158.3759359394636 137.88873674682986 0 0 0 0 51.793412007607344 -116.14478252704559 0 -116.14478252704559 199.86434318971055 0 0 0 0 51.362468369326962 -129.03197622110099 0 -129.03197622110099 175.51566663391878 0 0 0 0 56.991394157004834 -85.418823247922205 0 -85.418823247922205 250.9479314336314 0 0 0 0 37.183316403010394 -152.08786967407488 0 -152.08786967407488 238.97637969837365 0 0 0 0 34.402134232812386 -130.62398088754239 0 -130.62398088754239 298.40833072857117 0 0 0 0 51.335062925936654 -65.92379254060279 0 -65.92379254060279 310.04531160859369 0 0 0 0 570.45998247852549 251.91349638103202 0 251.91349638103202 165.60190630281619 0 0 0 0 -41.088487057306338 569.98922265916906 0 569.98922265916906 475.01647865428458 0 0 0 0 63.423815353184182 -1.49995896160749 0 -1.49995896160749 -190.7102407590952 0 0 0 0 -213.46384441366536 -135.10724284953039 0 -135.10724284953039 74.286418969701572 0 0 0 0 25.000879956249264 -110.17509973319699 0 -110.17509973319699 249.39650922119097 0 0 0 0 29.350916378055871 1.0037569986893597 0 1.0037569986893597 -0.28771780668214564 0 0 0 0 -29.032717258378398 53.828261195956884 0 53.828261195956884 121.60391780593321 0 0 0 0 126.77552617537731 178.0128413078952 0 178.0128413078952 181.93090350029752 0 0 0 0 415.47487639816245 -0.43170881806008765 0 -0.43170881806008765 49.165331376578479 0 0 0 0 1012.2176106349616 190.51730248982176 0 190.51730248982176 -64.568892833905466 0 0 0 0 35.182154208276188 -5.3748694554944905 0 -5.3748694554944905 47.554087008974193 0 0 0 0 57.611908574494009 12.305094114609517 0 12.305094114609517 7.4619240149659163 0 0 0 0 19.259776357357623 24.327484607551014 0 24.327484607551014 3.8303356632702616 0 0 0 0 45.969133308411983 -9.9460275175524089 0 -9.9460275175524089 -35.079592408808821 0 0 0 0 21.974878312568762 28.754159287957691 0 28.754159287957691 140.28541215888777 0 0 0 0 55.885434312636789 31.634861916239515 0 31.634861916239515 -10.827498547537289 0 0 0 0 -16.976859587848594 31.547099288172831 0 31.547099288172831 -10.1897178392976 0 0 0 0 32.936032935402181 -33.131045700262405 0 -33.131045700262405 -72.932769052100411 0 0 0 0 33.258388863917361 0.97519796443932094 0 0.97519796443932094 -0.81152771011652258 0 0 0 0 57.732972253092157 26.439545301075384 0 26.439545301075384 -134.8158439323752 0 0 0 0 63.163862740839249 -275.43215347177909 0 -275.43215347177909 -217.58287657582878 0 0 0 0 -9.3286500014874036 -89.944961118327285 0 -89.944961118327285 239.18178717552473 0 0 0 0 -9.184367433495936 -91.659714105778278 0 -91.659714105778278 218.95726716797037 0 0 0 0 7.344014979318672 -62.549008821826583 0 -62.549008821826583 216.11425069695701 0 0 0 0 6.6089802481074003 -72.453301480385676 0 -72.453301480385676 160.36610251024206 0 0 0 0 -84.241903380010626 -87.491746358191904 0 -87.491746358191904 223.33216726272781 0 0 0 0 -78.478405682457378 -5.9685628471552121 0 -5.9685628471552121 452.51518899474377 0 0 0 0 383.72304583109508 133.62550832702641 0 133.62550832702641 168.69825626417241 0 0 0 0 835.9138065082152 -218.74941842130499 0 -218.74941842130499 253.47172391451207 0 0 0 0 160.84425042981456 -192.24120816529262 0 -192.24120816529262 336.70266925474664 0 0 0 0 -13.558494182871073 -65.602919533960744 0 -65.602919533960744 656.52069358297354 0 0 0 0 201.26077233101023 -610.79227115897834 0 -610.79227115897834 971.56844378270421 0 0 0 0 97.561463177087717 -411.19583711937548 0 -411.19583711937548 397.59678267919753 0 0 0 0 26.193499725043921 2.356521750263477 0 2.356521750263477 -0.68527105943356381 0 0 0 0 -132.78575158999593 273.56612107829329 0 273.56612107829329 -519.92779797151957 0 0 0 0 14.572358565804791 1.981927632979243 0 1.981927632979243 -0.13658046888168873 0 0 0 0 379.2599243756049 287.16951827852125 0 287.16951827852125 609.6383805739423 0 0 0 0 732.85725549317431 587.04031505643877 0 587.04031505643877 -707.13233262422659 0 0 0 0 -594.95765315790777 -496.77196417855231 0 -496.77196417855231 793.85922882179386 0 0 0 0 -5.6533731749950675 30.350297456948283 0 30.350297456948283 -43.570841261350097 0 0 0 0 25.400939802810171 -30.20269616322085 0 -30.20269616322085 -49.730132665796418 0 0 0 0 74.354350916677504 3.6563439142766327 0 3.6563439142766327 -103.20542955313616 0 0 0 0 25.274323748490133 12.121950484088238 0 12.121950484088238 -22.524831027782525 0 0 0 0 74.269807384347587 -61.426718200397389 0 -61.426718200397389 21.719169780100401 0 0 0 0 60.302834284695564 -1.5494933299348759 0 -1.5494933299348759 -32.416607048118749 0 0 0 0 174.04379058398627 -65.091513512252618 0 -65.091513512252618 -8.5498298286804584 0 0 0 0 91.190563696945901 -31.602843222109868 0 -31.602843222109868 1.7738199933137366 0 0 0 0 52.835241723209037 16.162523906381011 0 16.162523906381011 6.9525459058463639 0 0 0 0 72.439143551564484 -41.392113982935797 0 -41.392113982935797 5.3214781285087156 0 0 0 0 301.35768480471597 -49.848778655661135 0 -49.848778655661135 -81.728537055667061 0 0 0 0 171.72169623714581 -79.188202441188309 0 -79.188202441188309 -43.977515141678282 0 0 0 0 332.99859649658902 -146.91566254169123 0 -146.91566254169123 -23.459412486301972 0 0 0 0 64.34832385644404 -105.6102485714006 0 -105.6102485714006 72.920707107983006 0 0 0 0 304.01924819734541 -45.247277308108508 0 -45.247277308108508 -76.277867907870132 0 0 0 0 561.95927861417658 -108.28912993279204 0 -108.28912993279204 -62.568654785340414 0 0 0 0 293.72916927206461 -238.80532730988224 0 -238.80532730988224 146.03894611572156 0 0 0 0 9.0913684659798548 0.84336163485897053 0 0.84336163485897053 0.053737675026465842 0 0 0 0 -255.17334021028364 97.430645919981771 0 97.430645919981771 -10.157913340539906 0 0 0 0 277.35462585855021 -425.24932401088182 0 -425.24932401088182 317.92703699299909 0 0 0 0 393.57677848507592 -233.89966598140018 0 -233.89966598140018 331.10314471231095 0 0 0 0 42.332125484933385 8.0850116988402192 0 8.0850116988402192 -0.91384144470713979 0 0 0 0 440.87974475546071 493.74537962519861 0 493.74537962519861 -586.54945877095292 0 0 0 0 282.43221023760998 -359.85555730844067 0 -359.85555730844067 330.98290535292517 0 0 0 0 -557.76179292516463 -184.25165968868907 0 -184.25165968868907 957.25619164490672 0 0 0 0 22.77312795725345 -2.3446090190348308 0 -2.3446090190348308 2.2563494641529429 0 0 0 0 402.31548725506582 -364.96910783804924 0 -364.96910783804924 320.32191559213135 0 0 0 0 253.41383660839347 63.575439553788101 0 63.575439553788101 84.32271694434894 0 0 0 0 543.33283079634202 321.06132773851186 0 321.06132773851186 207.3743691396146 0 0 0 0 16.462276121725154 150.20306980126907 0 150.20306980126907 -226.49187774671486 0 0 0 0 19.687602567105131 8.6866645402766807 0 8.6866645402766807 10.152892943127247 0 0 0 0 -15.096655211750658 129.70423655216865 0 129.70423655216865 -202.53524884812396 0 0 0 0 62.639503211055853 71.223422816463312 0 71.223422816463312 -374.73802131066986 0 0 0 0 41.74739385592693 -6.3586649043693342 0 -6.3586649043693342 -9.9774752692192124 0 0 0 0 47.35779020425602 -2.54556304800278 0 -2.54556304800278 -0.65441726736775818 0 0 0 0 -32.844512692656281 72.615851132780335 0 72.615851132780335 -215.1714824573624 0 0 0 0 8.5017751055817428 -2.2758714095067845 0 -2.2758714095067845 -4.408007345578806 0 0 0 0 398.09283866894111 -17.986848204341641 0 -17.986848204341641 -2.0806787452402205 0 0 0 0 38.221105302523682 0.49639010824025576 0 0.49639010824025576 -2.4771939792242588 0 0 0 0 4.6652945243268107 3.5295043250998468 0 3.5295043250998468 -1.2222115575792643 0 0 0 0 121.6792256955232 -613.510995642534 0 -613.510995642534 215.24991585854877 0 0 0 0 -159.30865280621219 -270.53228058397735 0 -270.53228058397735 328.67972432641977 0 0 0 0 -126.652201526711 -563.58569716611782 0 -563.58569716611782 267.9399279001791 0 0 0 0 -438.27944736245263 -153.36573286234534 0 -153.36573286234534 148.50668001967551 0 0 0 0 41.677635205211118 -352.68175283092842 0 -352.68175283092842 229.88635384319787 0 0 0 0 135.04641880044437 -208.99157982896327 0 -208.99157982896327 -601.11194149319317 0 0 0 0 53.046096396639768 -458.80490664630497 0 -458.80490664630497 -206.21422382550872 0 0 0 0 39.812429955935031 -9.4235140745952748 0 -9.4235140745952748 1.5313047985816537 0 0 0 0 149.27282589318929 -70.626949621454742 0 -70.626949621454742 -84.364610007023657 0 0 0 0 184.86655069361586 82.262324087729894 0 82.262324087729894 -252.26760104376308 0 0 0 0 290.95080940871412 -79.496383049650092 0 -79.496383049650092 65.91468806033663 0 0 0 0 -143.03013990986074 -129.58740549143977 0 -129.58740549143977 60.963362409089882 0 0 0 0 51.852404140459839 -22.658855239293644 0 -22.658855239293644 -37.34173435179855 0 0 0 0 22.394190606955817 -23.309793096195335 0 -23.309793096195335 -21.794234000891265 0 0 0 0 54.194343394328044 -8.6513700177950579 0 -8.6513700177950579 -0.1607254159805962 0 0 0 0 48.868935290164544 -15.965697274094005 0 -15.965697274094005 3.5342401743493399 0 0 0 0 46.007442229895332 -204.15635368622893 0 -204.15635368622893 -412.92329069686411 0 0 0 0 394.8220175802544 -67.692775092456372 0 -67.692775092456372 -1110.4187289579529 0 0 0 0 41.396206232726399 -9.6145469850148402 0 -9.6145469850148402 -2.4132240505214213 0 0 0 0 27.976386057791387 190.81803064795704 0 190.81803064795704 -274.027181102746 0 0 0 0 -82.274487595721439 133.71072461374706 0 133.71072461374706 -26.097446775196147 0 0 0 0 57.237113580940786 119.01117998051677 0 119.01117998051677 -29.055636966656721 0 0 0 0 -20.443220802801079 250.03100469199342 0 250.03100469199342 312.25140036397283 0 0 0 0 -50.881586822506961 84.560515912188521 0 84.560515912188521 234.14026219159177 0 0 0 0 -383.03296303284378 -73.642861718878891 0 -73.642861718878891 181.95421212584745 0 0 0 0 334.22967943219555 638.70846717392669 0 638.70846717392669 -267.14392021910487 0 0 0 0 -36.734601571220992 117.16934995908355 0 117.16934995908355 643.64403390304528 0 0 0 0 541.07742032735769 141.32069379165031 0 141.32069379165031 -154.41430998631819 0 0 0 0 912.6929029175335 797.34570186046108 0 797.34570186046108 811.52878037484606 0 0 0 0 1324.2966926306435 -282.62817374069675 0 -282.62817374069675 204.40425974262916 0 0 0 0 291.10217436023231 -301.34127509459177 0 -301.34127509459177 1536.4694835607975 0 0 0 0 891.21796191231169 -518.06375454476085 0 -518.06375454476085 584.24439880924001 0 0 0 0 597.03893559587959 -170.86997761743896 0 -170.86997761743896 276.11760444496986 0 0 0 0 505.35666263189341 -404.95685502084916 0 -404.95685502084916 596.99564282362155 0 0 0 0 274.51005498776613 -166.10961290690966 0 -166.10961290690966 355.36907972972585 0 0 0 0 208.8441655411516 -21.254803240334013 0 -21.254803240334013 702.3249151034388 0 0 0 0 201.68376433887715 -78.681278669873507 0 -78.681278669873507 470.66747455065638 0 0 0 0 225.21897392356186 -216.25902349306818 0 -216.25902349306818 413.84234502143499 0 0 0 0 519.91508358939609 -153.59145301730268 0 -153.59145301730268 170.36875546203373 0 0 0 0 298.06823938026082 -219.855865679148 0 -219.855865679148 350.67903846231729 0 0 0 0 267.20973312948627 -154.55100765689576 0 -154.55100765689576 247.98798124818586 0 0 0 0 550.26222334080012 -204.26472318742844 0 -204.26472318742844 254.97821156465488 0 0 0 0 672.50557430910794 21.615043065433611 0 21.615043065433611 85.841423267903338 0 0 0 0 -44.403788173993235 -3.0605744269071238 0 -3.0605744269071238 349.52137318324867 0 0 0 0 -0.90913063709376729 4.8801886949895561 0 4.8801886949895561 197.80051288312575 0 0 0 0 67.531573931577441 -60.261621128168827 0 -60.261621128168827 320.45779521280366 0 0 0 0 48.477980224772182 -13.770063072511903 0 -13.770063072511903 511.8830608408598 0 0 0 0 111.30760232390094 -152.2983012684922 0 -152.2983012684922 380.62246392928591 0 0 0 0 105.58122865134646 -93.539084872454168 0 -93.539084872454168 277.8289827336921 0 0 0 0 71.708375044891 -85.106098166779248 0 -85.106098166779248 284.15705949341191 0 0 0 0 48.454563557006622 -101.79834927028287 0 -101.79834927028287 295.25429154905305 0 0 0 0 27.191662024324614 -29.952894861361528 0 -29.952894861361528 236.81091237463443 0 0 0 0 80.669353384138958 -105.94820420888891 0 -105.94820420888891 289.1582826831891 0 0 0 0 10.8953052644938 -39.369168629892556 0 -39.369168629892556 238.59037122708048 0 0 0 0 -7.0188064821959415 -33.770597731683665 0 -33.770597731683665 247.82316809456461 0 0 0 0 0.47278920428652782 -7.2862283120939537 0 -7.2862283120939537 198.2951829900625 0 0 0 0 -26.880722357000195 11.133611602078076 0 11.133611602078076 178.68954218604108 0 0 0 0 -38.542558903540339 43.697351710597218 0 43.697351710597218 195.2766953656033 0 0 0 0 -37.742334322521856 27.928983082248124 0 27.928983082248124 248.0180812932158 0 0 0 0 -12.569615228710973 33.139027835089223 0 33.139027835089223 85.006690438274518 0 0 0 0 -31.696898799276823 29.331729226625612 0 29.331729226625612 186.59903281253082 0 0 0 0 -22.204944430797696 4.1223951381923598 0 4.1223951381923598 231.94719627031827 0 0 0 0 -2.4671059231222898 17.869752216303823 0 17.869752216303823 183.71197193074113 0 0 0 0 -24.044437732900406 15.022998577393537 0 15.022998577393537 244.65729800585268 0 0 0 0 14.421839342343446 38.175222800045958 0 38.175222800045958 193.82707483291176 0 0 0 0 -26.452717649674014 64.183816402908633 0 64.183816402908633 315.05606562378034 0 0 0 0 -46.087142699310789 83.044657427648303 0 83.044657427648303 201.49281810671937 0 0 0 0 -104.81035402452471 -1.3172644714445596 0 -1.3172644714445596 161.16008723177947 0 0 0 0 -14.90172377896215 -5.6552583903587674 0 -5.6552583903587674 85.59949506585599 0 0 0 0 -26.457622007430473 6.9742620770060739 0 6.9742620770060739 86.006692319490583 0 0 0 0 -38.974109287228202 28.093141711135559 0 28.093141711135559 195.46688710712675 0 0 0 0 -6.3357214359602949 19.754904638674816 0 19.754904638674816 80.180177653804094 0 0 0 0 -16.271337663420127 30.560267706246805 0 30.560267706246805 82.368846992135332 0 0 0 0 7.69380219375671 14.134752912674799 0 14.134752912674799 -39.560227663172327 0 0 0 0 8.236278598626086 60.484313997609206 0 60.484313997609206 -34.924948680019142 0 0 0 0 21.171135116386722 68.867035074260571 0 68.867035074260571 -102.69825524897033 0 0 0 0 6.4006075616780436 -44.259626772485319 0 -44.259626772485319 -260.60857922785158 0 0 0 0 -17.468476726298832 -23.390950655749862 0 -23.390950655749862 -62.176620685022954 0 0 0 0 5.4760253001149977 12.918459797521791 0 12.918459797521791 -53.209034121114257 0 0 0 0 30.970121826034301 28.78556161933443 0 28.78556161933443 -184.38616667554857 0 0 0 0 55.792226781879435 88.714335813129367 0 88.714335813129367 -291.08002250309573 0 0 0 0 26.707165533101943 116.65642414577928 0 116.65642414577928 -154.87637059302517 0 0 0 0 -1.8853807971972856 138.84753901288923 0 138.84753901288923 -152.58206734800888 0 0 0 0 3.5097728461514635 108.41138922346784 0 108.41138922346784 -93.424324392502513 0 0 0 0 29.240187761843117 111.61480664491853 0 111.61480664491853 -164.84143248799228 0 0 0 0 23.146530805504881 148.23959273974879 0 148.23959273974879 -193.90954142876126 0 0 0 0 0.03006015273911089 101.0325277493621 0 101.0325277493621 -92.550725292330299 0 0 0 0 18.477246257029037 153.4083488620783 0 153.4083488620783 -220.24031973881529 0 0 0 0 -4.2148055188554281 132.83748074535964 0 132.83748074535964 -30.980796520263766 0 0 0 0 -39.126581855726727 127.60883913650517 0 127.60883913650517 88.835775011523992 0 0 0 0 -5.712309424950945 85.305389417619381 0 85.305389417619381 -11.033408151138758 0 0 0 0 19.812419090652838 89.425852308380854 0 89.425852308380854 -94.662326653094311 0 0 0 0 -25.818303634026961 40.667491500744973 0 40.667491500744973 91.933775990922982 0 0 0 0 -15.942111750294316 117.4612586498578 0 117.4612586498578 17.157898528936471 0 0 0 0 0.16121801272311131 53.428658988124823 0 53.428658988124823 -8.3493559149984549 0 0 0 0 1.2075911220126727 74.403440152972792 0 74.403440152972792 -2.3439117594305117 0 0 0 0 147.11521609635201 65.749675653656595 0 65.749675653656595 58.695228888015663 0 0 0 0 144.47538976623764 -11.544321447681796 0 -11.544321447681796 153.26068038622543 0 0 0 0 154.56633476750358 135.84557518737211 0 135.84557518737211 162.97869624860687 0 0 0 0 146.18139032978615 72.252384807227827 0 72.252384807227827 68.364468837921777 0 0 0 0 36.823566807644966 54.922620037342313 0 54.922620037342313 245.44619207975302 0 0 0 0 89.258556044340366 153.98525161729867 0 153.98525161729867 307.80009448347391 0 0 0 0 30.466944831872752 58.187857226749429 0 58.187857226749429 249.49642128596861 0 0 0 0 14.985229465084558 55.493587188954734 0 55.493587188954734 261.1801146495086 0 0 0 0 1.4543122472268806 3.7906184480718821 0 3.7906184480718821 228.80109445708149 0 0 0 0 64.640569155810226 24.672675805410336 0 24.672675805410336 235.30741922381367 0 0 0 0 51.361111895992508 -5.222352882049563 0 -5.222352882049563 175.11140116525075 0 0 0 0 6.3224234722838446 -28.368237356862664 0 -28.368237356862664 243.86365881217716 0 0 0 0 98.218739599280525 -55.598283662257927 0 -55.598283662257927 228.44038412630812 0 0 0 0 92.678813395807083 -79.990521384037493 0 -79.990521384037493 211.26886558770366 0 0 0 0 201.4326573617509 -83.190126908609045 0 -83.190126908609045 140.95046695791098 0 0 0 0 169.9032548890209 -126.91867183418981 0 -126.91867183418981 239.71142820682053 0 0 0 0 167.77828687031433 -133.81440436500179 0 -133.81440436500179 243.73724359210883 0 0 0 0 206.7443220666064 -67.88105749323131 0 -67.88105749323131 130.26618795623926 0 0 0 0 196.73827887248171 -74.107828555053402 0 -74.107828555053402 129.55392913978903 0 0 0 0 382.08897294711733 95.723858659255143 0 95.723858659255143 67.415202648613558 0 0 0 0 465.88383030433488 -75.611766295839288 0 -75.611766295839288 75.446162078687848 0 0 0 0 327.31679752986383 -135.51330535246234 0 -135.51330535246234 157.7071274422442 0 0 0 0 315.62523229069484 -109.47458742226627 0 -109.47458742226627 166.87708998626084 0 0 0 0 304.11228828116145 -80.566599711767594 0 -80.566599711767594 92.050258551489605 0 0 0 0 274.7249796064807 -20.295463322608157 0 -20.295463322608157 72.007200428953695 0 0 0 0 338.18229906545639 18.671357513476778 0 18.671357513476778 13.313971362918892 0 0 0 0 232.51426382562977 45.691017361230479 0 45.691017361230479 -18.732759007278219 0 0 0 0 242.45521635202749 8.9298769016004371 0 8.9298769016004371 16.084401577933932 0 0 0 0 205.02207224768426 -8.5638263875816847 0 -8.5638263875816847 41.471512048932709 0 0 0 0 240.37704316131908 -19.223095901625129 0 -19.223095901625129 22.991932007149444 0 0 0 0 193.74419565659809 35.642692329942292 0 35.642692329942292 -31.873302515858086 0 0 0 0 212.3876560497356 22.976094012568865 0 22.976094012568865 -39.655563329783035 0 0 0 0 145.4659448249804 -0.48514810468532232 0 -0.48514810468532232 57.900686480925287 0 0 0 0 205.22608675274932 -10.461751215343611 0 -10.461751215343611 35.350098889446599 0 0 0 0 182.59303481304414 58.400577121902643 0 58.400577121902643 -48.576578080238505 0 0 0 0 227.31011057141586 33.795385467114102 0 33.795385467114102 -132.51015898826699 0 0 0 0 189.25020787989342 35.823746762380324 0 35.823746762380324 -44.182191312938812 0 0 0 0 229.17645945064669 19.776597813501212 0 19.776597813501212 -80.276523404477302 0 0 0 0 198.22404705731424 57.542442305097211 0 57.542442305097211 -98.874487847471755 0 0 0 0 198.05132814231547 31.789555802510222 0 31.789555802510222 -140.19277453975519 0 0 0 0 222.0286199569091 53.59112790226709 0 53.59112790226709 -224.84538373724354 0 0 0 0 215.81265336406432 64.797986268218665 0 64.797986268218665 -221.33789830543765 0 0 0 0 211.59687169589233 51.552805380953941 0 51.552805380953941 -137.4198016104333 0 0 0 0 232.04007525113229 74.498796375053644 0 74.498796375053644 -216.18858690866728 0 0 0 0 222.87773791353607 31.847847818725882 0 31.847847818725882 -202.37318508735734 0 0 0 0 342.33423449338261 99.914522782834865 0 99.914522782834865 -280.127420188408 0 0 0 0 217.00858346971654 120.87787898492388 0 120.87787898492388 -142.80762454308206 0 0 0 0 187.33115865294212 32.550914176389483 0 32.550914176389483 3.1196928151221073 0 0 0 0 216.02152560819559 153.45076610982687 0 153.45076610982687 34.366891408896436 0 0 0 0 255.09317389453645 166.58950247802932 0 166.58950247802932 -175.18851847017686 0 0 0 0 182.64772694660496 184.88028453130755 0 184.88028453130755 -176.01603410532363 0 0 0 0 339.02801243595923 153.32431423373421 0 153.32431423373421 -348.81093881757442 0 0 0 0 109.61519309161304 78.778657232751357 0 78.778657232751357 -229.62554744871886 0 0 0 0 183.95375684109968 -106.48845564556905 0 -106.48845564556905 -391.57595462280369 0 0 0 0 237.43298320985195 -30.418129258925546 0 -30.418129258925546 -401.64069645351447 0 0 0 0 37.129347253884568 18.760304700343795 0 18.760304700343795 -5.7764342398551562 0 0 0 0 212.57157518230167 31.369847989304379 0 31.369847989304379 -0.74879081629392452 0 0 0 0 322.9018683629439 296.72871432653994 0 296.72871432653994 -18.078848096300135 0 0 0 0 341.2025685468036 -67.514899939297834 0 -67.514899939297834 -424.68237682897598 0 0 0 0 145.64737914805391 259.76613887586245 0 259.76613887586245 97.407902044786169 0 0 0 0 69.863829674639746 10.92163956103267 0 10.92163956103267 -2.309427499360261 0 0 0 0 551.1356479350361 355.60131199908756 0 355.60131199908756 -1013.157523812577 0 0 0 0 172.32210912926348 27.426594086277532 0 27.426594086277532 7.2175790520885759 0 0 0 0 242.73906276236085 -140.66250816607499 0 -140.66250816607499 -348.64944576968264 0 0 0 0 60.964504934469005 55.261065560156567 0 55.261065560156567 379.32884041408579 0 0 0 0 305.98966993917566 516.53819079337791 0 516.53819079337791 -487.28823651580205 0 0 0 0 36.431000121745313 33.817468549389659 0 33.817468549389659 -5.9680644199391573 0 0 0 0 507.89605683002446 -274.06463475365945 0 -274.06463475365945 -1147.1425531416753 0 0 0 0 29.742193241036148 -16.649531267491511 0 -16.649531267491511 -163.05411362387895 0 0 0 0 419.13545628684369 394.3632706291628 0 394.3632706291628 -223.24120842356569 0 0 0 0 350.41513017848047 148.10651795826197 0 148.10651795826197 -180.19660682924405 0 0 0 0 430.99080387347203 -1.0781524798194368 0 -1.0781524798194368 12.387288512172745 0 0 0 0 1044.9899141191563 311.3021210142233 0 311.3021210142233 -431.93810154894163 0 0 0 0 612.32718655266945 358.78480380602468 0 358.78480380602468 -25.738075071896446 0 0 0 0 4.4140765393599821 -5.7894505428297407 0 -5.7894505428297407 7.0858741465300028 0 0 0 0 408.51080798600015 934.77695766961688 0 934.77695766961688 876.81384429520767 0 0 0 0 213.74720685879583 -359.41992789108008 0 -359.41992789108008 -642.37619145850726 0 0 0 0 829.8419236815098 130.12322754492925 0 130.12322754492925 -560.86418613630394 0 0 0 0 718.42897036280192 858.55240650551968 0 858.55240650551968 -139.88387977244201 0 0 0 0 -0.33241710075893138 -2.6314928048456423 0 -2.6314928048456423 1.9457575852822764 0 0 0 0 -1627.4468699198478 702.54953057616149 0 702.54953057616149 1298.5785629630045 0 0 0 0 -290.84703333128709 75.505108977038617 0 75.505108977038617 -404.03438070561424 0 0 0 0 445.49831734282634 -0.55565021519214497 0 -0.55565021519214497 -603.62648424634062 0 0 0 0 66.171029658173211 -168.6313313433202 0 -168.6313313433202 -244.41843661284588 0 0 0 0 18.656393255449075 -125.7495928535518 0 -125.7495928535518 -322.30046841307558 0 0 0 0 141.85430068655114 -256.62400579199675 0 -256.62400579199675 -674.61656466484692 0 0 0 0 36.985198254149964 20.171591114771722 0 20.171591114771722 -6.9195525259216595 0 0 0 0 191.08324025867472 20.461675549118706 0 20.461675549118706 -2.9009486986668609 0 0 0 0 195.81318912257848 23.378530485293595 0 23.378530485293595 -225.18316138036334 0 0 0 0 220.33371124896621 376.31656791024056 0 376.31656791024056 -223.07071706228999 0 0 0 0 152.99331882362321 -35.149024759462918 0 -35.149024759462918 -303.32036200559014 0 0 0 0 215.10380953249842 36.807899739384084 0 36.807899739384084 -221.96135682667023 0 0 0 0 246.48039249710041 60.467343523501427 0 60.467343523501427 -279.86143433813413 0 0 0 0 167.00115225137779 60.286958922756639 0 60.286958922756639 -267.28056361820381 0 0 0 0 221.36851043015849 45.44926989684518 0 45.44926989684518 -272.39036005558955 0 0 0 0 197.62007750176065 70.773303227290398 0 70.773303227290398 -331.58895819085774 0 0 0 0 124.01680421286846 38.425163945768873 0 38.425163945768873 -279.87553177362861 0 0 0 0 111.19127936754421 105.46017285518246 0 105.46017285518246 -306.07260997305275 0 0 0 0 184.48549593878488 -189.37430471834341 0 -189.37430471834341 -130.39763887612935 0 0 0 0 374.45575565596664 149.28027084176938 0 149.28027084176938 -537.67939004902246 0 0 0 0 167.45794772096781 13.159621086132418 0 13.159621086132418 -3.9371942891459852 0 0 0 0 465.24127163156663 -89.48408211421247 0 -89.48408211421247 -245.39952454486411 0 0 0 0 114.08876400047302 254.85562469362094 0 254.85562469362094 319.20724752663591 0 0 0 0 359.79042883749207 -127.17616612634265 0 -127.17616612634265 -117.1823394207895 0 0 0 0 487.68973365243596 -269.06161984387046 0 -269.06161984387046 35.861658695892402 0 0 0 0 489.07833458000096 143.90495890207785 0 143.90495890207785 87.505056454747319 0 0 0 0 661.23877257089771 -122.0276272969304 0 -122.0276272969304 83.964816278170474 0 0 0 0 734.68055395965348 -173.85488917245129 0 -173.85488917245129 51.93744710766623 0 0 0 0 817.38264792387054 639.22480743743836 0 639.22480743743836 261.4279428873665 0 0 0 0 -4.9975396236633571 -3.1334906781706167 0 -3.1334906781706167 2.310708231015731 0 0 0 0 -107.47020982356389 -841.23363538042838 0 -841.23363538042838 -533.4601039788613 0 0 0 0 1173.7584841179851 119.54023690968279 0 119.54023690968279 -11.510280901080478 0 0 0 0 713.93240321806661 -339.44576743443213 0 -339.44576743443213 -83.242968376109957 0 0 0 0 620.25598803276989 -115.73810701750745 0 -115.73810701750745 -189.52064850134775 0 0 0 0 360.54130844866449 -34.530677688675496 0 -34.530677688675496 -148.60061739118009 0 0 0 0 445.13662747894705 -179.94932898711886 0 -179.94932898711886 -88.421871015460738 0 0 0 0 465.98974954081859 -432.8786811652426 0 -432.8786811652426 111.47987051940981 0 0 0 0 345.31898782552162 -294.88052071546099 0 -294.88052071546099 121.04735213148479 0 0 0 0 415.61038097784331 -391.86049324697706 0 -391.86049324697706 85.138781369347271 0 0 0 0 -389.44910420176166 -204.46477624478575 0 -204.46477624478575 34.130410395220679 0 0 0 0 187.63309262257826 -462.517736413796 0 -462.517736413796 108.56455371198172 0 0 0 0 1946.2762825819445 -256.50135287959176 0 -256.50135287959176 -364.45978562682285 0 0 0 0 221.4768709343407 -370.54947009829903 0 -370.54947009829903 327.49282856389982 0 0 0 0 0.93187589820081596 -0.49791880017578194 0 -0.49791880017578194 3.4339115716146722 0 0 0 0 23.628334762384718 -3.613950304480511 0 -3.613950304480511 14.403931766097664 0 0 0 0 1804.969130771693 32.183050962021298 0 32.183050962021298 -667.97206541652486 0 0 0 0 376.1392713741152 -639.00273001642108 0 -639.00273001642108 473.86219767715011 0 0 0 0 94.65831755509862 -86.986888233257559 0 -86.986888233257559 -185.28996559629923 0 0 0 0 192.93390563752109 -206.31699019348162 0 -206.31699019348162 -96.622971251552372 0 0 0 0 174.82257988822175 75.54249061644623 0 75.54249061644623 -444.52675268814346 0 0 0 0 135.70463467667275 10.492122979998555 0 10.492122979998555 -7.134232673607741 0 0 0 0 125.30109486738002 3.6221328434767202 0 3.6221328434767202 -372.96315407946713 0 0 0 0 144.1584932088283 108.69985639088918 0 108.69985639088918 -380.62960099287011 0 0 0 0 137.73334444821398 27.643512318281864 0 27.643512318281864 -333.9587911097351 0 0 0 0 266.71003067426864 -838.74059304841285 0 -838.74059304841285 -578.66741458454635 0 0 0 0 878.82618175882089 307.73650187729436 0 307.73650187729436 5.7603649861339363 0 0 0 0 829.32416542855663 -122.97363541954041 0 -122.97363541954041 -961.78219551283109 0 0 0 0 105.71714098377151 20.800892802024009 0 20.800892802024009 -281.06753685051808 0 0 0 0 111.28356336912111 -614.66158853041634 0 -614.66158853041634 -286.93369374647068 0 0 0 0 22.487632448528586 47.409952432830075 0 47.409952432830075 -1.9704392897529104 0 0 0 0 82.004033781362835 -70.825151660392677 0 -70.825151660392677 23.241948939712191 0 0 0 0 54.194877569265373 -47.520526947627332 0 -47.520526947627332 20.48593848886685 0 0 0 0 106.76650977252463 32.496629023357457 0 32.496629023357457 -214.97727609340654 0 0 0 0 109.74707626476766 43.608642974295435 0 43.608642974295435 -191.68349180970108 0 0 0 0 47.626470341201639 -51.172665900046013 0 -51.172665900046013 28.772187985554865 0 0 0 0 44.419189585656568 -44.705701043138106 0 -44.705701043138106 16.389779301342855 0 0 0 0 55.669702451981721 -64.877210670580098 0 -64.877210670580098 20.888565983611443 0 0 0 0 69.447772596639879 -63.234031155417597 0 -63.234031155417597 -26.514037203138287 0 0 0 0 31.128910978978681 -20.815267737023333 0 -20.815267737023333 1.5454569874336421 0 0 0 0 135.52180662351111 -16.815854537276209 0 -16.815854537276209 -80.373739955211931 0 0 0 0 73.558382742146023 -70.849318004915858 0 -70.849318004915858 -13.021260262621581 0 0 0 0 56.704047242201341 -63.959707403607354 0 -63.959707403607354 13.034984615071153 0 0 0 0 130.4271659964129 15.477254094672389 0 15.477254094672389 -190.65443886761932 0 0 0 0 106.84431568033835 14.48935877043732 0 14.48935877043732 -91.72582085113936 0 0 0 0 105.24696264635293 -0.57462423678038022 0 -0.57462423678038022 -73.416006368228409 0 0 0 0 108.23896840704947 -20.685750392012778 0 -20.685750392012778 -27.7783663799637 0 0 0 0 111.20291448281159 -3.794734790968505 0 -3.794734790968505 -89.140676174848522 0 0 0 0 127.8209350291645 -4.8690790656874015 0 -4.8690790656874015 -133.93282781761081 0 0 0 0 118.24049280661117 -4.9799119488620818 0 -4.9799119488620818 -130.83251850531087 0 0 0 0 115.50228213850687 7.1090659356486867 0 7.1090659356486867 -86.936283802693652 0 0 0 0 114.44536761350878 6.5039355755907309 0 6.5039355755907309 -129.86566699994682 0 0 0 0 123.15184617875047 25.073885990068447 0 25.073885990068447 -193.30794220880489 0 0 0 0 122.27232898657709 35.382421668490679 0 35.382421668490679 -191.51876084179821 0 0 0 0 117.35709033199947 8.9338031361758112 0 8.9338031361758112 -161.61744707080288 0 0 0 0 126.16820320358738 15.945218451175606 0 15.945218451175606 -229.63063329522265 0 0 0 0 119.0558459974427 28.79587258045467 0 28.79587258045467 -203.62713039517985 0 0 0 0 114.51163829147367 27.387575092896441 0 27.387575092896441 -190.9658443071894 0 0 0 0 116.05005350373494 37.451595842816459 0 37.451595842816459 -200.93360844270501 0 0 0 0 103.23377916642767 17.880157642466656 0 17.880157642466656 -231.44205513907946 0 0 0 0 120.47333622046244 38.229512229772808 0 38.229512229772808 -215.9762178989622 0 0 0 0 106.63431469976064 16.90460468468163 0 16.90460468468163 -251.28813000812079 0 0 0 0 125.36156241052777 33.332609090110054 0 33.332609090110054 -257.82807944377782 0 0 0 0 129.54305389039453 30.270290975682656 0 30.270290975682656 -294.92272119036352 0 0 0 0 127.91548264744017 43.18747142817665 0 43.18747142817665 -294.11912190752628 0 0 0 0 132.35729587969854 41.647037647657271 0 41.647037647657271 -311.202109211692 0 0 0 0 121.84894677768534 18.031872276362265 0 18.031872276362265 -314.4594726725627 0 0 0 0 117.16128102823689 39.633501462871209 0 39.633501462871209 -228.2643672920492 0 0 0 0 133.97219756897076 53.387447055264147 0 53.387447055264147 -295.48820367808366 0 0 0 0 126.86213873524719 27.185886284550406 0 27.185886284550406 -260.53764454291013 0 0 0 0 135.32043457873272 19.195794446283003 0 19.195794446283003 -209.50871357177675 0 0 0 0 155.64340378483575 52.776184639174971 0 52.776184639174971 -169.42414933640248 0 0 0 0 138.6364615767593 56.562199123023674 0 56.562199123023674 -227.52206424641554 0 0 0 0 202.62589724737916 59.639678511773809 0 59.639678511773809 -164.82702539996171 0 0 0 0 193.06997081531881 30.76055856883977 0 30.76055856883977 -213.1656409506154 0 0 0 0 186.27764481100894 56.444527431893221 0 56.444527431893221 -275.96900364719477 0 0 0 0 161.97131958270575 52.306259850348397 0 52.306259850348397 -209.42451719689598 0 0 0 0 150.88009001929368 41.028418001489626 0 41.028418001489626 -150.14293101626026 0 0 0 0 167.86871145117584 36.059680033049517 0 36.059680033049517 -99.824569310687366 0 0 0 0 170.71674978631654 44.739317035759541 0 44.739317035759541 -150.25900520337382 0 0 0 0 150.41959250600121 33.697294022289498 0 33.697294022289498 -96.979882116869703 0 0 0 0 135.4837325890685 41.719917526456811 0 41.719917526456811 -40.623731049725393 0 0 0 0 175.07633887255986 53.911171289381855 0 53.911171289381855 -98.276275330532371 0 0 0 0 194.74359274609014 60.814061275712447 0 60.814061275712447 -59.679221277074248 0 0 0 0 179.5235474183155 30.899556473519624 0 30.899556473519624 -99.970701700483914 0 0 0 0 129.88797445981254 37.639609957064749 0 37.639609957064749 -137.30234825268417 0 0 0 0 120.58438339532995 24.473935818102291 0 24.473935818102291 -90.830746636615004 0 0 0 0 151.0286785993776 31.460404371084223 0 31.460404371084223 -161.37860953992185 0 0 0 0 137.75539604075948 43.150598632134461 0 43.150598632134461 -83.933848090354786 0 0 0 0 103.7228402217213 26.032098412611504 0 26.032098412611504 -18.030462001526757 0 0 0 0 106.12308515500581 33.895895538124023 0 33.895895538124023 -38.186431404787982 0 0 0 0 109.51428043373744 43.332416767893847 0 43.332416767893847 -11.113104406538696 0 0 0 0 83.95096532511036 43.079632582005615 0 43.079632582005615 47.519811057145489 0 0 0 0 112.50146888280915 52.753627270454672 0 52.753627270454672 17.056932068260721 0 0 0 0 56.580420083668059 32.872367882109756 0 32.872367882109756 52.298177461332671 0 0 0 0 220.67543731714068 48.294105836853305 0 48.294105836853305 -56.840302351230775 0 0 0 0 162.13559865339084 64.101181190730586 0 64.101181190730586 5.4226831710293482 0 0 0 0 161.84430775603505 55.290035886082478 0 55.290035886082478 -37.180037563015503 0 0 0 0 165.38043237527108 51.923595580842175 0 51.923595580842175 7.0228130899243979 0 0 0 0 157.23011817846145 80.002666812708867 0 80.002666812708867 27.162497596046023 0 0 0 0 206.39812212340667 93.873471994506531 0 93.873471994506531 47.038341691818459 0 0 0 0 269.29877529546366 96.103744122492117 0 96.103744122492117 42.439609262351041 0 0 0 0 99.704520577951826 169.63578449903491 0 169.63578449903491 192.10809877297925 0 0 0 0 293.78132223735338 60.516462033160224 0 60.516462033160224 62.760193706605151 0 0 0 0 81.028187031657581 64.326814442138357 0 64.326814442138357 92.739316403197336 0 0 0 0 18.754869463518698 -6.2062092804974878 0 -6.2062092804974878 0.057999166718676776 0 0 0 0 46.802504662102649 31.603930816664501 0 31.603930816664501 85.954745884370823 0 0 0 0 7.3712138104165206 -23.681649858571291 0 -23.681649858571291 -36.931721413552395 0 0 0 0 16.979045343628968 -40.90445759584361 0 -40.90445759584361 -9.9960761788594041 0 0 0 0 7.0346970858872453 -36.975968922945292 0 -36.975968922945292 -9.6750720559484762 0 0 0 0 5.8653318699156003 -18.474963195806314 0 -18.474963195806314 8.5559374149491525 0 0 0 0 28.621976863221857 -24.432900739149304 0 -24.432900739149304 9.807523586486024 0 0 0 0 39.221506880381639 -154.39686567023045 0 -154.39686567023045 -110.77381782122984 0 0 0 0 -24.128946668460401 -24.88707208556561 0 -24.88707208556561 92.031524726709222 0 0 0 0 19.694242472741507 -8.7501128484850668 0 -8.7501128484850668 -2.2856957435175014 0 0 0 0 50.582124184416898 -23.023546770931262 0 -23.023546770931262 -13.860497872795577 0 0 0 0 24.484770229099347 -29.43639091215141 0 -29.43639091215141 8.3442803513596928 0 0 0 0 45.614173814533579 -37.918223883068578 0 -37.918223883068578 24.386602959779232 0 0 0 0 117.64715845225203 -34.98997836798253 0 -34.98997836798253 0.98117673761953483 0 0 0 0 77.666481431267357 -19.562671065883478 0 -19.562671065883478 68.89394004177484 0 0 0 0 58.915519355170318 24.901508617676882 0 24.901508617676882 76.733912017471084 0 0 0 0 78.352436852004075 9.6724361816814053 0 9.6724361816814053 2.8238696305879785 0 0 0 0 78.368437287707934 9.3830371640569865 0 9.3830371640569865 2.8673871500732275 0 0 0 0 -504.73297446271317 396.72172043769569 0 396.72172043769569 -10.712578911505034 0 0 0 0 99.381453868547396 -6.9442675546422379 0 -6.9442675546422379 -53.373413831778123 0 0 0 0 18.234767783860036 3.4540611435542878 0 3.4540611435542878 -2.4039335315525268 0 0 0 0 -732.27772333958274 824.99079084751929 0 824.99079084751929 1832.4575594939156 0 0 0 0 -52.097700270594942 91.104303414854144 0 91.104303414854144 11.596464662535254 0 0 0 0 -79.791059344664973 -133.68605813476529 0 -133.68605813476529 30.745488273008959 0 0 0 0 -3.8046137302462739 86.22669591450699 0 86.22669591450699 -41.449623080044375 0 0 0 0 18.003187717171386 -57.001229894204016 0 -57.001229894204016 -23.957630055467462 0 0 0 0 111.99790004287206 -20.032082229245816 0 -20.032082229245816 5.4120832469001812 0 0 0 0 52.282195827317537 14.682145180864069 0 14.682145180864069 -4.6384846986288721 0 0 0 0 48.589840504920076 -27.859139056062325 0 -27.859139056062325 5.0851114934885526 0 0 0 0 8.4019167980950442 11.906075168847593 0 11.906075168847593 -52.026302341113677 0 0 0 0 -379.0765050598493 -207.12022747829519 0 -207.12022747829519 20.01745023977557 0 0 0 0 11.407501812907604 -1.7656496519311204 0 -1.7656496519311204 -0.65302477959139837 0 0 0 0 10.669818403791503 5.9193692174286738 0 5.9193692174286738 2.6556072173115313 0 0 0 0 115.85310435724386 177.40056572937999 0 177.40056572937999 -25.007104220741326 0 0 0 0 55.035722121130675 55.824220780857473 0 55.824220780857473 190.59417471455504 0 0 0 0 974.53047554427758 -56.645298651584255 0 -56.645298651584255 44.103403914939832 0 0 0 0 -121.03216171685563 220.32308726379893 0 220.32308726379893 247.84698407343967 0 0 0 0 1370.6199057300037 -1141.3117232147115 0 -1141.3117232147115 446.30111128997771 0 0 0 0 988.23147249567955 -784.5157984457104 0 -784.5157984457104 136.86892589439503 0 0 0 0 784.65379722197395 -252.49564764002275 0 -252.49564764002275 -105.56120788984663 0 0 0 0 1923.8039633512526 -279.74332280627823 0 -279.74332280627823 -166.29141039796582 0 0 0 0 1724.1889236683055 -1099.9905827084342 0 -1099.9905827084342 -139.28126507498769 0 0 0 0 1712.5187671126432 -1318.9518472217501 0 -1318.9518472217501 146.94431611274786 0 0 0 0 1535.0700198747654 -1210.3604087919616 0 -1210.3604087919616 -2166.8908029705512 0 0 0 0 2519.4660980277695 -1696.4574606336923 0 -1696.4574606336923 -849.29822348916832 0 0 0 0 3279.1231471321953 -596.7685175473016 0 -596.7685175473016 -551.46228072259839 0 0 0 0 1512.7178584888607 -783.30886413686153 0 -783.30886413686153 -563.42025204476613 0 0 0 0 8.8103850156494019 -2.4339473851078353 0 -2.4339473851078353 2.1224845101183725 0 0 0 0 782.91277801043543 393.60320456800196 0 393.60320456800196 51.906031090031775 0 0 0 0 1737.2241290255115 425.09527037206931 0 425.09527037206931 32.681080507284605 0 0 0 0 5053.3597652988392 -499.37356826126597 0 -499.37356826126597 -2169.9422704290855 0 0 0 0 -2470.2301049422822 -2085.5786550343028 0 -2085.5786550343028 1267.8394653235464 0 0 0 0 1.3863811658161467 2.8370010007005462 0 2.8370010007005462 3.6430880138870254 0 0 0 0 -888.66106903898617 -209.44082364655242 0 -209.44082364655242 523.13397652100775 0 0 0 0 121.48786513873165 -573.60879256321641 0 -573.60879256321641 634.40308571766309 0 0 0 0 1147.0566820026361 -2473.4053503727982 0 -2473.4053503727982 1307.0225085106631 0 0 0 0 4320.0691695824062 419.18863518867443 0 419.18863518867443 -742.50506252102468 0 0 0 0 35.782752393865152 -3.28917204976905 0 -3.28917204976905 -2.113148802298495 0 0 0 0 1999.841780129088 1958.2571312736143 0 1958.2571312736143 197.85807793535696 0 0 0 0 1389.2371125562595 1120.9875489399692 0 1120.9875489399692 157.82778694403817 0 0 0 0 841.52531964358059 287.24389843988047 0 287.24389843988047 -501.08049480861052 0 0 0 0 1580.4693520997989 -490.57500471274278 0 -490.57500471274278 -985.03532928725656 0 0 0 0 12.465967642174203 -64.566002180337378 0 -64.566002180337378 159.51002665954911 0 0 0 0 38.424101167792486 -21.899729685026195 0 -21.899729685026195 11.681565693613479 0 0 0 0 12.472853024885808 -63.254630003961211 0 -63.254630003961211 39.156028021672682 0 0 0 0 34.445363188153351 -66.008677284415171 0 -66.008677284415171 15.775117155357293 0 0 0 0 48.043780288082843 -31.364587727937113 0 -31.364587727937113 19.743056717680268 0 0 0 0 -517.81477443292897 -666.20938971808278 0 -666.20938971808278 -190.20280103896494 0 0 0 0 19.745693224987917 -71.803131948050577 0 -71.803131948050577 14.994830146120876 0 0 0 0 43.195924320800259 -44.559126966600161 0 -44.559126966600161 -14.592667911439094 0 0 0 0 15.564122587154998 -49.812531667832445 0 -49.812531667832445 14.713648007307711 0 0 0 0 44.515205740992315 -61.079149651536682 0 -61.079149651536682 17.878230860765143 0 0 0 0 25.771187367019593 -61.259092102087834 0 -61.259092102087834 24.243069438791281 0 0 0 0 62.105870530325774 -70.844976263414082 0 -70.844976263414082 26.689223663729081 0 0 0 0 22.16088275351558 -74.108329567061674 0 -74.108329567061674 51.276935474882976 0 0 0 0 36.554377501853196 -109.13789187682255 0 -109.13789187682255 9.777063916152656 0 0 0 0 13.37170035822237 -119.56044017173554 0 -119.56044017173554 66.022930910978005 0 0 0 0 -316.29591612562945 229.22794638388677 0 229.22794638388677 148.51182898968909 0 0 0 0 -521.23853698912762 -1119.4420058914075 0 -1119.4420058914075 -77.131917731305293 0 0 0 0 78.43828828884466 -77.55983617067605 0 -77.55983617067605 39.254818261295668 0 0 0 0 -742.22882440855392 74.308073485000932 0 74.308073485000932 -128.60685252316352 0 0 0 0 227.95009774931168 -419.75306410200028 0 -419.75306410200028 -238.74264699753257 0 0 0 0 78.481257530303154 -72.81632196205895 0 -72.81632196205895 42.921094357609149 0 0 0 0 126.42812290266284 -129.25558191497362 0 -129.25558191497362 12.193510727598095 0 0 0 0 -849.1493833551076 -780.22314820635575 0 -780.22314820635575 -138.70743675283302 0 0 0 0 -347.83917363247747 -447.43096185044942 0 -447.43096185044942 -504.25848821357249 0 0 0 0 -439.13062364920188 -109.95941197621505 0 -109.95941197621505 -120.87092328203971 0 0 0 0 161.38010497317646 -74.15799901066282 0 -74.15799901066282 501.88274654307827 0 0 0 0 1454.2172359102005 -932.8805598683806 0 -932.8805598683806 235.4290805743658 0 0 0 0 67.843999686157758 7.1442379791243589 0 7.1442379791243589 10.803814614919293 0 0 0 0 264.43453963184947 446.71240316635692 0 446.71240316635692 -117.76594780625149 0 0 0 0 138.57194195644729 -86.368603976897049 0 -86.368603976897049 -155.92919845150982 0 0 0 0 203.23493153998697 73.526472082113827 0 73.526472082113827 -748.96510227823865 0 0 0 0 47.371673312770412 18.865499112489832 0 18.865499112489832 1.2819848265587099 0 0 0 0 236.2665655928904 -212.23264111295953 0 -212.23264111295953 -28.571508157398512 0 0 0 0 72.116305036155609 -177.68228332209844 0 -177.68228332209844 121.94078079646079 0 0 0 0 -8.4259558211197145 -125.98841510392867 0 -125.98841510392867 90.152636087206702 0 0 0 0 -13.775785569773689 -111.80614773399654 0 -111.80614773399654 904.09412511968094 0 0 0 0 16.427066534906828 -6.2528660880589841 0 -6.2528660880589841 3.4301617916464302 0 0 0 0 1685.3513206016687 1536.7788711449746 0 1536.7788711449746 365.89348333144937 0 0 0 0 1668.1704838642127 451.97666641877771 0 451.97666641877771 1018.2304837926638 0 0 0 0 3333.444291000088 -955.37056329598829 0 -955.37056329598829 1027.132759505135 0 0 0 0 2248.3059544620701 964.37450832722129 0 964.37450832722129 1445.5863548096213 0 0 0 0 3570.8556431881188 -2667.9030218990365 0 -2667.9030218990365 1602.9007805016201 0 0 0 0 22.927813753109501 6.5342531066890626 0 6.5342531066890626 1.1817285232369015 0 0 0 0 621.39999983394046 -814.02877808250219 0 -814.02877808250219 -61.44856587843924 0 0 0 0 497.15329822500826 2068.1182497587447 0 2068.1182497587447 924.44987920709809 0 0 0 0 1676.7461311102243 -1573.3937463870657 0 -1573.3937463870657 1023.2589834070512 0 0 0 0 1609.0800300436472 -518.69078278572488 0 -518.69078278572488 -26.694272425222834 0 0 0 0 4561.9713329343067 -1255.9776552039273 0 -1255.9776552039273 495.89525411695649 0 0 0 0 2852.3700858363713 -1310.5638879619239 0 -1310.5638879619239 525.0963461241688 0 0 0 0 3003.8105913398676 -1574.0535205556862 0 -1574.0535205556862 -163.51179385880164 0 0 0 0 3447.5987406629715 -1699.689549486156 0 -1699.689549486156 -132.79337375963127 0 0 0 0 2752.9080343076539 -981.92814529829388 0 -981.92814529829388 -27.370613964223367 0 0 0 0 2868.7274847195713 -751.5248703460843 0 -751.5248703460843 -141.10839596639903 0 0 0 0 17.867791187498497 -0.029150373506088512 0 -0.029150373506088512 -0.84346556567504116 0 0 0 0 2567.2961279216456 1801.1414220942081 0 1801.1414220942081 -395.61715559072093 0 0 0 0 804.64102681856821 10.350516234233737 0 10.350516234233737 1003.2652092905744 0 0 0 0 2098.4202090349227 -1890.2533068865628 0 -1890.2533068865628 259.86286852748975 0 0 0 0 3336.3368963497778 -349.75126614979717 0 -349.75126614979717 1047.0364763599989 0 0 0 0 3195.2661043363632 51.231582041751096 0 51.231582041751096 611.99402889990665 0 0 0 0 4987.9969981804334 510.41956064775115 0 510.41956064775115 -104.74654055156249 0 0 0 0 5004.4806663163299 -763.86603973898946 0 -763.86603973898946 977.83956788399234 0 0 0 0 3508.8521326158102 27.989329530810579 0 27.989329530810579 1772.2759862553205 0 0 0 0 2532.2783265276612 -886.6124229145139 0 -886.6124229145139 2392.5243553716891 0 0 0 0 3140.3276014534126 -1888.8034177107445 0 -1888.8034177107445 531.60579115001372 0 0 0 0 4984.7476461097904 -1942.3027640199984 0 -1942.3027640199984 382.02053627944446 0 0 0 0 4973.2131099641229 2036.3698415739423 0 2036.3698415739423 -745.07914367921944 0 0 0 0 2297.2293015778123 2595.9445754211119 0 2595.9445754211119 1377.3033803866647 0 0 0 0 35.797807393814381 -3.3329154933671266 0 -3.3329154933671266 0.98211080617476931 0 0 0 0 104.89171579697359 1172.705840720716 0 1172.705840720716 537.37366185895894 0 0 0 0 301.88376544314497 567.07088431437523 0 567.07088431437523 -210.24657943059549 0 0 0 0 1422.8211403585174 -3052.867302737011 0 -3052.867302737011 735.97389500531744 0 0 0 0 1178.3991545087338 -683.59912061326304 0 -683.59912061326304 1114.2957242481098 0 0 0 0 1596.4393089763282 1183.2556930244002 0 1183.2556930244002 2.3985888616255124 0 0 0 0 319.8174779657711 -65.116413518060654 0 -65.116413518060654 -538.48154562136926 0 0 0 0 653.61675760024264 1478.0547951752342 0 1478.0547951752342 106.99497195738331 0 0 0 0 1606.4842195678675 -209.96757334544805 0 -209.96757334544805 -2586.1775845528205 0 0 0 0 1185.1229697033268 -127.78441107678066 0 -127.78441107678066 -2126.262905539098 0 0 0 0 71.677698727849886 -6.7445966169997309 0 -6.7445966169997309 -4.7418260103714731 0 0 0 0 2215.2796997894402 740.48639643454931 0 740.48639643454931 -262.59242109426282 0 0 0 0 53.244652634391969 876.53820313942651 0 876.53820313942651 -264.04643934789578 0 0 0 0 749.59203398566024 -2459.1234356667355 0 -2459.1234356667355 -1166.1236894335964 0 0 0 0 -932.32555097939985 -1146.7824505144326 0 -1146.7824505144326 47.766097726398584 0 0 0 0 1470.3145300649339 -660.62156953986096 0 -660.62156953986096 117.91651390328059 0 0 0 0 1067.9521191345484 -1755.4555006626945 0 -1755.4555006626945 -147.60633111479433 0 0 0 0 1058.2404660159809 -507.44815098827041 0 -507.44815098827041 222.49801240781221 0 0 0 0 2859.9584185406638 -0.60741298386471954 0 -0.60741298386471954 357.6469763770026 0 0 0 0 4462.9455206520761 104.10593311306633 0 104.10593311306633 -22.427529431586663 0 0 0 0 1505.1551220890178 -1350.7249469498058 0 -1350.7249469498058 590.68398066319696 0 0 0 0 1448.5009039450597 -1176.5508551428534 0 -1176.5508551428534 82.457018410367482 0 0 0 0 1512.7529399526138 741.66584782052917 0 741.66584782052917 969.26166947053252 0 0 0 0 2551.8688837720929 1784.9689578257014 0 1784.9689578257014 1678.8131968597763 0 0 0 0 2075.6986767541712 2010.8934833417395 0 2010.8934833417395 834.20927196906382 0 0 0 0 3176.4976548711929 1255.3285281539154 0 1255.3285281539154 42.755447649817484 0 0 0 0 16.683737828694262 0.79628861667372064 0 0.79628861667372064 -7.6524712637426333 0 0 0 0 3181.8166867321306 1417.2705221935805 0 1417.2705221935805 101.11725535603364 0 0 0 0 1910.985703344486 838.65637725492525 0 838.65637725492525 -810.76778821574931 0 0 0 0 4996.5809678548831 2893.0649084113093 0 2893.0649084113093 1234.8944444004999 0 0 0 0 13.636836626236246 2.7494477220045752 0 2.7494477220045752 -6.0082210802942555 0 0 0 0 1920.0898326753049 975.15260524938412 0 975.15260524938412 196.56996363313237 0 0 0 0 -34.528319938806817 135.20017523839658 0 135.20017523839658 -430.16282997901817 0 0 0 0 128.08204608066444 207.59522667102226 0 207.59522667102226 -608.14758562199108 0 0 0 0 -47.887100852531148 181.15039812388522 0 181.15039812388522 -390.26184934872799 0 0 0 0 282.17464753957756 44.938732607976362 0 44.938732607976362 -369.92013131943941 0 0 0 0 281.58551673060356 114.09422720761381 0 114.09422720761381 -250.92273793044887 0 0 0 0 355.77998607469635 -119.57831962114051 0 -119.57831962114051 -69.680663869284672 0 0 0 0 -20.946028851656592 191.8422918556289 0 191.8422918556289 -234.70004711989577 0 0 0 0 340.85743742470004 133.15234122507172 0 133.15234122507172 -271.72114136876439 0 0 0 0 156.24141569580388 162.96791383358641 0 162.96791383358641 -216.9158918504279 0 0 0 0 21.940486152634548 163.08662593402528 0 163.08662593402528 -9.297145602145406 0 0 0 0 61.774036212620558 84.544809718159968 0 84.544809718159968 -42.050386038305646 0 0 0 0 94.016682922501786 102.02162009668314 0 102.02162009668314 -142.05840440759766 0 0 0 0 60.478935619285039 73.040606731464322 0 73.040606731464322 -84.873158650447294 0 0 0 0 121.58434100310842 40.37750496076842 0 40.37750496076842 -269.52745670304421 0 0 0 0 121.212401709392 40.425468472873632 0 40.425468472873632 -177.13768214284664 0 0 0 0 101.63903174739971 25.524605711555068 0 25.524605711555068 -118.27691661178255 0 0 0 0 11.786565274747105 4.5019458195690092 0 4.5019458195690092 1.6333552122669861 0 0 0 0 3.7171054362333962 75.844459045771714 0 75.844459045771714 -141.00038486311564 0 0 0 0 95.107160558285386 123.21008543000757 0 123.21008543000757 -516.06543707120272 0 0 0 0 5.5102371130746235 -17.913621432586581 0 -17.913621432586581 -4.3571169138450845 0 0 0 0 174.06855431148961 -5.9117674631960426 0 -5.9117674631960426 -23.328798661141946 0 0 0 0 34.693839524689423 -10.970706346465441 0 -10.970706346465441 -5.6055493187617138 0 0 0 0 103.08919021338318 -30.787367113434698 0 -30.787367113434698 -7.5430993751087954 0 0 0 0 76.026847653274771 -25.187906566092352 0 -25.187906566092352 -16.117339453330537 0 0 0 0 -204.3099759904452 -2.6725740039864831 0 -2.6725740039864831 -55.439965307627062 0 0 0 0 -21.489580258655977 -14.33868684455787 0 -14.33868684455787 7.911630929429383 0 0 0 0 -26.517741726536769 -68.764670155891508 0 -68.764670155891508 41.687977296408917 0 0 0 0 45.477626799263817 -9.9219597795305106 0 -9.9219597795305106 -15.444790442083956 0 0 0 0 116.3112576982021 -29.86658870711824 0 -29.86658870711824 -205.16113328075789 0 0 0 0 62.296426389996363 -15.052555385870075 0 -15.052555385870075 -9.9484327723599844 0 0 0 0 96.47500130089611 -73.338941179283097 0 -73.338941179283097 -68.617571183050813 0 0 0 0 117.05047752794781 -29.190092841344949 0 -29.190092841344949 -229.78272976401695 0 0 0 0 59.013445154362564 1.8449866635454377 0 1.8449866635454377 -2.7387945231139641 0 0 0 0 116.66122023877688 9.8312284562761079 0 9.8312284562761079 -66.192534166000542 0 0 0 0 105.25283576549668 -62.155532684949321 0 -62.155532684949321 29.895253493128848 0 0 0 0 6.2370649297162117 4.458934405269634 0 4.458934405269634 5.8114755825663424 0 0 0 0 427.58436762121983 -154.0224875503186 0 -154.0224875503186 81.19459325798266 0 0 0 0 101.12892781603102 -34.468933462165957 0 -34.468933462165957 52.791345044426407 0 0 0 0 181.30291486566239 37.966262000396 0 37.966262000396 -151.92649601883159 0 0 0 0 169.48141980936271 -44.453534699264537 0 -44.453534699264537 -166.73961421145623 0 0 0 0 143.31496595600584 -142.62652893727704 0 -142.62652893727704 -39.816091455902949 0 0 0 0 91.596088934313116 14.767201451468038 0 14.767201451468038 -2.2908545971339431 0 0 0 0 304.45675264365491 82.99457842321894 0 82.99457842321894 -736.2292216269559 0 0 0 0 88.150312697763638 195.6949498443235 0 195.6949498443235 68.27552644845241 0 0 0 0 62.383946994586395 13.839519604343158 0 13.839519604343158 2.4791142281416501 0 0 0 0 218.09138314202755 191.86068690763364 0 191.86068690763364 -85.384918439890953 0 0 0 0 182.81616580406808 64.90601331594371 0 64.90601331594371 133.56097445833893 0 0 0 0 295.64491235819378 293.90292831889269 0 293.90292831889269 378.17320546384212 0 0 0 0 235.03370201098733 118.82375552778763 0 118.82375552778763 1.7448766497921042 0 0 0 0 116.14927581827806 232.91327442771387 0 232.91327442771387 335.83332741432423 0 0 0 0 550.5010870205133 821.10229166203999 0 821.10229166203999 906.55980287193438 0 0 0 0 1395.6437353980764 -724.46947374628439 0 -724.46947374628439 -165.62226156888551 0 0 0 0 23.484553056187458 4.8003439192345905 0 4.8003439192345905 1.2580040458164774 0 0 0 0 10.568493924003747 -21.914046101186795 0 -21.914046101186795 31.911737692203854 0 0 0 0 447.67019503173651 -12.27600246070233 0 -12.27600246070233 108.63006687478992 0 0 0 0 1729.4258684866127 486.40760484643295 0 486.40760484643295 -279.64440488545483 0 0 0 0 -138.12670162742688 -859.77962395002533 0 -859.77962395002533 1135.9635227405133 0 0 0 0 831.6789342762313 1108.0494027537998 0 1108.0494027537998 155.22879580136703 0 0 0 0 2127.81531726699 285.54662667643254 0 285.54662667643254 -574.69766403722167 0 0 0 0 559.09162852566806 151.16510486537368 0 151.16510486537368 -313.36213734452213 0 0 0 0 -311.13738520533479 242.94966969274159 0 242.94966969274159 75.036331948075144 0 0 0 0 8.2989752326377086 -16.467982316929156 0 -16.467982316929156 27.783474218204923 0 0 0 0 860.03179463622109 280.94025339923439 0 280.94025339923439 -559.05770685193272 0 0 0 0 1214.8360395349919 79.127210119623896 0 79.127210119623896 -522.77191354946444 0 0 0 0 578.27871713842251 118.8755515192305 0 118.8755515192305 -327.77450216273019 0 0 0 0 779.26907726436912 88.097831111176333 0 88.097831111176333 -373.47044467299747 0 0 0 0 842.65808883494174 27.855391576820693 0 27.855391576820693 -338.5879517949852 0 0 0 0 752.52515678969212 115.18131245666518 0 115.18131245666518 -200.93055727475075 0 0 0 0 704.64288568589109 23.575346416192133 0 23.575346416192133 -236.34017908566784 0 0 0 0 756.56404972856762 126.73219122375497 0 126.73219122375497 -361.21172557899899 0 0 0 0 -316.98871533607257 -182.18515811819631 0 -182.18515811819631 53.619848913189344 0 0 0 0 553.12136611346068 2.7537206368335774 0 2.7537206368335774 -296.37449309354724 0 0 0 0 679.46684691432165 67.64833820000058 0 67.64833820000058 -305.35107964740905 0 0 0 0 -104.25686132432747 115.1429678536374 0 115.1429678536374 -113.1478862311842 0 0 0 0 361.77080858613044 225.27925941618832 0 225.27925941618832 -316.8109068886032 0 0 0 0 570.11521201819414 -159.9361741431544 0 -159.9361741431544 -286.69238946827602 0 0 0 0 60.879005100321592 69.841925511033423 0 69.841925511033423 -248.22594286605613 0 0 0 0 361.02495664830167 -385.09299035588856 0 -385.09299035588856 -199.01802985237782 0 0 0 0 1152.8455903204995 -394.75022382498673 0 -394.75022382498673 -357.36953960929532 0 0 0 0 762.15588917398418 -87.20128015397313 0 -87.20128015397313 -233.12742277182724 0 0 0 0 557.58483624421933 -177.80015143227979 0 -177.80015143227979 -256.90833168522477 0 0 0 0 834.43337038137543 -4.7860007451236015 0 -4.7860007451236015 -170.3265216141499 0 0 0 0 517.87097938315765 -106.14787848590709 0 -106.14787848590709 -13.51951462177658 0 0 0 0 286.5229373888987 -143.5036429731517 0 -143.5036429731517 -114.62415863140541 0 0 0 0 540.13588299632829 -65.967279184966628 0 -65.967279184966628 -91.842407499603496 0 0 0 0 368.76299089914028 -157.49303090065678 0 -157.49303090065678 165.71053829115681 0 0 0 0 445.75773594168095 57.192105744052128 0 57.192105744052128 360.59189057551703 0 0 0 0 431.26301896134464 1.1314476810671295 0 1.1314476810671295 201.33375989442902 0 0 0 0 648.18006045014045 30.892507893939182 0 30.892507893939182 63.119872030923489 0 0 0 0 786.99405165544158 57.130122588837366 0 57.130122588837366 -165.34524411752682 0 0 0 0 645.95622982455825 18.405561993757601 0 18.405561993757601 -6.8763405522231551 0 0 0 0 702.55764074861509 122.69251485162567 0 122.69251485162567 115.34761164230349 0 0 0 0 562.6236002950518 118.80302194667922 0 118.80302194667922 277.51327963702533 0 0 0 0 557.68668610609893 106.06018997627461 0 106.06018997627461 271.83248307191934 0 0 0 0 673.88612945156274 92.78214179456927 0 92.78214179456927 122.33128095057327 0 0 0 0 631.17976823530989 158.85483756032181 0 158.85483756032181 309.11728750848306 0 0 0 0 427.88354435714427 112.33831937584364 0 112.33831937584364 337.20490799383697 0 0 0 0 443.42643475337718 163.45183957080951 0 163.45183957080951 404.90703602769645 0 0 0 0 326.74390704910911 92.467131959936978 0 92.467131959936978 361.73983356016106 0 0 0 0 820.80540725265018 -261.68133137900804 0 -261.68133137900804 51.02335188138386 0 0 0 0 970.39286949751113 -631.70357257284377 0 -631.70357257284377 -91.088136508020398 0 0 0 0 683.67365000431164 -256.65206461559683 0 -256.65206461559683 -82.676045221272943 0 0 0 0 942.03864916180464 -137.51472841605755 0 -137.51472841605755 -33.021250875048281 0 0 0 0 353.63290913731453 -116.89226449120576 0 -116.89226449120576 -70.169641623358984 0 0 0 0 401.3307144256396 -436.56349889964167 0 -436.56349889964167 -34.78607504714455 0 0 0 0 472.79177948084543 -127.05464180961098 0 -127.05464180961098 -157.64881413918556 0 0 0 0 465.55721544205471 39.404282128357096 0 39.404282128357096 -181.83493316199383 0 0 0 0 814.91974491591827 53.099145587482781 0 53.099145587482781 -128.77337031392562 0 0 0 0 674.41349567732686 -35.863675575443267 0 -35.863675575443267 -171.89460213084931 0 0 0 0 789.10102226900926 10.476507720345126 0 10.476507720345126 43.158435415249187 0 0 0 0 758.14910358183624 161.88571855038253 0 161.88571855038253 130.96835463453408 0 0 0 0 856.46994449577323 129.95458750821399 0 129.95458750821399 -60.511859942272622 0 0 0 0 744.96699668929796 58.734137698595077 0 58.734137698595077 -89.53298068183858 0 0 0 0 752.83269700381061 119.79288720992986 0 119.79288720992986 -181.16734749203715 0 0 0 0 822.6032937932323 97.444523236763871 0 97.444523236763871 -196.5425412998211 0 0 0 0 779.40619319785037 96.871045923949168 0 96.871045923949168 -62.779684300541021 0 0 0 0 771.2525193175461 76.154989816554007 0 76.154989816554007 -56.147219969534945 0 0 0 0 711.98246074662165 175.49803732884902 0 175.49803732884902 245.83501034227811 0 0 0 0 803.00816689232306 73.908902112029409 0 73.908902112029409 177.24349670166885 0 0 0 0 687.43492624845749 88.250645759689633 0 88.250645759689633 286.77542840499336 0 0 0 0 757.51269425832652 209.51793327150699 0 209.51793327150699 466.6591170443844 0 0 0 0 925.41395063596428 166.16899154770636 0 166.16899154770636 242.4165545416945 0 0 0 0 1791.3625436592192 -76.552093898530075 0 -76.552093898530075 62.323783905546406 0 0 0 0 1350.6201506582456 387.00593692145867 0 387.00593692145867 582.2461650818459 0 0 0 0 1049.9479555034632 188.20314153691925 0 188.20314153691925 162.69512666533592 0 0 0 0 893.25750961876838 37.689071048572259 0 37.689071048572259 327.66467033455865 0 0 0 0 1179.0125689968481 -188.88322822166901 0 -188.88322822166901 -42.137750201468407 0 0 0 0 1054.5310034916001 -309.52689180714879 0 -309.52689180714879 41.46778753700346 0 0 0 0 1205.3511451801805 -280.46350877219083 0 -280.46350877219083 109.69193949178089 0 0 0 0 801.52387982493747 -9.6621638657670701 0 -9.6621638657670701 860.15576506999287 0 0 0 0 822.13866518807117 -81.790671613508948 0 -81.790671613508948 374.60613868576911 0 0 0 0 630.29614616257459 48.977937594463583 0 48.977937594463583 551.64585749849584 0 0 0 0 924.70410896175599 -134.46891469196999 0 -134.46891469196999 108.65478535166724 0 0 0 0 1034.3088518367385 -335.3011509215562 0 -335.3011509215562 476.42720392985211 0 0 0 0 532.36531679077234 85.412952976829729 0 85.412952976829729 213.71430349606635 0 0 0 0 460.34974408661947 239.0578318790831 0 239.0578318790831 346.88768216841891 0 0 0 0 512.99155648385022 194.59520663541616 0 194.59520663541616 201.54609513308606 0 0 0 0 556.65632905489474 117.98687087662711 0 117.98687087662711 327.23609734322281 0 0 0 0 579.01814257550359 130.12291710423733 0 130.12291710423733 291.9288396298216 0 0 0 0 646.04354234751372 34.370210452925676 0 34.370210452925676 383.15551324429043 0 0 0 0 678.56618484120918 -12.090342156941915 0 -12.090342156941915 298.12388723881605 0 0 0 0 889.14348406234421 -162.04480887107593 0 -162.04480887107593 195.15826118939913 0 0 0 0 684.82567994615238 1.6098767238981964 0 1.6098767238981964 326.89278231108528 0 0 0 0 560.31600239144609 16.387782045616405 0 16.387782045616405 164.50465352935134 0 0 0 0 611.81409862824512 102.22676546886851 0 102.22676546886851 127.85049769764009 0 0 0 0 504.20312124180055 143.39150368379433 0 143.39150368379433 95.345518912788975 0 0 0 0 556.08311391407005 -11.096492628694136 0 -11.096492628694136 -10.394307914872115 0 0 0 0 404.65510607539181 -4.3736440361080895 0 -4.3736440361080895 -68.051703112127143 0 0 0 0 -110.02297844926761 -120.74580462940861 0 -120.74580462940861 9.2894458454229607 0 0 0 0 266.33280659404409 95.998854528469565 0 95.998854528469565 25.001434828865058 0 0 0 0 269.45069501205762 -37.789032077765569 0 -37.789032077765569 0.014036613369171391 0 0 0 0 398.58191841952794 19.484130177733277 0 19.484130177733277 -148.70919473894401 0 0 0 0 528.7070933180803 262.94575687328597 0 262.94575687328597 131.10545066749273 0 0 0 0 460.33306376411929 242.71499250806482 0 242.71499250806482 225.16689803614099 0 0 0 0 419.05084637528489 301.94405351027581 0 301.94405351027581 310.67531281219817 0 0 0 0 336.94393691894948 193.80046190987514 0 193.80046190987514 838.0665788144961 0 0 0 0 444.64451085908877 445.03505804241377 0 445.03505804241377 871.83009121048053 0 0 0 0 295.78893525307649 -59.15364307245909 0 -59.15364307245909 1089.4184216824392 0 0 0 0 3.4063950475341613 4.1033212995185409 0 4.1033212995185409 5.5217681651702417 0 0 0 0 523.17478376754298 298.97367809281923 0 298.97367809281923 117.4219634615024 0 0 0 0 115.11063835041568 -27.8479145732299 0 -27.8479145732299 610.55502929218164 0 0 0 0 330.67700563716608 451.41020661618393 0 451.41020661618393 255.99696781489729 0 0 0 0 565.64989541804243 655.75259474720679 0 655.75259474720679 894.78684442493181 0 0 0 0 -146.3298514808921 -85.966940160316199 0 -85.966940160316199 287.05638649957837 0 0 0 0 -2.5352803024089496 1.142062591858334 0 1.142062591858334 2.0016789352274547 0 0 0 0 391.89789029928943 -4.5158865791463541 0 -4.5158865791463541 89.082289923211647 0 0 0 0 302.57104263355723 41.34046969838073 0 41.34046969838073 471.02561843140211 0 0 0 0 419.25643743033106 -279.77486936425009 0 -279.77486936425009 589.76645823608851 0 0 0 0 473.33498596693971 -267.86706221745226 0 -267.86706221745226 357.60079003756255 0 0 0 0 49.234028047047104 252.06351274561541 0 252.06351274561541 230.78781959589196 0 0 0 0 -55.3907278169645 116.00462741361071 0 116.00462741361071 197.24210013410527 0 0 0 0 41.267718491068081 -176.51308881125271 0 -176.51308881125271 403.26709049572401 0 0 0 0 -29.737499631173705 250.83450627459138 0 250.83450627459138 718.18841092240837 0 0 0 0 -44.994086908363897 92.066824038460936 0 92.066824038460936 237.14126254276289 0 0 0 0 16.570363457856729 -100.65554819865997 0 -100.65554819865997 6.6287559393854281 0 0 0 0 -53.729181227449203 -98.319128235010538 0 -98.319128235010538 8.7581148717508768 0 0 0 0 55.508808703598334 -5.280673304196398 0 -5.280673304196398 4.0435508325936098 0 0 0 0 6.0704239891633662 10.015406611919182 0 10.015406611919182 15.028963764113751 0 0 0 0 -158.79039852856658 186.09885038511038 0 186.09885038511038 12.988728406803602 0 0 0 0 5.0921558167901821 47.723575896707189 0 47.723575896707189 -103.3782076843903 0 0 0 0 -33.320504101982806 36.569791604200873 0 36.569791604200873 91.721811962735956 0 0 0 0 -58.86719412257662 -14.637164926661853 0 -14.637164926661853 3.2781869994380486 0 0 0 0 -5.8183276753252358 -124.89135484416644 0 -124.89135484416644 68.810137202160149 0 0 0 0 49.797117989648541 92.023838045754474 0 92.023838045754474 115.55920659311289 0 0 0 0 -0.13845445087625308 -0.36525353498020507 0 -0.36525353498020507 1.1469437518558454 0 0 0 0 31.653561480867211 39.347771309347763 0 39.347771309347763 52.719167326464458 0 0 0 0 59.796111172123346 48.812105926006097 0 48.812105926006097 29.12300810590682 0 0 0 0 37.025387586432771 57.664300224913632 0 57.664300224913632 72.121590966359236 0 0 0 0 84.88017303570814 108.58437422996417 0 108.58437422996417 58.618702932132237 0 0 0 0 26.047086652221424 2.3609732541426638 0 2.3609732541426638 -7.3665940565024357 0 0 0 0 49.75269111939815 62.362008124615613 0 62.362008124615613 -2.1081514371344383 0 0 0 0 11.700912597265173 -6.2295311273409908 0 -6.2295311273409908 1.622243428418817 0 0 0 0 1283.4469380316114 664.92596373142965 0 664.92596373142965 197.91324904602152 0 0 0 0 1089.7724938950596 246.3494989105219 0 246.3494989105219 330.21659989299314 0 0 0 0 156.22751137052182 -167.07263926995574 0 -167.07263926995574 59.007779353733895 0 0 0 0 5.4454727101375795 -2.0629741314643617 0 -2.0629741314643617 0.98483312348508356 0 0 0 0 309.81297240437561 80.744434262270715 0 80.744434262270715 125.99566974605023 0 0 0 0 826.41416192896213 -66.896092425226698 0 -66.896092425226698 -55.407163834647235 0 0 0 0 918.62377989709694 425.81441732155741 0 425.81441732155741 127.86500404830076 0 0 0 0 709.38051659920166 460.98481593973747 0 460.98481593973747 328.7183648452118 0 0 0 0 679.10198000717355 249.35812522803803 0 249.35812522803803 19.388667048264551 0 0 0 0 531.55055066758791 224.84623767573493 0 224.84623767573493 91.682999652225135 0 0 0 0 524.38026433013147 190.59282772386996 0 190.59282772386996 70.995264517054238 0 0 0 0 213.19508082236644 109.51257389774878 0 109.51257389774878 150.39764331172182 0 0 0 0 187.0732638435511 -81.146466640483595 0 -81.146466640483595 71.185977258655953 0 0 0 0 511.33770653813963 30.435494606499347 0 30.435494606499347 66.846329998374131 0 0 0 0 76.237936103048924 163.50712634028548 0 163.50712634028548 288.54298425315756 0 0 0 0 0.18760434283589689 -0.33074206828539587 0 -0.33074206828539587 1.2080016564340532 0 0 0 0 96.488286922061889 150.04177572641117 0 150.04177572641117 114.2568584007613 0 0 0 0 40.361694820749108 107.33068278681048 0 107.33068278681048 176.47566446597739 0 0 0 0 18.002178665585234 155.04095919930921 0 155.04095919930921 121.25807188939598 0 0 0 0 -0.15796495773385288 -0.75419370399403363 0 -0.75419370399403363 2.4066361930042088 0 0 0 0 -55.894084553492576 57.491982801524841 0 57.491982801524841 156.63610740706054 0 0 0 0 -6.6910613149084384 39.605762731390087 0 39.605762731390087 74.997059062877753 0 0 0 0 320.69912205254332 44.333436569647887 0 44.333436569647887 -14.881999790984537 0 0 0 0 -0.79410873246524716 76.057743120569285 0 76.057743120569285 131.96056476436479 0 0 0 0 397.68200008466556 165.65107159670947 0 165.65107159670947 99.208226650998427 0 0 0 0 174.02446251263609 -29.001828686292725 0 -29.001828686292725 -20.453550033896391 0 0 0 0 293.91079335267068 20.693155763879155 0 20.693155763879155 -122.88315650574827 0 0 0 0 134.66316001713494 37.00405851003417 0 37.00405851003417 -24.130281596923965 0 0 0 0 -43.333006536471657 -65.087013811926141 0 -65.087013811926141 -83.31887620844293 0 0 0 0 11.941501648423582 -108.6758141248344 0 -108.6758141248344 -101.39724234540995 0 0 0 0 10.193964645943197 0.8450524441344669 0 0.8450524441344669 -77.716473893565762 0 0 0 0 23.947436444128641 -20.313457829258475 0 -20.313457829258475 5.2678576741587504 0 0 0 0 -228.58338902784453 -216.11610599971794 0 -216.11610599971794 -137.52187191685942 0 0 0 0 9.2575371137136244 -110.49567813859255 0 -110.49567813859255 -200.1185383827908 0 0 0 0 696.74237019267821 420.90551848426088 0 420.90551848426088 213.66377518295667 0 0 0 0 28.991021965935204 -26.02218750556748 0 -26.02218750556748 8.1303064166148769 0 0 0 0 649.9486128335775 279.06424106068357 0 279.06424106068357 149.11124491963346 0 0 0 0 683.24697905180278 413.45247392540568 0 413.45247392540568 222.01017245609273 0 0 0 0 700.24797459095498 305.33200583601456 0 305.33200583601456 109.96666063793555 0 0 0 0 37.299092565698402 -28.687489045328945 0 -28.687489045328945 11.188667590479561 0 0 0 0 -149.49271573354054 -212.99895615844162 0 -212.99895615844162 -46.682018729198269 0 0 0 0 -25.287228615103231 -185.04278051384898 0 -185.04278051384898 83.784469239155271 0 0 0 0 -51.288079054635091 -111.04287503295242 0 -111.04287503295242 -88.572668524155489 0 0 0 0 13.626476044941228 -159.9481279065248 0 -159.9481279065248 -84.458010835581007 0 0 0 0 113.4741269737242 -73.733278971441052 0 -73.733278971441052 -385.40485821264735 0 0 0 0 143.45143947098677 -357.26506411221953 0 -357.26506411221953 -49.894902510023059 0 0 0 0 58.958877247547207 -21.520415537334628 0 -21.520415537334628 288.47124012785923 0 0 0 0 911.04760375291517 6.8859343161009292 0 6.8859343161009292 -166.48923350810344 0 0 0 0 -61.944888559126412 -613.09756391186511 0 -613.09756391186511 -106.01222915168819 0 0 0 0 904.91219616237504 -259.07492692035976 0 -259.07492692035976 -316.58633002689515 0 0 0 0 1007.9418515799152 -53.708564439202547 0 -53.708564439202547 -905.39321263543252 0 0 0 0 936.38660784355852 -397.22945917092244 0 -397.22945917092244 -854.01290201911274 0 0 0 0 1064.445528014352 224.54215845217664 0 224.54215845217664 -667.22783070186802 0 0 0 0 997.70204394314351 329.25303625733522 0 329.25303625733522 -317.8272739947472 0 0 0 0 60.483377873510705 9.9128016891025386 0 9.9128016891025386 1.8702202458690309 0 0 0 0 1786.0934634011064 464.65906599535424 0 464.65906599535424 -4.5329661178675451 0 0 0 0 -632.84907143082091 -1577.2231341287497 0 -1577.2231341287497 295.60498330255604 0 0 0 0 944.51758379134117 243.3102836992648 0 243.3102836992648 143.13449529200261 0 0 0 0 9.5576653920189614 -11.127391290013804 0 -11.127391290013804 -0.99712126418500668 0 0 0 0 542.29535083238443 487.26732906398456 0 487.26732906398456 183.90262659348355 0 0 0 0 303.74612280378278 3.0353988634078632 0 3.0353988634078632 -0.28589160630690458 0 0 0 0 16.423743154879055 -5.2227237069366055 0 -5.2227237069366055 11.080246572537693 0 0 0 0 692.86012115392805 125.73125653927855 0 125.73125653927855 -186.09393627813142 0 0 0 0 780.20424760237074 281.20413407580372 0 281.20413407580372 -88.17053723107847 0 0 0 0 699.20822830103634 271.88966352623186 0 271.88966352623186 -18.740040261363902 0 0 0 0 774.44222772151261 236.8387499142641 0 236.8387499142641 -8.1573622482474093 0 0 0 0 812.62259481833462 296.3232830395873 0 296.3232830395873 -13.021966906432681 0 0 0 0 743.21588159956445 337.32524160568255 0 337.32524160568255 54.595197466657282 0 0 0 0 737.96234232795541 264.45360834609528 0 264.45360834609528 -23.261037751338336 0 0 0 0 726.90158000274459 261.19214268591054 0 261.19214268591054 21.680723823366861 0 0 0 0 720.54780241531262 254.45789714180046 0 254.45789714180046 26.686406574736793 0 0 0 0 716.7050343909068 243.7685760035647 0 243.7685760035647 37.232456329343222 0 0 0 0 767.82258187000843 229.84881137376215 0 229.84881137376215 11.447876699359767 0 0 0 0 771.02501557121286 230.76233350338089 0 230.76233350338089 -102.83628542311908 0 0 0 0 733.34199774876106 141.94040134246234 0 141.94040134246234 -4.1454309955734061 0 0 0 0 703.96144468965213 291.05132177980363 0 291.05132177980363 120.59737709829642 0 0 0 0 692.99940108589362 202.39557392749975 0 202.39557392749975 249.32973321813461 0 0 0 0 692.31748137580507 228.46962016815951 0 228.46962016815951 52.453292434882314 0 0 0 0 736.09616301460483 264.02711242671012 0 264.02711242671012 141.07529560353703 0 0 0 0 657.72946483790292 298.27264764066649 0 298.27264764066649 119.80282693581034 0 0 0 0 703.94958234559999 317.26083376493546 0 317.26083376493546 118.8742644193062 0 0 0 0 685.12079651300155 242.42226426431898 0 242.42226426431898 112.236689500865 0 0 0 0 680.97965898906841 273.47879519052157 0 273.47879519052157 58.068871898878569 0 0 0 0 681.2897308483316 274.17275593515933 0 274.17275593515933 44.898687653801971 0 0 0 0 612.65091301875509 271.54897909785177 0 271.54897909785177 79.222327789611427 0 0 0 0 661.86521021975204 298.98145095261918 0 298.98145095261918 69.924526798763509 0 0 0 0 601.90868196536758 307.52046202944985 0 307.52046202944985 132.44230317618349 0 0 0 0 623.54074470871092 274.1674031016563 0 274.1674031016563 54.991193345404099 0 0 0 0 573.67933212464322 259.99574056188112 0 259.99574056188112 53.988016509973932 0 0 0 0 581.44569697112456 297.51000890949263 0 297.51000890949263 63.939049317140416 0 0 0 0 575.07594981451257 288.96415190234302 0 288.96415190234302 43.580015388565698 0 0 0 0 603.9706198069689 265.41304277320523 0 265.41304277320523 49.430271415928246 0 0 0 0 613.82274444252835 290.74291010608886 0 290.74291010608886 51.748008835062592 0 0 0 0 693.72628833889394 296.91015507083148 0 296.91015507083148 30.557085274102974 0 0 0 0 640.7394406467356 290.15312619690485 0 290.15312619690485 38.892309348873368 0 0 0 0 605.079383256867 319.11314701745778 0 319.11314701745778 59.349296317695917 0 0 0 0 582.76862761725715 278.85195679073036 0 278.85195679073036 43.125823375163236 0 0 0 0 529.81789750275493 252.09940459157679 0 252.09940459157679 57.001188687791 0 0 0 0 502.25216011908924 264.35936877992162 0 264.35936877992162 55.462617946609498 0 0 0 0 480.9599343593145 284.56579401527142 0 284.56579401527142 75.217405767092714 0 0 0 0 649.70183218783495 320.46148073279574 0 320.46148073279574 73.836471224881734 0 0 0 0 550.54863995531923 294.33624813935876 0 294.33624813935876 76.899453748303586 0 0 0 0 481.50126133750018 268.38256866081201 0 268.38256866081201 232.89143919302523 0 0 0 0 490.06861354648026 251.87934554154742 0 251.87934554154742 91.116159662613427 0 0 0 0 295.92937161787268 62.345528725975328 0 62.345528725975328 134.20389950068852 0 0 0 0 390.73883496336566 228.60580572741765 0 228.60580572741765 345.88269600794365 0 0 0 0 616.75088842374316 236.35166980988924 0 236.35166980988924 121.33108655036312 0 0 0 0 619.54579578420089 208.9027473853584 0 208.9027473853584 390.73590840089673 0 0 0 0 906.7162187915601 434.20093144956604 0 434.20093144956604 545.95371444660486 0 0 0 0 906.32270791670908 148.57491831198644 0 148.57491831198644 204.11864079351471 0 0 0 0 815.02366096330661 411.0286003119918 0 411.0286003119918 165.68602933026386 0 0 0 0 659.76749633405052 297.34564610985865 0 297.34564610985865 87.470094548799352 0 0 0 0 1357.465669122749 -582.08170239346214 0 -582.08170239346214 451.44797020812302 0 0 0 0 114.65828241117924 -249.07600964252583 0 -249.07600964252583 438.04377935372486 0 0 0 0 707.49796513324691 323.7383570217703 0 323.7383570217703 101.01665253006377 0 0 0 0 1416.4560201205022 299.85276369872304 0 299.85276369872304 187.27710680503742 0 0 0 0 57.209425578344963 352.65453815749925 0 352.65453815749925 397.39509113829263 0 0 0 0 -105.97895237123521 189.77537306480895 0 189.77537306480895 298.6260493149619 0 0 0 0 6.7122902969421361 6.4872921637068437 0 6.4872921637068437 6.2512711321362104 0 0 0 0 61.693380507040274 50.368223199205659 0 50.368223199205659 210.40676435990235 0 0 0 0 1593.811814554545 -384.98423103884943 0 -384.98423103884943 586.81632757749321 0 0 0 0 -118.35997886975019 -80.997869922450093 0 -80.997869922450093 -14.971691870868085 0 0 0 0 1471.7963178044811 -555.63565157067433 0 -555.63565157067433 -847.19395958910081 0 0 0 0 3.0292550042856092 -4.2396170933216126 0 -4.2396170933216126 5.5082634848425744 0 0 0 0 1186.72428113153 -2106.7399039754814 0 -2106.7399039754814 112.04713371183607 0 0 0 0 -55.846063885535841 158.12989313710705 0 158.12989313710705 -20.845058524584601 0 0 0 0 -33.521710389180953 101.00114444008341 0 101.00114444008341 100.16847502069868 0 0 0 0 32.631246653945709 -53.90557274161938 0 -53.90557274161938 -65.284614249757396 0 0 0 0 7.8204977992203455 -2.3195528961343754 0 -2.3195528961343754 0.053160671618448063 0 0 0 0 63.44791379642993 123.69968125499508 0 123.69968125499508 -188.20587842924215 0 0 0 0 85.18327475548449 -16.131047898074826 0 -16.131047898074826 -259.80992143650565 0 0 0 0 78.959184661813197 -40.794644857245657 0 -40.794644857245657 -154.49755676214954 0 0 0 0 64.377524584044295 8.1118451053946501 0 8.1118451053946501 -64.948863082089247 0 0 0 0 94.643196656084911 6.5569926974555983 0 6.5569926974555983 -162.47606018483384 0 0 0 0 46.969784384033119 -3.9387399886095409 0 -3.9387399886095409 -55.896437453727003 0 0 0 0 41.386888007105881 66.288708462535737 0 66.288708462535737 47.354791894470509 0 0 0 0 60.495037245527783 97.460737104392592 0 97.460737104392592 28.168848903787421 0 0 0 0 28.675899371770356 138.53151292777534 0 138.53151292777534 159.74908700281321 0 0 0 0 9.4319636591953895 14.268558707704415 0 14.268558707704415 146.69583840796713 0 0 0 0 382.85672510841687 154.96556273498345 0 154.96556273498345 143.49277709269654 0 0 0 0 372.03080921164656 195.57968699221647 0 195.57968699221647 44.664667906762588 0 0 0 0 250.99491733675859 205.25225662283151 0 205.25225662283151 124.31799062241498 0 0 0 0 321.83061096424353 51.76535592944856 0 51.76535592944856 57.484943410471715 0 0 0 0 386.80610459291347 219.05958345301406 0 219.05958345301406 104.46416081409052 0 0 0 0 482.39829730119527 217.04978379752492 0 217.04978379752492 78.245793496789247 0 0 0 0 361.42845730338013 243.1232149876264 0 243.1232149876264 82.336869632913022 0 0 0 0 477.02682172874484 255.94133779010781 0 255.94133779010781 86.722007491338672 0 0 0 0 485.10133765116916 249.59524843289819 0 249.59524843289819 65.506210460747752 0 0 0 0 466.02721392645617 271.25531453220128 0 271.25531453220128 51.471566258953317 0 0 0 0 414.19778654091351 233.16807150212662 0 233.16807150212662 54.418255317815522 0 0 0 0 425.88212984288111 215.06677359203081 0 215.06677359203081 49.445354667747779 0 0 0 0 342.10721529537113 228.12785434231682 0 228.12785434231682 60.977261607014952 0 0 0 0 351.65609982212482 207.7454671476255 0 207.7454671476255 9.0520299484105635 0 0 0 0 330.53058843337203 196.55035070291206 0 196.55035070291206 -8.1077158135958598 0 0 0 0 417.31422030490648 231.38537134133003 0 231.38537134133003 25.080259093318091 0 0 0 0 322.00629431778725 203.57018632271115 0 203.57018632271115 50.546229955742092 0 0 0 0 399.44995280323928 219.07286053268899 0 219.07286053268899 23.389035778936886 0 0 0 0 392.58649146615062 230.38792152004771 0 230.38792152004771 64.700506765864247 0 0 0 0 498.81971009130757 274.24128942835569 0 274.24128942835569 43.601936580276742 0 0 0 0 46.796789221814834 55.641918350230299 0 55.641918350230299 80.96409096806974 0 0 0 0 232.70318013787619 118.03920378689372 0 118.03920378689372 -2.5992129729647786 0 0 0 0 243.8412923775395 206.29035096544249 0 206.29035096544249 19.646099269732076 0 0 0 0 264.64674655144336 178.75113447196236 0 178.75113447196236 56.050198733381649 0 0 0 0 184.82354895549361 187.10140337672692 0 187.10140337672692 -47.778555519058273 0 0 0 0 248.98091311843018 135.20354664676589 0 135.20354664676589 -9.2753497955836792 0 0 0 0 249.69600121492113 188.05729737225829 0 188.05729737225829 35.421429235347659 0 0 0 0 81.986506322660716 155.72851135877954 0 155.72851135877954 -82.893884533847086 0 0 0 0 94.648524717646069 116.71052524268316 0 116.71052524268316 28.21414300690958 0 0 0 0 56.082533972352394 97.417802359739653 0 97.417802359739653 -29.682249427962233 0 0 0 0 -12.667262171162747 -80.192701280314651 0 -80.192701280314651 -140.95426099054021 0 0 0 0 95.872433543627267 38.314506298618653 0 38.314506298618653 -190.27697231940147 0 0 0 0 119.95908551347384 36.050462489616166 0 36.050462489616166 -247.98880559938516 0 0 0 0 -4.7628445397276664 1.7810959421449297 0 1.7810959421449297 -33.283036170685136 0 0 0 0 113.23360116569347 119.18208459340485 0 119.18208459340485 -77.827481563472247 0 0 0 0 226.94309755860377 158.16140505753037 0 158.16140505753037 -16.851080351075325 0 0 0 0 163.1531899551992 72.320000093756789 0 72.320000093756789 -44.698225932047251 0 0 0 0 140.32246405853948 69.917909948968372 0 69.917909948968372 -22.551145948496014 0 0 0 0 182.88224497209012 39.831640133233122 0 39.831640133233122 -13.877321011593452 0 0 0 0 364.83230593670305 175.90403207603185 0 175.90403207603185 20.233355840697641 0 0 0 0 360.04121681471588 211.71217135951929 0 211.71217135951929 107.66418614514282 0 0 0 0 297.40060041117249 197.2211905456702 0 197.2211905456702 59.279452563794621 0 0 0 0 258.87494625720137 125.92238138079392 0 125.92238138079392 10.594067028295513 0 0 0 0 210.85864052074976 144.6730739495556 0 144.6730739495556 91.294552969555298 0 0 0 0 282.15574884083617 104.73824272534512 0 104.73824272534512 41.861369581416056 0 0 0 0 285.34297563768632 196.41945382361746 0 196.41945382361746 211.96574029042586 0 0 0 0 106.21015807179356 51.94133888336637 0 51.94133888336637 126.26785677682392 0 0 0 0 265.22651008074536 113.94056664311211 0 113.94056664311211 65.303052267424391 0 0 0 0 -38.201506151212016 -18.248057796065268 0 -18.248057796065268 -31.438068664717321 0 0 0 0 -32.575720601627836 -38.739916716947391 0 -38.739916716947391 41.21508568903505 0 0 0 0 114.32132424833708 34.323828355522437 0 34.323828355522437 26.746311642160435 0 0 0 0 56.699465351091931 -17.749050361701393 0 -17.749050361701393 -3.6866731409209024 0 0 0 0 16.36605328600815 -22.567118016917917 0 -22.567118016917917 0.5253526702518343 0 0 0 0 -105.54582322074202 -77.724253096951998 0 -77.724253096951998 43.917614271204911 0 0 0 0 53.055682090154733 -40.916680998433321 0 -40.916680998433321 -23.596548002837153 0 0 0 0 3.2892205796418463 -22.100496324457755 0 -22.100496324457755 12.718696303799174 0 0 0 0 -246.6521971974762 -97.938172794551974 0 -97.938172794551974 4.9814517642957981 0 0 0 0 67.614962469658934 -23.272150344076486 0 -23.272150344076486 -1.1019917846642784 0 0 0 0 94.103114348079544 52.906181352268504 0 52.906181352268504 -297.25998091273118 0 0 0 0 44.779661019726731 -0.49194607830597903 0 -0.49194607830597903 -6.0528319552088199 0 0 0 0 76.589723360550124 -133.34160651976072 0 -133.34160651976072 -188.70517848883537 0 0 0 0 101.76448260070174 155.15766502734004 0 155.15766502734004 -471.37856523956725 0 0 0 0 4.881991324230043 -5.2153196704540008 0 -5.2153196704540008 -1.1972867718451887 0 0 0 0 106.32811272739309 -36.488910659714634 0 -36.488910659714634 -115.59180687269782 0 0 0 0 74.76072922989988 3.5848289154255326 0 3.5848289154255326 -162.67302534288933 0 0 0 0 64.802628439530963 47.07077850919768 0 47.07077850919768 -226.12211412437273 0 0 0 0 60.079971669894604 -4.8235122123639407 0 -4.8235122123639407 -13.872752131465253 0 0 0 0 85.781871960863725 -1.8882163428998275 0 -1.8882163428998275 -18.255530850432852 0 0 0 0 56.549975158350207 -24.371034203677937 0 -24.371034203677937 -42.632859559753797 0 0 0 0 114.39934401000755 26.415792644070507 0 26.415792644070507 -137.06450149339344 0 0 0 0 146.74738764104904 -64.411052866659304 0 -64.411052866659304 -326.84456186733814 0 0 0 0 166.24029340907623 15.435678399565859 0 15.435678399565859 -154.04822221222776 0 0 0 0 266.30757447122096 79.838161914369039 0 79.838161914369039 -440.46138409234482 0 0 0 0 321.55152737179196 -54.087923137012694 0 -54.087923137012694 -249.46511206604282 0 0 0 0 17.798888526188687 -78.464376493581284 0 -78.464376493581284 1.8319289195068222 0 0 0 0 215.86090567255269 -1.9916264184475949 0 -1.9916264184475949 -274.9782807666063 0 0 0 0 72.161407663679341 -39.904939118234331 0 -39.904939118234331 -6.9009417043954544 0 0 0 0 2.5602467599010197 -12.155825492956295 0 -12.155825492956295 -1.7493474921917755 0 0 0 0 -90.870597932731471 -111.97861277742004 0 -111.97861277742004 79.431274788712813 0 0 0 0 -62.346676473021944 -139.20577420928862 0 -139.20577420928862 -83.424625829581601 0 0 0 0 -8.4549587411256653 33.186380128827523 0 33.186380128827523 133.42128916201909 0 0 0 0 245.05799341647798 11.822991041637579 0 11.822991041637579 -99.513290032067744 0 0 0 0 18.202191826746976 -3.9464173070865396 0 -3.9464173070865396 -2.9378190608260173 0 0 0 0 57.59035422316083 -380.28221272331984 0 -380.28221272331984 -888.3417779467527 0 0 0 0 31.029832390137017 -285.80775229648225 0 -285.80775229648225 -145.5730664967441 0 0 0 0 19.19032850554018 -278.96105793337671 0 -278.96105793337671 -524.05538880588119 0 0 0 0 -258.42419060194152 -295.21036142232742 0 -295.21036142232742 -147.80442137031241 0 0 0 0 -59.6535816140713 -18.543424012263131 0 -18.543424012263131 -267.11411331859108 0 0 0 0 165.93717855597788 -78.053196915003355 0 -78.053196915003355 -257.07375659206991 0 0 0 0 82.367689169701862 -272.71902530937814 0 -272.71902530937814 -176.56879194801149 0 0 0 0 31.516156659265107 -96.736146250542788 0 -96.736146250542788 -8.684577917221759 0 0 0 0 -113.41538098437013 -260.67585685523864 0 -260.67585685523864 -144.16333289087925 0 0 0 0 -384.47212534073333 -79.742925486679269 0 -79.742925486679269 -264.37734651536448 0 0 0 0 -4.1988804827041974 -1.9583725152748812 0 -1.9583725152748812 3.2191730472518358 0 0 0 0 -376.47674175483462 190.42783931414397 0 190.42783931414397 213.97891303007964 0 0 0 0 231.74353206365049 -157.37681285807412 0 -157.37681285807412 -87.611764866573139 0 0 0 0 166.15996222497779 -41.665103799522512 0 -41.665103799522512 44.975932429801105 0 0 0 0 117.72120381586501 -104.45949383115203 0 -104.45949383115203 -36.223545489274329 0 0 0 0 -398.48739668415328 -33.618660780042774 0 -33.618660780042774 646.02568148021783 0 0 0 0 156.60668684247867 -39.887177675091152 0 -39.887177675091152 38.005587534353253 0 0 0 0 14.27972580767662 -79.684309246524094 0 -79.684309246524094 23.687731605754053 0 0 0 0 117.50058535950673 -37.614179264385044 0 -37.614179264385044 80.099212761295348 0 0 0 0 -22.819473471872136 -1.6900876765510446 0 -1.6900876765510446 4.2456136811916494 0 0 0 0 -1137.7593691650191 -2627.6295942125198 0 -2627.6295942125198 -132.13637867885336 0 0 0 0 913.55523547332268 -336.60016833801274 0 -336.60016833801274 -631.93580096855294 0 0 0 0 834.32760399778726 18.084238535502664 0 18.084238535502664 -718.73060749069464 0 0 0 0 826.45502690801641 -159.04667367876937 0 -159.04667367876937 -989.08038859347653 0 0 0 0 464.75312319564182 -195.18256205942816 0 -195.18256205942816 -675.82167823881082 0 0 0 0 605.62940167330271 8.0493514732611402 0 8.0493514732611402 -435.83843700113357 0 0 0 0 -3.7210093798476565 -80.039429471666509 0 -80.039429471666509 12.90268932217348 0 0 0 0 261.99683702090124 -158.65181217291632 0 -158.65181217291632 -393.46920661946933 0 0 0 0 202.07847653265708 -147.67330489325695 0 -147.67330489325695 -123.75692513631475 0 0 0 0 509.58244127757462 -332.52237932381831 0 -332.52237932381831 -272.58069041065573 0 0 0 0 464.36431337581598 152.89285108038757 0 152.89285108038757 56.968862896896013 0 0 0 0 159.19954652868478 202.31475723790294 0 202.31475723790294 283.58511563012416 0 0 0 0 534.05980636769164 493.82740689349384 0 493.82740689349384 325.49277371675453 0 0 0 0 162.58221309362125 131.67701572117221 0 131.67701572117221 258.81701009414246 0 0 0 0 1189.5972295183074 205.00598244119828 0 205.00598244119828 19.973034954711693 0 0 0 0 607.6509351259956 79.026909397548479 0 79.026909397548479 5.5162265432172717 0 0 0 0 447.4371116351449 67.940911734604867 0 67.940911734604867 58.35957768957087 0 0 0 0 1230.2030180098336 -192.52234137663345 0 -192.52234137663345 -147.67084876856711 0 0 0 0 879.09386629296932 -52.376141757428741 0 -52.376141757428741 -102.31778507491606 0 0 0 0 1073.1269932010223 -279.2261470106003 0 -279.2261470106003 134.05004841374466 0 0 0 0 627.34492040656551 4.6549574268337892 0 4.6549574268337892 669.3027347831918 0 0 0 0 225.03644295173217 96.417290572391266 0 96.417290572391266 165.14108327967733 0 0 0 0 627.33974650585128 17.799710876811957 0 17.799710876811957 130.59449551419948 0 0 0 0 882.01079040763648 -16.859443279857913 0 -16.859443279857913 -52.710497494821539 0 0 0 0 144.83483022482324 210.98890263222165 0 210.98890263222165 -32.980335326053137 0 0 0 0 7.5900521099583216 -2.7025100607333226 0 -2.7025100607333226 -0.62562134464452868 0 0 0 0 1070.8195856122911 198.11482482923384 0 198.11482482923384 -125.23375664938021 0 0 0 0 -52.282401432331426 -810.39735680303374 0 -810.39735680303374 -469.55124701260866 0 0 0 0 882.31547355262956 -672.8702044720942 0 -672.8702044720942 -449.58068559923595 0 0 0 0 235.635187059499 121.09748247485459 0 121.09748247485459 100.8998808184042 0 0 0 0 200.05724331507736 -952.76936665514313 0 -952.76936665514313 -928.26813893423332 0 0 0 0 1234.157486390086 -485.12532320486298 0 -485.12532320486298 -777.36066202082475 0 0 0 0 132.3045246820966 -137.83456849662798 0 -137.83456849662798 170.78509485510403 0 0 0 0 803.26264781471764 -400.86169749612236 0 -400.86169749612236 100.19425512537237 0 0 0 0 467.94359877510578 81.363790176814746 0 81.363790176814746 -265.77975255768069 0 0 0 0 -4.8210123511671554 -82.808725485316245 0 -82.808725485316245 -304.94648775369842 0 0 0 0 281.40460666901708 191.08237296526931 0 191.08237296526931 -450.24412153401499 0 0 0 0 305.69750226193719 -48.765493068768137 0 -48.765493068768137 -3.5529470089995812 0 0 0 0 201.28085826442293 194.46051787921442 0 194.46051787921442 56.078863714098247 0 0 0 0 184.47797413617445 -83.451985784314274 0 -83.451985784314274 168.68396707269494 0 0 0 0 350.47434729504403 64.241703284677897 0 64.241703284677897 -193.04985863114416 0 0 0 0 -51.398784676030118 -187.22052201435281 0 -187.22052201435281 -507.55906325079741 0 0 0 0 -153.88544576204731 186.85040418837161 0 186.85040418837161 -594.58758497284907 0 0 0 0 143.75892592561104 -270.16949972670182 0 -270.16949972670182 -948.75135221805067 0 0 0 0 29.803973075495698 -6.1905572806908404 0 -6.1905572806908404 -4.7057802994167197 0 0 0 0 155.97220391572773 548.97964083124862 0 548.97964083124862 480.14068899158701 0 0 0 0 303.60569957845291 -106.98300248678788 0 -106.98300248678788 -528.4715300333155 0 0 0 0 379.3812940909429 418.93270797774085 0 418.93270797774085 -274.47111253537514 0 0 0 0 -269.79261178472007 14.495767785835596 0 14.495767785835596 518.16484770662282 0 0 0 0 13.505951398475737 0.41617560155485611 0 0.41617560155485611 -3.6127567996790191 0 0 0 0 574.17734043150631 844.26211956341467 0 844.26211956341467 875.21395856265735 0 0 0 0 1361.9027227225279 48.648722242613985 0 48.648722242613985 -403.43632340698423 0 0 0 0 481.46411158414776 -545.33277735696174 0 -545.33277735696174 367.59816682364408 0 0 0 0 4.0317015179629507 -1.6964200475370435 0 -1.6964200475370435 -3.3609865320212187 0 0 0 0 548.08999932704683 -768.37497688835083 0 -768.37497688835083 -757.33631188498475 0 0 0 0 391.7883277500041 570.10827182942921 0 570.10827182942921 604.00786050866463 0 0 0 0 843.11062667514489 382.66758065767681 0 382.66758065767681 100.96470249966296 0 0 0 0 482.23804114007726 37.90419198964446 0 37.90419198964446 -435.00145173178134 0 0 0 0 398.39676104311548 -103.44943359809531 0 -103.44943359809531 -251.97636015099124 0 0 0 0 142.87854959427932 32.610600054997121 0 32.610600054997121 -78.79223585012187 0 0 0 0 174.11842085834027 30.748547569606352 0 30.748547569606352 -4.1018154787083922 0 0 0 0 144.17988725111718 129.818198245232 0 129.818198245232 -140.32831905916373 0 0 0 0 147.08244180829934 51.980866140149374 0 51.980866140149374 -2.0016294962515531 0 0 0 0 167.54040077959417 320.8160113637141 0 320.8160113637141 -84.142576951060619 0 0 0 0 176.27029931281317 42.739625732794906 0 42.739625732794906 10.260782879701626 0 0 0 0 5.6880851050118508 133.73012283109892 0 133.73012283109892 376.06421002520437 0 0 0 0 32.954287228629255 116.23002231053579 0 116.23002231053579 4.3153438316549 0 0 0 0 33.767982541838691 25.278834408971377 0 25.278834408971377 -3.3008444963305728 0 0 0 0 -0.058139069828030188 53.309025988965914 0 53.309025988965914 -42.019649038309581 0 0 0 0 27.996837501617847 122.17805429924738 0 122.17805429924738 -31.235204417229397 0 0 0 0 137.53628198934894 118.30385901226327 0 118.30385901226327 -34.786436954250348 0 0 0 0 36.31035025568417 82.362648991574133 0 82.362648991574133 63.154629322954861 0 0 0 0 50.336658497166354 74.092724356953113 0 74.092724356953113 2.284873153146691 0 0 0 0 -19.393542729812907 72.350038528258665 0 72.350038528258665 4.9851929341457435 0 0 0 0 -116.09309019911416 -58.429541940079616 0 -58.429541940079616 51.493021964830405 0 0 0 0 -17.309291878990734 51.747330271675651 0 51.747330271675651 -40.061303017231694 0 0 0 0 -64.281699335420853 75.52262256951326 0 75.52262256951326 26.457320605462883 0 0 0 0 1863.6135909797158 467.51654159399914 0 467.51654159399914 -504.19511956322754 0 0 0 0 286.87747332015715 204.74525864353927 0 204.74525864353927 -320.981232973445 0 0 0 0 391.37278661844903 -150.14517623729262 0 -150.14517623729262 -514.38253380545575 0 0 0 0 33.979213831587373 32.984519333034378 0 32.984519333034378 -4.2145403326296211 0 0 0 0 159.87620022919145 565.12300191556824 0 565.12300191556824 -71.20864501248434 0 0 0 0 181.71624389215916 42.265680092819551 0 42.265680092819551 3.9471925173854938 0 0 0 0 -714.92534404018409 -1078.4729187943533 0 -1078.4729187943533 1203.8966655153054 0 0 0 0 -348.03606659381876 35.165158858606446 0 35.165158858606446 -698.92397209633418 0 0 0 0 -357.40169302354661 111.97431250800673 0 111.97431250800673 436.26073327071572 0 0 0 0 2878.4725609310717 -1228.6113225354984 0 -1228.6113225354984 809.32112843889263 0 0 0 0 1685.4403112444052 1178.2765139275243 0 1178.2765139275243 806.12243605194635 0 0 0 0 1281.4425339790469 -143.31280645956576 0 -143.31280645956576 117.66663214078199 0 0 0 0 3446.1630583796832 -211.17640081669651 0 -211.17640081669651 -1281.9417506424506 0 0 0 0 1337.7981434052463 -2696.0982946598633 0 -2696.0982946598633 -621.69347448246845 0 0 0 0 -2808.6697365642485 991.78287947803074 0 991.78287947803074 2393.433331714712 0 0 0 0 16.528012115415095 -4.0794135599194163 0 -4.0794135599194163 0.093112898937135924 0 0 0 0 125.01330449677698 -72.189548932985417 0 -72.189548932985417 40.034874536321695 0 0 0 0 146.54184478049501 -41.267826294771112 0 -41.267826294771112 51.649990545394758 0 0 0 0 443.62027673994271 -96.313181966008415 0 -96.313181966008415 -341.13173353676575 0 0 0 0 -43.094380425724012 -238.17884467696922 0 -238.17884467696922 402.62187202737186 0 0 0 0 811.6846607333282 -354.62508698252987 0 -354.62508698252987 -84.819826722590733 0 0 0 0 471.57059479506643 -70.061097987882931 0 -70.061097987882931 -179.64193546313618 0 0 0 0 -212.56533294624387 127.3182269815652 0 127.3182269815652 217.01067055052408 0 0 0 0 34.466587637373202 -61.165293217261436 0 -61.165293217261436 15.547739648861118 0 0 0 0 12.019015078212007 -5.3706181182025148 0 -5.3706181182025148 2.162407150868539 0 0 0 0 112.29288319408602 32.796091086023807 0 32.796091086023807 -9.1123364083996421 0 0 0 0 -730.37200180916716 586.68611053500626 0 586.68611053500626 -239.18083041178397 0 0 0 0 31.079847332089265 -6.1047987827052701 0 -6.1047987827052701 0.82392904681657342 0 0 0 0 76.230424364776184 -26.573039031632241 0 -26.573039031632241 -26.24699742881225 0 0 0 0 57.443788832511927 -140.813974953453 0 -140.813974953453 -103.79414920613453 0 0 0 0 112.4785850616172 10.143012838205323 0 10.143012838205323 -88.912347234945628 0 0 0 0 111.41471493868967 15.814994493770911 0 15.814994493770911 -18.470353101722552 0 0 0 0 56.76562536143075 7.2062867249558309 0 7.2062867249558309 21.599293276524509 0 0 0 0 314.1390632999537 88.092541572154005 0 88.092541572154005 108.73165703151608 0 0 0 0 286.09391398874902 190.13979802369286 0 190.13979802369286 -48.655478622868955 0 0 0 0 213.28159035531252 -2.8686639821491013 0 -2.8686639821491013 -12.300628388387112 0 0 0 0 298.35313657927327 448.21993702864768 0 448.21993702864768 -293.20723802572309 0 0 0 0 255.12195172524662 -49.541378608764717 0 -49.541378608764717 -115.68850223822938 0 0 0 0 -13.369473064467456 43.791299782295482 0 43.791299782295482 -347.66649837881482 0 0 0 0 15.373686322376924 15.638905432085654 0 15.638905432085654 -12.647166026349185 0 0 0 0 -342.78742736565619 541.13964168702387 0 541.13964168702387 220.49113320289689 0 0 0 0 -138.12885497951902 -45.228537212957178 0 -45.228537212957178 -347.50605034436285 0 0 0 0 247.81939136927394 426.94572063378109 0 426.94572063378109 -323.53631541194773 0 0 0 0 370.17122866895625 497.24527330225123 0 497.24527330225123 111.36654194117546 0 0 0 0 72.222672017043806 758.80582859116839 0 758.80582859116839 361.67730367920285 0 0 0 0 7.1047789738167531 4.497778962997721 0 4.497778962997721 -2.0522162105478507 0 0 0 0 -5.8383735365640064 -6.736264046675263 0 -6.736264046675263 6.0056346385757386 0 0 0 0 -308.83589929898881 230.59913952135685 0 230.59913952135685 -608.8380997277518 0 0 0 0 288.00104105875471 863.79501357061599 0 863.79501357061599 -171.86788035454811 0 0 0 0 716.54285674258244 -170.54030783745247 0 -170.54030783745247 -181.75594305903178 0 0 0 0 714.28561335953418 -119.44867662918386 0 -119.44867662918386 152.94412670722159 0 0 0 0 1085.3927280836433 98.374179221995291 0 98.374179221995291 -223.01421788339758 0 0 0 0 346.40557246038588 462.60082861506999 0 462.60082861506999 -338.14337771368696 0 0 0 0 93.346960904964362 253.71570435343165 0 253.71570435343165 -408.44269003239106 0 0 0 0 512.67749094839382 247.96617601187631 0 247.96617601187631 -977.3413569267982 0 0 0 0 399.92598557713427 -390.9498331133957 0 -390.9498331133957 -216.7665545638838 0 0 0 0 52.295130700294976 -104.47616022978491 0 -104.47616022978491 95.553499014074532 0 0 0 0 109.02607031738444 -270.09707854497287 0 -270.09707854497287 169.46221985863667 0 0 0 0 276.83776485042472 -469.04280540543959 0 -469.04280540543959 204.48505236950268 0 0 0 0 527.77385585712909 -628.2597316377196 0 -628.2597316377196 283.10536832398793 0 0 0 0 113.22227299617589 -731.13267977243868 0 -731.13267977243868 769.25125480816132 0 0 0 0 470.73936487470019 -619.88677162969861 0 -619.88677162969861 464.16882692288709 0 0 0 0 1054.678768443453 -94.408622274408572 0 -94.408622274408572 -169.18323872826841 0 0 0 0 -313.69767598960607 129.86912369955849 0 129.86912369955849 592.73769766099531 0 0 0 0 0.90636038625086357 6.2106715883137866 0 6.2106715883137866 11.842683771832142 0 0 0 0 2303.1567167142057 -1347.6609943891033 0 -1347.6609943891033 553.02987805804946 0 0 0 0 114.81942420229825 -758.21898416218664 0 -758.21898416218664 1298.0214365487718 0 0 0 0 375.87257094871893 -717.85151670411869 0 -717.85151670411869 419.99124866740567 0 0 0 0 -45.205613577461918 -393.5086337634757 0 -393.5086337634757 650.9978676290375 0 0 0 0 160.32403999219241 -765.88704323517595 0 -765.88704323517595 745.25697538197164 0 0 0 0 597.6797212748279 -484.22101800352903 0 -484.22101800352903 1512.2103374142516 0 0 0 0 839.84249986008217 -1148.9767594881851 0 -1148.9767594881851 808.8334655684157 0 0 0 0 1485.4374172420321 -198.91411849347696 0 -198.91411849347696 3.0032644129132677 0 0 0 0 626.40157048875699 -155.33920483817565 0 -155.33920483817565 -496.08330641970133 0 0 0 0 283.71291625899175 -256.09964566063172 0 -256.09964566063172 62.321734784316504 0 0 0 0 682.48873880130122 -360.44557218179034 0 -360.44557218179034 -333.21200998260611 0 0 0 0 196.6101652325475 13.937347196342735 0 13.937347196342735 -9.9417664258582956 0 0 0 0 315.08087016623904 -579.0421461450951 0 -579.0421461450951 461.54288743798679 0 0 0 0 137.24090121369227 -489.49360793763572 0 -489.49360793763572 730.90005969193589 0 0 0 0 11.140640736542991 -194.02125875583806 0 -194.02125875583806 143.28286364791711 0 0 0 0 -227.07802171314643 1122.2645309440304 0 1122.2645309440304 -1793.0316229483615 0 0 0 0 -3.0247839264074514 4.5063866601053562 0 4.5063866601053562 2.7956770974250134 0 0 0 0 -311.06715528443419 -276.17177322303087 0 -276.17177322303087 778.99162927228281 0 0 0 0 -634.41938926551711 715.07415940571536 0 715.07415940571536 -1319.8200278909753 0 0 0 0 -98.174062802338085 811.04158854054731 0 811.04158854054731 -1764.9979814771887 0 0 0 0 24.634873054687059 -17.002085620211993 0 -17.002085620211993 -10.21603210094446 0 0 0 0 391.74309733764471 -361.43087735353038 0 -361.43087735353038 -439.98961519622844 0 0 0 0 -82.219682830836973 391.34028396068243 0 391.34028396068243 -1572.0338357038181 0 0 0 0 715.64609457755432 -1351.3312752835864 0 -1351.3312752835864 2725.3335830907054 0 0 0 0 214.90651175089442 -460.72755273128678 0 -460.72755273128678 1685.6168456110099 0 0 0 0 1395.9291381468952 -1180.9820053269241 0 -1180.9820053269241 722.41912012977991 0 0 0 0 225.30968757393566 -431.15399076870563 0 -431.15399076870563 716.39986537697769 0 0 0 0 166.34151432248473 -449.95080234845955 0 -449.95080234845955 780.16321488468066 0 0 0 0 202.05161081130791 -462.24300228223728 0 -462.24300228223728 682.24696280853459 0 0 0 0 130.35212023664553 -5.9721731548949322 0 -5.9721731548949322 -0.25495341209109146 0 0 0 0 859.18630659203654 -215.88498822290785 0 -215.88498822290785 -770.73847109961844 0 0 0 0 1120.5492238680454 1134.1272159078981 0 1134.1272159078981 30.55919090499674 0 0 0 0 96.045627220627011 213.96917282178947 0 213.96917282178947 -421.08262556798945 0 0 0 0 45.774900950341554 -1.6900441598254616 0 -1.6900441598254616 1.2336607337080636 0 0 0 0 752.19849999223879 461.9360491512216 0 461.9360491512216 -572.51886869158443 0 0 0 0 409.44042455689714 417.51522657994428 0 417.51522657994428 -357.57031894030661 0 0 0 0 423.92720534771433 392.3921049809378 0 392.3921049809378 -384.86594994635652 0 0 0 0 266.66197865685444 586.93129060268438 0 586.93129060268438 -564.5084369944816 0 0 0 0 131.08122509745579 405.90405324008725 0 405.90405324008725 -388.2331076689843 0 0 0 0 255.71315895505165 244.42333391028751 0 244.42333391028751 -1181.1492160480302 0 0 0 0 220.76107706873063 217.32597355497091 0 217.32597355497091 -548.10900626880539 0 0 0 0 -60.004038587510877 888.18436188620035 0 888.18436188620035 -1787.5634455549193 0 0 0 0 20.579512304766695 333.39660440654848 0 333.39660440654848 -1250.4602467215191 0 0 0 0 -113.52705654127567 564.86014502025228 0 564.86014502025228 -844.88290918860366 0 0 0 0 -65.679080284172869 702.62458944715036 0 702.62458944715036 -743.60695623070569 0 0 0 0 -145.3680962946728 667.13333275938567 0 667.13333275938567 -1046.3177043222113 0 0 0 0 -101.79372727483494 200.47969752922501 0 200.47969752922501 -705.99735543898714 0 0 0 0 131.68490878291595 387.08313898178858 0 387.08313898178858 -565.71464065261534 0 0 0 0 -67.953382293658024 219.48240971951111 0 219.48240971951111 -65.062434800511255 0 0 0 0 79.330193971522249 254.40162158623752 0 254.40162158623752 -128.97906739953487 0 0 0 0 49.982392641643628 529.73849926964658 0 529.73849926964658 -243.85115382979757 0 0 0 0 -209.02491549113188 326.13064040678819 0 326.13064040678819 -491.50098479746521 0 0 0 0 1.8048010169550537 479.11136841053076 0 479.11136841053076 -392.6329914545131 0 0 0 0 425.8071424714949 142.3761028342326 0 142.3761028342326 85.440257520049727 0 0 0 0 293.92622221548845 14.779157922196191 0 14.779157922196191 181.96121523170314 0 0 0 0 200.76634225087037 134.24724590829305 0 134.24724590829305 150.93957348228105 0 0 0 0 259.05146312274428 131.49242279858754 0 131.49242279858754 -102.94384028427453 0 0 0 0 67.946344181536915 324.83083323526989 0 324.83083323526989 27.919834230275228 0 0 0 0 231.21282958946767 20.080345188748538 0 20.080345188748538 375.46367261893693 0 0 0 0 214.88978886068253 107.24506456768881 0 107.24506456768881 462.66485387165949 0 0 0 0 -50.742967195337314 136.47612869392151 0 136.47612869392151 426.07687906270667 0 0 0 0 191.6858943983018 435.18277272878424 0 435.18277272878424 171.70448308177129 0 0 0 0 -0.02736207353428366 3.8742413735789887 0 3.8742413735789887 3.8444569003935576 0 0 0 0 69.967117461994803 110.1221719078153 0 110.1221719078153 -12.745241442007682 0 0 0 0 45.876157075470019 84.953597189009542 0 84.953597189009542 -10.966509114074142 0 0 0 0 7.9698627560705431 -2.9818600969527616 0 -2.9818600969527616 -2.4682717587959839 0 0 0 0 153.9585041338305 53.763668608474518 0 53.763668608474518 -241.17938482057528 0 0 0 0 115.06911078682106 56.515927193324842 0 56.515927193324842 -122.12643232992832 0 0 0 0 228.95194371498201 102.59884726013865 0 102.59884726013865 -253.33691474043462 0 0 0 0 370.17244746484084 353.54875219614792 0 353.54875219614792 -367.47941501272101 0 0 0 0 2.3158548458435675 -3.5860191109732007 0 -3.5860191109732007 -2.3296185767745285 0 0 0 0 140.86861318614547 322.21517780990007 0 322.21517780990007 -8.1126129028962168 0 0 0 0 153.90956455803143 284.83820435015019 0 284.83820435015019 -86.204158758532685 0 0 0 0 301.10809311260891 5.0465213195775505 0 5.0465213195775505 22.826915120100239 0 0 0 0 634.49206530954291 87.161650668449099 0 87.161650668449099 -0.81982009664170619 0 0 0 0 385.66414163330501 117.76416705843576 0 117.76416705843576 70.410071457269623 0 0 0 0 808.52173782122463 -62.487340974199014 0 -62.487340974199014 -111.94677786822376 0 0 0 0 11.130657261119953 -19.34163304503047 0 -19.34163304503047 18.890679829935053 0 0 0 0 878.99921321774309 74.471670622298461 0 74.471670622298461 -351.82224972001882 0 0 0 0 896.02654061880276 150.92100393999317 0 150.92100393999317 -8.7852832140633836 0 0 0 0 423.44424708356019 358.18115081307269 0 358.18115081307269 320.20666643983731 0 0 0 0 286.43263185098476 103.80389427280488 0 103.80389427280488 296.65359562955655 0 0 0 0 500.55845763139769 -84.01623178575619 0 -84.01623178575619 -36.790986417592649 0 0 0 0 721.02586797688491 44.890553979993911 0 44.890553979993911 96.803439411511135 0 0 0 0 678.5222005328651 116.61726605377498 0 116.61726605377498 -3.7809869338948374 0 0 0 0 1407.368160391763 174.67271384551168 0 174.67271384551168 -205.43306474005203 0 0 0 0 69.969053562723275 190.05861913665558 0 190.05861913665558 45.184638430309178 0 0 0 0 506.49244375154649 328.91049265783113 0 328.91049265783113 -689.39896169759777 0 0 0 0 539.26142393335158 67.483270131431709 0 67.483270131431709 468.0134775595634 0 0 0 0 236.02149042735164 36.843925444602974 0 36.843925444602974 -211.81981731960241 0 0 0 0 167.56233710962442 -81.826788914275767 0 -81.826788914275767 -115.52859264921244 0 0 0 0 8.4333656000306227 -11.432585822732555 0 -11.432585822732555 2.2214349043339112 0 0 0 0 382.20076453742058 -41.17207143682981 0 -41.17207143682981 -73.643072517810651 0 0 0 0 346.67527100105235 74.58108916351739 0 74.58108916351739 -15.303403085111313 0 0 0 0 296.35408355727031 -207.8851976629312 0 -207.8851976629312 -290.40282597954683 0 0 0 0 422.32701427015672 32.400557426095475 0 32.400557426095475 -629.79223174672643 0 0 0 0 580.32616364705677 49.357393883572968 0 49.357393883572968 -672.81754178443407 0 0 0 0 -206.2859838169652 -646.28740990781398 0 -646.28740990781398 -1744.8152103019238 0 0 0 0 415.98795811404307 131.28567273794579 0 131.28567273794579 -1207.3838371889397 0 0 0 0 -73.172785928909434 -225.48597417570181 0 -225.48597417570181 -430.66077098489768 0 0 0 0 188.77366384751531 337.89634548156869 0 337.89634548156869 -715.78928938577155 0 0 0 0 238.66711848146952 772.10570532684505 0 772.10570532684505 -712.88376418178234 0 0 0 0 205.72100815533304 448.99601316576627 0 448.99601316576627 -638.96259774714053 0 0 0 0 437.02499906123921 1096.1781038602785 0 1096.1781038602785 -2470.2238484479603 0 0 0 0 118.94868937262618 228.87462622221938 0 228.87462622221938 -645.38957020246198 0 0 0 0 266.23288352366035 152.68898628028364 0 152.68898628028364 -750.76443519386703 0 0 0 0 519.01496527449126 168.8564689062739 0 168.8564689062739 -824.60943757411587 0 0 0 0 457.16576390337468 921.83692517155214 0 921.83692517155214 -1633.929390417672 0 0 0 0 436.35778188959193 569.19748679738314 0 569.19748679738314 -2386.3286700861681 0 0 0 0 -327.31100725109627 517.45038119748369 0 517.45038119748369 -1317.2162274164293 0 0 0 0 148.62989718240715 480.93355829624215 0 480.93355829624215 -1368.4107695929233 0 0 0 0 -56.624355950862082 364.63495693946061 0 364.63495693946061 -475.94767734106063 0 0 0 0 3.6585338204440045 -3.5887348848114318 0 -3.5887348848114318 -2.5642979019086383 0 0 0 0 1743.9083290420404 992.44174389529599 0 992.44174389529599 -1186.2479486748416 0 0 0 0 411.77084183423523 -570.45881355201527 0 -570.45881355201527 -2386.2085931577276 0 0 0 0 -631.85027072256707 -109.45194490181348 0 -109.45194490181348 847.70274457142159 0 0 0 0 972.73960922783499 844.15234795673769 0 844.15234795673769 -721.35610966057357 0 0 0 0 4.0390973601021862 -0.54505377531284438 0 -0.54505377531284438 -1.5987570495616463 0 0 0 0 884.74195882114873 508.73120224335435 0 508.73120224335435 -2889.2808080907744 0 0 0 0 560.69183897585026 235.87987741934558 0 235.87987741934558 -975.2988414348165 0 0 0 0 247.19045992914309 29.901027950255248 0 29.901027950255248 -18.125397396806239 0 0 0 0 4.4619135014285725 35.269865591912158 0 35.269865591912158 -7.3059352875351831 0 0 0 0 97.810183627836523 558.83261026466971 0 558.83261026466971 -297.4817736655732 0 0 0 0 521.95972753675596 474.43675088238979 0 474.43675088238979 -376.0815709363269 0 0 0 0 701.58316969023144 -288.57637853764072 0 -288.57637853764072 57.232206063138165 0 0 0 0 165.79766606964404 -320.91271277877058 0 -320.91271277877058 129.98076593596397 0 0 0 0 605.66962284025067 160.85043315700159 0 160.85043315700159 -1078.8063202498452 0 0 0 0 268.43376136860485 60.789080659608445 0 60.789080659608445 -7.7749995363830244 0 0 0 0 214.85950997234249 768.96806584702426 0 768.96806584702426 -1068.7030901627586 0 0 0 0 35.317213532849564 19.74227802270434 0 19.74227802270434 -84.935925982990739 0 0 0 0 493.71080400532082 111.69581338204353 0 111.69581338204353 -393.87195839714695 0 0 0 0 -369.68312957894523 167.31114861700735 0 167.31114861700735 -228.90210765063603 0 0 0 0 261.60317279461015 -150.13117412296197 0 -150.13117412296197 97.818729696949958 0 0 0 0 971.04508379595063 -432.36841247047664 0 -432.36841247047664 64.799908562043981 0 0 0 0 660.43144457266317 -163.28299294008229 0 -163.28299294008229 -230.59271258046465 0 0 0 0 909.34143560359371 -982.00595517023896 0 -982.00595517023896 478.59184009588813 0 0 0 0 1024.3909111280373 -646.91049388630859 0 -646.91049388630859 268.13704337562103 0 0 0 0 362.55247494449941 -508.70727893603839 0 -508.70727893603839 688.59613068494036 0 0 0 0 342.39552836601615 267.89754232899213 0 267.89754232899213 -819.11108264294944 0 0 0 0 289.37542617782816 68.675411922251897 0 68.675411922251897 -3.4897062722338994 0 0 0 0 149.71898044393674 730.93237066105735 0 730.93237066105735 -842.17828236036712 0 0 0 0 555.22538332176919 -183.70226632545109 0 -183.70226632545109 -537.15321263697115 0 0 0 0 693.32548339651839 72.37904134909013 0 72.37904134909013 -459.75596804512725 0 0 0 0 -64.255844967992743 247.2084467785653 0 247.2084467785653 74.954766239947276 0 0 0 0 167.90503585629631 949.02663475376903 0 949.02663475376903 578.62528348663227 0 0 0 0 151.65685836586636 -456.50217794115053 0 -456.50217794115053 -1293.6316871300924 0 0 0 0 -1.7358484000951648 -0.75915191149761085 0 -0.75915191149761085 12.181121825888496 0 0 0 0 501.19117434017244 140.6828300359922 0 140.6828300359922 -1166.1216129290674 0 0 0 0 954.07046423258726 502.90765754834865 0 502.90765754834865 -14.905637508126745 0 0 0 0 811.03983697851072 294.41257813952069 0 294.41257813952069 209.20517269751417 0 0 0 0 915.23948965061572 440.84352476274569 0 440.84352476274569 -125.55348046250901 0 0 0 0 1310.5823033237248 -4.9125402097088227 0 -4.9125402097088227 219.25674348525988 0 0 0 0 2086.4440091909019 404.52220139411361 0 404.52220139411361 183.10095121838663 0 0 0 0 1011.6771694646595 226.31635215012159 0 226.31635215012159 996.09024220884953 0 0 0 0 -55.597064710396808 -30.537868164593988 0 -30.537868164593988 36.652656461492597 0 0 0 0 364.70246821502587 81.47942182450123 0 81.47942182450123 54.805122446467522 0 0 0 0 492.96629690896953 -350.42116130587146 0 -350.42116130587146 356.16094699712744 0 0 0 0 514.09503167225921 473.13067092782092 0 473.13067092782092 303.21322739539642 0 0 0 0 484.6813679371262 -713.56243343435381 0 -713.56243343435381 683.80795483974316 0 0 0 0 620.84054380827547 -489.59776949143668 0 -489.59776949143668 460.80510308810062 0 0 0 0 958.70186319554273 -586.9590569727269 0 -586.9590569727269 353.17138973042029 0 0 0 0 2609.5193682423505 -919.08435675154522 0 -919.08435675154522 156.66486441357324 0 0 0 0 852.33169980690582 -1014.1474855756074 0 -1014.1474855756074 612.02361971968912 0 0 0 0 527.9319760951912 856.78334758591473 0 856.78334758591473 -728.04682558242644 0 0 0 0 1106.0854588719449 -1642.5023845608991 0 -1642.5023845608991 2069.6617089823844 0 0 0 0 22.265884625737385 -2.1257452243104638 0 -2.1257452243104638 -1.6047772119081194 0 0 0 0 57.156800026550769 -1.3547308480321831 0 -1.3547308480321831 -0.037944059416279097 0 0 0 0 114.93433401639777 -51.526472455532797 0 -51.526472455532797 -382.15859665587982 0 0 0 0 1715.4465076423003 244.67827947781268 0 244.67827947781268 -705.05389084056628 0 0 0 0 562.71703679309576 121.26041670991594 0 121.26041670991594 -288.40994686206545 0 0 0 0 498.48160088065197 211.72684050281811 0 211.72684050281811 -391.50239309161361 0 0 0 0 739.23682965912758 -292.53534476759785 0 -292.53534476759785 34.208892261172878 0 0 0 0 1711.5173455377501 -618.54747379610512 0 -618.54747379610512 -120.53761462388366 0 0 0 0 801.23415457182273 -694.15852807345414 0 -694.15852807345414 782.27873268151734 0 0 0 0 938.57811052577017 -114.253107619415 0 -114.253107619415 -407.12822879864052 0 0 0 0 955.25222421317903 -203.90519597271319 0 -203.90519597271319 -102.4999660072699 0 0 0 0 882.58039067616664 -48.258153009093235 0 -48.258153009093235 -261.97938664362118 0 0 0 0 893.32461134651385 40.006133211391898 0 40.006133211391898 -337.81632486420847 0 0 0 0 901.47613874513991 -0.60982437599500372 0 -0.60982437599500372 -247.06598528774794 0 0 0 0 995.99617274924094 -43.561281679473495 0 -43.561281679473495 -320.30808030582693 0 0 0 0 766.43022444625967 188.70391247978114 0 188.70391247978114 -340.63958358315085 0 0 0 0 437.25002104930536 28.439463689607805 0 28.439463689607805 -342.0096325118086 0 0 0 0 149.62894269105527 1.7150712850991567 0 1.7150712850991567 -249.56270697147511 0 0 0 0 1.0268980281301197 0.072494347360816391 0 0.072494347360816391 -0.20405192755371004 0 0 0 0 1033.1180088485999 187.75699449180024 0 187.75699449180024 -208.48371295759898 0 0 0 0 778.38261476291518 104.06236474805246 0 104.06236474805246 -113.8180064786311 0 0 0 0 1.5091122232066425 -0.51575256791463175 0 -0.51575256791463175 -0.93662020859835238 0 0 0 0 369.16039634282424 65.466624901946034 0 65.466624901946034 -143.18607713403526 0 0 0 0 331.06865146026757 17.574172159979071 0 17.574172159979071 -100.85068855456484 0 0 0 0 991.98468952541589 -139.04030744072406 0 -139.04030744072406 -269.20686050653012 0 0 0 0 929.82541860974925 50.578569780072371 0 50.578569780072371 -295.80890698849726 0 0 0 0 789.11442713942961 -70.118311300017012 0 -70.118311300017012 -283.00407943278196 0 0 0 0 277.62331434051248 -13.764063912568361 0 -13.764063912568361 -283.02192589037577 0 0 0 0 528.65508034864615 -57.043108151731303 0 -57.043108151731303 -309.20499523465651 0 0 0 0 361.96812714793487 116.87864369245472 0 116.87864369245472 -277.83154245992819 0 0 0 0 374.00479699629068 183.67679631340752 0 183.67679631340752 -108.85227299790722 0 0 0 0 445.15139126456052 189.96178988585825 0 189.96178988585825 -223.90123213109564 0 0 0 0 402.23320248339587 88.086918924563633 0 88.086918924563633 -257.89007246856227 0 0 0 0 309.47500522073278 30.241425705490173 0 30.241425705490173 -293.80354265497317 0 0 0 0 326.22470998408244 95.088042940499008 0 95.088042940499008 -209.23350695362842 0 0 0 0 203.17507393007691 -50.622302375091749 0 -50.622302375091749 -273.81079881441804 0 0 0 0 276.00595229439205 -39.212384921030434 0 -39.212384921030434 -274.69297237885962 0 0 0 0 215.66003360028844 113.29374702253085 0 113.29374702253085 -296.51460084559926 0 0 0 0 298.477936166375 -41.702087073594384 0 -41.702087073594384 -302.46277458703651 0 0 0 0 496.20863589764849 -49.518786139903909 0 -49.518786139903909 -678.64608096700522 0 0 0 0 408.65983907588452 -198.16478658644746 0 -198.16478658644746 -345.76413849871869 0 0 0 0 749.16939468529017 -107.40221452840379 0 -107.40221452840379 -515.17176575590395 0 0 0 0 108.16271134634007 -93.551325855814696 0 -93.551325855814696 -114.29738597334256 0 0 0 0 7.8037166239776639 -2.5245471535518007 0 -2.5245471535518007 -2.5914512964558298 0 0 0 0 289.61035837463714 344.89219624795908 0 344.89219624795908 -1087.0626524868485 0 0 0 0 242.96006587272132 -599.3773436327956 0 -599.3773436327956 531.80509827200615 0 0 0 0 -2.2919053130685292 2.0325847288231955 0 2.0325847288231955 0.71088357957849979 0 0 0 0 247.38614277255692 151.08092748416198 0 151.08092748416198 -244.81766226791092 0 0 0 0 22.959706447742064 -113.85707034293455 0 -113.85707034293455 -222.34381512963228 0 0 0 0 105.86649739092536 47.662295218770112 0 47.662295218770112 -500.32107318069086 0 0 0 0 16.229099132925963 0.036513821584122752 0 0.036513821584122752 -0.022394777615240891 0 0 0 0 211.85273423133185 162.37675091890861 0 162.37675091890861 -906.91286176530809 0 0 0 0 208.83911799438647 203.46269767488002 0 203.46269767488002 -997.97420493201093 0 0 0 0 -88.087340980044701 -11.378371770097701 0 -11.378371770097701 -466.34169873492522 0 0 0 0 247.337208876761 -258.99336083821481 0 -258.99336083821481 -28.87235804870943 0 0 0 0 71.233841499270966 -107.74676836286989 0 -107.74676836286989 -120.64481948635512 0 0 0 0 109.60648186946671 -14.706242297587075 0 -14.706242297587075 -9.6114006643233267 0 0 0 0 23.308511449174176 -1.9531280475468691 0 -1.9531280475468691 30.848459953904744 0 0 0 0 570.07410363333474 -453.5527805899294 0 -453.5527805899294 435.31116489603892 0 0 0 0 -15.642287558745011 20.324440329658387 0 20.324440329658387 -407.1290827431921 0 0 0 0 330.01825988310702 33.615180577898514 0 33.615180577898514 -682.35577577425602 0 0 0 0 432.51246034559153 155.75402549147589 0 155.75402549147589 -858.50062419520782 0 0 0 0 153.41637162613978 -5.431102180512525 0 -5.431102180512525 -13.928292750066326 0 0 0 0 245.21170229982818 -47.062236335928901 0 -47.062236335928901 -434.94341860104964 0 0 0 0 131.89484369722413 -179.36074805247887 0 -179.36074805247887 -212.59693397939759 0 0 0 0 184.05853582930087 7.0434252000091533 0 7.0434252000091533 -9.1495796079952108 0 0 0 0 253.6865995543485 -85.758361733997162 0 -85.758361733997162 -171.91965676428742 0 0 0 0 102.02842757316103 -82.653822154113385 0 -82.653822154113385 -163.45655099917704 0 0 0 0 153.50449120461417 -197.91251272858585 0 -197.91251272858585 -43.697070116827376 0 0 0 0 218.73340601882592 -54.652880853073384 0 -54.652880853073384 -158.17613232159647 0 0 0 0 98.581680763760232 64.191504933491615 0 64.191504933491615 -173.79314059415969 0 0 0 0 121.11069336504443 -34.932874437815826 0 -34.932874437815826 -117.20134835277349 0 0 0 0 180.72901225644091 144.26289503242168 0 144.26289503242168 -221.18357182346517 0 0 0 0 314.23550053861982 33.361068574978617 0 33.361068574978617 -193.06247791116039 0 0 0 0 318.77402294087369 23.636712983264488 0 23.636712983264488 -184.62852729716997 0 0 0 0 11.710605473744522 1.3846630338060351 0 1.3846630338060351 -1.6493603602011966 0 0 0 0 -55.714808766540955 -116.5062018476699 0 -116.5062018476699 -246.75237502072491 0 0 0 0 27.586601474372117 -1.7742926663969776 0 -1.7742926663969776 -5.2345646779085691 0 0 0 0 132.78432401200553 38.648329540213695 0 38.648329540213695 -275.34442536021538 0 0 0 0 59.673068944386614 -27.925050096281325 0 -27.925050096281325 -413.51167047235413 0 0 0 0 26.167210061277729 123.78229682641631 0 123.78229682641631 -657.95767083501914 0 0 0 0 56.954616668801464 -84.070048950835655 0 -84.070048950835655 -636.34205257604185 0 0 0 0 6.1533278990391409 -88.742373197275271 0 -88.742373197275271 -625.2048573125187 0 0 0 0 65.387228571227752 -9.15318895475707 0 -9.15318895475707 -538.87369999108796 0 0 0 0 74.98250089674184 -31.339841066330294 0 -31.339841066330294 -533.89629560840513 0 0 0 0 -85.832247989892494 56.421123066619316 0 56.421123066619316 -544.95895773154882 0 0 0 0 132.3877558610111 -27.76201190115826 0 -27.76201190115826 -717.57622513543993 0 0 0 0 19.322106455893845 -3.5427364934361876 0 -3.5427364934361876 -4.3559163107959424 0 0 0 0 -125.3196080154994 14.627061348841266 0 14.627061348841266 -489.18159224446981 0 0 0 0 19.551867580230464 -30.695166297329706 0 -30.695166297329706 -508.46836130910356 0 0 0 0 95.006868206809486 -14.098891422392626 0 -14.098891422392626 -8.9926570354182331 0 0 0 0 -26.821483846826595 30.421801305184999 0 30.421801305184999 73.583353589514445 0 0 0 0 80.845217036256599 129.80438823830514 0 129.80438823830514 80.70355127926814 0 0 0 0 72.369361369237311 18.023755638739274 0 18.023755638739274 -24.100319370887476 0 0 0 0 19.538980312161584 120.60331333501472 0 120.60331333501472 223.66749658320259 0 0 0 0 121.68411564476264 21.181569486052467 0 21.181569486052467 92.963957227671926 0 0 0 0 176.1699159234995 76.68819416797669 0 76.68819416797669 0.9711771203619719 0 0 0 0 -191.14695531036705 -299.74574055459152 0 -299.74574055459152 -687.03979110181808 0 0 0 0 16.328057208273094 168.46810436670148 0 168.46810436670148 -227.21069806819742 0 0 0 0 -622.93453264041455 -233.43369950136645 0 -233.43369950136645 -116.84976073597227 0 0 0 0 2.1912105263618287 196.31356344786673 0 196.31356344786673 -281.73895147289272 0 0 0 0 766.14079483472597 -265.00235568959738 0 -265.00235568959738 48.650397552634786 0 0 0 0 762.599316804306 482.97508086112771 0 482.97508086112771 -290.12630240443559 0 0 0 0 131.325450586226 127.38687209439422 0 127.38687209439422 48.869109599554577 0 0 0 0 -468.13313648809708 510.49585671063693 0 510.49585671063693 298.71372792227339 0 0 0 0 94.725026356748799 11.91821098100818 0 11.91821098100818 -23.562089774351449 0 0 0 0 1386.4170357324765 -350.56443977686672 0 -350.56443977686672 -917.57784268195735 0 0 0 0 -188.745968962794 84.710079283956702 0 84.710079283956702 -21.110973051214842 0 0 0 0 -5.0813602782145608 283.79200788551589 0 283.79200788551589 -97.022738646929611 0 0 0 0 321.9176272725017 77.892631368116781 0 77.892631368116781 -161.9527822061043 0 0 0 0 7.8665392138900216 -1.0382330169332619 0 -1.0382330169332619 -1.3115512265111438 0 0 0 0 10.569978266719232 2.9005013449699497 0 2.9005013449699497 -0.66530259180256479 0 0 0 0 39.012559529175633 -38.121354658261168 0 -38.121354658261168 -332.50971151681165 0 0 0 0 -177.60527662045206 -76.377836752639496 0 -76.377836752639496 -334.33054556638899 0 0 0 0 -372.72354701631411 -437.58401488641448 0 -437.58401488641448 -899.6050844291974 0 0 0 0 -318.37396759659168 -257.89361221610966 0 -257.89361221610966 -523.20324571488209 0 0 0 0 -1.6015185130017926 -47.707542362081512 0 -47.707542362081512 -834.70339740782038 0 0 0 0 56.804401398898335 101.08401306859605 0 101.08401306859605 -957.16768870727492 0 0 0 0 -91.074320647690911 -81.042412117009917 0 -81.042412117009917 -838.38756916199338 0 0 0 0 -73.531255044144928 -168.98154116549443 0 -168.98154116549443 -1186.6076689765384 0 0 0 0 -122.00434910107288 -150.59373874741391 0 -150.59373874741391 -994.63353313021685 0 0 0 0 649.62709995669138 499.791944163057 0 499.791944163057 -554.22997071244936 0 0 0 0 -0.12939204966127704 -0.25261001858744692 0 -0.25261001858744692 -0.22465328105237159 0 0 0 0 130.67129201878561 -48.020922783542119 0 -48.020922783542119 -1144.4990986468022 0 0 0 0 -117.47028922129539 86.365318637895598 0 86.365318637895598 -607.95811509714667 0 0 0 0 426.87995474409399 95.473417375250961 0 95.473417375250961 -221.92603725773915 0 0 0 0 162.17256484441168 362.19127432961545 0 362.19127432961545 -318.46498874989732 0 0 0 0 59.513966397142212 201.67490514992937 0 201.67490514992937 -461.25217195439154 0 0 0 0 18.076983547189542 0.67067942379442158 0 0.67067942379442158 -2.3268770104946537 0 0 0 0 290.60839733236935 254.6590132471182 0 254.6590132471182 -1094.6969509927931 0 0 0 0 -93.912618438742356 140.45138996676701 0 140.45138996676701 -483.35119329993108 0 0 0 0 -24.78868797144878 430.67708364003431 0 430.67708364003431 -513.28379765138152 0 0 0 0 8.0950567351287077 -0.51836695464805516 0 -0.51836695464805516 -1.3498293152883516 0 0 0 0 344.96132422854134 360.32221941540979 0 360.32221941540979 -557.76097579760972 0 0 0 0 25.853049347198976 246.17215794460026 0 246.17215794460026 -518.71755127089409 0 0 0 0 864.08123334991978 158.7265680469618 0 158.7265680469618 -53.437375196070661 0 0 0 0 318.28708082984122 -211.56699982565982 0 -211.56699982565982 -304.15662276116745 0 0 0 0 1041.1928832846024 4.9723188269626917 0 4.9723188269626917 -506.32890693148295 0 0 0 0 313.37896341377382 -329.92088349526546 0 -329.92088349526546 -467.54263461644632 0 0 0 0 205.38257404408068 214.38296226717836 0 214.38296226717836 -908.47727262168542 0 0 0 0 81.45185008547196 315.81670214732969 0 315.81670214732969 -531.6463305918295 0 0 0 0 105.79233467040467 2.1486714895215755 0 2.1486714895215755 -354.88551281147744 0 0 0 0 117.96145880020049 206.82632529224287 0 206.82632529224287 -503.21087407096434 0 0 0 0 420.22905378046562 22.689335449744249 0 22.689335449744249 -406.2086886372274 0 0 0 0 87.943445081124082 154.99436493067469 0 154.99436493067469 -161.12479655156403 0 0 0 0 -0.59764143088250421 117.06604278169789 0 117.06604278169789 -461.05655767866119 0 0 0 0 -33.585974210131099 24.030186592513019 0 24.030186592513019 -299.14039115488231 0 0 0 0 -83.177679067972349 53.058633320046056 0 53.058633320046056 -602.13108438235224 0 0 0 0 -115.8330008183475 238.79336596638532 0 238.79336596638532 -593.04239235663567 0 0 0 0 -67.087857096426887 110.1849959805844 0 110.1849959805844 -451.60089996538579 0 0 0 0 -18.856454874447081 -38.356908360264242 0 -38.356908360264242 -1143.9917136996055 0 0 0 0 -8.5223585190542508 209.56062333795779 0 209.56062333795779 -742.24299243572511 0 0 0 0 -137.13886800929322 65.995343702194987 0 65.995343702194987 -496.29375569115382 0 0 0 0 -64.117835222859867 92.502082201643248 0 92.502082201643248 -691.58042685501096 0 0 0 0 19.169800054810111 0.62678061539373076 0 0.62678061539373076 -2.4502258765169369 0 0 0 0 -56.588585686280567 182.70630415890363 0 182.70630415890363 -521.18472149951094 0 0 0 0 22.969544691499323 38.704713896929661 0 38.704713896929661 -1070.9118187238907 0 0 0 0 4.1715647645252822 1.2644783022650472 0 1.2644783022650472 0.16495640308623805 0 0 0 0 2.6398493837893362 4.2439296490765628 0 4.2439296490765628 0.61643620720002268 0 0 0 0 -108.10147067787329 164.77224974459762 0 164.77224974459762 -252.09539355141942 0 0 0 0 -155.05185217733379 65.960183545498012 0 65.960183545498012 -392.85801249573296 0 0 0 0 228.04830025917636 140.02060116794775 0 140.02060116794775 -265.22726273003809 0 0 0 0 -0.76717271061550463 3.4024572230553076 0 3.4024572230553076 0.5101171037011607 0 0 0 0 -218.56645399914123 -21.540111820527727 0 -21.540111820527727 -222.82612481065837 0 0 0 0 347.09649798347527 26.404882194593483 0 26.404882194593483 -189.70486276829956 0 0 0 0 -0.16559571970122278 1.6035543860059249 0 1.6035543860059249 0.23938327885773347 0 0 0 0 181.25899154992658 -67.743775437213117 0 -67.743775437213117 -169.65674029352999 0 0 0 0 -41.925446749381081 133.88961346164865 0 133.88961346164865 -121.59533366149844 0 0 0 0 177.78358388070774 -134.69822195821052 0 -134.69822195821052 -152.1063697319704 0 0 0 0 313.17865593166789 -3.850260692584925 0 -3.850260692584925 -43.304370673333324 0 0 0 0 182.07073016759387 -57.767174101562887 0 -57.767174101562887 -63.469038256176646 0 0 0 0 546.46340481307561 -229.55640121461556 0 -229.55640121461556 -96.054939779697634 0 0 0 0 578.53223598407931 -207.34429288436559 0 -207.34429288436559 -156.25526390075765 0 0 0 0 891.10190732092451 -461.61231222890297 0 -461.61231222890297 -35.246240083358316 0 0 0 0 989.07522435332066 -345.26820829997587 0 -345.26820829997587 -45.045751263945192 0 0 0 0 472.1822191371175 -370.74800780739616 0 -370.74800780739616 169.50249658431585 0 0 0 0 -50.226593419916753 115.03535274400107 0 115.03535274400107 -291.36976802310573 0 0 0 0 115.73006008146331 154.7334010129714 0 154.7334010129714 -454.39126109280721 0 0 0 0 291.65751308778272 -62.185899069379047 0 -62.185899069379047 -341.48686975995815 0 0 0 0 360.04544657567021 -72.709460914830515 0 -72.709460914830515 -568.49474844692668 0 0 0 0 4.0933447970690509 -1.2553191040245544 0 -1.2553191040245544 -1.1365047884360058 0 0 0 0 59.704609343811171 -147.49194906785533 0 -147.49194906785533 -168.75594636101027 0 0 0 0 59.783635652958765 -10.19704864218852 0 -10.19704864218852 -531.02299957070352 0 0 0 0 86.090646084208856 123.52555872696962 0 123.52555872696962 -603.23688348169514 0 0 0 0 9.9292587937864027 -0.69573190242797622 0 -0.69573190242797622 -1.7693785310802788 0 0 0 0 17.760231048759124 153.19940418355668 0 153.19940418355668 -426.0552578149136 0 0 0 0 42.321080647277995 147.35523876739421 0 147.35523876739421 -308.18038683673512 0 0 0 0 45.686185385580757 35.806418595759851 0 35.806418595759851 -317.83000858914079 0 0 0 0 -29.499904251715634 32.177317114732659 0 32.177317114732659 -431.20107552290392 0 0 0 0 45.155013392548426 103.3955625436256 0 103.3955625436256 -219.46337672826621 0 0 0 0 -33.290541537997342 94.965238207984783 0 94.965238207984783 -213.92046576365283 0 0 0 0 44.120369213982485 94.70919444956462 0 94.70919444956462 -93.158714165803303 0 0 0 0 -33.6135907258722 82.385753800607745 0 82.385753800607745 -152.95331121436357 0 0 0 0 -62.212466254321043 42.373805838173212 0 42.373805838173212 -254.39673267048875 0 0 0 0 -37.271994077259478 52.889936138334889 0 52.889936138334889 -273.9746346919128 0 0 0 0 -12.269968987182438 134.4013310101916 0 134.4013310101916 -284.60249544233056 0 0 0 0 32.129328108101618 92.846687489502983 0 92.846687489502983 -251.49260891325821 0 0 0 0 272.19017164715569 16.499913231853895 0 16.499913231853895 -357.8406262245785 0 0 0 0 -56.996624342500581 -129.97475640288485 0 -129.97475640288485 -360.29099911199842 0 0 0 0 81.411211084734532 -72.556838079046884 0 -72.556838079046884 -345.53335516086042 0 0 0 0 -288.45994249974319 -178.28910847184125 0 -178.28910847184125 -297.85093618731571 0 0 0 0 282.47546661402885 255.66368405554749 0 255.66368405554749 7.3225134310732756 0 0 0 0 -0.72646989549963337 -0.34018477286369375 0 -0.34018477286369375 -0.020206840423995232 0 0 0 0 -4.1504100588390429 23.820168777990602 0 23.820168777990602 -113.50198285937586 0 0 0 0 6.3574356370586997 2.2747119184037388 0 2.2747119184037388 -1.09550665737369 0 0 0 0 66.29426355963551 182.33712393066855 0 182.33712393066855 -215.3867496565299 0 0 0 0 56.864045340786106 -24.666619565002748 0 -24.666619565002748 -259.14494271943329 0 0 0 0 -49.427749230475456 -9.6697300073037695 0 -9.6697300073037695 -305.26136981280615 0 0 0 0 -69.848370987951057 1.5519400297971515 0 1.5519400297971515 -249.76149892304397 0 0 0 0 -33.552174369004206 -21.583218021512948 0 -21.583218021512948 -298.02250476191375 0 0 0 0 12.919682659674436 -22.029604814334107 0 -22.029604814334107 -209.10182446628073 0 0 0 0 -30.67799031562754 19.033452719086 0 19.033452719086 -247.77003690035599 0 0 0 0 -70.012128229020163 -61.640857431325458 0 -61.640857431325458 -224.54872792750848 0 0 0 0 -28.369488921758602 -62.163569150216063 0 -62.163569150216063 -343.68870027898402 0 0 0 0 -26.014204659091774 -26.869524092367101 0 -26.869524092367101 -149.86767225567695 0 0 0 0 79.672140401844445 119.0863089383663 0 119.0863089383663 -142.04690036598913 0 0 0 0 -16.35043167394906 17.081463761849022 0 17.081463761849022 -214.37254426441905 0 0 0 0 -43.57223031448666 -13.395690473637387 0 -13.395690473637387 -268.57199941575527 0 0 0 0 -19.256464724239777 -44.041275950779436 0 -44.041275950779436 -230.57324349203373 0 0 0 0 -42.021964178842609 113.7630573952647 0 113.7630573952647 -106.73165169819367 0 0 0 0 -109.91037382509967 -132.42634659094711 0 -132.42634659094711 -282.36134198655009 0 0 0 0 2.6131117636621752 1.0150788459753386 0 1.0150788459753386 -0.065157977599984207 0 0 0 0 0.63047437761451874 -56.522190961903675 0 -56.522190961903675 -262.79499586761813 0 0 0 0 -130.21167009261262 -48.294613614602895 0 -48.294613614602895 -228.58732301680539 0 0 0 0 -17.676347229906241 85.418882453212746 0 85.418882453212746 -52.357212184826494 0 0 0 0 30.741994410374218 -0.21205747978213552 0 -0.21205747978213552 -5.6598722328230675 0 0 0 0 16.24334412519238 38.802005246809131 0 38.802005246809131 -51.3027979993185 0 0 0 0 218.37270182123757 -251.77905574861597 0 -251.77905574861597 -6.2677609817910707 0 0 0 0 -8.2393624535179697 44.216935187059789 0 44.216935187059789 16.922272579329729 0 0 0 0 1.2481213147495112 -0.31286366680181743 0 -0.31286366680181743 -0.58745070598215676 0 0 0 0 9.3059356667988595 3.2534043960978636 0 3.2534043960978636 -1.7418244247437258 0 0 0 0 0.19054528753758859 -4.7501098804928112 0 -4.7501098804928112 -1.3227723253222843 0 0 0 0 45.573554454909754 -52.314352251088167 0 -52.314352251088167 -44.999764674950711 0 0 0 0 -19.443022795647266 -43.401453009581019 0 -43.401453009581019 7.6156643508890625 0 0 0 0 27.940229191508138 -9.9972097454862165 0 -9.9972097454862165 -6.3752615878127479 0 0 0 0 -5.4402325224655215 -16.988398164962746 0 -16.988398164962746 35.028292148683249 0 0 0 0 278.41682507078804 133.79745408624422 0 133.79745408624422 -249.34008380186242 0 0 0 0 21.855264620506205 -45.005429462271422 0 -45.005429462271422 -44.404164792222559 0 0 0 0 455.31331723678159 515.69106615496094 0 515.69106615496094 -638.79152723285551 0 0 0 0 26.110510807789296 -13.633009400009129 0 -13.633009400009129 -3.1354004789299736 0 0 0 0 -187.16942634206862 -395.98758432574891 0 -395.98758432574891 399.74152316094296 0 0 0 0 -45.015933507442242 -14.488321262464524 0 -14.488321262464524 263.07631846838922 0 0 0 0 528.08584618728491 254.57185673635468 0 254.57185673635468 124.01513795192295 0 0 0 0 2.5329087921700477 -2.2075249464859894 0 -2.2075249464859894 0.61683660715781485 0 0 0 0 -45.165972354476708 -23.743884736947024 0 -23.743884736947024 171.18660893675769 0 0 0 0 -29.179982654430205 -126.21201802441828 0 -126.21201802441828 251.79963957253403 0 0 0 0 -47.215650127473054 -223.18633303465867 0 -223.18633303465867 128.33044546637029 0 0 0 0 -32.225529790797736 -162.15057702846116 0 -162.15057702846116 20.975419778380456 0 0 0 0 -20.172917767893523 -40.421288571252262 0 -40.421288571252262 15.261627387822955 0 0 0 0 103.56210588666727 -15.475879772683584 0 -15.475879772683584 -76.956263430623949 0 0 0 0 9.923460216453293 -0.39339807129731241 0 -0.39339807129731241 -5.117046725824931 0 0 0 0 -44.01067286421312 38.511304502892017 0 38.511304502892017 -50.542179050677305 0 0 0 0 -53.369085989485029 0.2249677157979022 0 0.2249677157979022 -31.504690296511399 0 0 0 0 -55.015805962786544 -23.898431235205862 0 -23.898431235205862 -11.436876263903741 0 0 0 0 -82.194856712289038 11.849968177923074 0 11.849968177923074 -22.191265971818211 0 0 0 0 -70.35525593352213 -21.315930355569435 0 -21.315930355569435 0.3593862671568786 0 0 0 0 -82.440133153912029 -6.7780779451877606 0 -6.7780779451877606 -15.012080216964705 0 0 0 0 -90.283475588134024 -32.44763078912456 0 -32.44763078912456 -4.4288241939038926 0 0 0 0 -44.728803768892249 -28.445110847532874 0 -28.445110847532874 -29.084709610502614 0 0 0 0 -38.668173722839128 -58.723889063955653 0 -58.723889063955653 6.1293056965041615 0 0 0 0 27.919740700358773 0.42065866210839786 0 0.42065866210839786 -0.58181238816840808 0 0 0 0 -30.967384859279264 -22.855884696897192 0 -22.855884696897192 -47.618387691874091 0 0 0 0 -11.500185842924111 -11.716417362756147 0 -11.716417362756147 -41.868971917185263 0 0 0 0 1040.3378825592154 -61.118960035628788 0 -61.118960035628788 -289.54663564348357 0 0 0 0 944.81463993591024 -339.14468859137833 0 -339.14468859137833 -200.67073531850201 0 0 0 0 1324.167537286572 -216.91242816177828 0 -216.91242816177828 -397.47553781080614 0 0 0 0 1015.8669507578525 -296.12774083879322 0 -296.12774083879322 -415.62363014402035 0 0 0 0 673.62754134019633 -65.071841989317591 0 -65.071841989317591 -231.56687579931804 0 0 0 0 575.11134491085249 -92.958519500337388 0 -92.958519500337388 -201.81629974093312 0 0 0 0 0.6112170143961535 0.93878457464609255 0 0.93878457464609255 0.36850762681336846 0 0 0 0 1094.3251554056478 58.128055652083276 0 58.128055652083276 -215.5927350564989 0 0 0 0 745.73105412619043 221.24366811558639 0 221.24366811558639 -151.83866129823582 0 0 0 0 45.352987382808351 6.4676424577992293 0 6.4676424577992293 -67.651869641388316 0 0 0 0 110.46507016231044 -30.959229728796799 0 -30.959229728796799 -115.51605153343371 0 0 0 0 179.35452735559375 -33.103198659801137 0 -33.103198659801137 -133.46770438635758 0 0 0 0 336.10339091822971 134.64832865909284 0 134.64832865909284 -90.16463839897267 0 0 0 0 -284.26961882796604 48.312841554380611 0 48.312841554380611 -48.515179769206952 0 0 0 0 40.67178186748788 -18.76348615785696 0 -18.76348615785696 -357.12556789315931 0 0 0 0 38.475356612412725 29.689311052171888 0 29.689311052171888 -144.31184442222911 0 0 0 0 39.671692519186763 -108.56859401457859 0 -108.56859401457859 -174.52775607518515 0 0 0 0 -6.878400457178941 -56.350028670004576 0 -56.350028670004576 137.53278861362963 0 0 0 0 0.036041576367495054 -0.37566528725767157 0 -0.37566528725767157 -0.17369609203749325 0 0 0 0 75.29980611254723 -77.66182185425555 0 -77.66182185425555 -69.351315038700704 0 0 0 0 45.224625668837689 -91.929360686455766 0 -91.929360686455766 62.597689071681998 0 0 0 0 22.805497443411127 -0.233997173879537 0 -0.233997173879537 -1.3961045524503826 0 0 0 0 41.877848468182492 -7.9982330826051111 0 -7.9982330826051111 -61.370938934906917 0 0 0 0 47.537626453988196 -27.977947571928553 0 -27.977947571928553 -105.28047764975508 0 0 0 0 5.1178637257943222 1.0383187839420316 0 1.0383187839420316 -0.48313828473130016 0 0 0 0 21.924027624125301 -30.365533785685784 0 -30.365533785685784 -70.336506264987293 0 0 0 0 50.765802380767127 -45.509142092604861 0 -45.509142092604861 -99.949560979815942 0 0 0 0 1362.3423960676955 323.61463152649821 0 323.61463152649821 -263.02473260740953 0 0 0 0 10.260677813408449 1.0359461315441294 0 1.0359461315441294 -0.10136322410178344 0 0 0 0 885.32033780937491 -747.24052772124378 0 -747.24052772124378 663.30819609236505 0 0 0 0 255.47611703855 319.63437387489915 0 319.63437387489915 237.10218000344048 0 0 0 0 1638.6885027643802 -58.218996020695158 0 -58.218996020695158 -350.48599106970391 0 0 0 0 1307.3963397547777 -384.25555576568695 0 -384.25555576568695 -195.87311398248676 0 0 0 0 1317.6725122239732 -340.31275995220039 0 -340.31275995220039 -172.28574107461782 0 0 0 0 1366.4231360065969 -465.11680464877509 0 -465.11680464877509 50.773808403298972 0 0 0 0 1639.3194724472351 -160.30746794342957 0 -160.30746794342957 163.11165861654445 0 0 0 0 1596.0686663633423 -585.08632457070973 0 -585.08632457070973 47.604488851075075 0 0 0 0 1007.118570326289 -433.40652807516017 0 -433.40652807516017 81.351078434099691 0 0 0 0 1007.2517564602203 -443.89019499597066 0 -443.89019499597066 -63.668902745595915 0 0 0 0 1267.6049079787317 -504.44147879672471 0 -504.44147879672471 -75.886112886664705 0 0 0 0 1076.3883887225529 -400.11362308986099 0 -400.11362308986099 -131.23557756869195 0 0 0 0 1115.9401858527854 -382.31045308075772 0 -382.31045308075772 -69.721496156671492 0 0 0 0 1081.0619135573506 -421.09829504458594 0 -421.09829504458594 -49.493196450141113 0 0 0 0 698.67693219326611 -126.35330678874834 0 -126.35330678874834 -4.7541659405374048 0 0 0 0 -136.24440662836423 -222.68146902730041 0 -222.68146902730041 -343.21222074994876 0 0 0 0 19.126362124650768 -2.0397429108345477 0 -2.0397429108345477 -0.69532016990342527 0 0 0 0 3.993607561650407 3.8920769528922108 0 3.8920769528922108 0.81303935972092489 0 0 0 0 1219.6263224683935 -475.59423914524996 0 -475.59423914524996 -53.557237902761699 0 0 0 0 1628.9383857568464 -65.804837355978634 0 -65.804837355978634 -36.606200040689146 0 0 0 0 0.54946316987482646 0.094660602430295171 0 0.094660602430295171 0.69784803623613101 0 0 0 0 6.9253208811428237 -4.9530728955845973 0 -4.9530728955845973 1.1089409414213449 0 0 0 0 867.39085701509612 -418.37398992829549 0 -418.37398992829549 16.596045404528013 0 0 0 0 8.9519891588697362 3.0920552510926314 0 3.0920552510926314 -1.0460171159594829 0 0 0 0 129.61839870201948 -183.34876628261645 0 -183.34876628261645 329.7782530373006 0 0 0 0 19.811829644302634 0.48244375570789089 0 0.48244375570789089 0.37206919425261731 0 0 0 0 -10.024140845896909 -97.790820377379987 0 -97.790820377379987 -222.74431004069083 0 0 0 0 14.346618046314688 -3.8522724574017957 0 -3.8522724574017957 -2.2090273420526501 0 0 0 0 12.19328789750648 -4.3126784887205929 0 -4.3126784887205929 -0.21911818960137452 0 0 0 0 -3.0925078624641174 -161.22176913302519 0 -161.22176913302519 -231.25761919162505 0 0 0 0 -130.57345142580925 -264.43906063665167 0 -264.43906063665167 -259.02016784342777 0 0 0 0 29.354111767737777 -216.77723874349158 0 -216.77723874349158 -176.61979990940745 0 0 0 0 -189.83525706319779 -400.72954383910155 0 -400.72954383910155 -133.17122452476542 0 0 0 0 -42.902322903988534 -129.14871407976716 0 -129.14871407976716 -281.48551948260888 0 0 0 0 75.551163417752832 -200.20866766574363 0 -200.20866766574363 -181.77833444531871 0 0 0 0 78.737219043418008 -212.30595286231346 0 -212.30595286231346 -154.01877175473055 0 0 0 0 239.87113187358773 -212.80234213905715 0 -212.80234213905715 -197.56188289183774 0 0 0 0 111.09117491703364 -216.98415794377433 0 -216.98415794377433 -193.98466354988341 0 0 0 0 32.86425604649412 -206.91867601088234 0 -206.91867601088234 -130.62734375663422 0 0 0 0 73.574504150401481 -234.00052868529247 0 -234.00052868529247 -127.21896436738461 0 0 0 0 309.21270807203109 -352.52461210706406 0 -352.52461210706406 -185.6614289124409 0 0 0 0 608.43397088907659 -187.32444087023396 0 -187.32444087023396 -320.69436640069762 0 0 0 0 612.47720439863042 -229.24063090470008 0 -229.24063090470008 -312.96984319326657 0 0 0 0 785.9309592505906 -312.79802959410301 0 -312.79802959410301 -208.52225111247026 0 0 0 0 832.62604418722913 -665.67023888135373 0 -665.67023888135373 -92.520841996698437 0 0 0 0 194.73516339865455 -395.7943399076521 0 -395.7943399076521 -136.79931050595405 0 0 0 0 351.8488169949851 -290.77752570639313 0 -290.77752570639313 -175.94558296280388 0 0 0 0 3.2167885279546198 0.24481688108770072 0 0.24481688108770072 -0.16884768594140809 0 0 0 0 -525.74363114107109 -128.79383704540942 0 -128.79383704540942 -196.00413232804476 0 0 0 0 1084.6820453075052 -451.71731046635432 0 -451.71731046635432 -146.10094486511116 0 0 0 0 1026.6649873205315 -654.09306569553974 0 -654.09306569553974 -175.13575046318874 0 0 0 0 1107.4160109743534 -792.19518095786407 0 -792.19518095786407 -334.76756039838074 0 0 0 0 1221.5465269101987 -386.35085336981911 0 -386.35085336981911 -114.92404909857578 0 0 0 0 1102.6461454382516 -423.48383810639643 0 -423.48383810639643 1.633241088815339 0 0 0 0 996.43045506783528 -357.91147281200028 0 -357.91147281200028 -74.98022892391964 0 0 0 0 1121.2165478595707 -376.09856088626475 0 -376.09856088626475 -110.27323780803999 0 0 0 0 1067.5432226964767 -277.06298057586537 0 -277.06298057586537 -264.48735736677918 0 0 0 0 1150.933234517317 -383.9884862418894 0 -383.9884862418894 -130.13176778996149 0 0 0 0 1149.9714597901329 -236.00138852040436 0 -236.00138852040436 -369.10800531233326 0 0 0 0 1026.8799821059947 -275.3579216138296 0 -275.3579216138296 -262.1175967542913 0 0 0 0 937.48286026631831 -228.74018309776511 0 -228.74018309776511 -286.19886511731238 0 0 0 0 984.33010579054826 -286.69482691451049 0 -286.69482691451049 -332.46539020703131 0 0 0 0 802.29265789833153 -298.13485085628054 0 -298.13485085628054 -329.32066064358605 0 0 0 0 822.86011278399383 -135.08684768511921 0 -135.08684768511921 -428.91305458246461 0 0 0 0 957.8977520794142 -120.12049110789758 0 -120.12049110789758 -433.15726602968789 0 0 0 0 1083.0704561097809 -66.948266562177196 0 -66.948266562177196 -483.55052302712284 0 0 0 0 1021.393155942118 -177.20971043247573 0 -177.20971043247573 -405.80746916227145 0 0 0 0 1064.5325476093858 -177.52057930845331 0 -177.52057930845331 -405.86590712346879 0 0 0 0 1127.7341284125578 -104.09859760268955 0 -104.09859760268955 -495.89946496954508 0 0 0 0 1250.3024314776412 -175.77396232062347 0 -175.77396232062347 -459.50789789695409 0 0 0 0 1204.0910146816022 -98.748320868179917 0 -98.748320868179917 -518.03054145541682 0 0 0 0 1151.22621706879 -66.698390798945184 0 -66.698390798945184 -505.453961659372 0 0 0 0 1291.635161647835 7.4303868795905146 0 7.4303868795905146 -597.23115432793566 0 0 0 0 1218.0489068825918 -15.61636602719409 0 -15.61636602719409 -603.76300609108512 0 0 0 0 1241.6189030410897 -95.035377904428969 0 -95.035377904428969 -557.59264632352097 0 0 0 0 1329.912399466557 -83.765597928639181 0 -83.765597928639181 -562.60413183709898 0 0 0 0 1347.7573499239015 -180.14723419542906 0 -180.14723419542906 -494.76855761433399 0 0 0 0 1313.2063170626934 -178.63772405097188 0 -178.63772405097188 -488.34409425559716 0 0 0 0 1255.5847783099161 -269.88644819853471 0 -269.88644819853471 -339.8688874254276 0 0 0 0 1141.0397030122622 -173.1151573047988 0 -173.1151573047988 -417.25446704193018 0 0 0 0 1216.3427812926675 -269.1517925080625 0 -269.1517925080625 -334.08226368484247 0 0 0 0 1347.723882186081 -223.27865282240509 0 -223.27865282240509 -432.67355191069692 0 0 0 0 1419.4687805685026 -286.84923623346776 0 -286.84923623346776 -427.55055125809668 0 0 0 0 206.38819729309762 15.298038586529401 0 15.298038586529401 -431.70436233500823 0 0 0 0 14.799792256351793 -36.156666878729993 0 -36.156666878729993 -377.58052119911872 0 0 0 0 14.468885103844514 -55.197543445022347 0 -55.197543445022347 -531.0345968390593 0 0 0 0 14.320018760947278 152.09114163840695 0 152.09114163840695 -554.3564794078593 0 0 0 0 -23.293679274240276 198.65102992582888 0 198.65102992582888 -54.739888647671251 0 0 0 0 13.923720235275937 2.9545920607415752 0 2.9545920607415752 -3.320746606630788 0 0 0 0 -66.65878704393981 90.264164688950586 0 90.264164688950586 -221.70732616770511 0 0 0 0 197.29538305276401 -33.43381046521165 0 -33.43381046521165 -481.25271300015265 0 0 0 0 225.80664469729527 -90.948520018491763 0 -90.948520018491763 -117.14078619765041 0 0 0 0 200.94419707477209 -140.33539314740847 0 -140.33539314740847 -35.876860880235199 0 0 0 0 88.776678844966227 -196.10426136564365 0 -196.10426136564365 21.736073562219644 0 0 0 0 153.5900030421617 67.92315987787515 0 67.92315987787515 -595.0114820025783 0 0 0 0 53.65477337728953 -207.58984285348743 0 -207.58984285348743 21.909887434761913 0 0 0 0 1.2323687160508712 -0.65271810165068445 0 -0.65271810165068445 -0.7484937062825896 0 0 0 0 3.5182986837462522 36.398460113118745 0 36.398460113118745 -419.62433149639037 0 0 0 0 10.566179380461108 -84.89372300343075 0 -84.89372300343075 -269.43923988380857 0 0 0 0 3.7842610222933786 -7.136706579405768 0 -7.136706579405768 -2.0950637266199621 0 0 0 0 26.030173161125276 -72.685963182420892 0 -72.685963182420892 -300.25031595403743 0 0 0 0 23.41149133037834 -182.6984903181733 0 -182.6984903181733 -288.46305104450585 0 0 0 0 89.970858803106239 -138.45963299014329 0 -138.45963299014329 -322.35184715257537 0 0 0 0 83.844176184793469 -136.76499365683412 0 -136.76499365683412 -308.85650406755303 0 0 0 0 132.42264935368439 -124.2596414550826 0 -124.2596414550826 -307.40673058122411 0 0 0 0 120.33906734987977 -203.74084026040873 0 -203.74084026040873 -286.59065032251328 0 0 0 0 335.91032504491159 -97.397811200552496 0 -97.397811200552496 -392.23664133306693 0 0 0 0 137.7959661702771 -4.915730898331276 0 -4.915730898331276 -415.91113650353327 0 0 0 0 189.65950841538142 -83.137504595968494 0 -83.137504595968494 -395.03837620170816 0 0 0 0 178.13959955761675 -209.45859529130075 0 -209.45859529130075 -177.83503190420925 0 0 0 0 140.20480294493609 -86.4369733508629 0 -86.4369733508629 -96.519061297043208 0 0 0 0 170.08656562723627 -170.09278786071809 0 -170.09278786071809 -203.53099399893108 0 0 0 0 46.486760184523519 -142.35882988053322 0 -142.35882988053322 -206.52635869092046 0 0 0 0 80.269704717829882 -211.81083638776272 0 -211.81083638776272 -153.87233611584816 0 0 0 0 92.173545350378845 -343.86827123458716 0 -343.86827123458716 -394.19019675508389 0 0 0 0 134.94720841960225 -241.34776609779237 0 -241.34776609779237 -337.64690176035219 0 0 0 0 61.203872206126107 -194.55486216504505 0 -194.55486216504505 -167.10251425986826 0 0 0 0 589.23482594949019 -59.118732446833747 0 -59.118732446833747 -262.8357240794503 0 0 0 0 965.50990635968628 -365.14209435607245 0 -365.14209435607245 -703.12642572459663 0 0 0 0 963.00672599655809 -414.56071262188289 0 -414.56071262188289 -1070.3709202899227 0 0 0 0 -203.07505994508392 246.52677081974889 0 246.52677081974889 -205.840755442101 0 0 0 0 0.3442706717591193 4.3334273934216014 0 4.3334273934216014 0.66483767140613281 0 0 0 0 193.27230191364652 61.577794146982797 0 61.577794146982797 -326.69708051659836 0 0 0 0 -39.145201795734465 159.16250530267007 0 159.16250530267007 -360.36129350664396 0 0 0 0 7.2894673362170579 222.32905510074852 0 222.32905510074852 -173.70483539918433 0 0 0 0 -18.694688638795924 96.250169105415125 0 96.250169105415125 -173.21386216791143 0 0 0 0 52.755354278386221 157.61348704526972 0 157.61348704526972 -164.7189715189711 0 0 0 0 727.05266381234833 -633.1729513517339 0 -633.1729513517339 -1215.3608647838837 0 0 0 0 -598.34228146543319 -1022.547148067355 0 -1022.547148067355 -1171.0572226488202 0 0 0 0 9.5680478257818322 -4.3162764407604755 0 -4.3162764407604755 0.037387080984434107 0 0 0 0 1364.5864975441364 1063.6581333296344 0 1063.6581333296344 791.11807710786525 0 0 0 0 2276.5852865163615 833.2301498924362 0 833.2301498924362 -525.9605832139423 0 0 0 0 370.48771060940635 -72.826626567577478 0 -72.826626567577478 -73.210229220381734 0 0 0 0 73.851747429405805 201.47625576695145 0 201.47625576695145 -80.277825338509501 0 0 0 0 -166.289975683394 -94.001537642445328 0 -94.001537642445328 -162.79186811292288 0 0 0 0 7.9332980234467527 2.0261887872803044 0 2.0261887872803044 -1.360485306354704 0 0 0 0 1363.3784886846552 -364.13516753702788 0 -364.13516753702788 -39.660366002535739 0 0 0 0 309.87776739071705 924.00294953291541 0 924.00294953291541 -477.52460379220952 0 0 0 0 1866.8129425023799 119.54388500158984 0 119.54388500158984 -237.13359590345863 0 0 0 0 1254.8022638467082 18.134224246106896 0 18.134224246106896 -208.43642646987064 0 0 0 0 1123.3154243593453 72.000349350436409 0 72.000349350436409 -277.20501654053442 0 0 0 0 819.83185822876112 -317.19895561545854 0 -317.19895561545854 -23.750632618288364 0 0 0 0 1102.3324803723808 89.452790290173652 0 89.452790290173652 -241.67181491000156 0 0 0 0 1072.3816175677057 67.066300047703407 0 67.066300047703407 -257.71098691162479 0 0 0 0 1110.2062170886493 60.003233847459342 0 60.003233847459342 -287.68453591117577 0 0 0 0 1075.7006770759472 54.350778494681435 0 54.350778494681435 -287.77952868416281 0 0 0 0 -112.34023936642916 -24.099736726028823 0 -24.099736726028823 114.18466486764009 0 0 0 0 11.248649946429396 -2.2835352116281058 0 -2.2835352116281058 -7.6788627638522371 0 0 0 0 115.06863588944543 58.00938325516745 0 58.00938325516745 13.765216740260485 0 0 0 0 14.477342260928708 -66.745345273535804 0 -66.745345273535804 40.887496188513069 0 0 0 0 28.264364776596892 -6.653411401840998 0 -6.653411401840998 -7.6209960463813928 0 0 0 0 480.2414325523132 -283.0096909042777 0 -283.0096909042777 -39.296911684978113 0 0 0 0 978.24765697665862 111.44796445722932 0 111.44796445722932 -252.86073698348173 0 0 0 0 1077.6333286126683 60.450089837573159 0 60.450089837573159 -269.03810515762962 0 0 0 0 848.4241528508137 105.28910123614878 0 105.28910123614878 -207.79536823531635 0 0 0 0 1083.467843143897 120.40103612056441 0 120.40103612056441 -255.26282833968617 0 0 0 0 746.18959049126534 224.88583280324622 0 224.88583280324622 -52.367322701931698 0 0 0 0 573.04985577346088 271.42743019624049 0 271.42743019624049 -44.502482514219082 0 0 0 0 23.400504911720475 -9.7038018297879205 0 -9.7038018297879205 -2.6703968519430141 0 0 0 0 486.64851679152343 7.0377756101061095 0 7.0377756101061095 130.4627246081418 0 0 0 0 1280.9016567053914 309.09601038738583 0 309.09601038738583 -149.83325745909679 0 0 0 0 1631.1073527679182 690.74546315731914 0 690.74546315731914 91.211154149197682 0 0 0 0 728.10949902515858 287.22159615899727 0 287.22159615899727 -21.652879093171578 0 0 0 0 -637.69000567612966 -277.88127689910993 0 -277.88127689910993 -620.91298185335108 0 0 0 0 53.544212344124389 -1551.899433632193 0 -1551.899433632193 -1087.7867781374662 0 0 0 0 -259.4928165145684 -1049.7851151052109 0 -1049.7851151052109 -877.89096020206853 0 0 0 0 2357.5247363235685 79.838480612800595 0 79.838480612800595 -1021.3409019451301 0 0 0 0 -969.71760325058131 -1164.304016613265 0 -1164.304016613265 -1093.906313737556 0 0 0 0 255.91414752227138 955.19785886152022 0 955.19785886152022 798.10182028290001 0 0 0 0 -1000.1402431495953 -541.78955450190369 0 -541.78955450190369 -1212.9050641724725 0 0 0 0 -649.62348489565193 -656.16755332770117 0 -656.16755332770117 -944.94748549239443 0 0 0 0 1797.7271207332815 1560.7441596572789 0 1560.7441596572789 937.70699943247018 0 0 0 0 20.95252575569242 -6.331835583556213 0 -6.331835583556213 0.66369248534073932 0 0 0 0 1758.6614467335603 285.51940366640338 0 285.51940366640338 351.08278690069574 0 0 0 0 371.84483563493995 318.56270265709372 0 318.56270265709372 188.29338122387733 0 0 0 0 930.71279108607268 737.34118076323102 0 737.34118076323102 201.69813027079925 0 0 0 0 824.78566338617384 924.45506781094264 0 924.45506781094264 -69.919950444567803 0 0 0 0 508.49962914337812 952.88912613296998 0 952.88912613296998 899.08291982281662 0 0 0 0 293.23359384211653 475.73201691336635 0 475.73201691336635 103.91088923972529 0 0 0 0 -0.51992669876199216 -52.355885761115132 0 -52.355885761115132 -258.42335824783004 0 0 0 0 378.04861134802195 347.10506327634039 0 347.10506327634039 -202.88456974087603 0 0 0 0 475.57942438677856 277.59013699201569 0 277.59013699201569 293.50389001113399 0 0 0 0 545.92117623497325 110.10965144559032 0 110.10965144559032 307.95489760429882 0 0 0 0 -0.35586335853986384 -0.91837005387995418 0 -0.91837005387995418 1.729593190615617 0 0 0 0 306.48257849537549 -177.08575359221618 0 -177.08575359221618 130.30536101362122 0 0 0 0 648.96803180855932 160.03681584079686 0 160.03681584079686 80.546082801402008 0 0 0 0 1187.2508489949105 656.69195993137419 0 656.69195993137419 90.154976975378304 0 0 0 0 857.80201729296459 513.85944432792076 0 513.85944432792076 406.40590712231278 0 0 0 0 1197.0765763984346 584.30492362323821 0 584.30492362323821 15.356880837214703 0 0 0 0 814.44218806110439 657.61373679582175 0 657.61373679582175 110.0584139826351 0 0 0 0 1110.6219777355691 365.97786210077697 0 365.97786210077697 -80.624213149105344 0 0 0 0 995.27899317529227 307.16512256847909 0 307.16512256847909 129.44320011999662 0 0 0 0 111.66565536515554 687.59204731916452 0 687.59204731916452 -4.3406489715414409 0 0 0 0 263.55087636805547 -424.58154148268477 0 -424.58154148268477 -1023.636000642794 0 0 0 0 9.4177784592268381 2.0906764656500059 0 2.0906764656500059 0.15028205632540903 0 0 0 0 387.3294483050413 -117.44099176304007 0 -117.44099176304007 1.9825726753515482 0 0 0 0 16.960583243337283 -3.8946879319285017 0 -3.8946879319285017 -2.9977189319413675 0 0 0 0 1259.7589998715357 68.514584895815403 0 68.514584895815403 22.564451237472895 0 0 0 0 24.706095646231006 -12.920044625253411 0 -12.920044625253411 -0.6514243775018258 0 0 0 0 26.134853486279553 4.4082617164286546 0 4.4082617164286546 -0.94684515739572817 0 0 0 0 12.649463066016324 -5.95580970685387 0 -5.95580970685387 -6.904045134547232 0 0 0 0 17.42232621754556 6.2159030175981798 0 6.2159030175981798 -17.78101204718223 0 0 0 0 14.880820746095992 -1.1150918935099341 0 -1.1150918935099341 -1.8583180637417351 0 0 0 0 21.059782282056403 1.727448436121449 0 1.727448436121449 -23.604808587918342 0 0 0 0 1691.5182186735983 325.49336468025967 0 325.49336468025967 52.743404802396981 0 0 0 0 1626.9129630769312 439.33547157744579 0 439.33547157744579 -74.943773382507061 0 0 0 0 1156.9071223702413 -245.13125225454905 0 -245.13125225454905 182.81322800851194 0 0 0 0 2871.3928147618426 883.4938045450981 0 883.4938045450981 75.03865344458427 0 0 0 0 10.265911247996854 1.7334481095124801 0 1.7334481095124801 -5.7148515660427535 0 0 0 0 711.3635062011017 402.613318360618 0 402.613318360618 357.40377957522651 0 0 0 0 1255.1941854726756 769.89546568602782 0 769.89546568602782 124.75705823993485 0 0 0 0 1290.2209723046981 523.64151133919768 0 523.64151133919768 -4.1044079953680921 0 0 0 0 13.432647005630997 -4.6617663298930978 0 -4.6617663298930978 -3.6331175440558523 0 0 0 0 598.9216586209368 41.717044064257607 0 41.717044064257607 -861.31092615407897 0 0 0 0 -181.76770201727049 -529.49421441672257 0 -529.49421441672257 -236.17750408778556 0 0 0 0 3.6352248867812591 0.19898740676018178 0 0.19898740676018178 -1.7639904197750127 0 0 0 0 3561.8029286212404 -172.57241585299562 0 -172.57241585299562 -3.8892938842755029 0 0 0 0 5.9206616032907391 0.049605439344425406 0 0.049605439344425406 -2.5792534967968237 0 0 0 0 674.69466351377241 1686.2881846503524 0 1686.2881846503524 1861.5829755739687 0 0 0 0 1765.0233062776024 17.160016736517719 0 17.160016736517719 1310.0510568230929 0 0 0 0 3657.750266104691 758.99390149432111 0 758.99390149432111 -246.18655555742225 0 0 0 0 1670.850423774129 308.03362055479738 0 308.03362055479738 -268.99503079593927 0 0 0 0 1821.805477916103 429.44939515588271 0 429.44939515588271 -280.01413539782334 0 0 0 0 502.09551497855864 -270.38095978863748 0 -270.38095978863748 -105.10528269660608 0 0 0 0 1723.1374527632724 -63.050001328590611 0 -63.050001328590611 -475.18588840554366 0 0 0 0 1132.4460413691122 -162.63807842884762 0 -162.63807842884762 -287.40111633226206 0 0 0 0 654.7851909601336 -178.38405684639002 0 -178.38405684639002 -136.57176977474774 0 0 0 0 1424.0769579047774 -21.683333537626368 0 -21.683333537626368 -289.2682525944756 0 0 0 0 1103.5341096448683 1.9261884291331626 0 1.9261884291331626 253.78110964103598 0 0 0 0 -23.95804048323771 58.892922471273778 0 58.892922471273778 -266.4021435142231 0 0 0 0 137.59365565812914 249.60952248600643 0 249.60952248600643 -794.32500367000944 0 0 0 0 544.70030714096356 -16.129259367977795 0 -16.129259367977795 -325.77126115631108 0 0 0 0 -89.600698162932531 -112.10680623006601 0 -112.10680623006601 -256.74686662721069 0 0 0 0 174.28204218583414 -145.97714089103465 0 -145.97714089103465 -123.75554595860831 0 0 0 0 664.16392357925361 -23.436651847135181 0 -23.436651847135181 -179.64092058187452 0 0 0 0 206.87651906711335 193.30961268392187 0 193.30961268392187 -190.5693406776636 0 0 0 0 573.05885042324371 314.98044462241523 0 314.98044462241523 -122.24108846135459 0 0 0 0 65.777737304331822 233.67324850509374 0 233.67324850509374 -510.28456182595983 0 0 0 0 2.5609066690699933 0.51435291153137541 0 0.51435291153137541 -0.16065239947410248 0 0 0 0 750.23779245604237 1193.615595653072 0 1193.615595653072 13.223573897565529 0 0 0 0 3.7320746971128074 -0.89661083727108348 0 -0.89661083727108348 -0.763997706943079 0 0 0 0 1707.1554504997766 220.60108382785484 0 220.60108382785484 -410.81723355961367 0 0 0 0 778.79959421693638 307.52056043792982 0 307.52056043792982 -193.62875233436716 0 0 0 0 695.20286392551498 183.02590691110754 0 183.02590691110754 -377.9440102387598 0 0 0 0 533.94004997638694 -17.435708561521096 0 -17.435708561521096 -291.38092271499863 0 0 0 0 763.67326751256769 -144.24345805533721 0 -144.24345805533721 -239.48725537211976 0 0 0 0 294.68713632137951 -87.50171810546226 0 -87.50171810546226 -112.73990724867144 0 0 0 0 -295.78012445986678 -55.461579133805571 0 -55.461579133805571 63.769440122739979 0 0 0 0 161.14745876802044 141.71250621780473 0 141.71250621780473 -570.24327539318074 0 0 0 0 490.02031409596384 -174.42282687278384 0 -174.42282687278384 -79.511635683209533 0 0 0 0 1164.2426307496062 -466.3836035991576 0 -466.3836035991576 -345.51685787922179 0 0 0 0 517.09083170465601 -134.6009289366757 0 -134.6009289366757 -180.84477476374286 0 0 0 0 2469.0623877478065 241.87133626349714 0 241.87133626349714 -28.214226301759481 0 0 0 0 2624.6562175059225 184.65027324151015 0 184.65027324151015 -93.01631792328044 0 0 0 0 1250.0872942950373 593.4395351321582 0 593.4395351321582 -39.264731068587935 0 0 0 0 892.61531483848376 -520.56620092594767 0 -520.56620092594767 -271.6160794121688 0 0 0 0 11.984225447994788 -0.14924043871051751 0 -0.14924043871051751 -0.35097261219491749 0 0 0 0 3274.8334070348064 53.036548252664943 0 53.036548252664943 -173.77594834421461 0 0 0 0 3252.4798405628535 21.480484311516193 0 21.480484311516193 -166.23490361944232 0 0 0 0 25.688348767590526 0.45234782795560236 0 0.45234782795560236 -0.71279975716979482 0 0 0 0 -646.04849054521765 36.601496417214548 0 36.601496417214548 393.89461046362612 0 0 0 0 67.957029977595084 -176.85650847410488 0 -176.85650847410488 -308.20444642729399 0 0 0 0 524.4742173810082 368.69468658903952 0 368.69468658903952 212.26139263033519 0 0 0 0 583.04047008072666 78.020277582661492 0 78.020277582661492 40.946260267617618 0 0 0 0 -113.10676819026412 32.659322456873269 0 32.659322456873269 184.63970465920102 0 0 0 0 975.46897368084319 327.44534398182486 0 327.44534398182486 356.49651490422184 0 0 0 0 906.03719781349355 143.40921379874271 0 143.40921379874271 -38.613651107323676 0 0 0 0 678.4550371780424 202.14082121212778 0 202.14082121212778 -5.6961671969129384 0 0 0 0 1445.4452685057477 145.49260386121296 0 145.49260386121296 -249.78109335296676 0 0 0 0 6.2015326865630414 -0.89902107344803994 0 -0.89902107344803994 -4.9920288847575058 0 0 0 0 72.782076240109745 -153.99315629819648 0 -153.99315629819648 337.57545708722137 0 0 0 0 1149.7007663421537 -382.88730532892987 0 -382.88730532892987 -55.962170188236996 0 0 0 0 17.181308836428798 -4.1097328722216844 0 -4.1097328722216844 -6.2836668794025172 0 0 0 0 12.668194436599151 -6.4505923766469095 0 -6.4505923766469095 -7.4934224593725958 0 0 0 0 12.958955361625044 -0.58392488732280867 0 -0.58392488732280867 -1.1335114860098656 0 0 0 0 16.458466890850104 -3.7319095857274078 0 -3.7319095857274078 -12.276651339171622 0 0 0 0 15.676066845955575 -9.8354421188844299 0 -9.8354421188844299 -4.8913247599793976 0 0 0 0 10.17901834868826 -4.023052188438669 0 -4.023052188438669 -3.9231636580334452 0 0 0 0 7.3345280477470567 -0.50073435854997683 0 -0.50073435854997683 0.19556376409231291 0 0 0 0 -314.91676290694159 -104.96472348315001 0 -104.96472348315001 563.58192555767891 0 0 0 0 2439.7687208428106 42.184561518864939 0 42.184561518864939 -457.91500838906268 0 0 0 0 1492.2657420259784 1300.751157464445 0 1300.751157464445 -753.62759348730651 0 0 0 0 3.7494986795993555 -0.42765731052986666 0 -0.42765731052986666 -1.1968331099733973 0 0 0 0 2950.4406021764153 -78.032983507557219 0 -78.032983507557219 -69.874653045328159 0 0 0 0 3512.2916334442998 -250.56866674588946 0 -250.56866674588946 -24.799947097031691 0 0 0 0 2.7787585227004001 -2.2709662139943418 0 -2.2709662139943418 0.80999526620297857 0 0 0 0 23.290271185629649 -18.417808045716953 0 -18.417808045716953 10.343858484115117 0 0 0 0 377.33357939509733 169.91295701049097 0 169.91295701049097 -182.87610035053109 0 0 0 0 4995.2713070974896 1021.00909735717 0 1021.00909735717 -335.76789410527317 0 0 0 0 295.96312602910257 -42.276535852266676 0 -42.276535852266676 -87.921108565431496 0 0 0 0 4.6391282282961157 12.863805903584591 0 12.863805903584591 5.8031808453537916 0 0 0 0 3643.2637569842773 2052.0800821502371 0 2052.0800821502371 603.45090858294122 0 0 0 0 295.97716405057508 -43.546941887152798 0 -43.546941887152798 -125.60156802629535 0 0 0 0 -1.6855575852648599 -0.29062715311619769 0 -0.29062715311619769 1.6375771993963508 0 0 0 0 319.43001656135311 -30.591421737834708 0 -30.591421737834708 -174.72885378687326 0 0 0 0 51.972521271340156 14.759178169848468 0 14.759178169848468 -150.90236300432855 0 0 0 0 13.661107790826975 -26.097298487953736 0 -26.097298487953736 -13.193402595980384 0 0 0 0 146.88108661013393 94.953079877267101 0 94.953079877267101 -176.99473357123134 0 0 0 0 23.758762415691379 -7.7647726498061829 0 -7.7647726498061829 -6.0707183781250116 0 0 0 0 73.291795993754931 118.34693684397462 0 118.34693684397462 -261.49198894502524 0 0 0 0 142.12529220157012 -39.703877615085958 0 -39.703877615085958 -76.440252298144529 0 0 0 0 10.96710101433564 35.364437678081686 0 35.364437678081686 -73.498779281528641 0 0 0 0 113.28515268808405 31.432061864060415 0 31.432061864060415 -88.558678016690465 0 0 0 0 374.08917320309138 -58.554302060441842 0 -58.554302060441842 -165.28238113242696 0 0 0 0 66.952859523525277 19.627321201538919 0 19.627321201538919 -32.115216543694054 0 0 0 0 42.674857096895721 67.884678918584996 0 67.884678918584996 -64.473316130039848 0 0 0 0 102.8530625452986 -59.936098747461529 0 -59.936098747461529 -9.3370637427269685 0 0 0 0 100.91805769620805 197.52061885297417 0 197.52061885297417 -282.27098909484812 0 0 0 0 67.203935861006286 15.591244920522669 0 15.591244920522669 -31.506802445117088 0 0 0 0 100.31687166171355 18.477903031144638 0 18.477903031144638 -0.25973662488286209 0 0 0 0 364.8685633259056 156.98228049990553 0 156.98228049990553 -184.17704112352499 0 0 0 0 702.2599558608299 -226.68946160769156 0 -226.68946160769156 -182.27182630023981 0 0 0 0 -3.728812010476382 -13.000312873406994 0 -13.000312873406994 8.9134303490410964 0 0 0 0 -55.036708838705636 217.37037679004118 0 217.37037679004118 -140.96839603377339 0 0 0 0 17.769165786198851 -0.21114434975248209 0 -0.21114434975248209 -1.4610981634255857 0 0 0 0 -32.164273213247725 -50.256721659100322 0 -50.256721659100322 -48.58540019019415 0 0 0 0 -2.7430365805375914 283.86631075230173 0 283.86631075230173 -241.78637792678728 0 0 0 0 39.16914997692033 12.781569407185957 0 12.781569407185957 -12.312912259711347 0 0 0 0 90.798677717048122 408.50795117275095 0 408.50795117275095 320.64714391754796 0 0 0 0 -101.66853976706079 -316.29561036540582 0 -316.29561036540582 -56.110136235659013 0 0 0 0 518.90638349807705 -150.65435655093665 0 -150.65435655093665 -287.5760851369368 0 0 0 0 701.84571180217608 307.49582124221672 0 307.49582124221672 466.03765586072637 0 0 0 0 4319.9922563602831 443.74878878259045 0 443.74878878259045 -162.15057988015346 0 0 0 0 772.65382654304267 -5.4033836187380118 0 -5.4033836187380118 -329.17539993422895 0 0 0 0 1.4648481003996636 3.8603543943484624 0 3.8603543943484624 1.8230885513416279 0 0 0 0 3708.0001002182034 433.86141563250879 0 433.86141563250879 99.674762419257348 0 0 0 0 4999.4150435975062 -589.52719130663149 0 -589.52719130663149 -485.20425897065809 0 0 0 0 2200.2490644492354 -338.73136803625505 0 -338.73136803625505 660.77337326345094 0 0 0 0 2403.1015436944872 -494.78064121456748 0 -494.78064121456748 497.35742194755278 0 0 0 0 12.300027771944944 -3.507764832791878 0 -3.507764832791878 0.902711935721216 0 0 0 0 3165.764081876051 -1787.0885192996921 0 -1787.0885192996921 231.08269277112041 0 0 0 0 -399.47254661953502 433.07352456074301 0 433.07352456074301 -301.84169563316129 0 0 0 0 4999.081217664916 -1085.9608228162547 0 -1085.9608228162547 579.23334925110953 0 0 0 0 6.4533526814051569 4.8950561514614641 0 4.8950561514614641 0.64452596435143761 0 0 0 0 1269.2544960201412 860.81685460296512 0 860.81685460296512 554.2281889093756 0 0 0 0 19.645818435385102 8.9779793663549476 0 8.9779793663549476 -6.9511292472363788 0 0 0 0 5371.2768325295001 -1698.2438990725477 0 -1698.2438990725477 150.45522468089979 0 0 0 0 90.319782181715709 70.966667555322942 0 70.966667555322942 -148.38166884185793 0 0 0 0 115.31201819043781 152.68032026373146 0 152.68032026373146 -295.01350960004521 0 0 0 0 354.54342667316905 203.56490687408484 0 203.56490687408484 -480.00643376383971 0 0 0 0 365.87335221337867 -268.30357568678846 0 -268.30357568678846 31.063221329393173 0 0 0 0 34.822324945482251 36.306676812294739 0 36.306676812294739 -431.5828319425998 0 0 0 0 -1389.6471382439959 1294.5109102199588 0 1294.5109102199588 -141.18138094817795 0 0 0 0 4941.0020877967781 -1442.8722384356395 0 -1442.8722384356395 -521.0510412851728 0 0 0 0 7.7002711716846548 6.0561616698978931 0 6.0561616698978931 -1.7846609598998753 0 0 0 0 4991.7165210668354 -45.539889733181937 0 -45.539889733181937 -578.41345424271663 0 0 0 0 864.25779302167575 1221.2834801664696 0 1221.2834801664696 -504.50618291816699 0 0 0 0 1133.15341880403 -478.06661314958183 0 -478.06661314958183 -134.90895704672221 0 0 0 0 568.83800085501275 -400.99375168590598 0 -400.99375168590598 87.72639278396656 0 0 0 0 542.14801457237081 -307.73336284266958 0 -307.73336284266958 524.65293072366671 0 0 0 0 845.38946018696788 -60.236255743760012 0 -60.236255743760012 338.33602718877614 0 0 0 0 659.10781180495724 -311.59284428024978 0 -311.59284428024978 266.5193265636413 0 0 0 0 4988.2792044226298 -2032.6317283666456 0 -2032.6317283666456 821.85946015492459 0 0 0 0 1303.8609666771538 -576.39938903336167 0 -576.39938903336167 253.84680827309515 0 0 0 0 4064.8073515558699 -2431.9678923364186 0 -2431.9678923364186 1842.9198234676758 0 0 0 0 4394.6571186432629 -2106.8627828006352 0 -2106.8627828006352 1175.1440044264823 0 0 0 0 4599.2985167765728 -1604.561627400574 0 -1604.561627400574 2202.5129375887209 0 0 0 0 4091.9151935571826 -2316.9402349728034 0 -2316.9402349728034 2292.8160736039822 0 0 0 0 3825.0493138808897 -1838.8534749577464 0 -1838.8534749577464 1080.0243454622043 0 0 0 0 4052.9214596547008 -1733.7359749812863 0 -1733.7359749812863 654.42045454278116 0 0 0 0 3108.8947060619466 -366.29768006744814 0 -366.29768006744814 88.420661690954944 0 0 0 0 2068.3359137868138 -756.14922516904039 0 -756.14922516904039 214.00128510235561 0 0 0 0 3840.5131175975839 -1424.402079182305 0 -1424.402079182305 88.495122026388231 0 0 0 0 4032.0692889565526 -904.21502264640174 0 -904.21502264640174 1077.9360616319877 0 0 0 0 27.330372588916937 -2.1257092623023892 0 -2.1257092623023892 -3.2490301443302574 0 0 0 0 2691.0277904193117 -1689.0012750156409 0 -1689.0012750156409 567.3423499009516 0 0 0 0 4045.2185163265299 -3255.2656843275131 0 -3255.2656843275131 1814.0343282981994 0 0 0 0 2740.2914752616771 -1596.5912973688771 0 -1596.5912973688771 -183.28573545524773 0 0 0 0 11733.644716006551 -5757.4736758423451 0 -5757.4736758423451 2600.3771056336218 0 0 0 0 2.578984627995073 1.6424157045689816 0 1.6424157045689816 -0.3953853805659131 0 0 0 0 5654.053661551935 -1096.5706608483042 0 -1096.5706608483042 209.81167676004884 0 0 0 0 342.2662488363494 -368.4557412618625 0 -368.4557412618625 353.95204452677814 0 0 0 0 280.96439602073951 -263.42185302710902 0 -263.42185302710902 196.36953534232066 0 0 0 0 6.7591728341460744 -2.2043230642665961 0 -2.2043230642665961 3.2128646909570473 0 0 0 0 443.94472906037117 -276.01156438535008 0 -276.01156438535008 4.5629559967637761 0 0 0 0 4977.4580697031024 -2779.8658724155471 0 -2779.8658724155471 868.22767165638379 0 0 0 0 4911.468552853883 -2482.4219864018542 0 -2482.4219864018542 495.28956310747844 0 0 0 0 0.01675974877150388 -6.6526023418676949 0 -6.6526023418676949 10.960574563977048 0 0 0 0 3544.4096836313165 -345.98058370284468 0 -345.98058370284468 1878.3056959602513 0 0 0 0 737.86092427818312 -296.55428620272062 0 -296.55428620272062 -81.331137760447291 0 0 0 0 5463.4266581873908 -2798.0707273272401 0 -2798.0707273272401 296.19770085997698 0 0 0 0 477.70159632093782 -269.63675980378434 0 -269.63675980378434 -100.74476740638329 0 0 0 0 442.96283342801871 -282.06147210760764 0 -282.06147210760764 98.971009903636855 0 0 0 0 558.40864563412833 -151.49243507719939 0 -151.49243507719939 69.988008581076514 0 0 0 0 208.24100401266787 131.03306980201194 0 131.03306980201194 -182.29449932507873 0 0 0 0 408.41280599965785 -301.66926372685793 0 -301.66926372685793 168.82857304456138 0 0 0 0 -1.8990096480230285 2.554820241046869 0 2.554820241046869 1.9898784265629637 0 0 0 0 1973.9698411175486 -1968.1301395415401 0 -1968.1301395415401 781.76545130259797 0 0 0 0 2736.7196511045586 -1302.3609528262978 0 -1302.3609528262978 74.118320351635987 0 0 0 0 4633.7843091549366 -1557.6039116970965 0 -1557.6039116970965 -95.414615241684487 0 0 0 0 1492.3801068719295 -930.59438225149165 0 -930.59438225149165 627.97855148836561 0 0 0 0 593.27457664692702 -1596.8980793850951 0 -1596.8980793850951 1116.6278668837685 0 0 0 0 679.72629405177872 -670.14363966844678 0 -670.14363966844678 562.6317557674538 0 0 0 0 252.94770123498165 -725.56926778319803 0 -725.56926778319803 604.020237709919 0 0 0 0 2350.9282846108854 -2906.3731616648947 0 -2906.3731616648947 1368.7323230940447 0 0 0 0 -1255.1591469721061 -1740.7909765925324 0 -1740.7909765925324 1163.8753396048521 0 0 0 0 6280.4725904280103 -724.81198865161343 0 -724.81198865161343 -103.20749326263225 0 0 0 0 14.764472207030657 -17.990899862091382 0 -17.990899862091382 19.77131203696505 0 0 0 0 -219.3634411723142 -128.14574100775349 0 -128.14574100775349 -862.14364722432583 0 0 0 0 -327.26873493059975 -310.22897393756784 0 -310.22897393756784 346.03885691166033 0 0 0 0 -773.92757232522126 -1018.5623918613369 0 -1018.5623918613369 -686.5892212444287 0 0 0 0 100.64552166475278 -468.36322173066156 0 -468.36322173066156 238.41624746924828 0 0 0 0 42.114890625480939 -40.471419549944429 0 -40.471419549944429 42.919857876815811 0 0 0 0 2887.0968980265261 423.56924268276094 0 423.56924268276094 -405.9691735362706 0 0 0 0 249.05995171470022 43.650230463631715 0 43.650230463631715 816.85650231977627 0 0 0 0 2046.6983466361671 -174.42411953275752 0 -174.42411953275752 145.79169921785791 0 0 0 0 223.44478400855587 -296.99236618893246 0 -296.99236618893246 -285.80232480596896 0 0 0 0 521.32711664865928 -161.74490883573253 0 -161.74490883573253 -290.87638183702802 0 0 0 0 1.5466481803437802 -0.22450278355657716 0 -0.22450278355657716 -1.765289755706096 0 0 0 0 -630.1002917864389 -314.33482175689051 0 -314.33482175689051 -360.60410054237582 0 0 0 0 25.803599861802638 -20.171457963106942 0 -20.171457963106942 6.2875208496467039 0 0 0 0 -230.93484607224673 172.88937122552989 0 172.88937122552989 -307.74003771386197 0 0 0 0 15.266356198608264 -255.01897195281936 0 -255.01897195281936 -852.00023868240714 0 0 0 0 232.74391354240106 87.227459452831226 0 87.227459452831226 -92.252357140985623 0 0 0 0 381.68897485928755 -179.2876328146408 0 -179.2876328146408 -107.1660821130863 0 0 0 0 8.5528257048281375 14.932514665218605 0 14.932514665218605 141.56256053674542 0 0 0 0 663.74136551020274 -462.6888501299261 0 -462.6888501299261 437.31509015263555 0 0 0 0 366.78725472333099 -691.41245586983234 0 -691.41245586983234 830.08967196032677 0 0 0 0 383.40966900055719 -52.624861684407279 0 -52.624861684407279 245.45459932689937 0 0 0 0 570.86403916472045 -356.12417562412907 0 -356.12417562412907 550.67529296383009 0 0 0 0 919.212808376471 -386.96649315771094 0 -386.96649315771094 491.8321362889431 0 0 0 0 869.3991802521341 -490.94131547151835 0 -490.94131547151835 578.06964465338694 0 0 0 0 985.03351940097673 -435.16292050406491 0 -435.16292050406491 417.90900510116398 0 0 0 0 981.86815220057451 -440.09321399928956 0 -440.09321399928956 486.99781618051247 0 0 0 0 1339.3500100215388 -507.81618833092648 0 -507.81618833092648 423.4220467724881 0 0 0 0 1338.3001101707559 -725.66202181862104 0 -725.66202181862104 444.83269954462912 0 0 0 0 1056.1196181331165 -866.8475699258978 0 -866.8475699258978 637.33387738607507 0 0 0 0 3060.20362092293 -1169.7509900316863 0 -1169.7509900316863 127.54918031987711 0 0 0 0 2489.2794696511955 -1015.9095901603491 0 -1015.9095901603491 244.30856966503893 0 0 0 0 2018.0910354650041 -904.25569200854829 0 -904.25569200854829 374.99949407771351 0 0 0 0 1991.6249424749003 -956.17228466524193 0 -956.17228466524193 456.6689573914623 0 0 0 0 2096.1138007076061 -794.86964068632301 0 -794.86964068632301 345.57466859874467 0 0 0 0 2114.9286845641445 -768.96771476853598 0 -768.96771476853598 201.74548304202563 0 0 0 0 -9.0617346848661313 -18.235414922398615 0 -18.235414922398615 11.375917113368118 0 0 0 0 222.94549038241894 -69.345671448415487 0 -69.345671448415487 0.17295981528150151 0 0 0 0 -3.1114976728688895 -24.55362117131164 0 -24.55362117131164 18.587740028790744 0 0 0 0 70.178727130644091 20.882340000389199 0 20.882340000389199 -29.88350251698451 0 0 0 0 2288.2789731520534 -505.49457326440597 0 -505.49457326440597 238.61131228007525 0 0 0 0 2208.1145883740392 -833.24777314844141 0 -833.24777314844141 217.7386224678412 0 0 0 0 2014.8647633476139 -887.59835091165405 0 -887.59835091165405 230.25436397206067 0 0 0 0 1648.0635973401222 -369.71331713216841 0 -369.71331713216841 263.35163650411323 0 0 0 0 1656.4556145686147 -190.44884263239055 0 -190.44884263239055 490.0624991955201 0 0 0 0 924.24401179800043 -308.93081726533455 0 -308.93081726533455 522.312262098161 0 0 0 0 899.65843366799527 -489.65343771880907 0 -489.65343771880907 441.15837931788064 0 0 0 0 1538.2048998405735 -442.06573359093409 0 -442.06573359093409 410.84840640786251 0 0 0 0 1510.3145949370301 -589.64656757774833 0 -589.64656757774833 321.44023112088666 0 0 0 0 738.89565552961722 -483.04649859007827 0 -483.04649859007827 -32.004634356303654 0 0 0 0 746.85965509431117 -415.72344012683288 0 -415.72344012683288 534.84681835957235 0 0 0 0 402.3795750345962 -518.46080321706404 0 -518.46080321706404 678.17807165454042 0 0 0 0 404.65109366929391 -847.76734846942099 0 -847.76734846942099 620.98191585149925 0 0 0 0 728.21554783109968 -927.94202317089662 0 -927.94202317089662 381.07012387221585 0 0 0 0 758.12727836628073 -879.2714399949399 0 -879.2714399949399 -1524.2104978281013 0 0 0 0 3.9405335921552194 -8.419263871393369 0 -8.419263871393369 4.1660606043770105 0 0 0 0 -270.93290269413046 -706.47208692588492 0 -706.47208692588492 -599.7162179355073 0 0 0 0 21.844918579794466 -9.8768249341263186 0 -9.8768249341263186 -312.73755483043681 0 0 0 0 497.65539899230134 -376.82613121517733 0 -376.82613121517733 -36.340333833812778 0 0 0 0 236.18010201442667 147.75751269495504 0 147.75751269495504 241.75947250308172 0 0 0 0 151.69890121199933 107.38568178683441 0 107.38568178683441 326.2937052528988 0 0 0 0 -0.24231476676779096 2.0540499877830882 0 2.0540499877830882 4.0970326776411916 0 0 0 0 562.20631766024235 -271.31524549148958 0 -271.31524549148958 398.94828539648836 0 0 0 0 71.626445085312298 156.64542794790441 0 156.64542794790441 296.33542630210923 0 0 0 0 604.54119127288322 -143.1313772744287 0 -143.1313772744287 311.33656037838455 0 0 0 0 620.34684112531977 -258.14346922401478 0 -258.14346922401478 512.35564128672218 0 0 0 0 653.44359523139792 -228.3442849417321 0 -228.3442849417321 418.20443718069123 0 0 0 0 552.43499904242708 -35.159960064522693 0 -35.159960064522693 79.773694214336956 0 0 0 0 0.093512422838248455 0.9570406157196345 0 0.9570406157196345 6.4362746715872987 0 0 0 0 363.19000218971632 21.865589034331606 0 21.865589034331606 -56.847680752749511 0 0 0 0 349.13105624732998 62.745000666626311 0 62.745000666626311 105.8497705496909 0 0 0 0 505.19640930479363 -122.70276039074542 0 -122.70276039074542 56.934013508984208 0 0 0 0 316.12440965518545 5.8963593902308276 0 5.8963593902308276 -56.340181237214892 0 0 0 0 101.88977116607202 -139.82571372143639 0 -139.82571372143639 41.058036234015162 0 0 0 0 445.38189186814998 -58.067944608563266 0 -58.067944608563266 -104.15384118403381 0 0 0 0 379.31010162965413 -115.43837578083003 0 -115.43837578083003 -139.27026304597894 0 0 0 0 388.0528835337318 -76.376462946633183 0 -76.376462946633183 -239.57825661321021 0 0 0 0 513.06708938470911 -123.33388854148188 0 -123.33388854148188 -194.5146219900289 0 0 0 0 438.24403479962621 -26.384459389768153 0 -26.384459389768153 -212.89545820859712 0 0 0 0 537.52377572946716 -358.79787449761443 0 -358.79787449761443 -497.58015518942659 0 0 0 0 534.4180881391294 -295.17961658985814 0 -295.17961658985814 85.732786319493243 0 0 0 0 662.27556004061626 -436.74875993410751 0 -436.74875993410751 77.804326730855337 0 0 0 0 821.49682282319918 -325.52779587351642 0 -325.52779587351642 -23.2285070608159 0 0 0 0 0.09174670912202032 1.4150987557357553 0 1.4150987557357553 3.0987282614907556 0 0 0 0 706.03648889702163 -268.61601767449429 0 -268.61601767449429 16.600388379314609 0 0 0 0 505.59009035702184 -196.82982014200343 0 -196.82982014200343 -5.3365937109656443 0 0 0 0 523.73242145774748 -95.946507170946575 0 -95.946507170946575 284.338796942724 0 0 0 0 102.70818529436474 -124.90300639608591 0 -124.90300639608591 234.11536022214659 0 0 0 0 159.705633596197 194.25166314177022 0 194.25166314177022 213.93122763753399 0 0 0 0 574.70519961400714 1.0456964233726467 0 1.0456964233726467 53.696256380628938 0 0 0 0 570.62323167870477 -199.7306375555923 0 -199.7306375555923 86.444877433085821 0 0 0 0 1373.1091453064182 249.68959185969538 0 249.68959185969538 -202.16508042600071 0 0 0 0 1800.7552819997727 175.70586317428058 0 175.70586317428058 -190.74881883465301 0 0 0 0 1336.4815785681567 288.45624801099666 0 288.45624801099666 335.63109373149928 0 0 0 0 811.86885734020325 -285.07205064388836 0 -285.07205064388836 374.471745505591 0 0 0 0 811.37571135312464 -277.430403881649 0 -277.430403881649 86.005323368975951 0 0 0 0 461.95159374561626 112.20251206239118 0 112.20251206239118 231.38517699629665 0 0 0 0 1560.2688774011986 160.50398073156066 0 160.50398073156066 172.90658975696715 0 0 0 0 902.35622203092134 817.70502820598858 0 817.70502820598858 731.90314887498425 0 0 0 0 303.51124212740251 146.57424444652952 0 146.57424444652952 89.073706544775632 0 0 0 0 978.12954303678998 357.45802238507167 0 357.45802238507167 82.051229205449999 0 0 0 0 124.78062585172302 -170.82904968022467 0 -170.82904968022467 104.19064973740569 0 0 0 0 678.46261289175163 94.488692333086874 0 94.488692333086874 -260.85173523597456 0 0 0 0 436.09520505982073 375.52026499394196 0 375.52026499394196 313.18302122305033 0 0 0 0 519.85811734041636 307.41328757874999 0 307.41328757874999 323.10430918063867 0 0 0 0 410.28126860499469 430.50539051065971 0 430.50539051065971 571.44360164729005 0 0 0 0 -31.950583958343486 35.180606991992136 0 35.180606991992136 162.45177878038521 0 0 0 0 40.755901673396863 22.751230603648366 0 22.751230603648366 -22.003646416572508 0 0 0 0 12.065999109677833 -9.0199860428175498 0 -9.0199860428175498 33.967647720770827 0 0 0 0 54.551341983016755 -202.73942215177422 0 -202.73942215177422 -759.39073773260043 0 0 0 0 -206.70393119547225 -176.52595939664093 0 -176.52595939664093 -706.57004445349025 0 0 0 0 865.50729958202282 -321.68562011237009 0 -321.68562011237009 -925.4256161629196 0 0 0 0 13.493929226926525 -1.4885396123029153 0 -1.4885396123029153 -5.7922983900214824 0 0 0 0 8.2354399880719882 -4.4756123452681678 0 -4.4756123452681678 4.9664694879638329 0 0 0 0 -436.30868139445192 -969.69521737158107 0 -969.69521737158107 -561.63977547215291 0 0 0 0 292.77947896592377 -176.12683757889454 0 -176.12683757889454 -11.023414303031586 0 0 0 0 109.87298539209587 -309.80675514891334 0 -309.80675514891334 -1083.6297295676841 0 0 0 0 18.155406630532525 -224.57162630167096 0 -224.57162630167096 -95.570323860054827 0 0 0 0 1298.7603508260217 137.0628683306694 0 137.0628683306694 -552.86831674567429 0 0 0 0 998.38810141230806 -221.54051352044388 0 -221.54051352044388 -811.30200470827799 0 0 0 0 929.4667687817273 -177.15875012709421 0 -177.15875012709421 -144.79976257278804 0 0 0 0 1234.515790411373 408.87935674115761 0 408.87935674115761 694.53424957565767 0 0 0 0 2438.6732358220761 -1238.5744894721424 0 -1238.5744894721424 -178.1060207263431 0 0 0 0 185.34310580478632 -1060.4564060943385 0 -1060.4564060943385 -135.16410857423557 0 0 0 0 -1549.2458792280777 -1493.3794259488818 0 -1493.3794259488818 -258.91832681843141 0 0 0 0 1.5787813966727953 -4.0228334875722993 0 -4.0228334875722993 -0.051935537922057406 0 0 0 0 494.7075646953981 -479.58678340625153 0 -479.58678340625153 112.70767359315778 0 0 0 0 1668.4907470956095 -96.151606585226659 0 -96.151606585226659 28.435991094889388 0 0 0 0 292.7880375657636 -505.97090225392782 0 -505.97090225392782 -544.57094786768539 0 0 0 0 -269.46581184530805 -301.99645282091819 0 -301.99645282091819 77.306101049142171 0 0 0 0 305.46714667049764 -1090.0361771080529 0 -1090.0361771080529 -130.90182346657866 0 0 0 0 502.5277087247232 -1164.0865819735602 0 -1164.0865819735602 -552.17100094453565 0 0 0 0 -345.62690052526887 -674.19277164988216 0 -674.19277164988216 -290.25431888810408 0 0 0 0 -71.837475685533718 -679.06399135521133 0 -679.06399135521133 -1060.9524295957635 0 0 0 0 -2.3241121940748997 -21.152915667010401 0 -21.152915667010401 11.636089183884508 0 0 0 0 -153.872442156342 -125.2594360835144 0 -125.2594360835144 -764.3490759293345 0 0 0 0 11.71826586437237 -783.80213334038672 0 -783.80213334038672 -1472.7726856847701 0 0 0 0 6.6540766505629563 -15.93798398183662 0 -15.93798398183662 7.8714872064041224 0 0 0 0 142.89777993253665 -148.71066691803435 0 -148.71066691803435 -46.649819098752459 0 0 0 0 381.41814798186533 -168.33468206921043 0 -168.33468206921043 -103.21257841938404 0 0 0 0 10.391544974402585 -13.4484213310662 0 -13.4484213310662 -7.9655472611353684 0 0 0 0 319.62322681469595 -123.63473398485746 0 -123.63473398485746 -77.342255500393549 0 0 0 0 -36.746595651915413 2.9428453461252957 0 2.9428453461252957 -76.299547288277608 0 0 0 0 -42.728172166149307 -20.192415279738725 0 -20.192415279738725 12.929705834654669 0 0 0 0 1294.4912021402561 665.44195162261622 0 665.44195162261622 50.53699482929369 0 0 0 0 1551.2234666345321 -489.03980262528012 0 -489.03980262528012 -276.34307824124971 0 0 0 0 1336.8750852987432 -559.76573726653714 0 -559.76573726653714 -212.71410006920541 0 0 0 0 1470.7640125157559 -278.43404103935018 0 -278.43404103935018 -486.8672876308774 0 0 0 0 934.16396168364008 -385.81203848449218 0 -385.81203848449218 83.192864516989175 0 0 0 0 1015.0788076641475 -294.48619669158461 0 -294.48619669158461 19.966558609321055 0 0 0 0 1376.9226579422429 -963.36416272720157 0 -963.36416272720157 1072.4535246932028 0 0 0 0 -60.74127226956432 -1129.1381045419214 0 -1129.1381045419214 678.93437017809629 0 0 0 0 11.632972105262667 -9.1174031635855357 0 -9.1174031635855357 -2.8895319702997737 0 0 0 0 2099.6055197913374 710.4010214957525 0 710.4010214957525 -23.653337630040369 0 0 0 0 2835.3985006133298 -333.33806894141844 0 -333.33806894141844 -324.69572169438925 0 0 0 0 949.00427067100827 -645.03080986355326 0 -645.03080986355326 -744.44028478255223 0 0 0 0 1329.1090447620809 -63.814385189396944 0 -63.814385189396944 -525.23425170894006 0 0 0 0 1312.6973857668054 -241.69032553284205 0 -241.69032553284205 -447.56824889822065 0 0 0 0 1271.4169745528779 -50.023690091312801 0 -50.023690091312801 -272.34874347448658 0 0 0 0 1366.717754849702 -261.54287194419476 0 -261.54287194419476 -697.17599025499203 0 0 0 0 1114.1230307369478 -402.05279733336761 0 -402.05279733336761 -497.42058589641647 0 0 0 0 1085.4567999675673 -103.0654211766965 0 -103.0654211766965 -342.59338753963129 0 0 0 0 425.08349897023436 -230.41434968881367 0 -230.41434968881367 124.05542782024077 0 0 0 0 248.61121986072249 28.896434720304114 0 28.896434720304114 -67.411180542933835 0 0 0 0 522.23293137815199 -145.43815880651664 0 -145.43815880651664 89.853625745223326 0 0 0 0 -405.60714963341161 -555.71636347611047 0 -555.71636347611047 -304.27921839246119 0 0 0 0 7.6793007908776403 -16.368817274274988 0 -16.368817274274988 8.6000634970028873 0 0 0 0 -2318.9785905918434 -1320.0876753440384 0 -1320.0876753440384 1879.0315239581951 0 0 0 0 1105.3717471292257 147.83728570829771 0 147.83728570829771 -516.26665283978218 0 0 0 0 1928.4928325540241 -238.03511672076002 0 -238.03511672076002 -39.219772124699375 0 0 0 0 3564.501613066157 -1082.4976483137693 0 -1082.4976483137693 286.04130991972124 0 0 0 0 2.9137084317595807 -6.4414206518700325 0 -6.4414206518700325 8.8482253504607016 0 0 0 0 414.4572365668937 -1903.8850199578801 0 -1903.8850199578801 4009.5960179341628 0 0 0 0 376.81687181200687 -2213.46521113569 0 -2213.46521113569 4400.080685677267 0 0 0 0 -796.5735420733472 561.54190947730604 0 561.54190947730604 -1539.7835918092514 0 0 0 0 -410.67650817899266 27.124295808596116 0 27.124295808596116 -1855.2094674535565 0 0 0 0 -153.49559874898114 127.04201382085512 0 127.04201382085512 -1818.9823678478169 0 0 0 0 28.388656226356431 -3.2516685932786444 0 -3.2516685932786444 -3.9403023201198781 0 0 0 0 1562.5930504518328 -3158.9864425452815 0 -3158.9864425452815 2734.3004413583853 0 0 0 0 2374.1146253591432 87.586366160096986 0 87.586366160096986 626.15106797629687 0 0 0 0 1204.6638029304668 -471.80673776200865 0 -471.80673776200865 358.754991188026 0 0 0 0 1425.5172582587256 -359.79691593256359 0 -359.79691593256359 -31.398154942598012 0 0 0 0 1248.7432917980477 79.57259009410609 0 79.57259009410609 599.76136041607197 0 0 0 0 1342.123154292829 -165.82733134909813 0 -165.82733134909813 682.56155025952921 0 0 0 0 1330.7699826495664 -336.61171716153603 0 -336.61171716153603 259.6564583559848 0 0 0 0 1309.8401440742164 -514.31193257946097 0 -514.31193257946097 1607.4052790637033 0 0 0 0 2499.6540856056672 -981.30727049377674 0 -981.30727049377674 -422.26392635121374 0 0 0 0 1614.8472061668435 28.630614785876787 0 28.630614785876787 -1013.9157294570996 0 0 0 0 1980.2910183370186 -519.42086634385214 0 -519.42086634385214 -574.89178482358511 0 0 0 0 1443.2908100842906 -45.890506886425101 0 -45.890506886425101 -707.3788234903609 0 0 0 0 1464.7828732478811 -477.41233990443106 0 -477.41233990443106 321.45884704675609 0 0 0 0 1495.5592146966956 -352.73396408193776 0 -352.73396408193776 -244.82348173102037 0 0 0 0 1418.7402248875733 -346.01645727977575 0 -346.01645727977575 -245.16997769260519 0 0 0 0 1354.0615189808941 -115.90749230679819 0 -115.90749230679819 -627.98227800332825 0 0 0 0 1464.6543027029838 -224.7791273652947 0 -224.7791273652947 -528.26552955168518 0 0 0 0 1396.9868482676684 -33.970788296941464 0 -33.970788296941464 -717.84201648676844 0 0 0 0 1484.4684912877692 -117.0391214061176 0 -117.0391214061176 -670.95191225027156 0 0 0 0 1649.8961511330781 -248.53328907627883 0 -248.53328907627883 -633.4907820771823 0 0 0 0 1478.7865188033466 -31.7993673650044 0 -31.7993673650044 -807.33568999221825 0 0 0 0 1344.9194365897647 44.361420407404808 0 44.361420407404808 -806.24714762056101 0 0 0 0 1183.2907022342697 70.101505975238979 0 70.101505975238979 -717.43727011741066 0 0 0 0 1352.8680153875466 -56.480710086059162 0 -56.480710086059162 -705.32306934684675 0 0 0 0 1353.9653366014827 31.097976869144986 0 31.097976869144986 -783.66306999206608 0 0 0 0 1150.5093580321409 37.799300355538435 0 37.799300355538435 -731.66097870872545 0 0 0 0 1155.9128201750573 65.801725253776567 0 65.801725253776567 -783.22031358862296 0 0 0 0 1256.2257956001267 71.262069532593159 0 71.262069532593159 -782.87112342970795 0 0 0 0 1140.8939567349153 -0.25091556017650873 0 -0.25091556017650873 -750.45783629716971 0 0 0 0 1273.1842154722035 18.700970089485054 0 18.700970089485054 -738.79598390331375 0 0 0 0 1345.0859242051083 46.801858564345821 0 46.801858564345821 -777.21712344657681 0 0 0 0 1361.3433204362809 29.763426191526378 0 29.763426191526378 -743.56389371233126 0 0 0 0 1342.9830038410146 55.018422184080919 0 55.018422184080919 -714.74094426893134 0 0 0 0 1362.9257831900904 4.0638657611707458 0 4.0638657611707458 -654.92229728479469 0 0 0 0 1291.290830157639 44.823537827613109 0 44.823537827613109 -677.66137943431568 0 0 0 0 1326.7299994108289 -20.995342148532188 0 -20.995342148532188 -671.87708527868017 0 0 0 0 1413.7911060248734 -91.729977349790715 0 -91.729977349790715 -621.87669652696059 0 0 0 0 1385.3247821365003 -12.826344239328591 0 -12.826344239328591 -722.2344987406359 0 0 0 0 1358.3782065990381 -7.683152272426014 0 -7.683152272426014 -699.35665482252625 0 0 0 0 348.38922764424933 133.0926299065377 0 133.0926299065377 -610.38752286384988 0 0 0 0 543.49998537375359 169.71142032283115 0 169.71142032283115 -663.57450094843443 0 0 0 0 187.5406304832286 159.69159050603139 0 159.69159050603139 -627.93828516137 0 0 0 0 198.10951030248543 135.01619640023819 0 135.01619640023819 -607.80210335853189 0 0 0 0 327.45469576100004 73.836873675563766 0 73.836873675563766 -682.72999986868308 0 0 0 0 192.05894432075729 106.41118159352118 0 106.41118159352118 -736.07846665557008 0 0 0 0 484.3817773318151 110.65254951209317 0 110.65254951209317 -655.93978465139617 0 0 0 0 536.51108739001211 33.72983951178503 0 33.72983951178503 -661.8405354617189 0 0 0 0 948.91449015325634 13.314050800989207 0 13.314050800989207 -742.79578886669151 0 0 0 0 1013.0699197931244 103.85155902477709 0 103.85155902477709 -732.73907082372534 0 0 0 0 946.91751177780679 109.60236714416715 0 109.60236714416715 -721.997348304154 0 0 0 0 949.99531532506808 112.48131487568025 0 112.48131487568025 -760.45640974684466 0 0 0 0 708.90695520809095 116.11927355878561 0 116.11927355878561 -671.7311993476942 0 0 0 0 698.56694429264462 75.632014459524726 0 75.632014459524726 -727.31595006463613 0 0 0 0 707.12652792244626 214.15170979207323 0 214.15170979207323 -722.45571505467888 0 0 0 0 722.15379385622509 134.62983603736939 0 134.62983603736939 -673.49064918716795 0 0 0 0 1208.5233585704409 105.25092000526092 0 105.25092000526092 -805.76249179422484 0 0 0 0 1104.2011140803224 126.132545663786 0 126.132545663786 -769.98236946510497 0 0 0 0 928.87895635922905 222.15369210113295 0 222.15369210113295 -758.13690549560306 0 0 0 0 314.43302581289026 138.60918274298092 0 138.60918274298092 -619.22609151804318 0 0 0 0 460.83152401205734 256.13299195467334 0 256.13299195467334 -658.58215771707773 0 0 0 0 534.26508589892182 199.98687482913374 0 199.98687482913374 -677.11321401474743 0 0 0 0 319.20027595499414 205.11981912884949 0 205.11981912884949 -624.65655992080792 0 0 0 0 451.06508611585014 107.66465297733885 0 107.66465297733885 -638.84419581502243 0 0 0 0 185.73364314422361 80.85514819181526 0 80.85514819181526 -601.51696445549533 0 0 0 0 142.89429840509547 144.89736994973828 0 144.89736994973828 -612.02366794792943 0 0 0 0 186.38038498930109 206.73047587235669 0 206.73047587235669 -606.08145124223847 0 0 0 0 22.600520572974347 208.25574979200883 0 208.25574979200883 -635.40685330936685 0 0 0 0 64.043666451150784 137.40770589261138 0 137.40770589261138 -685.39153976024318 0 0 0 0 171.94479488887009 228.21735948391688 0 228.21735948391688 -651.08449481556454 0 0 0 0 336.01002388741472 306.78201350861536 0 306.78201350861536 -660.8761097965471 0 0 0 0 115.50206650688779 317.26571906805293 0 317.26571906805293 -817.48306819203481 0 0 0 0 309.80339531740174 256.05111043231955 0 256.05111043231955 -965.04993080807981 0 0 0 0 471.59406181122176 230.19834445756715 0 230.19834445756715 -796.37578725022831 0 0 0 0 82.124018127142335 162.39643844712373 0 162.39643844712373 -905.3855170870338 0 0 0 0 36.401750776858535 157.57318306630441 0 157.57318306630441 -787.96967165927617 0 0 0 0 167.66000030517171 254.08699074177002 0 254.08699074177002 -749.74715452318196 0 0 0 0 1238.9295935303235 199.2941487960934 0 199.2941487960934 -800.6133219239091 0 0 0 0 1176.8183045731857 84.739228561421442 0 84.739228561421442 -752.93344360389028 0 0 0 0 718.16798510740045 363.82228106943967 0 363.82228106943967 -784.84940691754309 0 0 0 0 1219.5359673256753 273.70417475724844 0 273.70417475724844 -847.00943393364605 0 0 0 0 287.71433987520868 465.40496352710215 0 465.40496352710215 -792.78705608804057 0 0 0 0 555.2103781927035 541.0354750318138 0 541.0354750318138 -804.70930358314217 0 0 0 0 273.8470119406702 1167.8980308671617 0 1167.8980308671617 -2181.6827817582034 0 0 0 0 827.67106202665309 894.54534550920926 0 894.54534550920926 -2161.7960834425357 0 0 0 0 1701.238794624187 268.61974587052919 0 268.61974587052919 -1721.6086592463071 0 0 0 0 -113.8265505010495 230.67058172012912 0 230.67058172012912 -925.20423620262955 0 0 0 0 67.078562014081399 347.41368443101283 0 347.41368443101283 -1154.2161033396951 0 0 0 0 -158.18566645964165 245.06388441375748 0 245.06388441375748 -1192.839364789661 0 0 0 0 -61.206419294525404 111.75338597943801 0 111.75338597943801 -1101.5901998405971 0 0 0 0 58.048856488079764 299.67201508845756 0 299.67201508845756 -971.44797904118514 0 0 0 0 390.14194160263287 187.66357727262766 0 187.66357727262766 -1274.1237582135363 0 0 0 0 225.69536005442205 436.68817302980551 0 436.68817302980551 -1604.0262081720903 0 0 0 0 -227.55265939916717 651.98602630351706 0 651.98602630351706 -1652.282799292665 0 0 0 0 -558.18682696027099 237.45454848000099 0 237.45454848000099 -1398.5200046126556 0 0 0 0 -136.13023546838667 227.33119635701951 0 227.33119635701951 -1210.1055681640355 0 0 0 0 -143.99847026405041 319.02701253548548 0 319.02701253548548 -1436.0919592878963 0 0 0 0 -290.93904478034528 107.97883859500325 0 107.97883859500325 -1302.8398170734981 0 0 0 0 -80.235876556951553 136.46558694691703 0 136.46558694691703 -1629.9185404196651 0 0 0 0 -15.546822664007777 154.8242471608155 0 154.8242471608155 -1456.2377309126496 0 0 0 0 -75.843615827267058 300.97755322675039 0 300.97755322675039 -1571.184569547966 0 0 0 0 -108.25496820459375 203.59708008850521 0 203.59708008850521 -1349.7930760552481 0 0 0 0 -74.339337115699891 85.210903160303133 0 85.210903160303133 -1336.8344288924743 0 0 0 0 -26.294140612153569 238.96644428137643 0 238.96644428137643 -1335.7169672824311 0 0 0 0 -65.353271849078737 139.59268543824828 0 139.59268543824828 -1128.3782618669557 0 0 0 0 -51.8873924605723 71.993609805603228 0 71.993609805603228 -918.23471292352406 0 0 0 0 -36.676662186830072 74.680952469996555 0 74.680952469996555 -1092.5267306800697 0 0 0 0 -133.13574838286149 159.6471582307895 0 159.6471582307895 -1096.5450862141024 0 0 0 0 160.31286039033148 154.90519615650737 0 154.90519615650737 -1159.5584784963849 0 0 0 0 97.693438213056652 178.16981595365996 0 178.16981595365996 -1360.8650980762072 0 0 0 0 98.24559116839373 264.77339377015733 0 264.77339377015733 -1140.1299570928677 0 0 0 0 22.579423830087762 211.4955984290018 0 211.4955984290018 -1090.0468219440208 0 0 0 0 42.602285513527022 123.86030350456326 0 123.86030350456326 -1024.1261717758462 0 0 0 0 158.53928004752015 153.12535867187512 0 153.12535867187512 -930.95784454114255 0 0 0 0 134.53287861825083 232.68673928517455 0 232.68673928517455 -927.13259585515698 0 0 0 0 -17.391007184650789 172.63862055149741 0 172.63862055149741 -814.01003146515905 0 0 0 0 -16.637714246375253 136.79039587439092 0 136.79039587439092 -729.51507558433605 0 0 0 0 82.535704903712031 237.41307282811249 0 237.41307282811249 -636.09224526672097 0 0 0 0 -60.375155739835463 81.510940506089355 0 81.510940506089355 -807.46677689102762 0 0 0 0 -17.514263007906266 225.09447994904804 0 225.09447994904804 -779.2139651956677 0 0 0 0 -76.434230008424493 182.66345894695314 0 182.66345894695314 -874.50786989006701 0 0 0 0 -47.743849320191657 128.29442275791098 0 128.29442275791098 -638.19568308097553 0 0 0 0 -85.831464298040373 114.34987024335351 0 114.34987024335351 -639.38777861420931 0 0 0 0 -54.526741908914119 176.24243345860259 0 176.24243345860259 -704.22941829946831 0 0 0 0 33.449315253383247 107.26729118008552 0 107.26729118008552 -666.44326695492055 0 0 0 0 26.309208017846686 108.24766739445113 0 108.24766739445113 -562.50162302188801 0 0 0 0 17.564788802730618 122.80648701546079 0 122.80648701546079 -583.82294991862364 0 0 0 0 70.420294327224838 160.62178531382233 0 160.62178531382233 -580.44354175563558 0 0 0 0 -67.447939907986438 115.57903538273058 0 115.57903538273058 -567.56830907670246 0 0 0 0 -64.347713577997638 131.36045397856378 0 131.36045397856378 -579.56828234440036 0 0 0 0 -53.413490999402711 142.97730407403424 0 142.97730407403424 -559.40015523160218 0 0 0 0 -38.624136200320208 135.57677522891163 0 135.57677522891163 -573.2476243664878 0 0 0 0 -15.223883920691151 165.36099390168192 0 165.36099390168192 -600.87168600633413 0 0 0 0 -82.405420361144934 99.158512110599077 0 99.158512110599077 -549.90690889261282 0 0 0 0 -65.976064054120798 120.08220660529787 0 120.08220660529787 -614.507767758927 0 0 0 0 -81.779104857698258 105.83988211890073 0 105.83988211890073 -617.40321754591423 0 0 0 0 -114.15236056118738 102.39589523311133 0 102.39589523311133 -591.51295376535381 0 0 0 0 -51.266313070096658 141.74991938465246 0 141.74991938465246 -758.30057693717754 0 0 0 0 -66.392956175492145 172.85572851848701 0 172.85572851848701 -857.17100852104249 0 0 0 0 -86.121589997026604 114.1107277045212 0 114.1107277045212 -768.68256193244952 0 0 0 0 -47.226449447844061 175.86358675101019 0 175.86358675101019 -767.84818658922222 0 0 0 0 36.679594224115135 151.00769102702998 0 151.00769102702998 -718.54347970383969 0 0 0 0 -101.79759926340193 201.38236912065622 0 201.38236912065622 -651.57347384012974 0 0 0 0 39.553120862619835 96.350235419688943 0 96.350235419688943 -601.93302407051306 0 0 0 0 36.479358078860969 99.613804923122188 0 99.613804923122188 -619.89184763180856 0 0 0 0 -42.895148526440607 159.96863575975931 0 159.96863575975931 -773.55620367457186 0 0 0 0 -58.341856504237512 135.0874564108608 0 135.0874564108608 -601.65001334389126 0 0 0 0 4705.5633897362277 -1228.3397359024784 0 -1228.3397359024784 1257.1721640027499 0 0 0 0 1712.2202413164196 1079.1236532641892 0 1079.1236532641892 -1196.1537645791104 0 0 0 0 305.66399675719731 1180.8798801968655 0 1180.8798801968655 -1199.089218017165 0 0 0 0 19.975367678130681 2.46770592413597 0 2.46770592413597 -2.7912907206063799 0 0 0 0 4315.8274005415442 -1228.7351953023017 0 -1228.7351953023017 397.04334334971281 0 0 0 0 3722.1152581206261 -1766.1604765422994 0 -1766.1604765422994 1011.765063034165 0 0 0 0 -643.44911273455364 379.94229786384312 0 379.94229786384312 -651.70658250051292 0 0 0 0 -308.11440621701331 16.806444797920449 0 16.806444797920449 -947.07106440116149 0 0 0 0 -218.78714898492035 459.41411383477384 0 459.41411383477384 -668.76844855424133 0 0 0 0 -69.889887425786583 53.509730715057231 0 53.509730715057231 -776.92814045320574 0 0 0 0 394.64095021266257 387.80312355212391 0 387.80312355212391 -681.25745193586499 0 0 0 0 -88.677344761075801 155.61460034117135 0 155.61460034117135 -478.49873795013264 0 0 0 0 154.47241371317068 282.12952280191621 0 282.12952280191621 -508.08515296536348 0 0 0 0 328.04898211710679 195.78989105577648 0 195.78989105577648 -566.09018097829357 0 0 0 0 514.8969365216326 498.29846351521883 0 498.29846351521883 -385.33870068281703 0 0 0 0 564.45231629161572 183.28076742684743 0 183.28076742684743 -505.91572721058128 0 0 0 0 1199.2648354386602 -626.38681757163204 0 -626.38681757163204 -519.98505742817179 0 0 0 0 1521.7743547789505 312.88420257981295 0 312.88420257981295 -861.06289629901949 0 0 0 0 625.01095678603451 49.416261598352321 0 49.416261598352321 -853.21477383749698 0 0 0 0 262.717530006179 315.17986290565796 0 315.17986290565796 -526.977767915394 0 0 0 0 152.10833744388947 175.9220748716757 0 175.9220748716757 -680.38536931486124 0 0 0 0 660.25036839600943 353.47288958050967 0 353.47288958050967 -785.64762713861819 0 0 0 0 356.52575486413843 160.44327296585197 0 160.44327296585197 -894.64219113202398 0 0 0 0 307.93991014323547 301.82142514050793 0 301.82142514050793 -784.14863835867254 0 0 0 0 273.00921815316542 268.04899701502563 0 268.04899701502563 -1049.6967009266632 0 0 0 0 301.48799263265391 139.28932760938824 0 139.28932760938824 -1076.7771904887977 0 0 0 0 443.14946483631502 263.99450535134019 0 263.99450535134019 -967.40679039045654 0 0 0 0 338.62627863025409 60.495201960778559 0 60.495201960778559 -1105.5939850256398 0 0 0 0 381.59429900678515 222.46617410165618 0 222.46617410165618 -1175.9082768938702 0 0 0 0 829.08472972088566 -294.84781902608194 0 -294.84781902608194 -1026.4618644902134 0 0 0 0 548.3190596860004 57.045362334302581 0 57.045362334302581 -1114.7050996828966 0 0 0 0 642.73234732839046 179.42348397988326 0 179.42348397988326 -956.08181752612245 0 0 0 0 452.78091011899232 -148.19724345496564 0 -148.19724345496564 -1260.0776819694156 0 0 0 0 440.3269417702968 106.78848716966212 0 106.78848716966212 -1244.0803937744931 0 0 0 0 611.67572928903974 -921.35046444199088 0 -921.35046444199088 -2759.3564476054098 0 0 0 0 300.39353012944775 -68.817878741214713 0 -68.817878741214713 -1458.6739030042204 0 0 0 0 196.58140550420649 -1425.5974089868646 0 -1425.5974089868646 -2239.4679570739704 0 0 0 0 106.95703798106078 -23.271177754683869 0 -23.271177754683869 -2.1576886486878744 0 0 0 0 19.578134360660897 -930.10162895756935 0 -930.10162895756935 -783.90163780358125 0 0 0 0 32.328020403627306 -540.6601520740478 0 -540.6601520740478 -1258.5929761580264 0 0 0 0 -102.13667969960079 -1065.1835532366395 0 -1065.1835532366395 -807.34049261209066 0 0 0 0 -463.58814021537546 90.551643665369738 0 90.551643665369738 -1811.7553269838418 0 0 0 0 13.539075519887518 -18.853549587051837 0 -18.853549587051837 -3.0497763339095343 0 0 0 0 4.4576283438757685 12.364580774092499 0 12.364580774092499 -7.1533208910044372 0 0 0 0 77.945937786542345 0.063360140545228205 0 0.063360140545228205 -1315.4461120815772 0 0 0 0 37.838586777639648 176.48062077260488 0 176.48062077260488 -1277.0570388133519 0 0 0 0 241.74996337986522 219.46637376497199 0 219.46637376497199 -1269.2612016780076 0 0 0 0 294.83596617894364 1.8234836300716779 0 1.8234836300716779 -1318.7438382837415 0 0 0 0 232.46128339234565 161.44137286490513 0 161.44137286490513 -1197.1015315022241 0 0 0 0 125.71492800986744 257.34230133177891 0 257.34230133177891 -1298.6975468401292 0 0 0 0 50.855158877035137 232.42290131134928 0 232.42290131134928 -1267.408693061574 0 0 0 0 226.15682600604487 296.14924635946227 0 296.14924635946227 -1269.3214022659324 0 0 0 0 -109.45036928031186 431.58484642549183 0 431.58484642549183 -1336.4858092203626 0 0 0 0 69.121226944976627 -3.6434283569881174 0 -3.6434283569881174 -10.961163198403806 0 0 0 0 76.741600176057545 380.21759000663042 0 380.21759000663042 -2016.2476795994944 0 0 0 0 1651.7761560430226 -1565.8656011096473 0 -1565.8656011096473 1563.2830416938359 0 0 0 0 -112.70815585798118 208.40337729581006 0 208.40337729581006 -1454.186503239921 0 0 0 0 25.286869248935545 506.0205045987791 0 506.0205045987791 -1804.2875598952833 0 0 0 0 632.03525247806101 -1051.879728388787 0 -1051.879728388787 1321.3892814553237 0 0 0 0 1863.1800655987245 -1357.9150108941913 0 -1357.9150108941913 196.71377313968878 0 0 0 0 453.26084821038603 -481.23563958520026 0 -481.23563958520026 -2.9000672588281304 0 0 0 0 95.642089303109003 -7.7933891800838211 0 -7.7933891800838211 -11.881599612371732 0 0 0 0 548.24871979089221 -308.25976375091523 0 -308.25976375091523 250.16407357204662 0 0 0 0 987.63221353574772 -1125.8079961844996 0 -1125.8079961844996 -52.180210664504557 0 0 0 0 578.27910062971205 -1011.5173579746452 0 -1011.5173579746452 408.80834454311525 0 0 0 0 960.26468480217591 -1038.6661783923282 0 -1038.6661783923282 99.559058120627924 0 0 0 0 1111.4412416227133 -848.03041704125508 0 -848.03041704125508 337.83063000717084 0 0 0 0 317.58519515345688 -967.77363834608832 0 -967.77363834608832 1445.0194400570322 0 0 0 0 94.768563811743661 -399.90131622704484 0 -399.90131622704484 222.01124036779947 0 0 0 0 752.41119437961243 -1366.071394857807 0 -1366.071394857807 324.21520713245627 0 0 0 0 833.41119138369686 -1072.1641911103011 0 -1072.1641911103011 26.393249332742926 0 0 0 0 228.3752683243365 -764.60419173282116 0 -764.60419173282116 592.08399740078471 0 0 0 0 575.41556972053513 -555.41527079798925 0 -555.41527079798925 573.75077220543926 0 0 0 0 95.048197094798525 -471.40400867427513 0 -471.40400867427513 621.67386431164778 0 0 0 0 247.37989920923246 -913.19728688386374 0 -913.19728688386374 181.11749902693373 0 0 0 0 -87.285616503297206 -943.30941134398824 0 -943.30941134398824 178.4981462008418 0 0 0 0 -127.2170931267101 -891.99668570385711 0 -891.99668570385711 407.36020271940652 0 0 0 0 57.188059171981877 -629.13020433843121 0 -629.13020433843121 -325.77218013230231 0 0 0 0 -85.309882569138153 -1074.2516334376137 0 -1074.2516334376137 -639.16668442758601 0 0 0 0 73.310305995008093 -633.95072739648003 0 -633.95072739648003 -577.53793468273489 0 0 0 0 518.7129924011042 -722.54299522996814 0 -722.54299522996814 -623.78295240601437 0 0 0 0 -11.791835164040094 -1201.3357092723277 0 -1201.3357092723277 75.390708759594418 0 0 0 0 2160.4302202438266 -1368.8963598909259 0 -1368.8963598909259 743.33679506861381 0 0 0 0 1857.2515032907031 -557.2069938109064 0 -557.2069938109064 -1165.1047945461987 0 0 0 0 313.74580029336357 -742.93355130557302 0 -742.93355130557302 -306.37463747189895 0 0 0 0 -0.61953264414478326 -423.4501557990211 0 -423.4501557990211 952.89616184354963 0 0 0 0 -128.66615599159559 -507.99705863481881 0 -507.99705863481881 -421.2388617646011 0 0 0 0 558.35656086042616 -170.53436065628009 0 -170.53436065628009 720.00173919356257 0 0 0 0 1619.5894529186044 48.098833490767902 0 48.098833490767902 540.93727951783967 0 0 0 0 4675.7807361737359 1292.4213999034373 0 1292.4213999034373 1054.162792619034 0 0 0 0 1634.2367758354576 -200.25087810283512 0 -200.25087810283512 618.75374940632719 0 0 0 0 2964.0461692949029 22.944504978224359 0 22.944504978224359 329.45553316209043 0 0 0 0 2718.4973540550882 -1202.2130735717651 0 -1202.2130735717651 179.3154500454275 0 0 0 0 1589.793132159044 -1056.8037495618155 0 -1056.8037495618155 190.93557674409203 0 0 0 0 6.5541482962769777 -2.7013878981708714 0 -2.7013878981708714 -0.86979355306330319 0 0 0 0 887.88670804066351 -1496.816140741762 0 -1496.816140741762 1833.5989960671614 0 0 0 0 19.979217556441398 3.8370022354906084 0 3.8370022354906084 -1.7226197567266954 0 0 0 0 -296.15963011401618 318.70155258378691 0 318.70155258378691 104.30392517851942 0 0 0 0 3702.9630244908549 -1770.9545980103803 0 -1770.9545980103803 431.44548299435428 0 0 0 0 17.496795813931385 -33.78859116122203 0 -33.78859116122203 -155.53426414410569 0 0 0 0 201.11702969181351 635.2505457573734 0 635.2505457573734 -1790.9646282179829 0 0 0 0 114.79201107421977 125.27326840610112 0 125.27326840610112 -370.76768964775511 0 0 0 0 15.399994487089202 16.395830085373184 0 16.395830085373184 2.6304652400106967 0 0 0 0 50.469804276990978 6.4425967213888669 0 6.4425967213888669 -6.2410674895783167 0 0 0 0 320.15885958887338 -63.161173592421392 0 -63.161173592421392 -1333.7968457201287 0 0 0 0 -31.364430696181444 939.17515927943202 0 939.17515927943202 -715.77489232350399 0 0 0 0 986.6498828852491 1406.2202608605353 0 1406.2202608605353 -841.72878059983088 0 0 0 0 2897.7936639910986 1983.121001106603 0 1983.121001106603 -825.72401434132598 0 0 0 0 333.55156468464702 1772.0441172075057 0 1772.0441172075057 533.77795563244354 0 0 0 0 1053.1856250779674 1203.0343598124218 0 1203.0343598124218 -1011.2485405077841 0 0 0 0 104.43078102268191 811.80055437952933 0 811.80055437952933 -1014.169313619356 0 0 0 0 740.95881597678817 1364.9572094509526 0 1364.9572094509526 -880.38102709229531 0 0 0 0 1368.8632007206688 1373.9492979583215 0 1373.9492979583215 -1061.0943417060441 0 0 0 0 1444.1742408126665 -1214.8303641267391 0 -1214.8303641267391 -453.41831010255601 0 0 0 0 37.72963366502907 -4.3126542698207473 0 -4.3126542698207473 -0.97211163310566018 0 0 0 0 1819.1010711532144 1608.0421536939484 0 1608.0421536939484 -877.19164799358043 0 0 0 0 203.73918231336575 -393.05538698983196 0 -393.05538698983196 -1208.280611393169 0 0 0 0 229.82178383118298 -531.16863995653614 0 -531.16863995653614 -1356.5025646671488 0 0 0 0 90.792119737692673 -18.166136192331361 0 -18.166136192331361 -0.5971012076438873 0 0 0 0 41.143628826153872 303.50732946600237 0 303.50732946600237 -1500.7093992556524 0 0 0 0 1207.045211615814 -876.37757142413102 0 -876.37757142413102 -3036.1516272754097 0 0 0 0 -449.13531880157825 -1327.7441362316495 0 -1327.7441362316495 -1012.6870085249998 0 0 0 0 212.47080727471621 10.243528720792938 0 10.243528720792938 -1356.047768255969 0 0 0 0 -31.446147728238429 -321.64120081245062 0 -321.64120081245062 -1190.797024898211 0 0 0 0 343.77793418557849 -88.627540458280009 0 -88.627540458280009 -1099.8400639479287 0 0 0 0 533.06235332487267 -358.54257666210196 0 -358.54257666210196 -1188.6123014426712 0 0 0 0 206.74254655147524 -490.95704539903591 0 -490.95704539903591 -882.54769093308687 0 0 0 0 77.763564170898462 -1015.5817042010788 0 -1015.5817042010788 -732.06455777057681 0 0 0 0 783.75322209337901 -640.34594370795912 0 -640.34594370795912 -850.63989481550641 0 0 0 0 633.51023619649641 -229.40408185149226 0 -229.40408185149226 -763.27095579652087 0 0 0 0 4032.1890103565966 -784.53628575998437 0 -784.53628575998437 -1222.6580566343619 0 0 0 0 -0.40901469618106034 -6.0985755981804743 0 -6.0985755981804743 3.6793859973540179 0 0 0 0 3906.7720640761654 -664.42965971215028 0 -664.42965971215028 -114.4661436431943 0 0 0 0 -475.18132356968272 -1032.4471682799349 0 -1032.4471682799349 -661.08021324331185 0 0 0 0 1336.1744131949235 586.86133476399755 0 586.86133476399755 -56.989976168088106 0 0 0 0 -221.29396303818794 -954.70085726614957 0 -954.70085726614957 -1422.0737325522578 0 0 0 0 3.4094848940276279 -1.8876145433796836 0 -1.8876145433796836 -2.8366972009137115 0 0 0 0 512.81342830724316 -235.02992018182886 0 -235.02992018182886 -469.06353262577159 0 0 0 0 -1274.5785415885839 -326.01081867274252 0 -326.01081867274252 -365.96791380560171 0 0 0 0 4113.9505552455375 -320.01336607678331 0 -320.01336607678331 -720.04691981457199 0 0 0 0 392.61561857406559 -506.70976540465881 0 -506.70976540465881 -1125.0533710313366 0 0 0 0 637.26462811398233 -868.41669357982073 0 -868.41669357982073 -632.3347024269674 0 0 0 0 -896.66675370612938 -1743.9933882503396 0 -1743.9933882503396 -1247.6921404800082 0 0 0 0 226.42434387126559 -598.85302767920496 0 -598.85302767920496 -712.95016006100172 0 0 0 0 -473.37690742874111 -803.90924556664095 0 -803.90924556664095 -509.5396071245932 0 0 0 0 752.72224351992918 -168.81809486671932 0 -168.81809486671932 -524.76449695623342 0 0 0 0 122.52114158349832 -631.36687928533081 0 -631.36687928533081 -362.05450386544669 0 0 0 0 219.60962053104595 -601.45723452485095 0 -601.45723452485095 -582.2763558616773 0 0 0 0 1064.54756088453 -611.00989606373764 0 -611.00989606373764 -691.80676470061894 0 0 0 0 48.049135852616018 -429.54221499967741 0 -429.54221499967741 -657.18181845334311 0 0 0 0 -118.2321539799741 -726.29251663987679 0 -726.29251663987679 -425.74797336553183 0 0 0 0 2721.8322066729888 798.07213417370599 0 798.07213417370599 -725.15982584158905 0 0 0 0 649.49773421797727 80.311842176426921 0 80.311842176426921 -848.69611317938086 0 0 0 0 -631.03777123668624 1536.369940373299 0 1536.369940373299 514.31434831117849 0 0 0 0 2448.8502890772143 -734.31284838626163 0 -734.31284838626163 -861.84765554408659 0 0 0 0 4.6248665583569277 4.8160919436796519 0 4.8160919436796519 -3.6086802487066372 0 0 0 0 1573.0193308092203 -53.872897074379694 0 -53.872897074379694 122.24357957324139 0 0 0 0 3.7159169189406107 4.1114262650804818 0 4.1114262650804818 -0.77975542970349354 0 0 0 0 1309.3380080940897 -356.21514956823324 0 -356.21514956823324 230.73139837507688 0 0 0 0 960.03221682706499 -258.44140291629424 0 -258.44140291629424 -769.27081715080021 0 0 0 0 9.1461947391340601 9.772791147404277 0 9.772791147404277 -6.9772983807275795 0 0 0 0 1075.9764463807778 -174.87169304864707 0 -174.87169304864707 -712.92936361855891 0 0 0 0 1243.4888591944291 340.2779039990325 0 340.2779039990325 -298.68499831010308 0 0 0 0 1659.8459872694148 -541.80216139458457 0 -541.80216139458457 -725.69802201693119 0 0 0 0 1141.0754717260861 613.35594052036447 0 613.35594052036447 -596.67772408981023 0 0 0 0 2.5613825352590531 1.6494582696725502 0 1.6494582696725502 -0.32171085933721955 0 0 0 0 435.06140362727456 250.22035886846561 0 250.22035886846561 -734.51588079932867 0 0 0 0 6.1494708287660984 7.4148587579878154 0 7.4148587579878154 -5.5311161894646972 0 0 0 0 2496.3560844610256 1326.0997239604221 0 1326.0997239604221 -1472.5212404644144 0 0 0 0 5001.1620018895337 856.31530368530787 0 856.31530368530787 -1604.8167230233728 0 0 0 0 2378.2050632073824 502.75042301103576 0 502.75042301103576 -1212.8639483975373 0 0 0 0 2951.9673567829013 -159.55248019100793 0 -159.55248019100793 -688.84618196813187 0 0 0 0 2952.0425013865424 382.74034904641871 0 382.74034904641871 -875.80013471648738 0 0 0 0 4997.8755196687634 -429.89921317614204 0 -429.89921317614204 -650.69454131328712 0 0 0 0 3998.2031301236566 134.14942442269648 0 134.14942442269648 -898.50417752534986 0 0 0 0 2539.9038692888134 257.00796218684394 0 257.00796218684394 -602.48676316971614 0 0 0 0 2780.7453824084223 -233.54391901607224 0 -233.54391901607224 395.63406505880999 0 0 0 0 3889.5028749972553 -925.48169206170564 0 -925.48169206170564 593.2642875954275 0 0 0 0 165.89615508059433 467.96275680586768 0 467.96275680586768 393.14718805796338 0 0 0 0 -0.91995246674233044 -4.246497136689996 0 -4.246497136689996 7.4060809203345634 0 0 0 0 3941.6031207760097 -1359.7904847195705 0 -1359.7904847195705 -123.19638808364778 0 0 0 0 3964.7527954051911 -1055.9854233319199 0 -1055.9854233319199 -361.46120932288733 0 0 0 0 4049.4177759468075 -1507.7044064370998 0 -1507.7044064370998 -704.08547504289288 0 0 0 0 5000.7751186939158 -1448.0558390497513 0 -1448.0558390497513 -1169.2020320283048 0 0 0 0 4474.843252790859 -1743.8338863095887 0 -1743.8338863095887 -1295.5018715341898 0 0 0 0 11.817152227477109 -19.134638052437879 0 -19.134638052437879 10.422329975720773 0 0 0 0 61.40003604744075 40.063931891318816 0 40.063931891318816 11.994539764943266 0 0 0 0 5680.1595586988842 -1290.0217194250893 0 -1290.0217194250893 -2062.0719195442448 0 0 0 0 -1000.0226426059126 44.610837839853474 0 44.610837839853474 -676.75386144506206 0 0 0 0 107.25942937906075 -715.56938778671054 0 -715.56938778671054 -1644.9814004329974 0 0 0 0 1423.1103911010141 -283.23897378472742 0 -283.23897378472742 -2098.6172721518901 0 0 0 0 704.34772662384785 1028.6799767013044 0 1028.6799767013044 542.63207803060459 0 0 0 0 1.8760404077357293 1.0051200304624786 0 1.0051200304624786 -0.19865422331124272 0 0 0 0 755.5452044687554 211.56767685751021 0 211.56767685751021 -1495.4568631095108 0 0 0 0 865.1247792813665 -297.66065475637868 0 -297.66065475637868 526.87249213768132 0 0 0 0 724.2098227364113 2058.2308372547423 0 2058.2308372547423 493.28091793268391 0 0 0 0 3047.3329937902163 -278.97088655978774 0 -278.97088655978774 -1179.6734722015867 0 0 0 0 1030.4641124747868 3.9119466208230733 0 3.9119466208230733 -1218.5260623655995 0 0 0 0 1169.8315830383908 -95.774449852441478 0 -95.774449852441478 -1203.7117791975415 0 0 0 0 1506.5415900470789 159.88449220752531 0 159.88449220752531 -1273.6174064572369 0 0 0 0 426.62380242340441 -801.39007859678736 0 -801.39007859678736 -1177.6701884924673 0 0 0 0 1010.8819027028949 -698.15792172921738 0 -698.15792172921738 -1370.676806391531 0 0 0 0 188.56508659530664 -521.96680885687829 0 -521.96680885687829 -1195.7702891560291 0 0 0 0 351.27879472906352 -776.49613902335796 0 -776.49613902335796 -1334.9024093101364 0 0 0 0 399.02980953445694 -574.28291263288952 0 -574.28291263288952 -1142.0913561233028 0 0 0 0 409.52164952788735 -591.56002784690827 0 -591.56002784690827 -1154.9640957924198 0 0 0 0 547.1514279398034 -287.84649286721719 0 -287.84649286721719 -1230.5296204795195 0 0 0 0 139.02428873178724 -506.96799306281127 0 -506.96799306281127 -923.72078859046815 0 0 0 0 758.37761794042308 235.65073115920404 0 235.65073115920404 -1163.264633674482 0 0 0 0 658.61958184459945 -310.87758733676947 0 -310.87758733676947 -1283.1427680218721 0 0 0 0 114.69513027259745 108.52616167810675 0 108.52616167810675 -275.87167461847548 0 0 0 0 50.6281765727378 14.910788454950087 0 14.910788454950087 2.5825726924125849 0 0 0 0 488.17758881566988 189.71485831534301 0 189.71485831534301 -1714.6078925159727 0 0 0 0 8.7286936839227565 -260.21278000829625 0 -260.21278000829625 -571.60030328238417 0 0 0 0 92.845597518339019 13.528388782042864 0 13.528388782042864 -5.1250142804694274 0 0 0 0 134.90058657388727 -211.29924951475323 0 -211.29924951475323 -657.70275484291233 0 0 0 0 81.211510225009988 -58.506740575588992 0 -58.506740575588992 -1090.4532799858384 0 0 0 0 47.421807946200481 -58.551075897507452 0 -58.551075897507452 -34.962233388647135 0 0 0 0 256.53579025270301 13.498956832062049 0 13.498956832062049 -140.96151939222318 0 0 0 0 154.03277205323684 -120.82677763948959 0 -120.82677763948959 -483.63783077728385 0 0 0 0 441.43324364510772 -163.02629433772927 0 -163.02629433772927 27.266434846718084 0 0 0 0 345.5966027356335 26.586932191903088 0 26.586932191903088 -223.8478187609544 0 0 0 0 4996.043900842029 6.2761664086735616 0 6.2761664086735616 4.5689046518776877 0 0 0 0 350.25466514524305 47.358463481753915 0 47.358463481753915 -145.13066404322967 0 0 0 0 3409.8969339654468 -2165.3335401299246 0 -2165.3335401299246 1422.8397498452432 0 0 0 0 166.39829242533233 127.03946242192046 0 127.03946242192046 -90.371129969673348 0 0 0 0 19.512799364519424 1.9684313198706178 0 1.9684313198706178 2.418876118650342 0 0 0 0 22.809319794769632 29.221256812230806 0 29.221256812230806 10.394608982926369 0 0 0 0 189.79650398979629 -1.7763022602579781 0 -1.7763022602579781 53.473801864038251 0 0 0 0 4995.6525691456582 -1604.9774974127479 0 -1604.9774974127479 -613.77372742764589 0 0 0 0 38.560282245880373 -62.936679650354598 0 -62.936679650354598 -20.471833985007134 0 0 0 0 229.15036084210806 -15.778050189949681 0 -15.778050189949681 -35.1305730799304 0 0 0 0 -242.32524887191539 -1143.671430828294 0 -1143.671430828294 -1510.6991117362331 0 0 0 0 -1095.2879814505868 -1174.9719429421057 0 -1174.9719429421057 -816.82887743572428 0 0 0 0 -37.694226867010002 -746.85356243315641 0 -746.85356243315641 -978.47540751103588 0 0 0 0 -366.70099680984276 -484.29141039576552 0 -484.29141039576552 -162.34967755131038 0 0 0 0 40.146017181839852 -672.44342983646823 0 -672.44342983646823 -960.99069723612592 0 0 0 0 5000.3351250022024 -1995.0994474845445 0 -1995.0994474845445 -717.81989215642966 0 0 0 0 3601.7977531857905 -1566.689397725035 0 -1566.689397725035 -424.19275867522094 0 0 0 0 3864.1730839054653 -1672.521240500319 0 -1672.521240500319 -393.09652172051563 0 0 0 0 4335.6823121462221 -1492.4869657277104 0 -1492.4869657277104 -1056.8358513921605 0 0 0 0 4292.2484433791542 -1737.0403213135128 0 -1737.0403213135128 -973.75235121484479 0 0 0 0 4039.35750041352 -1226.7462745849423 0 -1226.7462745849423 -1163.28552463799 0 0 0 0 3395.218031688768 -1463.5438006897382 0 -1463.5438006897382 -1003.7198372053706 0 0 0 0 2860.1298243376659 -976.28783801658869 0 -976.28783801658869 -988.84099465040174 0 0 0 0 2525.8929602421122 -622.57170530891699 0 -622.57170530891699 -1167.7603011677984 0 0 0 0 1476.1367894555588 146.98915584383121 0 146.98915584383121 -1197.3471201977191 0 0 0 0 1971.4911327849841 -914.63060346605926 0 -914.63060346605926 -1041.1875676756388 0 0 0 0 1839.5281505330349 -462.93068989436119 0 -462.93068989436119 -1127.6482620949459 0 0 0 0 142.18145308468957 -295.3749591381561 0 -295.3749591381561 -867.87390487112953 0 0 0 0 814.4988322428253 -832.45445338270542 0 -832.45445338270542 357.68162954971149 0 0 0 0 488.95760399076244 189.26380169254418 0 189.26380169254418 -1065.0945973635435 0 0 0 0 706.28737641466068 -739.15065780580562 0 -739.15065780580562 -677.08925832654313 0 0 0 0 1597.2068621328217 -672.28971680190239 0 -672.28971680190239 -899.16373473000908 0 0 0 0 -299.93104582373053 -29.526814456582656 0 -29.526814456582656 -115.62936094895349 0 0 0 0 -200.07254289905359 731.77063127111683 0 731.77063127111683 -1470.1548336129272 0 0 0 0 3598.2436639294956 -1403.4025572421658 0 -1403.4025572421658 -904.14118342186475 0 0 0 0 1577.7276409957885 -873.57607856868867 0 -873.57607856868867 -569.90566061805657 0 0 0 0 2633.729159592418 -1242.163604682099 0 -1242.163604682099 -963.0034406886075 0 0 0 0 2482.9542770312983 -1073.0410226009174 0 -1073.0410226009174 -583.4093828174191 0 0 0 0 2505.8166802327614 -1187.5766588713357 0 -1187.5766588713357 -119.27840372964209 0 0 0 0 13.063998682444208 2.2624926681517792 0 2.2624926681517792 -8.2925429442796741 0 0 0 0 2960.5665684509731 -1103.807549544159 0 -1103.807549544159 -156.91645455356846 0 0 0 0 1847.9606208216574 -1278.1888093447051 0 -1278.1888093447051 515.71182359472596 0 0 0 0 35.498516931362474 -13.608471790246554 0 -13.608471790246554 -26.935579922421244 0 0 0 0 758.58070223020331 225.51503982623024 0 225.51503982623024 -24.771703116632125 0 0 0 0 39.873637315311043 -50.459255747664514 0 -50.459255747664514 -8.9500317998354149 0 0 0 0 9.9415915492952536 -4.4368112686611312 0 -4.4368112686611312 1.9232446981541997 0 0 0 0 38.100320621637366 -3.4877829181950801 0 -3.4877829181950801 -289.11204876133888 0 0 0 0 29.615334867858394 5.6517602441400001 0 5.6517602441400001 -22.416248988216228 0 0 0 0 -11.438898700333084 -132.67555683384944 0 -132.67555683384944 -339.19790985961572 0 0 0 0 -25.982326500616182 -42.718427507506931 0 -42.718427507506931 -169.75739288661498 0 0 0 0 2.0782912916336045 0.34902017162350774 0 0.34902017162350774 -0.83232961317062859 0 0 0 0 227.57928956649266 153.98363666574733 0 153.98363666574733 -161.56697084304324 0 0 0 0 500.92489917288185 32.94186834903212 0 32.94186834903212 -140.48863589087114 0 0 0 0 21.064462739675889 -0.90758798141609986 0 -0.90758798141609986 -17.234356243162601 0 0 0 0 3170.4287064638047 -2279.9205288367948 0 -2279.9205288367948 869.40403169109777 0 0 0 0 54.405020783624764 17.321207953228594 0 17.321207953228594 -10.305175635002634 0 0 0 0 3292.4335787353921 -2124.0815005828217 0 -2124.0815005828217 780.94471826548136 0 0 0 0 3085.0389301535397 -2168.2562946329244 0 -2168.2562946329244 1181.3789479295033 0 0 0 0 2467.0931275212497 -2996.3715229592981 0 -2996.3715229592981 312.88203775429747 0 0 0 0 2264.767608871829 -2275.9083786520005 0 -2275.9083786520005 1021.0080891175174 0 0 0 0 3342.824144836035 -2160.1472768628905 0 -2160.1472768628905 770.77184602773809 0 0 0 0 2995.8189157332963 -1877.9700863728624 0 -1877.9700863728624 1111.1998316208451 0 0 0 0 3021.4049953373651 -1409.4479002952139 0 -1409.4479002952139 877.28807470611355 0 0 0 0 4012.9098542943157 -2353.4051003742484 0 -2353.4051003742484 494.34136294941226 0 0 0 0 3321.0855688503652 -2182.2837690521656 0 -2182.2837690521656 811.49724322663553 0 0 0 0 3297.990478526699 -2150.4111641051495 0 -2150.4111641051495 804.46939856168603 0 0 0 0 22.875941550827918 2.5349401446200375 0 2.5349401446200375 1.0313404484554887 0 0 0 0 4995.7126168888599 -3867.5795934300932 0 -3867.5795934300932 2518.1159083956304 0 0 0 0 489.30697504710406 886.46393970285385 0 886.46393970285385 -52.528605922783299 0 0 0 0 178.9085740771261 -362.03718941997573 0 -362.03718941997573 162.21402958540591 0 0 0 0 25.241085239729728 -41.272973898678217 0 -41.272973898678217 -284.5117275805751 0 0 0 0 -193.98805202904623 242.89076127369916 0 242.89076127369916 589.7630328342583 0 0 0 0 4973.0815065697388 680.78211073331727 0 680.78211073331727 -695.58448572804014 0 0 0 0 1277.7764834558548 2457.4859085927128 0 2457.4859085927128 476.06471358801559 0 0 0 0 1646.1861792755808 -931.04143730171256 0 -931.04143730171256 -265.33425041452313 0 0 0 0 21.68201003500792 3.6215522720992968 0 3.6215522720992968 0.057177522454600484 0 0 0 0 859.80223658467457 -132.88609442121327 0 -132.88609442121327 -2040.8281872065772 0 0 0 0 4989.5325003247444 1994.70193168994 0 1994.70193168994 -1359.3647094464977 0 0 0 0 166.27399430976948 -492.21463192389177 0 -492.21463192389177 -1328.6524242988717 0 0 0 0 -233.39490350399865 -336.33246609287198 0 -336.33246609287198 -793.87790750250724 0 0 0 0 641.6546729907277 480.43815464231909 0 480.43815464231909 -906.0553011933057 0 0 0 0 46.053199730414491 3.4882900236925432 0 3.4882900236925432 -1.5348477587578562 0 0 0 0 47.573408594337934 -6.2643504395956082 0 -6.2643504395956082 -5.9133407357585863 0 0 0 0 10.98509522988752 -177.01287518759204 0 -177.01287518759204 -1761.0507746160258 0 0 0 0 90.725682375923498 -51.325583031082715 0 -51.325583031082715 -24.794820613807133 0 0 0 0 -4.547297972265369 75.924705944691766 0 75.924705944691766 -119.80854933204114 0 0 0 0 41.222188600812188 -0.0080940043579857957 0 -0.0080940043579857957 -30.677101684914632 0 0 0 0 -16.947819714761863 57.480634316488072 0 57.480634316488072 -15.540201089407162 0 0 0 0 -65.713177062549221 225.6251453450194 0 225.6251453450194 -350.48275873145298 0 0 0 0 36.88625406966753 -3.5352297780449078 0 -3.5352297780449078 -33.53588192747776 0 0 0 0 26.932798895240921 -20.858033533313222 0 -20.858033533313222 -45.102447131885356 0 0 0 0 -61.228193241913687 244.82838403737696 0 244.82838403737696 536.36468035568032 0 0 0 0 332.54180538115179 207.00281635373631 0 207.00281635373631 -224.20619654800612 0 0 0 0 120.53501913681976 252.28617169145036 0 252.28617169145036 226.9931976509597 0 0 0 0 13.476393558419659 -47.240770488206181 0 -47.240770488206181 -181.01436180652308 0 0 0 0 7.4900032409426558 -0.37054301041050053 0 -0.37054301041050053 -1.9540802289512946 0 0 0 0 34.921802572323941 -0.39744840080402355 0 -0.39744840080402355 -73.512190088869829 0 0 0 0 4.1956450254147057 -42.693170703172655 0 -42.693170703172655 -131.59799289824878 0 0 0 0 29.145801184611628 1.7967665606738592 0 1.7967665606738592 -72.725808902067001 0 0 0 0 14.468712885936213 -2.4614947128421107 0 -2.4614947128421107 0.35598368053438634 0 0 0 0 0.3764138955011731 18.937633454213938 0 18.937633454213938 20.803018264303319 0 0 0 0 90.882241996004097 114.31609677217391 0 114.31609677217391 17.848814388466053 0 0 0 0 161.64144345658133 82.059341037453123 0 82.059341037453123 -128.32316728402293 0 0 0 0 31.359034416964278 105.81082765139945 0 105.81082765139945 -13.7637213173075 0 0 0 0 90.859325879907743 -9.9464231942970507 0 -9.9464231942970507 127.08988427624354 0 0 0 0 -285.10527429814101 -99.74905421643416 0 -99.74905421643416 -1212.8674502570884 0 0 0 0 377.71918306881707 -144.45511533867739 0 -144.45511533867739 -783.65943222458463 0 0 0 0 68.074209768531347 18.611803221066424 0 18.611803221066424 -18.532856981093687 0 0 0 0 287.28535773939802 570.59084066750984 0 570.59084066750984 -423.81906002826872 0 0 0 0 542.13456818659324 579.76877879463791 0 579.76877879463791 -454.67212950532394 0 0 0 0 16.746542197366495 -4.9260785336225297 0 -4.9260785336225297 -10.030420163789691 0 0 0 0 75.697327351157327 7.9941039497638329 0 7.9941039497638329 -11.190959766717752 0 0 0 0 9.8003016667171323 -215.36244129410534 0 -215.36244129410534 -407.68554125107767 0 0 0 0 -127.52697636426819 360.479256965785 0 360.479256965785 -425.61286901300264 0 0 0 0 578.931354243643 -182.03211882931214 0 -182.03211882931214 -414.77786911596559 0 0 0 0 752.51879634501529 310.68410949941062 0 310.68410949941062 -447.35744637476273 0 0 0 0 -819.4079483362907 -650.579715397825 0 -650.579715397825 -796.74196034195938 0 0 0 0 10.137433304495204 5.7294765404113264 0 5.7294765404113264 -4.8543592371118276 0 0 0 0 -283.94532528095442 -172.5678169442881 0 -172.5678169442881 -1308.6639933618249 0 0 0 0 -97.936377730882668 -965.53711699108476 0 -965.53711699108476 -1034.2974966981437 0 0 0 0 -234.41684118134435 -85.04911319780058 0 -85.04911319780058 -118.00368304539643 0 0 0 0 3124.6922516934428 -427.49716199667819 0 -427.49716199667819 -95.227036434902402 0 0 0 0 3194.9491673951561 -261.51304582766443 0 -261.51304582766443 275.85978969023563 0 0 0 0 9.2945376020791457 -16.805343547528153 0 -16.805343547528153 3.2769928835352111 0 0 0 0 3209.2475048197739 -463.09792575623158 0 -463.09792575623158 -55.604723522956192 0 0 0 0 418.1193636644457 -521.4930758266164 0 -521.4930758266164 -159.13474318786029 0 0 0 0 159.90882619841432 -165.29494591677576 0 -165.29494591677576 172.97306619808796 0 0 0 0 152.65186873685161 356.3133886327505 0 356.3133886327505 312.57476789794964 0 0 0 0 304.55441615323798 -113.0923785369705 0 -113.0923785369705 -894.70265054310403 0 0 0 0 233.43230649606994 67.635394896865137 0 67.635394896865137 -464.76077761043052 0 0 0 0 71.548511547058467 7.2235990611643466 0 7.2235990611643466 -0.88897494974175162 0 0 0 0 -21.35010129789589 -108.52103330228783 0 -108.52103330228783 -509.91829380034551 0 0 0 0 90.682922504725866 9.3412886366313614 0 9.3412886366313614 15.522897483760971 0 0 0 0 75.1267068805831 -19.378144333532482 0 -19.378144333532482 -2.8325936094285815 0 0 0 0 -4.3584737460951146 -339.12052298671074 0 -339.12052298671074 -677.970011675563 0 0 0 0 153.81855966298099 -186.21273194046785 0 -186.21273194046785 -634.77766815083669 0 0 0 0 3286.4165267161552 -645.7734640460385 0 -645.7734640460385 -658.13166877206822 0 0 0 0 3259.4063210609384 -363.98802050787867 0 -363.98802050787867 -427.20498866546404 0 0 0 0 -0.6170971135744594 -0.34952857894974443 0 -0.34952857894974443 1.6068767800256865 0 0 0 0 4188.1114386691479 -950.24741459669167 0 -950.24741459669167 -1973.2617183127295 0 0 0 0 3642.8060643838253 -200.07129528508904 0 -200.07129528508904 -538.22802213885006 0 0 0 0 3533.1908188840607 132.0028714896298 0 132.0028714896298 91.725623959318909 0 0 0 0 3141.5156779897643 -409.39314007976623 0 -409.39314007976623 -386.64930073122378 0 0 0 0 15.769092243008686 14.823466185246815 0 14.823466185246815 2.6470175730641685 0 0 0 0 89.426031544717262 -22.616564193391241 0 -22.616564193391241 -15.386240537423873 0 0 0 0 123.27350171701983 -10.544110863623018 0 -10.544110863623018 -16.741228116723505 0 0 0 0 96.095921446569264 7.3545197651728813 0 7.3545197651728813 -20.332780439162889 0 0 0 0 35.029288534003996 7.9805441610067476 0 7.9805441610067476 -0.98992899270418278 0 0 0 0 82.439953744484228 -5.7313731264212038 0 -5.7313731264212038 -11.686638898725505 0 0 0 0 44.847759975556983 5.6680735296049534 0 5.6680735296049534 -5.9168259338803182 0 0 0 0 34.085841972890194 -12.414028018019053 0 -12.414028018019053 -36.080276506454538 0 0 0 0 52.903205103735672 9.7637660496238823 0 9.7637660496238823 -145.93884817543949 0 0 0 0 53.508179553740774 41.668855200525286 0 41.668855200525286 -77.763059149800029 0 0 0 0 83.456381537020206 85.430116702291343 0 85.430116702291343 -145.60400694502187 0 0 0 0 3.9149334135631122 8.0031524199557964 0 8.0031524199557964 -1.2941344127503882 0 0 0 0 56.748346624241094 19.585188034636303 0 19.585188034636303 -16.793472762635133 0 0 0 0 95.233085806306917 -28.625341205038239 0 -28.625341205038239 -239.35648630095147 0 0 0 0 36.545862129380112 -114.28415369261347 0 -114.28415369261347 -82.78759562840969 0 0 0 0 20.723322270867357 5.4809510968188988 0 5.4809510968188988 9.9167539904938167 0 0 0 0 63.623058021752513 -6.4256444061520597 0 -6.4256444061520597 -107.96391827982552 0 0 0 0 18.737894587160554 -7.8910083663049591 0 -7.8910083663049591 -43.943985770727522 0 0 0 0 95.474649632951355 -10.990048410003304 0 -10.990048410003304 -138.42006511925138 0 0 0 0 75.600170739693567 2.4470603465015301 0 2.4470603465015301 -145.18971430473266 0 0 0 0 57.342842184341862 -14.565716415572751 0 -14.565716415572751 -135.41959437949117 0 0 0 0 51.196835590424598 -2.9249294633336831 0 -2.9249294633336831 -157.02010470753885 0 0 0 0 47.668795970530482 -4.3500570063933992 0 -4.3500570063933992 -145.08986615126923 0 0 0 0 55.928481096110772 10.740607479925529 0 10.740607479925529 -136.55612302871748 0 0 0 0 21.359484297921881 -2.5370647269610345 0 -2.5370647269610345 -138.89347669860945 0 0 0 0 26.404672118660528 -17.486014025222175 0 -17.486014025222175 -221.35656985699097 0 0 0 0 11.148535014879599 52.385586222420898 0 52.385586222420898 -108.71402458294142 0 0 0 0 17.803312667339924 59.458976201601217 0 59.458976201601217 -186.5064813567742 0 0 0 0 9.2936094020842575 9.4439025328520074 0 9.4439025328520074 -35.124564243145869 0 0 0 0 44.856005089503014 14.538681789857037 0 14.538681789857037 -108.19179811068895 0 0 0 0 30.892616184719373 2.4552415302641748 0 2.4552415302641748 -63.636969296360803 0 0 0 0 -136.79627855496074 122.80319835851378 0 122.80319835851378 -587.79166258951227 0 0 0 0 300.76313599655987 -359.25401412030237 0 -359.25401412030237 -750.68123966413987 0 0 0 0 34.238571032959783 0.96110402673875228 0 0.96110402673875228 -4.1629882219075931 0 0 0 0 39.483884586545173 -86.931425341443173 0 -86.931425341443173 -816.9010820776457 0 0 0 0 27.504240718139329 -1.438209105072886 0 -1.438209105072886 -19.845115874152995 0 0 0 0 30.268974087278622 -8.4713556367682372 0 -8.4713556367682372 0.59773642652898218 0 0 0 0 -637.13665269227931 -340.77920394602688 0 -340.77920394602688 -901.86043115205689 0 0 0 0 -1365.7914450183271 935.78560848716893 0 935.78560848716893 -809.02200467552757 0 0 0 0 -120.65767711106309 806.06245021974109 0 806.06245021974109 -1520.6654762645167 0 0 0 0 15.224029293700198 8.364347678487718 0 8.364347678487718 -12.877440693709467 0 0 0 0 640.85353844088968 -353.51130609513621 0 -353.51130609513621 -134.13793415148666 0 0 0 0 712.68267598039529 -313.55492461104859 0 -313.55492461104859 -824.79653168522964 0 0 0 0 453.51974668838739 172.70079172163128 0 172.70079172163128 -629.83554184786772 0 0 0 0 432.4723118734837 468.52505765865089 0 468.52505765865089 -598.71730719775223 0 0 0 0 255.61664291043417 340.38687135568352 0 340.38687135568352 -653.08610049344134 0 0 0 0 47.255150145938387 474.62540609190455 0 474.62540609190455 -727.8780264782481 0 0 0 0 -237.06194217593293 202.52933198358824 0 202.52933198358824 -684.66562004420575 0 0 0 0 13.959587581382948 588.9932612800435 0 588.9932612800435 -491.42768887158491 0 0 0 0 403.64454952040251 391.19751673915289 0 391.19751673915289 -1299.7140331478895 0 0 0 0 27.129817383401928 2.2431604980171471 0 2.2431604980171471 -1.3554147363173117 0 0 0 0 1374.03980904934 -259.31512645162456 0 -259.31512645162456 128.74718785723189 0 0 0 0 1030.4264903124131 -635.80236749624328 0 -635.80236749624328 356.31955007447186 0 0 0 0 1597.0143482207422 -333.71544829490722 0 -333.71544829490722 -146.52266988123665 0 0 0 0 10.524283686657043 1.9097828825210215 0 1.9097828825210215 0.075052362075192391 0 0 0 0 252.32679256933625 673.48524761307908 0 673.48524761307908 -620.38113889948954 0 0 0 0 1474.7487951466683 -450.79290738610121 0 -450.79290738610121 -793.70891132354427 0 0 0 0 779.33194466013811 -555.08287686766698 0 -555.08287686766698 66.77264930606907 0 0 0 0 1381.6580316879845 -415.19004437729336 0 -415.19004437729336 -417.55466000451543 0 0 0 0 1429.779407623384 -79.821318423159028 0 -79.821318423159028 -7.6847248740448322 0 0 0 0 1438.0265754828724 -187.30804020885444 0 -187.30804020885444 -145.2538033832152 0 0 0 0 968.86914856877047 -310.52407257288246 0 -310.52407257288246 61.259888339551253 0 0 0 0 1107.9544044895119 -505.67350021812763 0 -505.67350021812763 14.390939901895763 0 0 0 0 935.14318339643796 -374.39044656799319 0 -374.39044656799319 79.6265023879605 0 0 0 0 793.1945200458722 -371.45225998231626 0 -371.45225998231626 71.875192011929357 0 0 0 0 965.89085244978196 -337.70040056268226 0 -337.70040056268226 -175.60722490437729 0 0 0 0 1.9493979847543699 1.1207343520904374 0 1.1207343520904374 -0.53191327876563577 0 0 0 0 291.35019542695227 -248.0623797121707 0 -248.0623797121707 44.683172249320251 0 0 0 0 1439.1899759989465 -543.82525043250916 0 -543.82525043250916 -191.96185423708903 0 0 0 0 1447.2223028058233 -414.90202914484826 0 -414.90202914484826 -5.5965637612644059 0 0 0 0 2.3171845188576441 2.0041980967776283 0 2.0041980967776283 -0.42528156989570931 0 0 0 0 1921.1294736397977 -296.3612803392989 0 -296.3612803392989 -158.93579575047124 0 0 0 0 2221.3554521618371 -427.91589064599293 0 -427.91589064599293 -287.11512199084609 0 0 0 0 2120.3794545983837 -286.49343773660712 0 -286.49343773660712 -62.963148644551438 0 0 0 0 2021.831280090526 -610.93112589479733 0 -610.93112589479733 -273.87289040303767 0 0 0 0 2147.7634542067972 -687.38960670391771 0 -687.38960670391771 50.466815109908566 0 0 0 0 2832.7332096824412 -623.57342133168936 0 -623.57342133168936 -302.06347802088567 0 0 0 0 1503.2870306515724 -698.30076816696123 0 -698.30076816696123 -260.39229773856277 0 0 0 0 1647.9207702962449 -380.22638472946164 0 -380.22638472946164 60.765526155481894 0 0 0 0 938.10243258142145 -284.0449222869056 0 -284.0449222869056 -40.323270947817946 0 0 0 0 1796.3552358148008 -596.85296160101734 0 -596.85296160101734 -283.58443330633781 0 0 0 0 2643.7976092207682 -118.56960135827285 0 -118.56960135827285 -74.65323739713358 0 0 0 0 1795.991184181752 -616.89820488939586 0 -616.89820488939586 -163.03901445811789 0 0 0 0 2830.1973376559035 -337.39836866747464 0 -337.39836866747464 -217.31474002515824 0 0 0 0 3171.9959571129875 -144.68291412129474 0 -144.68291412129474 -199.9325326387368 0 0 0 0 2840.0884924408529 -315.38077883053802 0 -315.38077883053802 -238.6518071714745 0 0 0 0 3034.6397140570916 -286.55374788342488 0 -286.55374788342488 -263.43803054245927 0 0 0 0 2495.8413173231529 -300.5828656620306 0 -300.5828656620306 -257.85295951494868 0 0 0 0 2793.1978103325746 -487.05650648205915 0 -487.05650648205915 -241.34481558051993 0 0 0 0 2333.6648190090782 -319.85561310697267 0 -319.85561310697267 -159.98959342719172 0 0 0 0 2801.1944512524533 -463.71607379464376 0 -463.71607379464376 -281.62216551793972 0 0 0 0 1713.2785647608835 -791.16520541200498 0 -791.16520541200498 -227.58977702939956 0 0 0 0 1071.4235964368854 -713.50014899470079 0 -713.50014899470079 117.17780477745328 0 0 0 0 841.21045844978653 -612.16167660742576 0 -612.16167660742576 -150.32352350894689 0 0 0 0 1162.4014275578666 -378.5099412167674 0 -378.5099412167674 -204.89819404948321 0 0 0 0 2407.9017930798 -572.5551574782894 0 -572.5551574782894 -292.19281940973087 0 0 0 0 -3089.7298612584127 -1097.9546742010316 0 -1097.9546742010316 2156.390237382022 0 0 0 0 2154.9509733211917 -641.23849226945106 0 -641.23849226945106 60.616409605890112 0 0 0 0 5.4162356662493494 -1.3615037361220743 0 -1.3615037361220743 -0.87526416129202822 0 0 0 0 2146.2778573907854 -511.3512078046312 0 -511.3512078046312 516.23592676634871 0 0 0 0 2456.4128519576043 -819.13322299226093 0 -819.13322299226093 751.00559014151258 0 0 0 0 3011.0076245987439 -1343.3821409956745 0 -1343.3821409956745 1143.4722853102858 0 0 0 0 3512.0262878731301 -598.9775156008418 0 -598.9775156008418 -7.6140753355612105 0 0 0 0 3153.5556698992441 -511.67630056280541 0 -511.67630056280541 137.38733478516588 0 0 0 0 2961.3240659832227 -464.58755547316332 0 -464.58755547316332 -275.79385639935572 0 0 0 0 3187.1667372428856 -648.34875586563066 0 -648.34875586563066 63.551173053572711 0 0 0 0 3225.2932763375866 -423.51903536401733 0 -423.51903536401733 -207.08677523447113 0 0 0 0 3117.0758882106747 -392.96805050428338 0 -392.96805050428338 -36.336594056527247 0 0 0 0 3150.5604860717867 -413.77364217436661 0 -413.77364217436661 -208.1185110648621 0 0 0 0 2765.7637814300833 -322.82098616647818 0 -322.82098616647818 -166.08119766340496 0 0 0 0 -267.78301635515527 665.6593957153118 0 665.6593957153118 -1053.7131435782228 0 0 0 0 1.7224177285534665 0.30812507089324015 0 0.30812507089324015 -2.400782442847099 0 0 0 0 -90.100831420240866 -306.8496834484481 0 -306.8496834484481 -73.50348772864163 0 0 0 0 -157.59042682041763 209.65603033199295 0 209.65603033199295 -520.61932327511749 0 0 0 0 -357.39573484654829 398.14823856277326 0 398.14823856277326 -583.60582429140595 0 0 0 0 24.852203702299448 202.37909659700335 0 202.37909659700335 -894.77086831872657 0 0 0 0 -33.518803967759595 252.33110777416414 0 252.33110777416414 -994.26178328987044 0 0 0 0 289.49759698839625 417.47506519651324 0 417.47506519651324 -868.96314778805754 0 0 0 0 90.319706744267023 221.69744241402259 0 221.69744241402259 -1033.0397790585896 0 0 0 0 45.155584831682887 7.3146306489230426 0 7.3146306489230426 -6.0065554433646184 0 0 0 0 -35.012857302157499 208.54345366362895 0 208.54345366362895 -999.45745103774607 0 0 0 0 1789.2108495424618 -159.23818951121029 0 -159.23818951121029 614.32124679040135 0 0 0 0 3.8427751709498352 3.1143478785678838 0 3.1143478785678838 -0.38702918186775115 0 0 0 0 306.79908739250095 284.33284657615832 0 284.33284657615832 -873.42609025633647 0 0 0 0 -1574.4328827121062 -1025.4949799918177 0 -1025.4949799918177 495.8573171239259 0 0 0 0 78.085602513034246 -5.1452514750308183 0 -5.1452514750308183 -70.811246914603544 0 0 0 0 239.43960660102312 -188.00064605147782 0 -188.00064605147782 -22.675040545866068 0 0 0 0 180.44949940344668 -363.84362343879729 0 -363.84362343879729 -524.03814265182791 0 0 0 0 133.45970796310576 291.65809627666204 0 291.65809627666204 -315.80542109072849 0 0 0 0 122.68844438446104 47.466671058136853 0 47.466671058136853 16.018764407006529 0 0 0 0 98.211651750112651 308.57040981510545 0 308.57040981510545 -721.09895103610324 0 0 0 0 47.026228243991028 11.332379166049606 0 11.332379166049606 -9.0745548280771988 0 0 0 0 -8.8237324493476876 7.6990137101015961 0 7.6990137101015961 0.51326192964483397 0 0 0 0 -295.06821725220652 -146.82199833940831 0 -146.82199833940831 -371.78724432366471 0 0 0 0 2525.1105924532167 1462.4603634145788 0 1462.4603634145788 -8.7930898573104059 0 0 0 0 -4.072155086923658 1.44962465526838 0 1.44962465526838 7.715878787122012 0 0 0 0 179.74020641720563 353.99243821891469 0 353.99243821891469 -717.48576692552888 0 0 0 0 1.4455463906523818 4.851177396607028 0 4.851177396607028 -1.8889450136556363 0 0 0 0 31.91264076391235 303.84676031537674 0 303.84676031537674 -690.73339698342079 0 0 0 0 -229.69456301836908 -93.692425708064093 0 -93.692425708064093 -7.2960240534412151 0 0 0 0 298.94847252780164 188.08582784976534 0 188.08582784976534 -729.42054207711408 0 0 0 0 215.67919533224995 392.6017687188837 0 392.6017687188837 -668.5733544231407 0 0 0 0 322.03370212906157 104.35263106312777 0 104.35263106312777 -303.31410117399719 0 0 0 0 791.64114389519091 -517.66367355601324 0 -517.66367355601324 -184.56937803133587 0 0 0 0 816.75784203628427 -502.62630471760849 0 -502.62630471760849 -446.105136541928 0 0 0 0 862.21902034166851 -346.87907969348817 0 -346.87907969348817 35.600944999227977 0 0 0 0 919.85428358993886 -212.07262358251546 0 -212.07262358251546 -496.97274732094957 0 0 0 0 331.63202549991547 -286.60842858782598 0 -286.60842858782598 -292.72476929347613 0 0 0 0 164.65211067687778 -52.656362345655907 0 -52.656362345655907 -333.46179053832384 0 0 0 0 -231.85760675382335 225.61636695481138 0 225.61636695481138 -689.30121796010553 0 0 0 0 175.0060174257269 278.82028294841234 0 278.82028294841234 -733.39779568356971 0 0 0 0 -505.57595854489955 1620.0813957624903 0 1620.0813957624903 -958.08569645604075 0 0 0 0 235.69228474926786 694.0639980404394 0 694.0639980404394 -628.21901056200659 0 0 0 0 -797.65633158361015 326.08189506508643 0 326.08189506508643 -599.98474992231786 0 0 0 0 -155.80130863942759 293.3371202493704 0 293.3371202493704 -1209.8696688018135 0 0 0 0 1.8088406293431376 1.389348402915445 0 1.389348402915445 -0.8207572362585509 0 0 0 0 1862.0601006874931 -200.20161044977067 0 -200.20161044977067 42.727332722481151 0 0 0 0 -214.97583032140756 -193.91277280407348 0 -193.91277280407348 425.74332516094728 0 0 0 0 747.26339858828578 -704.17221008329943 0 -704.17221008329943 491.24651871427699 0 0 0 0 4.2380568658460902 5.9031203800083034 0 5.9031203800083034 3.5572094690967191 0 0 0 0 1306.8343204955454 -680.15878991202044 0 -680.15878991202044 462.45043196188635 0 0 0 0 12.963411626788968 -0.082717967162324157 0 -0.082717967162324157 -3.2587805566648846 0 0 0 0 -45.442724081571214 99.862526362521749 0 99.862526362521749 -175.95662891840766 0 0 0 0 1660.6871278478066 378.83942538154588 0 378.83942538154588 -547.28533281791169 0 0 0 0 1477.5980552152032 -622.61220043675712 0 -622.61220043675712 196.33617559660343 0 0 0 0 -132.81097966089146 601.39051226176161 0 601.39051226176161 -1314.1681558195642 0 0 0 0 8.7093948130254262 0.45162511182579124 0 0.45162511182579124 -10.169949884074228 0 0 0 0 -243.36662828803492 -56.410938202837542 0 -56.410938202837542 -108.99705835136774 0 0 0 0 7.6818667841536126 10.657101015155391 0 10.657101015155391 1.2681039362078401 0 0 0 0 -33.118893555671093 263.30951737667601 0 263.30951737667601 -204.12639116792343 0 0 0 0 -47.241435194038786 108.04130377767069 0 108.04130377767069 -160.21507811156334 0 0 0 0 154.85118084348505 37.614483262004796 0 37.614483262004796 -183.30847920411725 0 0 0 0 -48.514714856049977 172.01046998881066 0 172.01046998881066 -139.38960927599328 0 0 0 0 169.13217244652333 -127.39748345974294 0 -127.39748345974294 82.967216188455495 0 0 0 0 -2.411918088386301 -20.53351740416565 0 -20.53351740416565 19.71308179749758 0 0 0 0 231.54808878767653 -117.91254437329553 0 -117.91254437329553 -108.67376662584866 0 0 0 0 227.23651532939402 -121.76778090576408 0 -121.76778090576408 -103.8882572292423 0 0 0 0 -604.20013426122023 42.827792726431653 0 42.827792726431653 283.73210240220942 0 0 0 0 277.50913124298677 -573.32943756914756 0 -573.32943756914756 492.31371403179571 0 0 0 0 -18.983105322811753 -496.09377086483437 0 -496.09377086483437 473.04530782345682 0 0 0 0 405.6923971955548 -430.21625321989995 0 -430.21625321989995 149.78258027674747 0 0 0 0 812.20853653177619 -696.65819406165247 0 -696.65819406165247 315.32682897150517 0 0 0 0 774.27195671305526 -375.35692840607589 0 -375.35692840607589 -65.474617358937394 0 0 0 0 550.56192624958931 -552.15895411706879 0 -552.15895411706879 126.13519932862255 0 0 0 0 486.19962089043111 -317.64756963092805 0 -317.64756963092805 16.432489427941618 0 0 0 0 70.174640202865703 -215.07187026818428 0 -215.07187026818428 48.383301765163196 0 0 0 0 618.66221126788878 -275.23826900716449 0 -275.23826900716449 -156.67759004070831 0 0 0 0 858.00227095477749 -493.31373899384926 0 -493.31373899384926 -101.54420901542107 0 0 0 0 916.19672473374521 -365.59013834650978 0 -365.59013834650978 -150.96001537514167 0 0 0 0 1253.8595356185106 -412.0726596757595 0 -412.0726596757595 -151.37506379681145 0 0 0 0 1172.4865954922279 -625.08068595151053 0 -625.08068595151053 196.75549330378999 0 0 0 0 909.03813066805014 -545.05869461088514 0 -545.05869461088514 83.463655286177527 0 0 0 0 1023.7810637430521 -483.88381200471485 0 -483.88381200471485 78.18108533861232 0 0 0 0 -70.652259872818831 259.69082766589599 0 259.69082766589599 -292.33296000865602 0 0 0 0 97.647278094431385 310.37497643393272 0 310.37497643393272 -792.51460071495967 0 0 0 0 -260.2642365572392 584.13000132059824 0 584.13000132059824 -819.97132669682924 0 0 0 0 -397.33815711105126 904.04872876552872 0 904.04872876552872 -1049.3905183978804 0 0 0 0 17.704055743026458 8.9981598810564947 0 8.9981598810564947 -4.0257079323760294 0 0 0 0 -40.251523800194263 104.69019193307031 0 104.69019193307031 -165.35892725280428 0 0 0 0 -657.27213473376469 528.1263405316713 0 528.1263405316713 -654.68662586459777 0 0 0 0 65.055282117449678 161.13074210605009 0 161.13074210605009 -294.67399042803663 0 0 0 0 56.337133338234736 -6.7237894542538044 0 -6.7237894542538044 -25.381047780055852 0 0 0 0 -30.268526248808485 227.80432353755987 0 227.80432353755987 -735.91910676848056 0 0 0 0 -143.27049985714257 186.86575716572406 0 186.86575716572406 -351.65123127466359 0 0 0 0 -272.63475405506324 235.81771862614005 0 235.81771862614005 -294.92632624945691 0 0 0 0 -167.99047154842992 350.39621039373014 0 350.39621039373014 -473.55845535978733 0 0 0 0 13.634416926964377 -4.3853116684071836 0 -4.3853116684071836 -5.7974908494251451 0 0 0 0 -53.348889072163729 241.49686156133794 0 241.49686156133794 -560.85733308540875 0 0 0 0 -22.337982631637715 221.39107306888764 0 221.39107306888764 -446.19252404364306 0 0 0 0 -35.199849051248748 158.5505249238704 0 158.5505249238704 -418.13378791866671 0 0 0 0 351.90342623621109 80.312522416916181 0 80.312522416916181 -537.86292027289892 0 0 0 0 257.50120368323405 18.880466478352901 0 18.880466478352901 -426.82401853047031 0 0 0 0 103.31328978695092 200.58426689924636 0 200.58426689924636 -543.91129811192877 0 0 0 0 275.02891630423255 -35.101900232124535 0 -35.101900232124535 -347.00233868551732 0 0 0 0 167.70478610065766 118.20968152633577 0 118.20968152633577 -449.88096541011873 0 0 0 0 211.26723709574435 62.294330419004837 0 62.294330419004837 -373.03516018636583 0 0 0 0 38.399660472001415 73.043772070137493 0 73.043772070137493 -323.83369195529485 0 0 0 0 100.18851117993472 33.493780508848431 0 33.493780508848431 -300.227650126355 0 0 0 0 58.507475221005734 128.18958951913373 0 128.18958951913373 -360.83449554147228 0 0 0 0 5.5516211455105804 63.137210335145937 0 63.137210335145937 -343.39809297772445 0 0 0 0 -150.16230291273678 69.413821300822747 0 69.413821300822747 -286.54358630894421 0 0 0 0 140.16904797957977 116.80357016644666 0 116.80357016644666 -330.62539971261867 0 0 0 0 120.45214091008529 46.963358250498914 0 46.963358250498914 -179.39436835836386 0 0 0 0 554.22302993352059 -181.01562890017522 0 -181.01562890017522 -238.96238622216333 0 0 0 0 372.3594215396879 -16.842607665792457 0 -16.842607665792457 -354.16684458689269 0 0 0 0 499.20894225937082 -213.20165574781277 0 -213.20165574781277 -216.93520244636602 0 0 0 0 320.28926154138753 -61.18018085652875 0 -61.18018085652875 -299.0163122574013 0 0 0 0 910.69118950910342 -241.74305738682324 0 -241.74305738682324 -337.25020126072923 0 0 0 0 1290.4702686110395 -346.84644048201153 0 -346.84644048201153 -331.51094157732587 0 0 0 0 902.64432378194761 -286.50547589263078 0 -286.50547589263078 -310.21078285085969 0 0 0 0 578.24520577496151 -304.12070187461359 0 -304.12070187461359 -150.80303144190111 0 0 0 0 635.2969977769244 -123.58062824107037 0 -123.58062824107037 -369.62675555494934 0 0 0 0 1188.7626137729967 -266.38482521583319 0 -266.38482521583319 -462.13268190109011 0 0 0 0 884.91658895456931 -113.49679347232814 0 -113.49679347232814 -500.52139631265891 0 0 0 0 848.60450004803715 -205.92081881146805 0 -205.92081881146805 -420.96172451595521 0 0 0 0 842.11727099053678 -49.95934610103177 0 -49.95934610103177 -576.61977355204363 0 0 0 0 792.55734083213611 -138.52647925566089 0 -138.52647925566089 -508.74155190440069 0 0 0 0 1080.8887487495667 -166.97960340738064 0 -166.97960340738064 -551.20588100711211 0 0 0 0 376.59188473926042 26.716073449711985 0 26.716073449711985 -460.06795576507284 0 0 0 0 602.9210941233905 -54.766519160377356 0 -54.766519160377356 -480.6861677199995 0 0 0 0 545.41131192643661 -143.01118259397845 0 -143.01118259397845 -351.92504140842209 0 0 0 0 506.40567919277237 -78.111031092263147 0 -78.111031092263147 -442.84217056209627 0 0 0 0 665.88071604413562 -76.032142830819794 0 -76.032142830819794 -558.47191655720962 0 0 0 0 599.52741063045687 49.142827017842137 0 49.142827017842137 -644.04847453695402 0 0 0 0 609.17530834468198 24.274579492923294 0 24.274579492923294 -577.47849465649051 0 0 0 0 817.43395596370101 50.710485091497503 0 50.710485091497503 -669.18210027906389 0 0 0 0 898.17947462052689 -74.085200667976096 0 -74.085200667976096 -630.46872203111343 0 0 0 0 1031.3840336824651 -83.11128602874669 0 -83.11128602874669 -651.09799221800495 0 0 0 0 909.76529329470941 77.134370562887852 0 77.134370562887852 -721.83650605211369 0 0 0 0 1004.0732180195773 32.092597386107627 0 32.092597386107627 -707.63994392935274 0 0 0 0 1048.9882343389036 -40.849455646082788 0 -40.849455646082788 -731.59550388626303 0 0 0 0 706.94200361982803 -16.431191528867203 0 -16.431191528867203 -651.97636803502246 0 0 0 0 709.26781694464262 29.539355381869882 0 29.539355381869882 -688.55027166133732 0 0 0 0 464.97355563938618 57.821763134201319 0 57.821763134201319 -610.75814863058804 0 0 0 0 383.29535396813299 42.968472923584159 0 42.968472923584159 -651.74501969467019 0 0 0 0 277.90096790203825 149.71993542128985 0 149.71993542128985 -642.25728353975069 0 0 0 0 457.81133614945065 29.952856437434548 0 29.952856437434548 -621.54530616640113 0 0 0 0 198.738106559671 87.024140595506651 0 87.024140595506651 -653.32743658838081 0 0 0 0 0.68750606945104664 193.90601688693687 0 193.90601688693687 -623.92127659568723 0 0 0 0 58.376236208016053 247.86404217759627 0 247.86404217759627 -658.86714501221286 0 0 0 0 252.19417050495395 90.477879830199527 0 90.477879830199527 -550.61590821536197 0 0 0 0 432.5113022007281 -17.40252040787891 0 -17.40252040787891 -520.06841505864759 0 0 0 0 309.19689829343406 125.93298564747238 0 125.93298564747238 -611.62176117416311 0 0 0 0 1356.709498146578 93.402392794778279 0 93.402392794778279 -696.51169749406108 0 0 0 0 1367.7029423539934 145.68131203862868 0 145.68131203862868 -644.60712072076967 0 0 0 0 1399.3698087793164 105.37161614597608 0 105.37161614597608 -711.40268293264671 0 0 0 0 1479.0871358040022 141.16951550176236 0 141.16951550176236 -683.43292191229193 0 0 0 0 1380.7111870530935 86.669368720249622 0 86.669368720249622 -701.04165299709712 0 0 0 0 1382.3095088303671 150.42668978536676 0 150.42668978536676 -650.31938311380327 0 0 0 0 1267.2171870759776 146.60187689914983 0 146.60187689914983 -593.38619633449707 0 0 0 0 1268.8139119478874 130.03924051701506 0 130.03924051701506 -589.70964986740046 0 0 0 0 1346.8288654291246 78.90027178200944 0 78.90027178200944 -656.89655842115098 0 0 0 0 1334.4388457584573 112.3318328148107 0 112.3318328148107 -670.97118885927921 0 0 0 0 1354.7024010778769 66.855422741946313 0 66.855422741946313 -732.8780619242898 0 0 0 0 1374.2919847255689 110.8356203974472 0 110.8356203974472 -707.43185829640788 0 0 0 0 1271.0265242038877 65.899633294016894 0 65.899633294016894 -729.78507733364313 0 0 0 0 1257.9019822157861 -6.7982125488579186 0 -6.7982125488579186 -757.36041999467125 0 0 0 0 1118.0885076407867 59.896651862529325 0 59.896651862529325 -742.10132322643881 0 0 0 0 1129.2593222434225 -55.450540385545537 0 -55.450540385545537 -687.60110499460643 0 0 0 0 1192.8261820602638 40.700478899050722 0 40.700478899050722 -719.13854675872062 0 0 0 0 1335.4620134709985 -10.183522721081317 0 -10.183522721081317 -726.00814083796649 0 0 0 0 1052.707458319499 -20.945783986195693 0 -20.945783986195693 -660.61894551403384 0 0 0 0 1378.8168210026633 54.484564120139112 0 54.484564120139112 -757.81385271979889 0 0 0 0 1362.0030457632383 89.049133323886053 0 89.049133323886053 -689.24905592860159 0 0 0 0 1407.4173887870274 67.084359436994419 0 67.084359436994419 -686.06222979297308 0 0 0 0 1476.9501466807524 125.6516583545058 0 125.6516583545058 -646.31058377421141 0 0 0 0 1446.7762915869316 -27.237860925502446 0 -27.237860925502446 -668.37480649738427 0 0 0 0 1592.1926505102019 96.124255242164509 0 96.124255242164509 -639.85250903049746 0 0 0 0 1119.4138865682908 -60.058457442725285 0 -60.058457442725285 -608.45787425224989 0 0 0 0 1240.0051805897674 -92.224964558155989 0 -92.224964558155989 -660.97967951997998 0 0 0 0 1279.9871044612955 18.976788541251153 0 18.976788541251153 -672.17597648549417 0 0 0 0 1396.8133521301497 11.356980398137239 0 11.356980398137239 -606.83665422573176 0 0 0 0 1368.8897087696823 -139.35109404967807 0 -139.35109404967807 -597.15169307336691 0 0 0 0 1232.0870373329672 -105.65474141943196 0 -105.65474141943196 -514.41914381582319 0 0 0 0 1572.1994692935332 14.130552007619372 0 14.130552007619372 -549.19640233426617 0 0 0 0 1487.4479651092624 -224.919544679301 0 -224.919544679301 -486.25843459033786 0 0 0 0 1594.4652248342754 -156.73411829088582 0 -156.73411829088582 -461.7784836496503 0 0 0 0 1580.6625010425923 148.24496837635888 0 148.24496837635888 -569.44863096085464 0 0 0 0 1578.1392026521498 -39.851500406810374 0 -39.851500406810374 -601.34219161228611 0 0 0 0 1718.1543154909741 -61.362800660197536 0 -61.362800660197536 -510.37696347718156 0 0 0 0 1709.9427819440398 168.79121908151905 0 168.79121908151905 -472.95507954666391 0 0 0 0 1662.1671843892545 102.82850262806824 0 102.82850262806824 -545.41834458104495 0 0 0 0 1666.4236418425687 309.70706468616362 0 309.70706468616362 -484.55458044535771 0 0 0 0 1516.1370969212148 254.32417324146445 0 254.32417324146445 -377.68971128254998 0 0 0 0 1467.0650265080913 235.01208772958853 0 235.01208772958853 -507.28848719850794 0 0 0 0 1441.4635344996641 188.92645823718158 0 188.92645823718158 -583.87303447981685 0 0 0 0 1402.2979437088943 188.45420570616989 0 188.45420570616989 -582.36320141139731 0 0 0 0 1423.8401242516702 271.28312490455755 0 271.28312490455755 -528.81720796295849 0 0 0 0 1314.2260965551395 211.24398475810995 0 211.24398475810995 -553.17550561067765 0 0 0 0 1220.446015041176 269.077062727878 0 269.077062727878 -372.99561949065173 0 0 0 0 1465.0338230848138 416.51254191668158 0 416.51254191668158 -284.16959981716354 0 0 0 0 1163.9225977944152 289.49911729185442 0 289.49911729185442 -117.14366997298748 0 0 0 0 1449.8444577773189 509.72610036060087 0 509.72610036060087 44.631306626870355 0 0 0 0 1798.9331057150266 418.91304746738024 0 418.91304746738024 -281.92954725463642 0 0 0 0 1690.6010867971345 295.96757675888512 0 295.96757675888512 -208.10161233190229 0 0 0 0 1777.3894498563895 432.71447526203337 0 432.71447526203337 2.9462316956778523 0 0 0 0 1398.064069280168 257.52438096149035 0 257.52438096149035 32.51686918242558 0 0 0 0 2186.8874989401083 495.44365264692169 0 495.44365264692169 7.6971746365707077 0 0 0 0 1587.8560630199936 561.59261753655301 0 561.59261753655301 511.23696691504301 0 0 0 0 924.37217225316272 234.97564096551469 0 234.97564096551469 418.65061658540071 0 0 0 0 1554.5665148649714 -455.26921678364306 0 -455.26921678364306 -61.040811921694967 0 0 0 0 1576.4567481721751 -508.17321448485745 0 -508.17321448485745 63.751835946066421 0 0 0 0 1292.6319422989327 -482.74239038369524 0 -482.74239038369524 -59.697667199725402 0 0 0 0 1639.7855965934286 -335.80507023090104 0 -335.80507023090104 -282.48007519449311 0 0 0 0 1285.0215452164412 -339.14812779827025 0 -339.14812779827025 -275.13755912671331 0 0 0 0 1641.090789431968 -216.92015293478107 0 -216.92015293478107 -385.06043957057409 0 0 0 0 1956.9432888253068 -170.14849027602395 0 -170.14849027602395 -378.68588506957894 0 0 0 0 2011.6683839266188 -407.06139246882594 0 -407.06139246882594 -92.712744927528547 0 0 0 0 1643.6304441195098 -363.5416673328873 0 -363.5416673328873 -185.29782120689924 0 0 0 0 1977.8617309461115 -350.35614374529541 0 -350.35614374529541 -184.89816932053623 0 0 0 0 2178.5916023562022 94.041614933901656 0 94.041614933901656 -391.08041272774426 0 0 0 0 1911.6451283113565 -158.87770637289941 0 -158.87770637289941 -284.58505379494818 0 0 0 0 2414.2017723456956 -92.495999007900537 0 -92.495999007900537 -279.24185848917841 0 0 0 0 1860.2366788649233 15.312923503377533 0 15.312923503377533 -473.47214809727302 0 0 0 0 1782.3521649058675 16.864520342827745 0 16.864520342827745 -405.64743709148752 0 0 0 0 1726.0333771306759 241.55205414397005 0 241.55205414397005 -309.1378062365111 0 0 0 0 1957.1406192302238 157.15504390066781 0 157.15504390066781 -472.56276225939837 0 0 0 0 1984.2755240188853 148.94054301466167 0 148.94054301466167 -230.44189182617265 0 0 0 0 2112.5932608838193 343.59793778579115 0 343.59793778579115 -283.33402921505331 0 0 0 0 2122.6324452138797 292.35728623635714 0 292.35728623635714 117.98573767436028 0 0 0 0 2484.1747190813767 302.24032275630452 0 302.24032275630452 -184.93185936722512 0 0 0 0 2460.397465218266 542.89323761517153 0 542.89323761517153 282.83387522242992 0 0 0 0 3136.5062497734325 602.65764712789678 0 602.65764712789678 286.14955333486068 0 0 0 0 3004.2112699184945 309.72233331067218 0 309.72233331067218 292.99524352226581 0 0 0 0 3758.9941445970908 36.683989709374146 0 36.683989709374146 10.122698289851542 0 0 0 0 2682.1472808701801 -113.54438080981708 0 -113.54438080981708 8.0231537855579518 0 0 0 0 2940.3803862787609 83.720053186192672 0 83.720053186192672 -159.57509895390831 0 0 0 0 2264.5933092518244 -6.469783128308336 0 -6.469783128308336 -161.76165233859501 0 0 0 0 2257.1185192598496 -377.82978290101164 0 -377.82978290101164 -95.401316010029404 0 0 0 0 1914.7278353614383 -635.98211376938343 0 -635.98211376938343 173.00239196687471 0 0 0 0 1991.1499869992549 -557.62832962421089 0 -557.62832962421089 208.40102675335947 0 0 0 0 2942.160210738075 -600.5265511789039 0 -600.5265511789039 -68.066068751373678 0 0 0 0 3398.418828042486 -994.20450762394466 0 -994.20450762394466 233.8681967746088 0 0 0 0 1385.5180719736381 -1305.7794824700832 0 -1305.7794824700832 941.52559575054329 0 0 0 0 2139.6678087100154 -714.07951391149254 0 -714.07951391149254 172.43891159177292 0 0 0 0 1657.7031407512841 -450.24946076804918 0 -450.24946076804918 510.24685336149196 0 0 0 0 1783.4590991925215 -666.95662669920421 0 -666.95662669920421 311.01112968212692 0 0 0 0 1840.3525749029359 -544.13434652629439 0 -544.13434652629439 66.112328565126518 0 0 0 0 1438.1194742486114 -565.45814633143164 0 -565.45814633143164 284.55826501882621 0 0 0 0 2901.8182273420389 756.80133559530077 0 756.80133559530077 4.427893440653861 0 0 0 0 -2508.5061337094521 289.01287514333671 0 289.01287514333671 52.681726862792857 0 0 0 0 7704.8584035844542 -4446.1519450519627 0 -4446.1519450519627 1765.8253395169886 0 0 0 0 3.6575781329477763 1.1747855851827325 0 1.1747855851827325 -0.096760913853909614 0 0 0 0 3231.5943758157664 810.66439005424763 0 810.66439005424763 -77.321610427643463 0 0 0 0 2443.5450979212183 -27.986802363589959 0 -27.986802363589959 1584.7526931437278 0 0 0 0 3556.690589063568 323.52982859746044 0 323.52982859746044 -163.55882565906359 0 0 0 0 3474.988626197679 1165.6454135083841 0 1165.6454135083841 1390.4011095899477 0 0 0 0 5859.9119042490493 784.92487792383326 0 784.92487792383326 371.9657464338743 0 0 0 0 1923.6501053038955 566.06991286745324 0 566.06991286745324 1042.4172546651098 0 0 0 0 2259.623111997149 240.46721809087467 0 240.46721809087467 879.80445663093269 0 0 0 0 2535.1177579298746 -155.16895422859307 0 -155.16895422859307 285.26599308386358 0 0 0 0 2026.1596834856318 849.28096991800339 0 849.28096991800339 -551.10042517148395 0 0 0 0 2115.231668591674 34.747924378012613 0 34.747924378012613 -359.17211510582092 0 0 0 0 2919.2658679193119 228.49502169349216 0 228.49502169349216 -122.22792459654011 0 0 0 0 1288.3322852099955 418.15662847652857 0 418.15662847652857 308.10161511028855 0 0 0 0 1669.7222783169418 138.76402859645532 0 138.76402859645532 380.4941758918776 0 0 0 0 1495.5863890134206 -199.31947887296337 0 -199.31947887296337 59.960978853371671 0 0 0 0 1642.794176599622 269.31825105729513 0 269.31825105729513 140.67384260512699 0 0 0 0 855.74320714797068 138.09032109525651 0 138.09032109525651 -28.132796901423717 0 0 0 0 607.89219182709348 -175.34795826647428 0 -175.34795826647428 -505.94205929206146 0 0 0 0 546.26387763804814 66.736433224721623 0 66.736433224721623 -266.23063815659589 0 0 0 0 1465.4027518871881 74.531693052642368 0 74.531693052642368 -527.80653388999963 0 0 0 0 1398.3191425709119 351.21975880522314 0 351.21975880522314 -489.67382715869826 0 0 0 0 936.4314974846784 503.6094214263785 0 503.6094214263785 -104.57829388747996 0 0 0 0 1018.2080000542337 612.94834996616373 0 612.94834996616373 -22.116384198969172 0 0 0 0 1090.2058768964489 547.29427719507657 0 547.29427719507657 -23.808047177830304 0 0 0 0 1365.0289520056103 504.80883569452999 0 504.80883569452999 -34.639754860867015 0 0 0 0 1008.3760260725685 584.32077984633906 0 584.32077984633906 22.456793210561955 0 0 0 0 1246.5517509427154 590.66824671368886 0 590.66824671368886 -260.85974756649921 0 0 0 0 1183.4159930713067 617.22058294785711 0 617.22058294785711 -241.71957147342982 0 0 0 0 1084.4915300679422 794.83812542789929 0 794.83812542789929 -511.31065812443921 0 0 0 0 1144.5899145685107 408.66031658453994 0 408.66031658453994 -567.48596510930656 0 0 0 0 1624.1868986731861 433.91585835636033 0 433.91585835636033 -578.76935870666694 0 0 0 0 1717.6428823342139 637.54010487962114 0 637.54010487962114 -585.85907916592623 0 0 0 0 1474.1399845800916 775.96698356926481 0 775.96698356926481 -654.73283489322421 0 0 0 0 1181.2058072735963 1227.626559275097 0 1227.626559275097 -944.43012848586989 0 0 0 0 73.140261197622749 643.29365266082368 0 643.29365266082368 -269.99458055516516 0 0 0 0 972.73173887222219 597.34632951317144 0 597.34632951317144 -226.39595631767224 0 0 0 0 976.53240707569057 610.82004557509208 0 610.82004557509208 -275.43490767196977 0 0 0 0 798.08680788787024 -121.72203521939537 0 -121.72203521939537 7.9991286262975336 0 0 0 0 484.31415136590658 167.62833860783621 0 167.62833860783621 -187.78183112049737 0 0 0 0 1305.3941636169766 2.1835497608799415 0 2.1835497608799415 8.0230821571376509 0 0 0 0 1.5293441819645182 -0.58833505016221466 0 -0.58833505016221466 0.17519788727986452 0 0 0 0 667.46527865035387 513.84644514996512 0 513.84644514996512 -79.637083502377209 0 0 0 0 1107.2345422186481 632.54659846017421 0 632.54659846017421 -217.45047982785945 0 0 0 0 1047.5825469871925 297.92232402846093 0 297.92232402846093 26.959087453964457 0 0 0 0 1399.2958057579817 284.72781635183674 0 284.72781635183674 9.9480462679689481 0 0 0 0 1560.9349618306733 418.56821717430284 0 418.56821717430284 178.11658778992114 0 0 0 0 1205.6865238945174 496.4464191532511 0 496.4464191532511 161.36976402156506 0 0 0 0 1398.9035185253451 501.91602534904814 0 501.91602534904814 397.21561953586206 0 0 0 0 1127.6730201612663 87.604424217457563 0 87.604424217457563 198.50869431727733 0 0 0 0 1737.8013166593737 43.045015458753369 0 43.045015458753369 143.20004544999574 0 0 0 0 1480.6398570076126 284.81184798567574 0 284.81184798567574 396.47733472376603 0 0 0 0 1723.7656469424182 95.910883285057025 0 95.910883285057025 521.31987841922364 0 0 0 0 2412.019432480869 449.36785364183743 0 449.36785364183743 238.78300465158009 0 0 0 0 34.888585988528575 -83.415299800219486 0 -83.415299800219486 224.64108439577467 0 0 0 0 9.827529735138512 -6.4030203477761916 0 -6.4030203477761916 2.1520561557325024 0 0 0 0 1946.9363364576857 1229.4873227232865 0 1229.4873227232865 668.50485135602366 0 0 0 0 62.535723362860153 101.65581563370915 0 101.65581563370915 -57.116668204315829 0 0 0 0 -41.385059465857921 -38.490603431851014 0 -38.490603431851014 168.45268630690589 0 0 0 0 -48.017445557343308 -1.982411850475728 0 -1.982411850475728 -20.953477437709807 0 0 0 0 55.648776695205925 -13.019631683873726 0 -13.019631683873726 3.1847968431291527 0 0 0 0 18.818704253024606 1.7782385150540563 0 1.7782385150540563 -3.2295682738088303 0 0 0 0 81.110437820869265 4.7299302932024148 0 4.7299302932024148 -39.325693442006013 0 0 0 0 916.99315919089713 488.4818193487954 0 488.4818193487954 93.826536007363757 0 0 0 0 144.88972999618272 22.272774837359975 0 22.272774837359975 -40.909181022665507 0 0 0 0 11.783348745927924 0.52861227314502912 0 0.52861227314502912 -7.456147752311125 0 0 0 0 866.67956464993767 558.80782041702696 0 558.80782041702696 415.38510477586169 0 0 0 0 1093.7631829091697 585.12281702974542 0 585.12281702974542 4.4600437251556286 0 0 0 0 1078.5300641860085 612.0667350230533 0 612.0667350230533 207.75750014638106 0 0 0 0 1350.2338893949054 711.3072033687713 0 711.3072033687713 237.95037384950047 0 0 0 0 1439.888924471401 830.40127423270451 0 830.40127423270451 394.82608370402158 0 0 0 0 1134.1527441577055 819.3646854108938 0 819.3646854108938 747.41214623753331 0 0 0 0 871.10073780815583 583.73743562877826 0 583.73743562877826 555.50957243695484 0 0 0 0 213.24882369837724 -403.48470103071304 0 -403.48470103071304 -81.353656519525885 0 0 0 0 463.6227007471316 97.157662887394508 0 97.157662887394508 -219.70556094368681 0 0 0 0 477.54616235814501 -21.398046667899962 0 -21.398046667899962 -61.516945106988715 0 0 0 0 856.92805169714848 -120.85604612224233 0 -120.85604612224233 -220.68804062729396 0 0 0 0 299.01840276393341 17.500526649107485 0 17.500526649107485 -245.34009434758673 0 0 0 0 443.29811892710859 333.32087398992184 0 333.32087398992184 49.92583870233149 0 0 0 0 -166.06459679552609 -25.753667636123282 0 -25.753667636123282 230.3032767120385 0 0 0 0 -139.49973228704766 -194.38116302058995 0 -194.38116302058995 84.797420122877156 0 0 0 0 121.76880750918644 -149.4187852993424 0 -149.4187852993424 -157.90686294306045 0 0 0 0 84.457135568045146 -61.754927370293757 0 -61.754927370293757 30.779719273469333 0 0 0 0 1328.9110880722728 -278.3997444834331 0 -278.3997444834331 -132.31014671769844 0 0 0 0 197.57294232035929 7.1708324599158004 0 7.1708324599158004 80.916345186698891 0 0 0 0 379.06967041136522 -368.17654419662335 0 -368.17654419662335 288.62160628321362 0 0 0 0 1627.8730062606337 562.99417004457064 0 562.99417004457064 -93.996730149010546 0 0 0 0 1314.9417057032115 634.68403450040387 0 634.68403450040387 422.97237548491978 0 0 0 0 1767.4491995166463 956.05684702992676 0 956.05684702992676 25.72655921522346 0 0 0 0 998.13658199289785 837.51509937859282 0 837.51509937859282 44.588037300780343 0 0 0 0 672.44271496363217 223.89089441340184 0 223.89089441340184 -47.323353918261091 0 0 0 0 1191.0601388256619 443.62409504841435 0 443.62409504841435 -106.29846348771753 0 0 0 0 1003.100486223957 94.991851899217181 0 94.991851899217181 -371.07021558568522 0 0 0 0 851.31040925660636 -150.38740187280018 0 -150.38740187280018 -1516.3327019992321 0 0 0 0 616.05230441046297 143.72347965476729 0 143.72347965476729 -368.05168716039736 0 0 0 0 572.07066532588215 -1496.1442294735934 0 -1496.1442294735934 -1535.8893500249449 0 0 0 0 27.6092293833442 -2.6067070559082879 0 -2.6067070559082879 -5.5848358012665198 0 0 0 0 270.5983682073711 -166.5661096388385 0 -166.5661096388385 614.17865039287426 0 0 0 0 3864.1615593425522 2084.9927737613234 0 2084.9927737613234 -1801.6380252212439 0 0 0 0 -104.53734229179099 -1385.9234071755122 0 -1385.9234071755122 -678.28022142240889 0 0 0 0 -662.31056650127721 -131.24094849007793 0 -131.24094849007793 1796.2874073265375 0 0 0 0 467.31575133760634 710.20192215903444 0 710.20192215903444 1243.8962952004808 0 0 0 0 977.24256422711187 1205.5185830943985 0 1205.5185830943985 1699.4073859074092 0 0 0 0 1418.3036681443918 758.07581582343619 0 758.07581582343619 721.61122484026032 0 0 0 0 11.163810709130416 -14.687227737507513 0 -14.687227737507513 8.0608413034540547 0 0 0 0 75.007860189353636 -35.500543121326785 0 -35.500543121326785 2.8256863193166097 0 0 0 0 -120.71814566937974 -117.99918850345807 0 -117.99918850345807 25.443856449810937 0 0 0 0 1717.4348755348474 2076.0923709846029 0 2076.0923709846029 1391.8023595771174 0 0 0 0 186.94117771118908 292.62318773090544 0 292.62318773090544 307.7382852512842 0 0 0 0 275.37966955633601 65.647441013099296 0 65.647441013099296 -0.94001086924208721 0 0 0 0 164.37595574586885 190.50961491577982 0 190.50961491577982 244.70116078523756 0 0 0 0 141.64327012075228 198.51054989731017 0 198.51054989731017 407.0826202455039 0 0 0 0 276.52448221598752 133.07646011560291 0 133.07646011560291 274.08988578413459 0 0 0 0 14.459682859640452 -189.01484636315945 0 -189.01484636315945 491.99325592909918 0 0 0 0 75.869583681340146 -60.347616425035483 0 -60.347616425035483 28.551666265346356 0 0 0 0 5.7168841671919495 -2.8112084953922079 0 -2.8112084953922079 2.7762422600101728 0 0 0 0 30.391062291113485 71.780619645040218 0 71.780619645040218 -57.870773547618114 0 0 0 0 -125.27335838842555 -391.91913848514798 0 -391.91913848514798 302.78872859392663 0 0 0 0 95.506872268437291 891.34352374237915 0 891.34352374237915 3174.0913077438236 0 0 0 0 647.90208328966401 32.641212532657391 0 32.641212532657391 191.99595132887168 0 0 0 0 321.786807358847 362.84387892226459 0 362.84387892226459 362.07281207841584 0 0 0 0 12.156235940128681 62.073021528477057 0 62.073021528477057 773.85602013585674 0 0 0 0 90.486048128543189 7.1631744699153614 0 7.1631744699153614 218.14354744681827 0 0 0 0 320.36652762815356 243.27528499092637 0 243.27528499092637 169.49391571916897 0 0 0 0 168.80274684931283 183.90281574810024 0 183.90281574810024 -6.2338962989291531 0 0 0 0 247.58655786640156 -41.749318979120048 0 -41.749318979120048 -213.97862954223638 0 0 0 0 -69.712260099826381 96.743694545492872 0 96.743694545492872 224.99057036823524 0 0 0 0 0.80882503539095296 -0.23243189013493293 0 -0.23243189013493293 -0.51117946537961245 0 0 0 0 66.630411038961029 -76.909783760762025 0 -76.909783760762025 58.464278288286891 0 0 0 0 180.75660744262859 128.26677210955108 0 128.26677210955108 160.16075792219885 0 0 0 0 69.966295918216929 -30.483776251100636 0 -30.483776251100636 -126.48967191707501 0 0 0 0 18.00939874886609 -1.3829406080268214 0 -1.3829406080268214 0.58914464545991485 0 0 0 0 -19.155000679311343 25.219297163870579 0 25.219297163870579 84.864574230570838 0 0 0 0 55.776244708540617 -89.296643314921411 0 -89.296643314921411 3.9507613391003531 0 0 0 0 6.02920892389551 -3.666027469418168 0 -3.666027469418168 7.0433437927214451 0 0 0 0 -47.44132725583404 -160.18165875410239 0 -160.18165875410239 -121.78702537160439 0 0 0 0 6.9699198876915034 58.111978172231716 0 58.111978172231716 -5.7038558105634252 0 0 0 0 1.8571971388478801 1.9887822865017029 0 1.9887822865017029 1.8819617452563475 0 0 0 0 190.10035465397959 203.91107962749788 0 203.91107962749788 189.33071295351249 0 0 0 0 44.448251517256722 204.46882171337325 0 204.46882171337325 248.73065998520462 0 0 0 0 180.11522281142243 176.9676534910798 0 176.9676534910798 253.65958666931431 0 0 0 0 186.07422232662793 243.75623630229711 0 243.75623630229711 328.94438799300451 0 0 0 0 238.74979124132369 298.48038017338985 0 298.48038017338985 219.35645749406308 0 0 0 0 177.16783379708068 253.74035126099022 0 253.74035126099022 236.68425035071868 0 0 0 0 238.25308696489083 218.58459668033822 0 218.58459668033822 155.8570416374605 0 0 0 0 78.677417209954001 25.677856803398335 0 25.677856803398335 -72.976315527681948 0 0 0 0 -9.7519604498083936 -9.8858472988023625 0 -9.8858472988023625 9.4948331496270768 0 0 0 0 444.20739837462315 567.74768331520363 0 567.74768331520363 693.45785978628442 0 0 0 0 122.65961137217528 106.79708875775276 0 106.79708875775276 -19.873332096616302 0 0 0 0 -0.23470691103295849 0.64887540207922711 0 0.64887540207922711 1.2207145284369263 0 0 0 0 2.3933907409836479 0.64364802219436967 0 0.64364802219436967 -0.20122610559152854 0 0 0 0 1038.5612659587059 296.4492877923841 0 296.4492877923841 29.907634152494218 0 0 0 0 6.0338074046303518 1.4333124819223588 0 1.4333124819223588 0.0024654477788484553 0 0 0 0 9.2365755542268744 3.7657287607545529 0 3.7657287607545529 1.6398879276121547 0 0 0 0 6.0307852337296595 0.59485865471867783 0 0.59485865471867783 -0.68084867737564569 0 0 0 0 290.35462355939671 261.68626656292781 0 261.68626656292781 147.02077510551851 0 0 0 0 -73.546213297580834 83.407321499818551 0 83.407321499818551 -71.789450116593372 0 0 0 0 -37.313418846832064 67.297667272199334 0 67.297667272199334 -162.97060260586977 0 0 0 0 -42.300037467837683 52.015357345641704 0 52.015357345641704 -24.413265792621061 0 0 0 0 -1.636032700072974 19.962384460028748 0 19.962384460028748 0.144236038457592 0 0 0 0 76.442907370626926 0.98100671765324421 0 0.98100671765324421 -59.953610232364966 0 0 0 0 44.94526472009602 36.365002227444748 0 36.365002227444748 -98.716938992143412 0 0 0 0 41.813943110319087 -24.703096158442229 0 -24.703096158442229 -124.15165470234588 0 0 0 0 15.566222999680122 -1.1572458314934693 0 -1.1572458314934693 -0.88722865470725831 0 0 0 0 -38.907040390826296 -8.8546668262195887 0 -8.8546668262195887 -66.382740706593381 0 0 0 0 365.11212908210291 169.28710917279199 0 169.28710917279199 73.695291885895358 0 0 0 0 -40.430981630128372 -62.22881869337472 0 -62.22881869337472 -167.15512384582399 0 0 0 0 32.296734290313907 128.06290138123867 0 128.06290138123867 -116.46679624281906 0 0 0 0 3.5430364487583574 1.6885819489913558 0 1.6885819489913558 -0.54387486216626746 0 0 0 0 11.291706744667863 0.95249715403797808 0 0.95249715403797808 -1.5422219577597558 0 0 0 0 286.20261903089704 234.77295414749983 0 234.77295414749983 42.341470456289926 0 0 0 0 15.688810001818638 95.343847392144397 0 95.343847392144397 242.58646762350668 0 0 0 0 231.69670907396358 98.759732559898737 0 98.759732559898737 268.10344954153697 0 0 0 0 88.799969197454629 237.74869402417451 0 237.74869402417451 162.12723264680892 0 0 0 0 162.62856679418474 223.48745127198677 0 223.48745127198677 329.10987743012663 0 0 0 0 265.12850411067484 165.85242367489087 0 165.85242367489087 80.106808427330861 0 0 0 0 49.438901853948664 58.979739008072862 0 58.979739008072862 -32.933301564690282 0 0 0 0 104.73827778975829 -29.090561867613758 0 -29.090561867613758 14.420249539693259 0 0 0 0 229.6588422486675 181.51297984194866 0 181.51297984194866 -33.95776620555867 0 0 0 0 3.8075667813886298 1.3246991336467318 0 1.3246991336467318 -1.6560691067476934 0 0 0 0 94.553730125830043 243.48467496823923 0 243.48467496823923 344.42323651930167 0 0 0 0 17.198361444665352 253.51887727051167 0 253.51887727051167 150.83311734556651 0 0 0 0 161.63827020858298 161.06593538496782 0 161.06593538496782 151.6642878910211 0 0 0 0 385.84832653432386 165.99684745945092 0 165.99684745945092 103.08186864905588 0 0 0 0 159.4243393939978 112.10055174542686 0 112.10055174542686 291.07264854752611 0 0 0 0 16.352380991313225 0.58647116656669596 0 0.58647116656669596 0.41124066327500319 0 0 0 0 986.01051667321008 1296.8290034424062 0 1296.8290034424062 1004.3129391183088 0 0 0 0 321.30075706256321 15.364810826696726 0 15.364810826696726 -125.52628982562646 0 0 0 0 64.920715525092135 -18.91408749892129 0 -18.91408749892129 -13.053941430919551 0 0 0 0 319.13764206464111 330.07209726292325 0 330.07209726292325 199.53700762379458 0 0 0 0 1194.1657377989031 1162.2149243062527 0 1162.2149243062527 118.26750632641415 0 0 0 0 49.300916344946017 1220.0478289935786 0 1220.0478289935786 773.20741526058669 0 0 0 0 1102.7512282746611 398.34508214076959 0 398.34508214076959 1406.835854054335 0 0 0 0 1655.3170234364807 811.63212849716092 0 811.63212849716092 370.12126381000508 0 0 0 0 492.35425801407109 -554.9926248006941 0 -554.9926248006941 -231.23510208845028 0 0 0 0 27.568704763928281 1.7388913847609189 0 1.7388913847609189 -6.4875867317971467 0 0 0 0 -384.44405260295025 888.21451602985371 0 888.21451602985371 1637.8423821065826 0 0 0 0 46.239567688484669 -5.8680723718981653 0 -5.8680723718981653 -11.21363023408275 0 0 0 0 291.15702929228428 -122.9776200914049 0 -122.9776200914049 -432.82333168603418 0 0 0 0 832.43580106523586 1788.4720213423166 0 1788.4720213423166 1627.5970728448178 0 0 0 0 2057.4981093435854 712.73245515348435 0 712.73245515348435 -93.025507082382319 0 0 0 0 12.454619673371781 555.67754847716424 0 555.67754847716424 1915.0719496465417 0 0 0 0 274.58611750340788 344.87632182172638 0 344.87632182172638 -21.020052125592656 0 0 0 0 -373.66031069227029 184.09048891044006 0 184.09048891044006 516.70808953123355 0 0 0 0 -58.005490412149811 -71.852278686946192 0 -71.852278686946192 -6.7936775734187904 0 0 0 0 310.36254753724279 377.68399751485168 0 377.68399751485168 515.03116093333972 0 0 0 0 2.0522961647182001 -0.47947711290754569 0 -0.47947711290754569 -1.6467224531361198 0 0 0 0 -20.87049940822908 -68.82058493142668 0 -68.82058493142668 -332.19551903160738 0 0 0 0 4.3058830767743643 0.90987002524699534 0 0.90987002524699534 -0.50731782861959807 0 0 0 0 -422.51621845655609 1429.6418689748289 0 1429.6418689748289 364.59593591868486 0 0 0 0 213.36623770231381 -39.801443203770418 0 -39.801443203770418 -600.18076976321311 0 0 0 0 589.65858055022545 117.30413572194357 0 117.30413572194357 -429.54217538681405 0 0 0 0 206.30145667766919 322.40812818948007 0 322.40812818948007 -532.82481078667388 0 0 0 0 545.42670114227076 -89.396752212732281 0 -89.396752212732281 -34.330245391154676 0 0 0 0 -382.94458110022242 376.37487400373243 0 376.37487400373243 284.898556173712 0 0 0 0 -255.65777256112779 221.00833504021068 0 221.00833504021068 473.78711292103765 0 0 0 0 172.41366307310818 250.91446683100997 0 250.91446683100997 -0.369073929957766 0 0 0 0 636.96205862268107 793.59240868876373 0 793.59240868876373 -71.576658292706398 0 0 0 0 364.74968274398998 363.7292875342759 0 363.7292875342759 -153.93729836383855 0 0 0 0 777.41175993611978 -27.585746117190453 0 -27.585746117190453 201.9512262848788 0 0 0 0 1.8437896669917677 0.68498874551960398 0 0.68498874551960398 -0.10457645795692438 0 0 0 0 98.454543663974619 116.57440243989959 0 116.57440243989959 -177.56314558248727 0 0 0 0 -10.885661912732758 171.00775290695694 0 171.00775290695694 -0.13004030040097184 0 0 0 0 104.08953727921471 132.3219996443438 0 132.3219996443438 -200.43972049944108 0 0 0 0 265.83446518128039 149.19990781465327 0 149.19990781465327 -474.92466167382656 0 0 0 0 75.45811976204277 41.145171713578009 0 41.145171713578009 -371.88106635959298 0 0 0 0 307.20014956768136 154.50311392970616 0 154.50311392970616 -503.91871302803656 0 0 0 0 182.16387334663887 205.77202530941736 0 205.77202530941736 -168.86143175767393 0 0 0 0 2665.8589660739526 1338.88214847413 0 1338.88214847413 647.76749110280389 0 0 0 0 3155.8182873957849 1296.280133233879 0 1296.280133233879 -1.2629066299237874 0 0 0 0 1060.8066487800679 -81.98590497311001 0 -81.98590497311001 -890.70982036790804 0 0 0 0 30.849363517409074 -648.58274462633949 0 -648.58274462633949 -659.7935542464329 0 0 0 0 3888.7054092331673 2840.9062429783667 0 2840.9062429783667 1805.6982497393715 0 0 0 0 17.795451048759162 -1.1839032666348714 0 -1.1839032666348714 -3.2174816978990832 0 0 0 0 3477.3500846811803 1048.6633576266363 0 1048.6633576266363 481.30005092254873 0 0 0 0 2998.2550706959446 1619.0302942575565 0 1619.0302942575565 1173.5068793916485 0 0 0 0 4497.4656349992874 1812.8369451772764 0 1812.8369451772764 552.66767841989713 0 0 0 0 2001.7378694084764 948.58411441819476 0 948.58411441819476 1182.3497309708332 0 0 0 0 3206.6327455282699 1332.0407988999973 0 1332.0407988999973 1014.2250933736618 0 0 0 0 1796.5099290566868 1078.5389139534793 0 1078.5389139534793 1634.1489783023731 0 0 0 0 2829.1164950197563 2013.605364067158 0 2013.605364067158 1857.4244290990468 0 0 0 0 2556.029943028494 3900.0731655436139 0 3900.0731655436139 2389.5946543271498 0 0 0 0 3597.9736489339703 1275.7627763475939 0 1275.7627763475939 171.81488508149187 0 0 0 0 1430.2376497207442 53.774241257193253 0 53.774241257193253 1093.214392595007 0 0 0 0 759.68461229403874 1134.0019057126651 0 1134.0019057126651 347.91257199204438 0 0 0 0 952.1795169656707 -370.65102889139104 0 -370.65102889139104 -868.64771958100346 0 0 0 0 1452.4882977145899 350.26415438776939 0 350.26415438776939 -3615.4649563652602 0 0 0 0 753.41609844482446 246.07951639383646 0 246.07951639383646 -1726.0129646670357 0 0 0 0 112.14747270391405 6.0418278922610842 0 6.0418278922610842 -4.832907465899325 0 0 0 0 337.19340032014588 -439.16487349153442 0 -439.16487349153442 -1344.9279789098559 0 0 0 0 598.40938052839192 2365.10021119571 0 2365.10021119571 633.62624649757254 0 0 0 0 1459.8768678432461 1418.7721816098731 0 1418.7721816098731 -400.40136569442438 0 0 0 0 1557.6789266535488 1787.980751584148 0 1787.980751584148 980.31946646577262 0 0 0 0 51.854216503851148 -3.6814085636669063 0 -3.6814085636669063 -12.022856244569548 0 0 0 0 2842.6881661660154 146.28653412348285 0 146.28653412348285 -1351.4803920005525 0 0 0 0 896.74970875351573 361.35416700678843 0 361.35416700678843 115.41871943089222 0 0 0 0 4151.2384302998544 668.38695938559249 0 668.38695938559249 -1303.6708755550835 0 0 0 0 3823.9047569639661 2201.2989981714745 0 2201.2989981714745 -260.54789097377079 0 0 0 0 1886.4317944765062 -889.33698824005387 0 -889.33698824005387 -1127.3332858722686 0 0 0 0 49.917816790569759 7.3567927481482798 0 7.3567927481482798 -1.0340114420217714 0 0 0 0 2029.4980588840262 2793.3725646078583 0 2793.3725646078583 372.48749697589301 0 0 0 0 2850.3623950540932 2182.1180052458285 0 2182.1180052458285 929.65062376174797 0 0 0 0 4166.6468978743796 224.20691606272158 0 224.20691606272158 -1034.3422709210699 0 0 0 0 1601.1518308148079 -312.22536829194814 0 -312.22536829194814 -790.26569099801918 0 0 0 0 2452.9691853988552 274.12419859168108 0 274.12419859168108 -405.23228585198103 0 0 0 0 1560.4168054348993 -234.76330353970502 0 -234.76330353970502 -580.85683796280955 0 0 0 0 1020.65050705662 -532.34444485589847 0 -532.34444485589847 -431.51231217258464 0 0 0 0 433.83807995414827 -505.46893679485152 0 -505.46893679485152 -2325.681834046688 0 0 0 0 489.10933565330197 495.988377061454 0 495.988377061454 -1273.5380585181629 0 0 0 0 4.3311734669460975 6.684493649675268 0 6.684493649675268 -4.9714029790631811 0 0 0 0 -328.73847239383031 927.98243845931347 0 927.98243845931347 1194.7646175475793 0 0 0 0 -153.02528577105113 -457.30617438885702 0 -457.30617438885702 -303.657146140642 0 0 0 0 556.4410291664426 1108.2364359270778 0 1108.2364359270778 -476.26814403764911 0 0 0 0 357.57636633593938 -163.22374474746852 0 -163.22374474746852 -1169.1559693997638 0 0 0 0 -89.136644994141534 490.51644442282759 0 490.51644442282759 239.29124711144505 0 0 0 0 631.15006319519307 580.38303150232991 0 580.38303150232991 -1044.491285899011 0 0 0 0 9.9017875562426525 15.389685677599772 0 15.389685677599772 -10.627624915467106 0 0 0 0 258.54734148872376 727.56241576311731 0 727.56241576311731 -355.79349338497286 0 0 0 0 -299.160474370874 -444.41822566100609 0 -444.41822566100609 304.26937264469461 0 0 0 0 210.63327079606825 206.72638190067482 0 206.72638190067482 -855.5842019676511 0 0 0 0 -791.60815764770086 101.70475862729859 0 101.70475862729859 -611.33721155424519 0 0 0 0 1610.4075033078116 362.8418461932672 0 362.8418461932672 -1116.9648323532601 0 0 0 0 199.55206804558838 197.35751441081572 0 197.35751441081572 -412.46015512808663 0 0 0 0 2.9888856562692467 3.9638965260986083 0 3.9638965260986083 -2.0175496160252724 0 0 0 0 -1772.4481977815303 2000.0088004022355 0 2000.0088004022355 -922.57900815670928 0 0 0 0 2111.3220269396988 -781.10818041724883 0 -781.10818041724883 -760.19559331731534 0 0 0 0 -1716.2265389832319 488.58953192117633 0 488.58953192117633 -278.96061738240951 0 0 0 0 479.34056487318594 4.2702896026016788 0 4.2702896026016788 -1516.3978636139698 0 0 0 0 1206.2896403518389 -167.35490172274763 0 -167.35490172274763 -627.39382022664722 0 0 0 0 378.34577663955861 737.73732130691792 0 737.73732130691792 1.3013636980031151 0 0 0 0 -575.64596719131805 219.25593162502128 0 219.25593162502128 -44.552730632501834 0 0 0 0 347.32611211074982 543.59527973587751 0 543.59527973587751 -862.26359773248896 0 0 0 0 134.5050889735503 268.50466883433751 0 268.50466883433751 -89.541384760242636 0 0 0 0 1081.0704460669658 314.85389134744224 0 314.85389134744224 -274.03897603913771 0 0 0 0 169.95539556445146 416.90495824201093 0 416.90495824201093 260.15727451629607 0 0 0 0 -171.78954276311561 476.46673289680064 0 476.46673289680064 -1322.9676701379365 0 0 0 0 -752.82154814530804 492.49079788325042 0 492.49079788325042 48.38556387521669 0 0 0 0 -518.34384253923781 437.5088125538432 0 437.5088125538432 -28.50262527472951 0 0 0 0 549.02610241135699 -773.99904433664165 0 -773.99904433664165 -1725.6641199414712 0 0 0 0 69.057846788742609 129.63081975878669 0 129.63081975878669 -168.35052185426184 0 0 0 0 -318.56291852460708 -907.59171253576733 0 -907.59171253576733 -1341.2965509111309 0 0 0 0 -1066.4099375236547 -202.44592932884439 0 -202.44592932884439 -1303.1528100940891 0 0 0 0 776.88278951251414 -73.519136969182 0 -73.519136969182 -1898.8232978947094 0 0 0 0 60.544954510762295 -12.06683491042954 0 -12.06683491042954 -3.036155664285666 0 0 0 0 40.750922669685679 90.667320749456849 0 90.667320749456849 -40.649211138628118 0 0 0 0 16.585919381706333 19.964597131755163 0 19.964597131755163 -12.527947003868832 0 0 0 0 343.62749856687151 -316.08431469282141 0 -316.08431469282141 374.33548190394595 0 0 0 0 843.2796489871107 -315.00715147918129 0 -315.00715147918129 -1430.697916830658 0 0 0 0 560.45559232140658 -640.95941794864632 0 -640.95941794864632 116.51094061166174 0 0 0 0 292.61177777522244 -2.4436430632435133 0 -2.4436430632435133 -747.4985108355994 0 0 0 0 -711.53491984342691 846.58681617367256 0 846.58681617367256 -938.05850374426859 0 0 0 0 2072.9353415519872 -954.37473878972321 0 -954.37473878972321 -518.90368065556027 0 0 0 0 1625.0826711699483 -996.36603036680708 0 -996.36603036680708 -551.54344636255814 0 0 0 0 447.52811256068526 -852.23717313791508 0 -852.23717313791508 -515.48508387098536 0 0 0 0 986.93142037966754 -1082.1966178231587 0 -1082.1966178231587 -661.26151668954662 0 0 0 0 895.12072168121813 -1285.1294201034575 0 -1285.1294201034575 -36.514183455193461 0 0 0 0 20.118696683755843 -813.54095751798673 0 -813.54095751798673 -1213.209733506653 0 0 0 0 -128.49079105112469 -1049.5975890929465 0 -1049.5975890929465 -525.23011889409054 0 0 0 0 475.51789610163542 -687.38095120492153 0 -687.38095120492153 -1288.9058401584471 0 0 0 0 492.75751195792691 -678.96494448825956 0 -678.96494448825956 -307.70665874450401 0 0 0 0 620.69422989551094 -866.94218593085816 0 -866.94218593085816 -1843.3996046083773 0 0 0 0 -316.07188421532919 -809.15936931734586 0 -809.15936931734586 -125.22750664105456 0 0 0 0 -517.83774831729534 575.44868765379056 0 575.44868765379056 -1761.3929849629922 0 0 0 0 330.70098310749745 301.79107702443252 0 301.79107702443252 -716.54190571980871 0 0 0 0 108.74914729091489 -1.4319383667084065 0 -1.4319383667084065 -4.0202061852137527 0 0 0 0 867.77378356308327 -354.39376928366119 0 -354.39376928366119 -3401.8392381595881 0 0 0 0 -162.72243473798153 -364.78467317004561 0 -364.78467317004561 40.320357604742412 0 0 0 0 -177.06793860998005 -1133.8193687219161 0 -1133.8193687219161 -2108.1357408066842 0 0 0 0 -229.76494163903408 804.9031695009387 0 804.9031695009387 -1457.8445478386107 0 0 0 0 805.3915835020307 190.29446530793086 0 190.29446530793086 -864.08918209741819 0 0 0 0 630.50935971962645 -676.35250578788236 0 -676.35250578788236 316.48369749228323 0 0 0 0 828.58308504072193 707.27551498433206 0 707.27551498433206 416.17088206254152 0 0 0 0 3.8938640820848889 -4.8362565969201228 0 -4.8362565969201228 4.3224598021871543 0 0 0 0 1349.9051757919515 -261.90388330767189 0 -261.90388330767189 532.52571595892846 0 0 0 0 11.56438314114348 -518.10298880296955 0 -518.10298880296955 56.737088785304195 0 0 0 0 -407.64233386903652 -664.14793175797831 0 -664.14793175797831 220.22683091784893 0 0 0 0 1057.5770789669186 705.65024161702172 0 705.65024161702172 746.65577477940997 0 0 0 0 1497.427265427672 35.891254400576599 0 35.891254400576599 267.02748759806525 0 0 0 0 2051.8289063394514 815.71085182478282 0 815.71085182478282 412.14104634753221 0 0 0 0 504.1100252019969 97.027046922988433 0 97.027046922988433 452.3052926071714 0 0 0 0 1323.1574227991332 793.22330900493148 0 793.22330900493148 190.47025711553715 0 0 0 0 1284.720619366708 928.292674893401 0 928.292674893401 730.77446150888329 0 0 0 0 2389.1266850844549 888.93993794600885 0 888.93993794600885 0.54517712197709367 0 0 0 0 2737.6628897494747 -1134.9423895544087 0 -1134.9423895544087 -316.38476179143731 0 0 0 0 3022.9437994093096 528.46947200745672 0 528.46947200745672 -387.45062776144209 0 0 0 0 851.23259325277468 415.87548766516437 0 415.87548766516437 1.0638417846491646 0 0 0 0 6.5813721263649256 -3.2157004377428109 0 -3.2157004377428109 3.5221216652855594 0 0 0 0 7.53422043678367 -8.2038668036758793 0 -8.2038668036758793 8.3285130837439212 0 0 0 0 1327.2587570116521 -623.59535041814229 0 -623.59535041814229 -204.9208911383073 0 0 0 0 469.33444008859806 -185.81032199623564 0 -185.81032199623564 -270.59037977836448 0 0 0 0 1696.0533608666883 -863.40732901764636 0 -863.40732901764636 -330.97480936771558 0 0 0 0 13.828117238335153 -929.85725557759258 0 -929.85725557759258 40.500469589505883 0 0 0 0 1708.6293072346734 -744.08521092277124 0 -744.08521092277124 -114.25539701436651 0 0 0 0 3625.4306551771951 -387.63776072036427 0 -387.63776072036427 -0.54952750969862818 0 0 0 0 4996.3148852086379 -667.14301072491492 0 -667.14301072491492 -758.9809873628634 0 0 0 0 3876.8051981447206 -1080.2528994240618 0 -1080.2528994240618 -590.59661860724623 0 0 0 0 4254.1761183031485 -952.93002756432179 0 -952.93002756432179 -190.2048281651104 0 0 0 0 4378.3415535057866 -500.84939660497395 0 -500.84939660497395 -277.33303492599998 0 0 0 0 3843.0294672119198 -1053.6133106989839 0 -1053.6133106989839 -404.75774045829803 0 0 0 0 5079.0787856559036 -220.64228986035533 0 -220.64228986035533 137.48783914054067 0 0 0 0 4173.8043392951804 -1709.8774148351288 0 -1709.8774148351288 -521.13669811386433 0 0 0 0 4015.8328014586587 -1452.3269167260835 0 -1452.3269167260835 -691.67743101082863 0 0 0 0 1548.1476024338626 -1461.5767521748426 0 -1461.5767521748426 -68.088546395161757 0 0 0 0 3.4920882178994361 -2065.2741127803847 0 -2065.2741127803847 1234.0709343120911 0 0 0 0 715.20940406958107 -1378.438777125883 0 -1378.438777125883 281.31238198445942 0 0 0 0 -2361.4358951196773 -140.8813444916932 0 -140.8813444916932 295.38427819588924 0 0 0 0 4171.7634731184226 -2568.9978636144097 0 -2568.9978636144097 102.70607405410487 0 0 0 0 1155.7515462500742 -1138.629619203859 0 -1138.629619203859 397.08849864689364 0 0 0 0 4075.9524531632851 -1210.826052399736 0 -1210.826052399736 177.93287868621366 0 0 0 0 9333.5761807517847 -881.77046334386887 0 -881.77046334386887 -47.341056050163274 0 0 0 0 9508.1177066168457 -331.86189443257831 0 -331.86189443257831 110.10739973787383 0 0 0 0 5239.5132039285272 -479.52575686091734 0 -479.52575686091734 4569.5010283828242 0 0 0 0 2277.6054947252269 2632.5553463435917 0 2632.5553463435917 2214.6500901143286 0 0 0 0 1412.4307318562642 -764.98200885278493 0 -764.98200885278493 3596.7662650391044 0 0 0 0 21.507513511081925 -0.077577121947673966 0 -0.077577121947673966 -5.7302006919164734 0 0 0 0 3566.1926950964844 -3950.8179976256997 0 -3950.8179976256997 2922.7694050293076 0 0 0 0 2411.3062325160136 1305.35041285327 0 1305.35041285327 1043.0760202890922 0 0 0 0 4211.0374056964065 3018.0402915452742 0 3018.0402915452742 1327.0118825214267 0 0 0 0 -461.72094548773021 6.8105049550385957 0 6.8105049550385957 1812.3065926803447 0 0 0 0 -317.80001408734825 1667.7498213598792 0 1667.7498213598792 2280.1073337759144 0 0 0 0 4.3854867429214437 6.6804978518220963 0 6.6804978518220963 -5.6347491646487011 0 0 0 0 -1888.43107079521 -3657.5518588801842 0 -3657.5518588801842 141.4687865535343 0 0 0 0 4221.1971013120783 -1000.9455048879344 0 -1000.9455048879344 868.20709439238658 0 0 0 0 4705.3419197490439 -999.39546757060828 0 -999.39546757060828 458.8187069824661 0 0 0 0 4548.2657223369461 -704.6872405276066 0 -704.6872405276066 1009.1650467456686 0 0 0 0 5275.3859575479455 -683.93745972018132 0 -683.93745972018132 611.657713993475 0 0 0 0 4435.4359566241474 -1378.2360045630344 0 -1378.2360045630344 -920.37726316694 0 0 0 0 3648.0995661402412 -865.79537362791916 0 -865.79537362791916 -147.76658080794141 0 0 0 0 4996.6496914944146 -1861.6688743647901 0 -1861.6688743647901 479.62223355119141 0 0 0 0 1178.2451868503049 632.8397791599275 0 632.8397791599275 417.33250376669912 0 0 0 0 1886.2797725234705 621.9849361740587 0 621.9849361740587 245.19143858008738 0 0 0 0 3099.1742419007933 2056.4955523448361 0 2056.4955523448361 1055.5396709979118 0 0 0 0 4028.2457290610182 -49.07987197131888 0 -49.07987197131888 124.75012659496008 0 0 0 0 4568.6763080434757 223.32827018137777 0 223.32827018137777 -428.29711325187327 0 0 0 0 4399.5221319393604 -576.49444383882224 0 -576.49444383882224 -942.27035420203993 0 0 0 0 2694.7458017234749 -158.16244869879188 0 -158.16244869879188 -381.54587002476046 0 0 0 0 2798.5363221612934 563.29216958148072 0 563.29216958148072 -580.93665290118406 0 0 0 0 2516.8475761539885 188.72085792149778 0 188.72085792149778 -1161.8044117552513 0 0 0 0 2137.4457050214842 -457.68819196193169 0 -457.68819196193169 -825.73159639491496 0 0 0 0 383.59959581516887 -140.37294310583411 0 -140.37294310583411 -793.68627404339441 0 0 0 0 3450.1546247066944 -1356.9794168165256 0 -1356.9794168165256 -861.82282504917021 0 0 0 0 3712.935593209404 -1041.5420072828795 0 -1041.5420072828795 -1267.6218542999814 0 0 0 0 5000.6049027687841 -1445.6713737787964 0 -1445.6713737787964 -879.15538797165675 0 0 0 0 4425.0906010766048 -1156.9370488650507 0 -1156.9370488650507 -0.23010530224559034 0 0 0 0 -0.76007234097874843 7.3793734227860739 0 7.3793734227860739 11.826355283787413 0 0 0 0 25.733319319959264 53.933874456168951 0 53.933874456168951 5.0052996790009274 0 0 0 0 1105.8955859980197 505.96597362751879 0 505.96597362751879 242.15896419250802 0 0 0 0 400.84383766193059 118.90177161212353 0 118.90177161212353 -243.84599241148499 0 0 0 0 401.39923958395957 545.05876191283596 0 545.05876191283596 304.19095663524467 0 0 0 0 2649.8729499309266 628.54593571005944 0 628.54593571005944 -8.998689947246703 0 0 0 0 1666.6323968496436 431.97825424497671 0 431.97825424497671 6.9649757574477462 0 0 0 0 2691.8060717106418 368.15140054110486 0 368.15140054110486 -8.0470035359448389 0 0 0 0 -496.69902257122158 572.42864496382572 0 572.42864496382572 -19.463102570300634 0 0 0 0 2.4451729516909779 2.4722182295107586 0 2.4722182295107586 3.2452445999637867 0 0 0 0 1825.7659699994838 903.53943968338785 0 903.53943968338785 253.08321463814787 0 0 0 0 1469.658558245821 583.70347733300218 0 583.70347733300218 128.04268479858524 0 0 0 0 619.47450216017023 330.50883633258815 0 330.50883633258815 31.487694725080985 0 0 0 0 1440.6132506307185 636.22691567979064 0 636.22691567979064 33.384483287016508 0 0 0 0 1351.9119117908122 810.2923105313065 0 810.2923105313065 85.871077922327117 0 0 0 0 1502.8629551636986 644.52320084742144 0 644.52320084742144 14.498628979075932 0 0 0 0 2292.673110599666 285.99547217805963 0 285.99547217805963 373.01618729315237 0 0 0 0 1108.1342083131894 637.13059695183665 0 637.13059695183665 1062.735518957787 0 0 0 0 1596.6286103140665 1208.8692250027152 0 1208.8692250027152 554.19402791506991 0 0 0 0 8.2669109216486731 4.8373093732998029 0 4.8373093732998029 2.9351265122490613 0 0 0 0 47.651777524559293 645.50890293773 0 645.50890293773 1215.6928564399273 0 0 0 0 125.64231110064429 -98.500628713499282 0 -98.500628713499282 237.63886687795548 0 0 0 0 10.417345587409347 10.723047138488369 0 10.723047138488369 12.277919398530175 0 0 0 0 278.60201219432929 90.375056155583252 0 90.375056155583252 -258.59130637271937 0 0 0 0 89.702275929157622 201.53343118924639 0 201.53343118924639 582.47344800939516 0 0 0 0 102.74618147285946 32.978540444207738 0 32.978540444207738 9.3986388678495132 0 0 0 0 212.2145845212508 162.60888081679082 0 162.60888081679082 237.27937095096968 0 0 0 0 72.077146406372776 29.545024961846366 0 29.545024961846366 12.062321884951416 0 0 0 0 103.35564235509082 33.755550694102226 0 33.755550694102226 7.4573816759620968 0 0 0 0 103.07836304602097 32.199314758240689 0 32.199314758240689 8.856940677042985 0 0 0 0 45.273909636948417 -4.6988997587469044 0 -4.6988997587469044 -16.753281533570878 0 0 0 0 56.974039334447298 -7.5970798362111509 0 -7.5970798362111509 -15.436136267502548 0 0 0 0 65.256359213108226 6.9149888556010097 0 6.9149888556010097 1.221352607235076 0 0 0 0 59.828540488306317 9.9675488609297531 0 9.9675488609297531 1.5374082601851455 0 0 0 0 86.022517151950524 57.23541058094105 0 57.23541058094105 -156.52839692125872 0 0 0 0 38.065708996212663 -10.928159168775608 0 -10.928159168775608 -17.795234108151998 0 0 0 0 -101.02210026694956 31.611129788221604 0 31.611129788221604 43.645924749651613 0 0 0 0 99.813943711691536 266.93631274203199 0 266.93631274203199 -31.435178861847533 0 0 0 0 297.94050539699674 -35.404876673911076 0 -35.404876673911076 11.163773458862124 0 0 0 0 -11.382843763713026 51.473170203468968 0 51.473170203468968 -9.2571623530820943 0 0 0 0 29.762336488947028 -14.17793102366781 0 -14.17793102366781 -7.6333497528837482 0 0 0 0 68.795267638386576 17.070188472631003 0 17.070188472631003 9.4173977592764686 0 0 0 0 64.459157802193658 1.0740094697448512 0 1.0740094697448512 3.2886457309563184 0 0 0 0 64.78814654496091 0.56113604036733022 0 0.56113604036733022 -3.9517937589712346 0 0 0 0 64.668041198863648 4.4166942551272541 0 4.4166942551272541 -3.6469043992087791 0 0 0 0 65.382904575235443 3.2914278983184886 0 3.2914278983184886 -1.9375508036532665 0 0 0 0 64.814586590713589 3.3427383702223779 0 3.3427383702223779 -1.3442165984311032 0 0 0 0 -65.740734410966979 -219.68440783098913 0 -219.68440783098913 -306.81738056550512 0 0 0 0 -71.744051371046226 -212.62137496939886 0 -212.62137496939886 -287.51252271559679 0 0 0 0 46.754493701263272 -15.766353121860931 0 -15.766353121860931 -13.18157953222639 0 0 0 0 78.085970034037018 -0.26745905016559846 0 -0.26745905016559846 -1.6578304115532774 0 0 0 0 29.458958599454547 18.341956569176176 0 18.341956569176176 -7.1807892725879583 0 0 0 0 23.167590624005243 222.85384788685906 0 222.85384788685906 -221.3221188468724 0 0 0 0 -226.73994708477403 -483.56643275840997 0 -483.56643275840997 -415.42922230981344 0 0 0 0 5.4215635650770082 -0.43841824992611578 0 -0.43841824992611578 -5.0285672825877015 0 0 0 0 -39.975233629222203 -55.177670486970612 0 -55.177670486970612 -234.36917960758274 0 0 0 0 41.008695167621113 -12.664856608718821 0 -12.664856608718821 -15.554283968465054 0 0 0 0 64.744649156826199 -0.78386000858790794 0 -0.78386000858790794 -13.707561139677864 0 0 0 0 -119.40058312741166 -302.44077342001719 0 -302.44077342001719 -344.82052207638719 0 0 0 0 516.88416244396649 200.73558646748688 0 200.73558646748688 -21.292928939298235 0 0 0 0 541.85062921893768 241.11427207039179 0 241.11427207039179 -100.30931238911171 0 0 0 0 9.7368890844434759 -0.99771420403294542 0 -0.99771420403294542 -8.9412180216249961 0 0 0 0 359.25226122344611 212.91609228968991 0 212.91609228968991 12.507876728334395 0 0 0 0 257.84465753972472 -71.625977932370915 0 -71.625977932370915 -301.52795233947199 0 0 0 0 868.96841097998004 213.52412805830988 0 213.52412805830988 -219.53870365717012 0 0 0 0 16.400849804087443 2.7337519943615405 0 2.7337519943615405 -11.167228971063766 0 0 0 0 -473.36414066980069 -124.91731642586728 0 -124.91731642586728 -500.87153864560605 0 0 0 0 -492.35915120595746 -114.69818724579545 0 -114.69818724579545 -458.3815728581103 0 0 0 0 -538.24631203347235 97.91773069671035 0 97.91773069671035 -481.98238801409752 0 0 0 0 13.507346257659094 0.04207825154523448 0 0.04207825154523448 -4.8489886087391554 0 0 0 0 -166.09443233493948 -24.704530379591233 0 -24.704530379591233 -293.6597998025095 0 0 0 0 -76.193552402954083 -192.28628555171417 0 -192.28628555171417 -255.73941433076652 0 0 0 0 -60.851236126327422 -169.57777519847355 0 -169.57777519847355 -329.02946439578773 0 0 0 0 10.92859407553766 -1.3033416306262069 0 -1.3033416306262069 -10.261380913870543 0 0 0 0 -113.15446149444324 8.5040595139298603 0 8.5040595139298603 -341.52425511942238 0 0 0 0 -136.22419716495642 -106.79695335482779 0 -106.79695335482779 -308.4459341813963 0 0 0 0 -503.33263990442174 118.04770510788035 0 118.04770510788035 -319.27780430508938 0 0 0 0 -384.28102262309403 -47.790819346009812 0 -47.790819346009812 -288.9999919350048 0 0 0 0 -204.82403166980657 -95.697029631093756 0 -95.697029631093756 -413.52464732643057 0 0 0 0 -327.66375532641541 18.572096230154784 0 18.572096230154784 -385.66931489316585 0 0 0 0 -392.57507934822934 -11.049054581249948 0 -11.049054581249948 -170.19167669875424 0 0 0 0 -467.70633179540164 105.29297547016722 0 105.29297547016722 -349.72443233959712 0 0 0 0 -442.38609713024925 30.268690265384066 0 30.268690265384066 -393.34631169444765 0 0 0 0 -433.65576234558102 11.826840131044264 0 11.826840131044264 -571.25170402622098 0 0 0 0 -488.23377531797451 94.494315443205778 0 94.494315443205778 -223.97140135196878 0 0 0 0 -269.38366670624237 -193.93483889541949 0 -193.93483889541949 -394.63277430240669 0 0 0 0 8.8169814167848699 -0.73242840473538706 0 -0.73242840473538706 -9.2363903684168704 0 0 0 0 -503.98034170668689 118.94412687672593 0 118.94412687672593 -238.35441837268445 0 0 0 0 105.96768926495861 239.09557968944227 0 239.09557968944227 -169.86918071657874 0 0 0 0 -301.07706506201066 0.93817975410820509 0 0.93817975410820509 -110.27476659754575 0 0 0 0 237.94766887641163 200.85240144654017 0 200.85240144654017 -294.21784563152505 0 0 0 0 -123.29244994238252 37.813126552926406 0 37.813126552926406 -110.79489467308304 0 0 0 0 -0.32056179744625979 -2.126554106948106 0 -2.126554106948106 0.97862626029181143 0 0 0 0 -568.07168260889011 198.66808688115543 0 198.66808688115543 -51.193760182755796 0 0 0 0 147.5036612907279 -201.62902239465393 0 -201.62902239465393 -196.78902609238867 0 0 0 0 -160.29992301126185 176.8501518002704 0 176.8501518002704 -453.14110749764359 0 0 0 0 607.62788791506318 332.59860436535746 0 332.59860436535746 32.117328690787872 0 0 0 0 547.70635141000093 122.95782605366458 0 122.95782605366458 -255.99416118446698 0 0 0 0 221.3823359848684 242.91970059215021 0 242.91970059215021 60.61693667428699 0 0 0 0 763.73688470259367 389.24847869313089 0 389.24847869313089 -128.76039422597751 0 0 0 0 765.88252594259166 590.94199813364332 0 590.94199813364332 402.72593794730165 0 0 0 0 1044.9109346346668 226.58544366618844 0 226.58544366618844 -3.5420715793870841 0 0 0 0 1011.3625440437027 752.65105911628507 0 752.65105911628507 608.64415761199871 0 0 0 0 1462.2529238968054 733.89509503386398 0 733.89509503386398 14.451250025261288 0 0 0 0 895.8982637744266 517.03675272308783 0 517.03675272308783 185.03818198566478 0 0 0 0 879.0201047003211 482.16808244491858 0 482.16808244491858 155.97475062334161 0 0 0 0 794.01092198885635 492.11558740290479 0 492.11558740290479 25.426283195914039 0 0 0 0 1208.4307118924044 730.90452687316065 0 730.90452687316065 37.784904658033611 0 0 0 0 1263.8049086366645 517.66065739734233 0 517.66065739734233 66.637634592678296 0 0 0 0 -532.02088661004564 254.10948069626303 0 254.10948069626303 326.10357189624347 0 0 0 0 1.7447287462106651 1.9857141845575939 0 1.9857141845575939 4.858980109707014 0 0 0 0 143.08660852210596 519.95576032529266 0 519.95576032529266 104.17377814746527 0 0 0 0 1389.3605186087952 -13.954060844439482 0 -13.954060844439482 -88.284750161484794 0 0 0 0 785.67754711586167 268.48683727221464 0 268.48683727221464 88.822804604891644 0 0 0 0 1791.424687756502 972.58253923122606 0 972.58253923122606 264.60932191918801 0 0 0 0 1013.2618174566451 463.30035643394876 0 463.30035643394876 277.04474400952085 0 0 0 0 1149.4059185972001 336.02197873861132 0 336.02197873861132 57.456266808035252 0 0 0 0 528.0762632976548 -93.733695743593671 0 -93.733695743593671 60.278381126633576 0 0 0 0 288.14542347604583 148.86937700687304 0 148.86937700687304 169.88164297740377 0 0 0 0 384.54228029563092 -90.44775278958673 0 -90.44775278958673 15.199473019754805 0 0 0 0 862.68812849978349 503.29861550381702 0 503.29861550381702 216.67533521544465 0 0 0 0 56.88432359754546 -20.822452427855197 0 -20.822452427855197 3.2037249140045887 0 0 0 0 877.38096275531279 536.60722327905205 0 536.60722327905205 223.26599485496808 0 0 0 0 106.33303137026087 177.30909153617449 0 177.30909153617449 -363.91229719242619 0 0 0 0 -71.883594872662798 139.34643306620364 0 139.34643306620364 -140.22577067709608 0 0 0 0 89.289897516471683 -25.000903668551473 0 -25.000903668551473 -469.45458668408082 0 0 0 0 73.593017153216351 -39.633187277594516 0 -39.633187277594516 -233.64112547203877 0 0 0 0 83.603604340146262 -33.006217894511686 0 -33.006217894511686 7.6673955110218692 0 0 0 0 919.94871814569342 -709.73401704720163 0 -709.73401704720163 -1182.5131838592333 0 0 0 0 2927.1146490754909 824.61449575159349 0 824.61449575159349 -534.69801762284442 0 0 0 0 -120.76829139504116 541.85792644467983 0 541.85792644467983 2234.8919500368065 0 0 0 0 24.566994489885516 -4.4558622479959809 0 -4.4558622479959809 -0.83743543110579566 0 0 0 0 1712.9690602579285 -864.30281767052293 0 -864.30281767052293 -1371.1777795501221 0 0 0 0 313.34474776679417 -737.33766126209957 0 -737.33766126209957 -788.79066342082524 0 0 0 0 1046.9047412065993 -1305.4610987408796 0 -1305.4610987408796 -670.37015161408999 0 0 0 0 287.54426707210951 -686.45796972464268 0 -686.45796972464268 -419.33816557046885 0 0 0 0 -266.00561584113166 -647.3620532335699 0 -647.3620532335699 -399.34170781680132 0 0 0 0 143.26779482609709 -1321.6408081472237 0 -1321.6408081472237 -603.76380028158201 0 0 0 0 -51.133520758390659 -413.33249320706636 0 -413.33249320706636 -338.34946818769095 0 0 0 0 -30.794832469604444 -318.53866838686372 0 -318.53866838686372 -295.95993101972908 0 0 0 0 35.115204372617882 -318.93787279008575 0 -318.93787279008575 -345.88238114090927 0 0 0 0 -260.74936168067507 -366.34035687760843 0 -366.34035687760843 -331.42326587118441 0 0 0 0 -344.36298172865872 -713.26847211940969 0 -713.26847211940969 -454.76144801936243 0 0 0 0 -329.40015384444268 -278.20761925747502 0 -278.20761925747502 -444.56309896507082 0 0 0 0 -633.87274055249873 -240.14567872138741 0 -240.14567872138741 -667.23943557942766 0 0 0 0 -271.05083997040856 -267.96399707605224 0 -267.96399707605224 -473.59566916948825 0 0 0 0 -303.9048601956747 -465.34212562029279 0 -465.34212562029279 -557.18648199290692 0 0 0 0 -993.05929700417619 -561.932729153943 0 -561.932729153943 -362.27110725613602 0 0 0 0 23.196247045823668 -13.715170899323383 0 -13.715170899323383 5.0824474684348928 0 0 0 0 -686.30309285515978 -1253.5575243009062 0 -1253.5575243009062 -500.02715689084835 0 0 0 0 3142.4060833839821 2600.2519219551223 0 2600.2519219551223 709.34940136813202 0 0 0 0 29.533906186401197 3.2088142210772332 0 3.2088142210772332 -4.9410110037122053 0 0 0 0 3744.9937339981261 1298.881113533045 0 1298.881113533045 -42.18923593098134 0 0 0 0 875.96608681418002 1685.4549968320816 0 1685.4549968320816 2494.0115175431565 0 0 0 0 -568.42732372756291 -706.13120793411508 0 -706.13120793411508 -542.0282106984032 0 0 0 0 71.782934505119556 -48.71629865543153 0 -48.71629865543153 21.260072680238508 0 0 0 0 -386.89244388989027 -463.96306382892863 0 -463.96306382892863 -453.60494971420849 0 0 0 0 -336.76322302757762 -530.42018000909411 0 -530.42018000909411 -818.92411842852653 0 0 0 0 324.80549194873311 -431.68261777277746 0 -431.68261777277746 -249.0390895181439 0 0 0 0 2506.8684978158562 2868.591045808098 0 2868.591045808098 3211.7280469791458 0 0 0 0 26.240995773155305 -2.6629069563373235 0 -2.6629069563373235 -2.6130979431477765 0 0 0 0 -573.11474980018102 7522.994781515069 0 7522.994781515069 -316.59477589375638 0 0 0 0 -17.765685909922468 -78.521264330609597 0 -78.521264330609597 -152.53545009742993 0 0 0 0 -35.47624933226507 -223.21546665872154 0 -223.21546665872154 -300.65421015297397 0 0 0 0 342.70327295323659 170.9922594298655 0 170.9922594298655 -211.99720898277133 0 0 0 0 25.821171178459565 -3.11074688729326 0 -3.11074688729326 -10.61295867800299 0 0 0 0 60.240778627451562 -18.132552290031541 0 -18.132552290031541 0.4972971494299685 0 0 0 0 172.1287432484387 -116.87247752668395 0 -116.87247752668395 -354.1523045401409 0 0 0 0 148.2218804002041 31.965739214387213 0 31.965739214387213 -244.02465822639533 0 0 0 0 218.09409939029138 13.915311316016414 0 13.915311316016414 -282.79233017046226 0 0 0 0 3.2116556662621463 6.3794992684166232 0 6.3794992684166232 5.9311355564164945 0 0 0 0 -32.758488488179864 244.20823875294354 0 244.20823875294354 -271.20971003184241 0 0 0 0 144.01093336391205 55.4512590025588 0 55.4512590025588 -89.312895720756387 0 0 0 0 32.968884719961693 -1.4470581802058859 0 -1.4470581802058859 5.9788230890400236 0 0 0 0 111.13134695970803 112.63545706432706 0 112.63545706432706 121.57351972479773 0 0 0 0 154.21042757233954 -37.369247617624524 0 -37.369247617624524 -106.18963495524258 0 0 0 0 39.346091348968912 -20.003368584189502 0 -20.003368584189502 -92.622343943563465 0 0 0 0 114.10149774557794 11.76495357292697 0 11.76495357292697 -85.996925392463709 0 0 0 0 102.52978068147195 -31.922368255657105 0 -31.922368255657105 -3.0193544469965516 0 0 0 0 1219.1354191277587 282.96155879097421 0 282.96155879097421 -357.9672106285434 0 0 0 0 782.31213018750714 90.614278776391075 0 90.614278776391075 -276.08893770659597 0 0 0 0 1059.9248109852742 142.44215134744854 0 142.44215134744854 -436.67559349037037 0 0 0 0 1056.4419533801847 172.29540912820266 0 172.29540912820266 -429.05390071936927 0 0 0 0 1122.0639346745447 116.7235117198652 0 116.7235117198652 -546.94817321174196 0 0 0 0 1239.5956865030748 179.7276576039767 0 179.7276576039767 -517.01204948969098 0 0 0 0 1247.7622355772328 78.070105178343965 0 78.070105178343965 -577.83754345830675 0 0 0 0 1165.9046072094643 41.685999192945019 0 41.685999192945019 -591.9937483411959 0 0 0 0 1163.3325513790405 39.95954945952235 0 39.95954945952235 -542.24909929317437 0 0 0 0 1025.5028391632077 -40.719839219473215 0 -40.719839219473215 -510.54020396800388 0 0 0 0 926.1426515152707 95.085475640948061 0 95.085475640948061 -441.44465566561485 0 0 0 0 1119.4756810369713 50.986552782354408 0 50.986552782354408 -538.53748623573847 0 0 0 0 906.83905579629936 0.99192264760313265 0 0.99192264760313265 -452.81205749378387 0 0 0 0 780.51139995847188 -20.811861696309279 0 -20.811861696309279 -438.85262375291586 0 0 0 0 1021.5114007127559 -43.364721699403162 0 -43.364721699403162 -461.25613600706492 0 0 0 0 696.05293341702054 -156.79018232733051 0 -156.79018232733051 -394.3400224147008 0 0 0 0 817.75060451477475 -133.77340846510015 0 -133.77340846510015 -401.62204809305331 0 0 0 0 622.10452615551185 -5.7755462958884891 0 -5.7755462958884891 -359.88480127515868 0 0 0 0 759.32637324619282 -28.186372494919851 0 -28.186372494919851 -405.24202541600062 0 0 0 0 362.36203111478244 -138.55133625263079 0 -138.55133625263079 -358.89889596968078 0 0 0 0 342.3674494013103 -103.1426137497383 0 -103.1426137497383 -416.9880588335036 0 0 0 0 635.71507046664919 -66.373880948692204 0 -66.373880948692204 -408.93829819313032 0 0 0 0 367.73308049635671 -101.83908953456194 0 -101.83908953456194 -354.30263125605597 0 0 0 0 623.22920421329036 -87.572587191538332 0 -87.572587191538332 -389.1370868970007 0 0 0 0 340.56495318881935 -206.87099395233781 0 -206.87099395233781 -288.21908191764851 0 0 0 0 378.4454917805997 -192.0403677791403 0 -192.0403677791403 -386.65127036768172 0 0 0 0 139.76765599023202 -170.63649049563719 0 -170.63649049563719 -300.79553661259706 0 0 0 0 334.28479641426384 -191.46538729318445 0 -191.46538729318445 -315.37125484749413 0 0 0 0 122.78358754960936 -207.96773125092113 0 -207.96773125092113 -278.59923879269263 0 0 0 0 -38.726332821504911 -251.17925717684011 0 -251.17925717684011 -259.8622111594741 0 0 0 0 154.76607138993859 -180.74876443151243 0 -180.74876443151243 -358.88399169274999 0 0 0 0 22.945732126856456 -261.65262133875694 0 -261.65262133875694 -337.79346183116604 0 0 0 0 10.18789889193431 -210.02115644353671 0 -210.02115644353671 -457.23652835978646 0 0 0 0 166.93753212151933 -110.34565859944632 0 -110.34565859944632 -379.40883450456749 0 0 0 0 105.55784815418883 -217.46625289630174 0 -217.46625289630174 -488.97984040661322 0 0 0 0 81.891806914267363 -232.39184031057448 0 -232.39184031057448 -388.09178137804111 0 0 0 0 -193.37050722155254 -319.83234522975181 0 -319.83234522975181 -446.47081268450029 0 0 0 0 -120.08121303105145 -377.40737813979649 0 -377.40737813979649 -648.78026208887604 0 0 0 0 -165.26807676343014 -335.30647988652163 0 -335.30647988652163 -424.55791103666161 0 0 0 0 74.726707399153383 -265.45100563043161 0 -265.45100563043161 -480.0560885432933 0 0 0 0 -197.04698459518841 -358.24068117811839 0 -358.24068117811839 -420.8662166693648 0 0 0 0 -14.716367954970337 -316.76741135216071 0 -316.76741135216071 -437.391408783722 0 0 0 0 -255.93257451453246 -316.51640893651165 0 -316.51640893651165 -381.43708393983979 0 0 0 0 -285.85214841808192 -470.90854615395074 0 -470.90854615395074 -516.72845578908164 0 0 0 0 -573.11589279932377 -369.25062482631347 0 -369.25062482631347 -276.07736488999944 0 0 0 0 -662.73801778597408 -557.37187579059719 0 -557.37187579059719 -321.9239283434963 0 0 0 0 -127.46706844784785 -307.96192064601382 0 -307.96192064601382 -357.72637687273345 0 0 0 0 -399.26395247038454 -287.86174603541076 0 -287.86174603541076 -321.38139265364771 0 0 0 0 -272.72181713808095 -404.8353258313291 0 -404.8353258313291 -464.53606692486574 0 0 0 0 -102.73685504682362 -358.87337008033501 0 -358.87337008033501 -409.05427214354495 0 0 0 0 -250.2244813182333 -313.11524022236927 0 -313.11524022236927 -341.73271558303531 0 0 0 0 -97.769384174222068 -329.85871004662749 0 -329.85871004662749 -267.76426121636905 0 0 0 0 42.517548405594425 -267.73371487339682 0 -267.73371487339682 -64.260838178835911 0 0 0 0 73.047785469432711 -383.20421033189814 0 -383.20421033189814 -391.07706834482997 0 0 0 0 302.27059206544072 -68.352163356530582 0 -68.352163356530582 -253.61046625985182 0 0 0 0 155.54816782551643 -272.28594399958547 0 -272.28594399958547 -409.35859566741055 0 0 0 0 40.124491231290449 -193.75292550894665 0 -193.75292550894665 -345.71656246770726 0 0 0 0 47.886298974844976 -202.91601655710588 0 -202.91601655710588 -320.83999824800776 0 0 0 0 581.87933665554738 -149.53012944685361 0 -149.53012944685361 -352.07879789853746 0 0 0 0 598.28909268854477 5.8903941986427526 0 5.8903941986427526 -334.25465170869938 0 0 0 0 653.73578503302269 -78.565453416214041 0 -78.565453416214041 -293.63318056381286 0 0 0 0 554.2056633233442 -61.723077944168836 0 -61.723077944168836 -273.50393410161905 0 0 0 0 622.80397665360579 -183.85411512194833 0 -183.85411512194833 -250.33287590972395 0 0 0 0 530.80035724381742 -417.02701651976167 0 -417.02701651976167 -551.23501828402368 0 0 0 0 853.5467564398175 -227.00665260537758 0 -227.00665260537758 -298.15662257547592 0 0 0 0 256.11994159262395 -12.637379396019242 0 -12.637379396019242 143.88475713560183 0 0 0 0 927.48827527724552 88.145814720387989 0 88.145814720387989 -79.450173091343459 0 0 0 0 738.89993503896403 191.22205617004511 0 191.22205617004511 75.565736426318836 0 0 0 0 584.27846729218436 -58.568805573612735 0 -58.568805573612735 -146.66531144646433 0 0 0 0 909.333849013492 156.0032230122215 0 156.0032230122215 -244.03841693883078 0 0 0 0 902.80132770614 210.98529071843222 0 210.98529071843222 -203.21592509205948 0 0 0 0 1151.7055202099727 331.50003589181779 0 331.50003589181779 -154.8965594373949 0 0 0 0 425.66353685838112 185.65891016749993 0 185.65891016749993 -12.222205056906375 0 0 0 0 353.88539350547762 -68.43886926147502 0 -68.43886926147502 -145.43870147116104 0 0 0 0 8.3573080865409963 -2.703044440582417 0 -2.703044440582417 -4.8886211976966649 0 0 0 0 -326.88702153973281 -911.44734590498047 0 -911.44734590498047 -327.04758712368539 0 0 0 0 4.2416368523512347 -1.6928397765936865 0 -1.6928397765936865 -2.0536020421992589 0 0 0 0 -148.15748698971584 128.59361340185933 0 128.59361340185933 -141.190932311094 0 0 0 0 931.93681218432903 469.70785379458539 0 469.70785379458539 112.90349645021706 0 0 0 0 707.63113540783706 -396.63055292724243 0 -396.63055292724243 -245.21447982301834 0 0 0 0 126.38572086620115 -35.408491566197881 0 -35.408491566197881 -40.830385401131934 0 0 0 0 150.10084430161805 -459.01398309349133 0 -459.01398309349133 -249.75456662423085 0 0 0 0 103.21619926948279 -78.926182750175599 0 -78.926182750175599 36.271606490181995 0 0 0 0 -149.2640256122977 -53.942342100338465 0 -53.942342100338465 -122.41753684688911 0 0 0 0 2274.6246088634944 530.98735439812174 0 530.98735439812174 -154.0633630198829 0 0 0 0 -300.09907995555841 -604.82842498518039 0 -604.82842498518039 -190.54801233151011 0 0 0 0 4690.2734898502604 -1862.5649320980142 0 -1862.5649320980142 2181.0560080423415 0 0 0 0 97.999260435781821 -74.216193929935329 0 -74.216193929935329 37.508228003015688 0 0 0 0 2088.3796568997641 590.76469374430144 0 590.76469374430144 -171.75552009388383 0 0 0 0 517.65271251487138 36.840298936380577 0 36.840298936380577 7.7470605945940179 0 0 0 0 887.41625784200733 -69.471303537637084 0 -69.471303537637084 -119.3877803787542 0 0 0 0 562.06497337133987 -179.09933117793415 0 -179.09933117793415 48.353872524621238 0 0 0 0 827.93716804462019 -65.60330031518447 0 -65.60330031518447 -117.69185426683205 0 0 0 0 169.49302567307313 -18.114514322594459 0 -18.114514322594459 55.421461790532987 0 0 0 0 532.78303749086626 -109.05695299636125 0 -109.05695299636125 15.189732917549236 0 0 0 0 502.20825431384765 -70.796334591641042 0 -70.796334591641042 -24.915888928741253 0 0 0 0 112.30563766181149 -186.04145202443976 0 -186.04145202443976 81.855739524435421 0 0 0 0 106.07942298399871 -74.372125747716581 0 -74.372125747716581 31.377062565003087 0 0 0 0 160.83201443905273 -57.774431667112822 0 -57.774431667112822 -8.7468353543063131 0 0 0 0 152.19562629984284 -89.691812188883887 0 -89.691812188883887 -110.81957356054136 0 0 0 0 153.67103563674027 37.56486346622296 0 37.56486346622296 -15.638672543440123 0 0 0 0 252.85356085108651 -15.212362504333214 0 -15.212362504333214 -124.80449032162142 0 0 0 0 603.76862838928355 240.74004979331403 0 240.74004979331403 -257.02445716949967 0 0 0 0 538.70140314911259 -135.97422185898509 0 -135.97422185898509 -298.96838997705999 0 0 0 0 1039.8544372532342 888.88549208250151 0 888.88549208250151 38.196659367081956 0 0 0 0 504.11732737690909 166.18105509620548 0 166.18105509620548 106.71583952481681 0 0 0 0 378.95849379576975 207.04797640925835 0 207.04797640925835 -336.05153613846346 0 0 0 0 306.36187287575012 10.798200228373332 0 10.798200228373332 -325.46829355672162 0 0 0 0 347.06237645429792 87.351488194146441 0 87.351488194146441 -223.92547210210591 0 0 0 0 357.04469662600786 -101.13003359667152 0 -101.13003359667152 -378.31523198143623 0 0 0 0 122.97251792205498 -96.345963846275026 0 -96.345963846275026 -309.63721439772917 0 0 0 0 -13.503442179629928 4.6285021164459295 0 4.6285021164459295 -335.33508937921079 0 0 0 0 131.03957671785429 -142.69298908465976 0 -142.69298908465976 -438.58198606915039 0 0 0 0 2292.8281536750019 292.66488245462835 0 292.66488245462835 -55.997070836868716 0 0 0 0 -538.36324236594373 -727.81663259114282 0 -727.81663259114282 -281.26539572457079 0 0 0 0 2.7859056584840971 -4.0228958432387856 0 -4.0228958432387856 -3.2933657229402589 0 0 0 0 2064.7083410749619 390.49044292578606 0 390.49044292578606 -97.180451402551626 0 0 0 0 77.747636104759295 -114.20685851382319 0 -114.20685851382319 -241.79312991387155 0 0 0 0 333.30631227949016 129.4233471230414 0 129.4233471230414 1.5410905746601884 0 0 0 0 772.64449871900433 71.75973763561305 0 71.75973763561305 -17.526254685924243 0 0 0 0 876.45640137250302 -101.42840294053258 0 -101.42840294053258 -193.57345542325979 0 0 0 0 486.30838336877059 -507.69858035954599 0 -507.69858035954599 -527.31369086394807 0 0 0 0 773.98699212796055 -175.89245614738343 0 -175.89245614738343 -109.95022354873834 0 0 0 0 808.38347350190452 -81.307432494940258 0 -81.307432494940258 69.722566876625024 0 0 0 0 987.02450959203998 182.12632328240647 0 182.12632328240647 144.89701029241485 0 0 0 0 577.58931040694006 161.26078320661011 0 161.26078320661011 222.86800744739412 0 0 0 0 1019.8251977294276 518.17876019126425 0 518.17876019126425 319.82076625497706 0 0 0 0 604.3922405786725 246.97720088184857 0 246.97720088184857 406.27845929177033 0 0 0 0 1010.4112985389656 501.55479114690183 0 501.55479114690183 136.31668265907024 0 0 0 0 1266.7985081897968 180.71647676044728 0 180.71647676044728 523.73924351926803 0 0 0 0 960.30634909051878 563.03282404162712 0 563.03282404162712 464.40299747473068 0 0 0 0 1123.5606794644555 670.26967221874247 0 670.26967221874247 468.62572977019187 0 0 0 0 1354.7345188670733 708.24972046544769 0 708.24972046544769 56.471440453155083 0 0 0 0 1305.0776256203244 770.67926995814082 0 770.67926995814082 358.48784949245919 0 0 0 0 1378.0976819453281 677.44132371761657 0 677.44132371761657 130.21286418977206 0 0 0 0 1457.7214792445156 522.53639897574135 0 522.53639897574135 211.85551339901843 0 0 0 0 1275.1086814436712 430.2127747705789 0 430.2127747705789 342.92377386493672 0 0 0 0 1317.8755435029743 381.86391659540641 0 381.86391659540641 293.37275520539151 0 0 0 0 1143.6775830164261 606.23726134184551 0 606.23726134184551 193.67171702219298 0 0 0 0 815.38110931190022 403.28195893991006 0 403.28195893991006 325.67104423017372 0 0 0 0 1208.29335621668 495.854727332724 0 495.854727332724 281.73796052374814 0 0 0 0 925.2406718164857 266.65818085691092 0 266.65818085691092 246.32056238051803 0 0 0 0 1055.2786383992352 3.9030040522128502 0 3.9030040522128502 28.563196536205623 0 0 0 0 1277.5602642553858 309.81305429494148 0 309.81305429494148 269.57689620843496 0 0 0 0 1137.367462255701 207.38789444827125 0 207.38789444827125 235.93874058143024 0 0 0 0 1040.3364204255049 406.52751646754052 0 406.52751646754052 294.38680786909663 0 0 0 0 1185.9762276395049 348.79268857095303 0 348.79268857095303 422.31318318345348 0 0 0 0 1342.3785331837425 241.51506366820536 0 241.51506366820536 476.83821064987058 0 0 0 0 1172.1003424171795 145.55255865817836 0 145.55255865817836 544.63265880761287 0 0 0 0 1331.9862457979325 85.980273214644683 0 85.980273214644683 540.58826440544044 0 0 0 0 1373.9807297636435 58.684626990427091 0 58.684626990427091 534.07827699403549 0 0 0 0 1493.4438489980894 344.26098086926146 0 344.26098086926146 541.70332318998362 0 0 0 0 2006.1281893348787 119.493822430097 0 119.493822430097 244.86484335662635 0 0 0 0 9.3316282591524669 -3.820524900282436 0 -3.820524900282436 0.68553243556593024 0 0 0 0 108.21744746736658 -679.72452088535624 0 -679.72452088535624 -254.46140867934696 0 0 0 0 937.15577122801915 608.47196441340611 0 608.47196441340611 321.53464333012039 0 0 0 0 2015.9888773286314 1063.51414734078 0 1063.51414734078 513.4264995097592 0 0 0 0 1383.0630614239199 407.20758197350506 0 407.20758197350506 336.19160484496979 0 0 0 0 70.927582952237572 -55.874898932664905 0 -55.874898932664905 -33.471394091402203 0 0 0 0 135.32964194015949 111.03686241328495 0 111.03686241328495 320.28343510769827 0 0 0 0 117.20238175743725 -18.945052493776352 0 -18.945052493776352 -56.123707389757669 0 0 0 0 32.324648653596284 -14.765724797202466 0 -14.765724797202466 6.2077685155839246 0 0 0 0 154.29346906172577 -173.16994408978601 0 -173.16994408978601 165.78953399503416 0 0 0 0 86.249035398155684 -43.748498649809449 0 -43.748498649809449 34.124601283457338 0 0 0 0 6.8536077354928011 6.1009591482250585 0 6.1009591482250585 2.7458465163151113 0 0 0 0 106.63729766603865 192.0141805313412 0 192.0141805313412 -209.97076215048224 0 0 0 0 -9.9075220873928629 -81.267689299997301 0 -81.267689299997301 241.26266722672148 0 0 0 0 -84.333201077912236 -74.109692530705672 0 -74.109692530705672 240.58135225450562 0 0 0 0 310.10267894381832 -80.707397784039131 0 -80.707397784039131 81.6865724240796 0 0 0 0 338.88973846553199 -295.75742470247872 0 -295.75742470247872 258.98697928592446 0 0 0 0 536.89941105054459 -268.67329190308999 0 -268.67329190308999 -158.68551556759155 0 0 0 0 935.81652667501476 -142.68997502559728 0 -142.68997502559728 12.447095506589505 0 0 0 0 869.02811142137216 -75.679272068343039 0 -75.679272068343039 154.450505335559 0 0 0 0 1408.3348375756905 140.75085634280163 0 140.75085634280163 164.70982387473651 0 0 0 0 1246.8930433970527 -478.06036057770655 0 -478.06036057770655 199.5279381446876 0 0 0 0 1379.8941726962075 14.138890159683399 0 14.138890159683399 140.79709886559272 0 0 0 0 258.97008713151445 2.705151735188565 0 2.705151735188565 313.04193880151138 0 0 0 0 533.14929246652173 -147.89660345141101 0 -147.89660345141101 92.791899924341237 0 0 0 0 177.90211372068734 -178.46230466345639 0 -178.46230466345639 547.50482662409104 0 0 0 0 5.3841783805267482 2.1851188990159187 0 2.1851188990159187 1.2922751969088284 0 0 0 0 694.09636720153503 401.36353559509234 0 401.36353559509234 457.19588761952878 0 0 0 0 -20.828516388515709 304.40416025011268 0 304.40416025011268 502.87413104193888 0 0 0 0 -192.08760997427453 -186.97429495514413 0 -186.97429495514413 687.22628639232437 0 0 0 0 1.2992085367365576 -2.3597796894704857 0 -2.3597796894704857 3.838975105341123 0 0 0 0 -162.65720864752075 40.192193199857854 0 40.192193199857854 578.61263951353021 0 0 0 0 155.90588811032285 -354.04515425833296 0 -354.04515425833296 90.313097555923832 0 0 0 0 -32.447614362405147 -254.59814351677642 0 -254.59814351677642 694.52497599943786 0 0 0 0 205.25640856273822 155.69477161078453 0 155.69477161078453 -108.21481429079762 0 0 0 0 8.579278002915089 79.195264679161369 0 79.195264679161369 183.11339850627508 0 0 0 0 2.3970446034620068 -5.1067941640584422 0 -5.1067941640584422 8.0104865514554469 0 0 0 0 -23.130780787643744 -211.07716472679249 0 -211.07716472679249 -50.987398056242398 0 0 0 0 -42.752009727788391 29.163853365777356 0 29.163853365777356 466.94229887372092 0 0 0 0 9.7203171859146096 13.334877544373171 0 13.334877544373171 322.95048895051775 0 0 0 0 -159.64915120221394 131.87595665106124 0 131.87595665106124 392.43364584149049 0 0 0 0 -20.33766300532443 35.392967483606867 0 35.392967483606867 -17.904776014936488 0 0 0 0 -7.6482716304308269 183.42922189060994 0 183.42922189060994 325.57806379521082 0 0 0 0 7.7032734384563355 1.3449827559983802 0 1.3449827559983802 0.42626477701744836 0 0 0 0 -23.416170404932018 215.14606173355858 0 215.14606173355858 279.16396395922652 0 0 0 0 195.90697506040306 -94.811826270090023 0 -94.811826270090023 -49.749035655853731 0 0 0 0 -30.782041358470451 71.382345433312139 0 71.382345433312139 60.340930540582519 0 0 0 0 -175.08658753638156 -61.474566342554795 0 -61.474566342554795 119.51355252756252 0 0 0 0 407.81925833428977 339.0325790971167 0 339.0325790971167 696.15980118325297 0 0 0 0 3.0520552002952286 0.69598662579541326 0 0.69598662579541326 -0.078943713218828204 0 0 0 0 -18.017563633766258 141.96603101004587 0 141.96603101004587 606.53419476755471 0 0 0 0 0.052271831934831425 0.011932935408665912 0 0.011932935408665912 0.58823527925410946 0 0 0 0 396.14533629128709 14.541500387376573 0 14.541500387376573 222.86089496101798 0 0 0 0 1040.8582859594899 221.68345101304863 0 221.68345101304863 263.68284991403874 0 0 0 0 858.04505528909795 87.033600229681156 0 87.033600229681156 -82.971702079045372 0 0 0 0 858.22140886726265 311.58228424787058 0 311.58228424787058 351.48391349540071 0 0 0 0 1301.9355413281301 208.39983476263831 0 208.39983476263831 180.8593709369834 0 0 0 0 1028.3555390165529 174.47061598291469 0 174.47061598291469 177.56010790768846 0 0 0 0 1376.5957408957474 189.28589146129741 0 189.28589146129741 -54.799206596752924 0 0 0 0 1673.7612336603706 77.25924395461746 0 77.25924395461746 -308.64604615293558 0 0 0 0 1131.4360318976906 22.219621693448456 0 22.219621693448456 -124.82744654704686 0 0 0 0 7.9216135680326261 2.664397741669962 0 2.664397741669962 -0.0044130571708522305 0 0 0 0 1186.5849274019201 -396.07150130491624 0 -396.07150130491624 -185.2426452328429 0 0 0 0 5.6474507916433367 0.79844207491190389 0 0.79844207491190389 0.012674700525783289 0 0 0 0 106.53047672359389 -234.81742036623405 0 -234.81742036623405 6.9401821476730561 0 0 0 0 1143.0429413321253 -93.087835905600414 0 -93.087835905600414 -38.593920554008946 0 0 0 0 -129.78387023223331 282.75148316023052 0 282.75148316023052 134.11446378748934 0 0 0 0 -17.281111712902202 249.74889272809548 0 249.74889272809548 -276.30850386919269 0 0 0 0 394.16031677448018 130.76946791638315 0 130.76946791638315 25.435344401229258 0 0 0 0 8.1223108091944596 2.2923843601319565 0 2.2923843601319565 0.15841603365493473 0 0 0 0 9.3779092684384295 3.4532546383424148 0 3.4532546383424148 0.83682352868709653 0 0 0 0 10.09763900062535 2.52666864411042 0 2.52666864411042 -0.14177832763507991 0 0 0 0 9.6506672081886791 2.47612558959479 0 2.47612558959479 0.00087002091668010378 0 0 0 0 9.5888885472959373 2.224005197548486 0 2.224005197548486 0.13058123291848389 0 0 0 0 -106.84394253164646 388.89446079742163 0 388.89446079742163 159.98960445687061 0 0 0 0 0.66990538418599499 -0.70863303287156043 0 -0.70863303287156043 -0.45197383225871102 0 0 0 0 -38.454686780809425 150.40332663768442 0 150.40332663768442 271.25012063300153 0 0 0 0 0.7784147359528788 0.99954848707207589 0 0.99954848707207589 1.1287985776721567 0 0 0 0 1089.7745520272001 70.450087959572897 0 70.450087959572897 -251.8735754181364 0 0 0 0 8.2430516579478308 7.5828459594646631 0 7.5828459594646631 2.6417858786637138 0 0 0 0 1265.5559026798437 -374.48231037653932 0 -374.48231037653932 -236.96114831787099 0 0 0 0 1460.2085448581056 -11.608539331759744 0 -11.608539331759744 -315.41043855808471 0 0 0 0 686.30175691081968 -82.778668258682842 0 -82.778668258682842 533.91774661523959 0 0 0 0 4.5965251753903544 3.7160461152783455 0 3.7160461152783455 1.6819253281034579 0 0 0 0 318.12776002308237 794.4529745195988 0 794.4529745195988 369.9347657378803 0 0 0 0 2586.4072090733462 -29.66607891467828 0 -29.66607891467828 -95.157740819601031 0 0 0 0 1314.2220858047694 145.43977319641868 0 145.43977319641868 293.96166475301607 0 0 0 0 1909.7812001399579 479.81579559829515 0 479.81579559829515 373.0582270663474 0 0 0 0 1752.8716326059803 -154.76066834066393 0 -154.76066834066393 -60.69865351503023 0 0 0 0 1433.3681643173913 293.91470392405017 0 293.91470392405017 109.6880006017069 0 0 0 0 1083.0109842566526 66.923509183781533 0 66.923509183781533 -80.193665050288701 0 0 0 0 1107.6684808082209 45.347293035694264 0 45.347293035694264 -147.71670028332119 0 0 0 0 1574.9161024449713 177.34337789507498 0 177.34337789507498 -152.35271887586202 0 0 0 0 1046.9685980951763 251.18606208822416 0 251.18606208822416 0.13566941010415817 0 0 0 0 1013.842927525201 -123.27704067824169 0 -123.27704067824169 -78.974735953239929 0 0 0 0 404.47375485191878 219.43023994296374 0 219.43023994296374 0.00047009619852925177 0 0 0 0 3137.2969925374782 -25.941979123504574 0 -25.941979123504574 1.2361408332583415 0 0 0 0 6.2248991475215973 3.6528247925318738 0 3.6528247925318738 0.67369377886798087 0 0 0 0 1460.8960255307429 827.53447350568661 0 827.53447350568661 296.75460271857401 0 0 0 0 1897.6751723462512 -385.158438399658 0 -385.158438399658 -75.894154803552624 0 0 0 0 2758.340457580729 746.54483534302426 0 746.54483534302426 240.8830689621916 0 0 0 0 2832.1069626305834 537.12884689460236 0 537.12884689460236 25.745096653296173 0 0 0 0 6.3765280703655662 -0.51633958570309346 0 -0.51633958570309346 -1.5744769341445597 0 0 0 0 -35.479644487146288 -23.257809294846062 0 -23.257809294846062 -0.057924552160111158 0 0 0 0 -43.097925197318546 -38.09904131119098 0 -38.09904131119098 -23.955547798614219 0 0 0 0 -60.191335693802102 -37.304581677107002 0 -37.304581677107002 0.0047979335248731839 0 0 0 0 -57.331839251943165 -50.332710237616709 0 -50.332710237616709 -28.200665704884095 0 0 0 0 -66.897533065402968 -46.884481171717987 0 -46.884481171717987 -0.0080872795557090718 0 0 0 0 -65.031052302176249 -47.226525888730485 0 -47.226525888730485 -17.091776198476481 0 0 0 0 -56.427477987614111 -42.786308871084302 0 -42.786308871084302 -21.569169154726751 0 0 0 0 -57.530015289503353 -49.063433739615249 0 -49.063433739615249 -41.761901007986694 0 0 0 0 -61.250264253383648 -63.671885421255638 0 -63.671885421255638 -50.253947590688682 0 0 0 0 -73.403749706849339 -71.523807144674052 0 -71.523807144674052 -48.788230853809125 0 0 0 0 276.75001143474947 106.84848675310604 0 106.84848675310604 32.871066241698827 0 0 0 0 9.9950701172397203 -1.8621858587660824 0 -1.8621858587660824 -8.2456568428233119 0 0 0 0 -72.443173321985341 -57.70157299939487 0 -57.70157299939487 -41.344018814106931 0 0 0 0 2.1447558233649602 -0.44123093853403361 0 -0.44123093853403361 -2.0198466631555458 0 0 0 0 -32.606236098552472 -78.954852312704872 0 -78.954852312704872 -84.401989985052722 0 0 0 0 604.58607410328113 180.92866950479106 0 180.92866950479106 89.270978158130617 0 0 0 0 554.6145513587544 172.74869987239015 0 172.74869987239015 92.115545157042106 0 0 0 0 9.9618485385614122 -2.38737761164586 0 -2.38737761164586 -4.8562500290275841 0 0 0 0 230.6294213489673 161.34202406339364 0 161.34202406339364 32.393661371838334 0 0 0 0 129.75757342597353 35.320952877193122 0 35.320952877193122 83.574068446233014 0 0 0 0 53.830751007414619 122.92536748760762 0 122.92536748760762 10.85129383147887 0 0 0 0 951.75732417837162 270.17192566246683 0 270.17192566246683 45.2593787076853 0 0 0 0 20.000796399203409 -11.104837996617391 0 -11.104837996617391 1.8250786485142694 0 0 0 0 -58.073036624991801 -233.78412344526737 0 -233.78412344526737 -259.8165175177009 0 0 0 0 117.88084348251869 9.2959537390008791 0 9.2959537390008791 -135.79666928162897 0 0 0 0 66.739977772143902 37.288723768801674 0 37.288723768801674 110.0242400739653 0 0 0 0 154.90097330813296 62.926248581548862 0 62.926248581548862 -261.34287170793721 0 0 0 0 331.61880997894332 75.785583912872426 0 75.785583912872426 -111.39505819597071 0 0 0 0 88.489476181770442 166.59699508896597 0 166.59699508896597 208.90969204120711 0 0 0 0 6.8509053734667305 -0.36256563927631191 0 -0.36256563927631191 -6.5208830897196464 0 0 0 0 10.995980789788632 -0.45294897604063067 0 -0.45294897604063067 -10.558263975027344 0 0 0 0 -53.927624251242378 -93.094083318602429 0 -93.094083318602429 -82.580358525387396 0 0 0 0 78.264815452705079 88.596629731642139 0 88.596629731642139 23.229338523819479 0 0 0 0 92.320080967940157 88.805745388766127 0 88.805745388766127 23.071297427319678 0 0 0 0 122.53214887369541 -2.1018441884252752 0 -2.1018441884252752 -117.5969625986568 0 0 0 0 180.04305845449562 73.889701692623248 0 73.889701692623248 -81.990028604056988 0 0 0 0 98.003141050983686 -49.226576433150555 0 -49.226576433150555 -164.29535541512269 0 0 0 0 35.089011867716181 -86.907230003102114 0 -86.907230003102114 -133.6137964802092 0 0 0 0 100.72475866567129 16.297697883056983 0 16.297697883056983 -84.070927683355876 0 0 0 0 95.210472945444053 -15.251056413023434 0 -15.251056413023434 -117.38357596341348 0 0 0 0 53.432849696371704 -16.610319772632465 0 -16.610319772632465 -103.80398106686789 0 0 0 0 100.22409087567939 72.48835366593562 0 72.48835366593562 -71.170478759765501 0 0 0 0 119.47833866917063 43.443998481156541 0 43.443998481156541 -64.947414451328768 0 0 0 0 104.76297369552776 22.141590321446529 0 22.141590321446529 -95.770852174238826 0 0 0 0 93.621191170415841 -5.2226615887316257 0 -5.2226615887316257 -50.537268885263188 0 0 0 0 156.22892806184245 -22.449235836859998 0 -22.449235836859998 -136.14444084926981 0 0 0 0 45.461028031675028 3.5016039099374012 0 3.5016039099374012 -0.90882716026872856 0 0 0 0 44.035809394914395 -7.3590587515257653 0 -7.3590587515257653 -12.339374853970639 0 0 0 0 103.89342641015537 14.725715985179704 0 14.725715985179704 -139.21553417471307 0 0 0 0 53.167217656620778 -19.093097079964082 0 -19.093097079964082 -88.464234841419966 0 0 0 0 38.799532812554389 6.3870489432865725 0 6.3870489432865725 -87.935915397267763 0 0 0 0 34.534484455245547 11.790281592517204 0 11.790281592517204 -1.5333222940280393 0 0 0 0 56.956951197360695 5.6959747468221309 0 5.6959747468221309 -15.166445190336637 0 0 0 0 41.410150616303781 -12.570071493157911 0 -12.570071493157911 -6.0382134284783202 0 0 0 0 105.44535607023863 25.315116336063511 0 25.315116336063511 28.781285189004848 0 0 0 0 34.325687254503464 -5.6176323453919181 0 -5.6176323453919181 44.16403413914486 0 0 0 0 20.817977208760567 -2.5459325296269526 0 -2.5459325296269526 -11.707478788988738 0 0 0 0 44.172427367956772 7.7322278639142894 0 7.7322278639142894 3.0504015266773337 0 0 0 0 254.42950067859783 35.005102163810989 0 35.005102163810989 240.55611305611546 0 0 0 0 21.505292991442161 10.249796759191852 0 10.249796759191852 7.1676778122188134 0 0 0 0 256.79958426336816 39.205724525785513 0 39.205724525785513 20.86426561263545 0 0 0 0 1724.8274800588842 1149.2199771222113 0 1149.2199771222113 524.3335133438411 0 0 0 0 2043.3139358000481 -201.60991161560264 0 -201.60991161560264 -259.04812226193633 0 0 0 0 1138.3071914232278 603.63634537996199 0 603.63634537996199 154.06614681413885 0 0 0 0 1213.613116110726 478.48148040470846 0 478.48148040470846 28.796912874025111 0 0 0 0 31.199760075068639 -9.5440189998094809 0 -9.5440189998094809 3.823373961509775 0 0 0 0 62.7904911255755 29.409219839314119 0 29.409219839314119 -68.960837476238567 0 0 0 0 125.58412348966522 -109.13419376807406 0 -109.13419376807406 -146.0488676733803 0 0 0 0 41.810746224579475 -4.046348780813684 0 -4.046348780813684 -4.4800549239833831 0 0 0 0 -161.04849862963601 -100.15429640769077 0 -100.15429640769077 245.11023129510772 0 0 0 0 -4.1292915081721731 0.10654045819330804 0 0.10654045819330804 5.6731994749857222 0 0 0 0 -11.416943178383917 51.154129357211687 0 51.154129357211687 9.6381417949401111 0 0 0 0 26.470235234024585 -0.18828022358457019 0 -0.18828022358457019 -77.821667404758045 0 0 0 0 84.858002824970754 28.013465290492832 0 28.013465290492832 7.9684619799603524 0 0 0 0 37.920036535354029 -0.96877266936894557 0 -0.96877266936894557 -17.474576699840963 0 0 0 0 46.579397579233046 6.0394169083640037 0 6.0394169083640037 3.9676332433809876 0 0 0 0 76.55505051559885 -2.3238039048053452 0 -2.3238039048053452 -0.56083319667186515 0 0 0 0 59.395004135934869 26.061978687563624 0 26.061978687563624 -82.269203033738904 0 0 0 0 0.95755009492302179 2.9192921125129043 0 2.9192921125129043 -5.0508322130559025 0 0 0 0 69.452393047191435 37.763733044567289 0 37.763733044567289 -96.078055464797217 0 0 0 0 4.3267437024696846 97.183285698111831 0 97.183285698111831 1.8764646979534518 0 0 0 0 53.288941282018698 7.7231545921417535 0 7.7231545921417535 -4.0586542556716951 0 0 0 0 8.4836529197054915 -22.046383235103121 0 -22.046383235103121 -148.20851596721604 0 0 0 0 6.9434406393822883 -6.736222107844938 0 -6.736222107844938 -5.0322034898809971 0 0 0 0 20.62696947006043 -12.413871998776926 0 -12.413871998776926 -148.17767115734046 0 0 0 0 14.899163034162484 -42.909121294528632 0 -42.909121294528632 -138.42370497655054 0 0 0 0 15.828369568058406 -35.128414142389602 0 -35.128414142389602 -183.64177242516394 0 0 0 0 13.797054570779437 -34.831861257473093 0 -34.831861257473093 -106.97030923573107 0 0 0 0 50.920441936526913 29.415805943785472 0 29.415805943785472 -47.097135891735206 0 0 0 0 17.879910783856644 1.5549202025788134 0 1.5549202025788134 -12.862228803383019 0 0 0 0 21.116362191576627 -16.03145981100019 0 -16.03145981100019 -121.43831427631108 0 0 0 0 -36.601493937516352 -55.052669595773523 0 -55.052669595773523 -111.81418040218257 0 0 0 0 14.233877625199966 -70.761349202184135 0 -70.761349202184135 -144.99839822989719 0 0 0 0 8.9164234294148628 -90.037819847864682 0 -90.037819847864682 -85.120986286818095 0 0 0 0 -3.2568797530984739 -110.1177447494008 0 -110.1177447494008 -64.779415848761687 0 0 0 0 14.229680744756479 -77.506513600499034 0 -77.506513600499034 -151.08642487918519 0 0 0 0 32.902006253483705 -72.787878480005247 0 -72.787878480005247 -265.09903742138044 0 0 0 0 -31.754746197795612 25.627485346662695 0 25.627485346662695 -216.61495987410854 0 0 0 0 -3.7981462954194285 -18.309697649253394 0 -18.309697649253394 -149.34528630740397 0 0 0 0 -0.77585361849156698 0.93453231549368354 0 0.93453231549368354 0.55383426408169756 0 0 0 0 57.65217293749447 52.953605097398281 0 52.953605097398281 -476.20267227656973 0 0 0 0 66.59548239648575 -136.6052369674087 0 -136.6052369674087 -358.06754177474136 0 0 0 0 48.458390886313282 -72.67239958920095 0 -72.67239958920095 -146.30791419429528 0 0 0 0 -21.589065742402454 -80.193936776107137 0 -80.193936776107137 -146.83241231253169 0 0 0 0 16.326414623552409 -84.969383381703693 0 -84.969383381703693 -9.620349953676282 0 0 0 0 94.375563493762456 -8.6359894465634284 0 -8.6359894465634284 -2.6777974247908105 0 0 0 0 25.823784006192 -65.549036146301177 0 -65.549036146301177 -47.968409792758848 0 0 0 0 57.357387762560393 -104.67306532666336 0 -104.67306532666336 -4.5251741429407275 0 0 0 0 3.3367888497305103 -73.594423386835118 0 -73.594423386835118 56.87486813709647 0 0 0 0 -31.397505800967338 -60.996863724801528 0 -60.996863724801528 -67.784415895768618 0 0 0 0 -16.411525473129586 -101.50536930380129 0 -101.50536930380129 -13.628430461365326 0 0 0 0 10.243514966598013 -77.728904776948951 0 -77.728904776948951 -11.400645815268437 0 0 0 0 -0.15052939861351433 -0.006957421340075598 0 -0.006957421340075598 0.23258386385187468 0 0 0 0 -56.15015812009915 -42.488840203492146 0 -42.488840203492146 1.888361321509592 0 0 0 0 -59.816510930482764 -61.325323593135195 0 -61.325323593135195 -14.447869645194459 0 0 0 0 -24.152173952898011 -32.390194455886146 0 -32.390194455886146 -3.8243246499533825 0 0 0 0 -5.3975060839729849 -44.637795882832826 0 -44.637795882832826 -9.6811685298757357 0 0 0 0 -28.216303723034798 -47.838279517891188 0 -47.838279517891188 0.023467968597223176 0 0 0 0 -51.949998340118327 -40.67034481116535 0 -40.67034481116535 -8.1018333859247011 0 0 0 0 -52.237048175011296 -39.655648458914953 0 -39.655648458914953 5.2063010704598502 0 0 0 0 104.1301939255718 -21.661650991525974 0 -21.661650991525974 77.938220696779865 0 0 0 0 106.7440518145886 -55.294299452505371 0 -55.294299452505371 42.559504930992638 0 0 0 0 0.21921000940517388 -0.092806137539213296 0 -0.092806137539213296 -0.092156813644915569 0 0 0 0 1.7750532704521902 -24.963788266090098 0 -24.963788266090098 15.004146238066618 0 0 0 0 131.3703362926608 -32.697730865725653 0 -32.697730865725653 0.0062332748706256658 0 0 0 0 217.75871938485943 -2.9398398268002808 0 -2.9398398268002808 1.1855865981499676 0 0 0 0 213.48780392861227 -0.36085461594486645 0 -0.36085461594486645 54.347029547537545 0 0 0 0 300.08801771202707 48.625109445008462 0 48.625109445008462 67.728031377688083 0 0 0 0 337.15556696994463 6.5537844905992557 0 6.5537844905992557 0.11149428682309495 0 0 0 0 207.60626992241305 24.785893608112531 0 24.785893608112531 55.861289754085163 0 0 0 0 270.65540158795193 -19.804552974991381 0 -19.804552974991381 53.822064372528871 0 0 0 0 342.50794745943858 81.451691222603472 0 81.451691222603472 89.27982551339764 0 0 0 0 503.47578190104105 28.260062915499077 0 28.260062915499077 39.233162325950886 0 0 0 0 488.42485596235201 113.19773275366381 0 113.19773275366381 60.898114263217309 0 0 0 0 419.95463502161147 27.438051644255555 0 27.438051644255555 -1.5095722981881357 0 0 0 0 904.38740950125066 194.13463059414465 0 194.13463059414465 -30.851561708516797 0 0 0 0 608.66379289067117 29.371281030394734 0 29.371281030394734 11.620341889698079 0 0 0 0 513.5584095219383 87.936373356787882 0 87.936373356787882 -0.071096172677812 0 0 0 0 -163.95915864163817 -23.554900924358126 0 -23.554900924358126 37.522294129061606 0 0 0 0 -168.36977896580356 -139.78485871655639 0 -139.78485871655639 -59.11632727316703 0 0 0 0 1.781779526553521 -1.519027415950859 0 -1.519027415950859 -0.59744005964599722 0 0 0 0 640.93986471209791 237.4301392460757 0 237.4301392460757 98.934656928473458 0 0 0 0 432.96692189028545 145.13581737725067 0 145.13581737725067 140.60292639968785 0 0 0 0 563.79999312508153 106.81650719326058 0 106.81650719326058 40.554965117966844 0 0 0 0 4.3585969863458729 -4.8223976138637852 0 -4.8223976138637852 -1.2793044399383331 0 0 0 0 687.000767349542 295.12484129892556 0 295.12484129892556 66.021360214822153 0 0 0 0 290.02127776636917 148.05640622230254 0 148.05640622230254 108.32242720988597 0 0 0 0 289.631742798083 -11.02623679445054 0 -11.02623679445054 -23.09766581676439 0 0 0 0 148.46871639339952 -65.759750623890966 0 -65.759750623890966 55.065460726367263 0 0 0 0 220.72731294823097 84.242024435246577 0 84.242024435246577 70.087286091415933 0 0 0 0 431.12377131389803 20.073587840625152 0 20.073587840625152 38.37724539638937 0 0 0 0 313.77352302775034 -5.0827765918276739 0 -5.0827765918276739 62.26409762569223 0 0 0 0 311.93073226200431 8.5722282177005127 0 8.5722282177005127 -38.881376220064439 0 0 0 0 157.35820041202533 -54.968164889153904 0 -54.968164889153904 0.060266676353320413 0 0 0 0 140.63407234419719 17.135449342106 0 17.135449342106 19.557385920612916 0 0 0 0 39.886863715713844 -61.083420154051595 0 -61.083420154051595 5.5849168692919529 0 0 0 0 48.497582628493547 5.7299601299781564 0 5.7299601299781564 5.3104102388050478 0 0 0 0 -53.078684223117307 -59.524749110159405 0 -59.524749110159405 -0.072335525405632775 0 0 0 0 -38.165473003071384 0.84230281418696507 0 0.84230281418696507 -24.948975548089379 0 0 0 0 -131.0448559995275 -95.802733036986723 0 -95.802733036986723 -6.8447610198552979 0 0 0 0 -24.790426409686916 -88.288391642338865 0 -88.288391642338865 -63.051943318564724 0 0 0 0 28.239590558207965 6.7606191416083128 0 6.7606191416083128 22.360707509794224 0 0 0 0 29.644180323783075 -4.427627562585343 0 -4.427627562585343 -42.299594803464977 0 0 0 0 211.43818552649464 -65.661873973222185 0 -65.661873973222185 -16.058535828804509 0 0 0 0 84.511941912700422 -62.788658767571292 0 -62.788658767571292 6.2061051280317372 0 0 0 0 374.1627279981185 -6.6880016188577542 0 -6.6880016188577542 -44.713687178939267 0 0 0 0 293.61014685548434 58.18196319940887 0 58.18196319940887 16.730790977114566 0 0 0 0 276.83078347274568 3.0962029061715839 0 3.0962029061715839 -42.16117001454586 0 0 0 0 174.07724485457584 21.681194898380681 0 21.681194898380681 -5.3765038743110836 0 0 0 0 211.16263605575659 2.3670846725029406 0 2.3670846725029406 5.20480573388636 0 0 0 0 341.32730313371576 -13.437495262359221 0 -13.437495262359221 -45.763079479032854 0 0 0 0 61.35191403303179 -10.143257808608041 0 -10.143257808608041 -2.126707428077907 0 0 0 0 214.54721436785258 -5.5484488713262863 0 -5.5484488713262863 -41.42030742933116 0 0 0 0 155.93278400829877 -31.435988274285165 0 -31.435988274285165 -38.41384097746004 0 0 0 0 12.35407775035128 -26.628816728252787 0 -26.628816728252787 4.1184244932485399 0 0 0 0 -60.218514135820442 3.429724768154756 0 3.429724768154756 -24.434170369723233 0 0 0 0 16.515722370619187 -59.550595993744992 0 -59.550595993744992 -59.488974726549259 0 0 0 0 32.277217111521168 -72.568687081846235 0 -72.568687081846235 -28.30123681288751 0 0 0 0 17.535148920564097 -6.7200463631287448 0 -6.7200463631287448 -2.8165859696764528 0 0 0 0 675.1947046427922 230.70422205525867 0 230.70422205525867 -196.29666881437015 0 0 0 0 6.4782184922650856 -8.5162497442781273 0 -8.5162497442781273 -0.32118103059696512 0 0 0 0 -146.75073955110565 -98.998945063369774 0 -98.998945063369774 9.9592501706754319 0 0 0 0 782.19723317705211 139.42418984655615 0 139.42418984655615 -140.64971280133545 0 0 0 0 508.99798109894618 479.72271843996089 0 479.72271843996089 -303.05682811901897 0 0 0 0 -1.8748499129375205 -1.1837738497801809 0 -1.1837738497801809 -0.66231825539666644 0 0 0 0 93.100221169290307 -173.33763299474117 0 -173.33763299474117 206.54355767915013 0 0 0 0 1099.4813752355112 -724.51597011563297 0 -724.51597011563297 835.06481898116544 0 0 0 0 1095.0961430420612 282.03730227876861 0 282.03730227876861 -480.80379518489372 0 0 0 0 911.8929727994182 -583.4709645189821 0 -583.4709645189821 -0.4340274524220149 0 0 0 0 -24.402516693313373 247.45698005723534 0 247.45698005723534 -162.72181531738306 0 0 0 0 -232.05691222184396 50.408326620080288 0 50.408326620080288 -12.261938811520849 0 0 0 0 7.314358847195507 -2.3233445586308505 0 -2.3233445586308505 -2.5878883156215302 0 0 0 0 7.8955192098219413 -43.417636309832233 0 -43.417636309832233 -40.337374338246036 0 0 0 0 3.9029401153388221 -4.6132778161262706 0 -4.6132778161262706 -0.83958683441787585 0 0 0 0 1.1874942817375995 -25.847718580550008 0 -25.847718580550008 -47.070849907710908 0 0 0 0 -60.302636374166468 -77.202863159776143 0 -77.202863159776143 0.0058869279764621751 0 0 0 0 -18.974092219315935 -10.096932021011298 0 -10.096932021011298 -16.885142996184186 0 0 0 0 8.3575683280495809 -10.174450992964751 0 -10.174450992964751 0.66985030709850157 0 0 0 0 88.935295752657112 -50.614944744987497 0 -50.614944744987497 -19.542339645549646 0 0 0 0 102.8404183266266 52.979217039572916 0 52.979217039572916 21.649837498091074 0 0 0 0 -14.787357002904173 -18.916645519704616 0 -18.916645519704616 -3.3462001834468538 0 0 0 0 71.758647357550217 -21.845132485730801 0 -21.845132485730801 -55.427269959487603 0 0 0 0 11.998783078568522 -47.022915487500995 0 -47.022915487500995 -7.0944290684470275 0 0 0 0 7.0237929315189831 1.8685389435904654 0 1.8685389435904654 -63.56332292820025 0 0 0 0 203.10754392366653 197.62048631183814 0 197.62048631183814 -16.877868002993637 0 0 0 0 59.364871891521034 -20.989047100061839 0 -20.989047100061839 -10.524976092033285 0 0 0 0 0.96141697942300652 1.0701101423680797 0 1.0701101423680797 0.70782693255045537 0 0 0 0 294.1075974385858 56.824466411899607 0 56.824466411899607 -22.337271370193321 0 0 0 0 31.538983581282082 28.799124001656196 0 28.799124001656196 -196.48644645322179 0 0 0 0 32.128568497471861 -120.53555254848391 0 -120.53555254848391 -186.72896210731255 0 0 0 0 9.1247940379253123 -87.823251311621789 0 -87.823251311621789 -124.05354578709148 0 0 0 0 153.78363850795722 -49.580202370392499 0 -49.580202370392499 -146.66721601013182 0 0 0 0 100.84966853804508 22.343674330063436 0 22.343674330063436 -4.4019689463561917 0 0 0 0 204.17133306678443 -70.691323600818805 0 -70.691323600818805 -139.30610347494189 0 0 0 0 164.43185167918273 143.27125094370172 0 143.27125094370172 -43.200460509665277 0 0 0 0 464.15422030672198 96.228543195505267 0 96.228543195505267 -68.650367156374159 0 0 0 0 658.03480164875509 144.67257877382829 0 144.67257877382829 -125.21137756813005 0 0 0 0 447.70343296512146 125.33236482020084 0 125.33236482020084 129.14962837986235 0 0 0 0 384.66149144023075 200.95420318171114 0 200.95420318171114 -120.85639564738426 0 0 0 0 638.19347072699748 330.67799152859095 0 330.67799152859095 -247.45491102908682 0 0 0 0 429.51266593123728 132.84945913623875 0 132.84945913623875 -166.60863642248364 0 0 0 0 -88.575791833747644 86.865601195976069 0 86.865601195976069 -115.06196607893139 0 0 0 0 382.62418255278317 373.82759777381398 0 373.82759777381398 -43.427335189423047 0 0 0 0 504.84764627923141 -558.07977576832354 0 -558.07977576832354 249.50024086213571 0 0 0 0 12.046054060329482 -0.79129496257074372 0 -0.79129496257074372 0.10073983144691473 0 0 0 0 652.62056408479111 -378.91201521663606 0 -378.91201521663606 -161.27855517069338 0 0 0 0 365.80038731585955 -472.93589651737602 0 -472.93589651737602 197.40368754340784 0 0 0 0 -0.98337484920193674 -43.116450240527797 0 -43.116450240527797 -44.936072218503114 0 0 0 0 -38.531013167157653 104.28146650782219 0 104.28146650782219 107.09349531610565 0 0 0 0 -7.8542143832419242 -39.460691202949874 0 -39.460691202949874 242.13721220432126 0 0 0 0 215.5539687970595 29.402725331068268 0 29.402725331068268 -292.70405299992785 0 0 0 0 181.92546982804197 -52.073755009974946 0 -52.073755009974946 -484.28243746243015 0 0 0 0 30.134410780816097 -1.8881957666586828 0 -1.8881957666586828 -0.66360801573144845 0 0 0 0 60.981249066418968 97.368548711324365 0 97.368548711324365 -201.67858111171387 0 0 0 0 157.19554618463735 -140.85423219151937 0 -140.85423219151937 -318.37849714082063 0 0 0 0 38.934063217137634 -2.4050422259936117 0 -2.4050422259936117 0.17301587345967973 0 0 0 0 -49.658436413272284 77.521975563352726 0 77.521975563352726 -6.665413786020963 0 0 0 0 74.378583877842175 -49.216740770518072 0 -49.216740770518072 88.517230568621017 0 0 0 0 -5.2391136648948304 -103.14117260819921 0 -103.14117260819921 53.287399446374366 0 0 0 0 177.80675558961229 -158.58443106161224 0 -158.58443106161224 42.645877055972505 0 0 0 0 -165.18801404740952 734.5037537891651 0 734.5037537891651 190.8979098588411 0 0 0 0 19.382048420317005 -200.13639155625401 0 -200.13639155625401 149.82550606675045 0 0 0 0 9.2570117308108308 -3.5638385228543825 0 -3.5638385228543825 0.95968887977427464 0 0 0 0 -2.8105945626784887 -140.60224623890878 0 -140.60224623890878 229.41262470330594 0 0 0 0 75.78340503775371 -20.632259805904923 0 -20.632259805904923 0.96141803075328625 0 0 0 0 704.75891105650226 -1420.6815418928386 0 -1420.6815418928386 -242.12926856258684 0 0 0 0 79.521675129602954 -17.319701444538168 0 -17.319701444538168 20.893372786335021 0 0 0 0 8.6015108905218085 4.7784561880048528 0 4.7784561880048528 -1.4241644593430718 0 0 0 0 336.11453292446095 -175.55633104008234 0 -175.55633104008234 -6.1183008848470735 0 0 0 0 45.899273427698063 67.124548279401779 0 67.124548279401779 33.08911350629478 0 0 0 0 49.464898518525672 -16.343126684189826 0 -16.343126684189826 -5.0918204753315681 0 0 0 0 57.244970798055874 -225.66322994369784 0 -225.66322994369784 16.717442248376074 0 0 0 0 64.364842325684549 13.97003870890984 0 13.97003870890984 -4.8460361806106436 0 0 0 0 36.03886706860817 13.429245294498202 0 13.429245294498202 -8.1727456272372638 0 0 0 0 96.662929146623355 -16.202214701411322 0 -16.202214701411322 -115.26021252125429 0 0 0 0 110.66153338250297 9.4640328219538787 0 9.4640328219538787 -125.66147215440469 0 0 0 0 98.985718777345028 -20.592490580520462 0 -20.592490580520462 -138.47018421344546 0 0 0 0 97.398313449783018 92.577273132887058 0 92.577273132887058 -51.639349445496919 0 0 0 0 42.365863965734178 -12.633986558531689 0 -12.633986558531689 -5.6145725958925805 0 0 0 0 112.44897636382484 1.0468445806861837 0 1.0468445806861837 41.839708216044528 0 0 0 0 103.74497949777287 7.0981470530941806 0 7.0981470530941806 -148.45173233151399 0 0 0 0 -31.153574532832863 -311.5473333494939 0 -311.5473333494939 -378.38129021790701 0 0 0 0 11.360086080589099 -81.83910290469521 0 -81.83910290469521 -226.60769596750652 0 0 0 0 120.44241195840004 94.426089905106892 0 94.426089905106892 -205.53387389991804 0 0 0 0 101.04974279881571 10.46347700997012 0 10.46347700997012 -106.44307441392993 0 0 0 0 571.48836353115621 108.6977966528093 0 108.6977966528093 -214.76875993171234 0 0 0 0 -162.58647838472825 -20.194479111962664 0 -20.194479111962664 -39.004991573481675 0 0 0 0 181.21974310616497 369.68895902008762 0 369.68895902008762 -22.984356600798492 0 0 0 0 35.717086804375867 -21.487961282939978 0 -21.487961282939978 105.75245797418211 0 0 0 0 -0.015007030160631984 44.889524321283716 0 44.889524321283716 85.863782745935623 0 0 0 0 23.296007813195047 -12.559533368958427 0 -12.559533368958427 -3.724781189175939 0 0 0 0 4.8099471248760608 0.010666534775623404 0 0.010666534775623404 3.3041845852299332 0 0 0 0 -49.436117077071685 21.307702037283889 0 21.307702037283889 84.475424946576823 0 0 0 0 -30.784933144372189 133.99690739265588 0 133.99690739265588 -77.962520798142577 0 0 0 0 468.8558329998923 -276.17314885061842 0 -276.17314885061842 -388.68164849948926 0 0 0 0 72.180448914999602 -20.080699688983017 0 -20.080699688983017 -0.41608145292850907 0 0 0 0 95.700845034094527 191.49704987736322 0 191.49704987736322 -62.469515652063137 0 0 0 0 1093.9268748289905 -661.12234740711983 0 -661.12234740711983 -4.4357305907819864 0 0 0 0 650.84115436001593 -490.55635130546739 0 -490.55635130546739 118.06522295034529 0 0 0 0 3.9259094693070438 0.62791370931330448 0 0.62791370931330448 0.46233120314113263 0 0 0 0 18.0231971620384 -2.6931057733272326 0 -2.6931057733272326 -0.11716163528434453 0 0 0 0 -686.94038378429832 -250.77306639616722 0 -250.77306639616722 127.01018364904701 0 0 0 0 361.52425603909069 1420.3305551808655 0 1420.3305551808655 461.95020511714978 0 0 0 0 589.79701827868121 -274.17990880968614 0 -274.17990880968614 -167.46280246426625 0 0 0 0 616.91124933109677 -202.71888472928009 0 -202.71888472928009 -69.90157619416641 0 0 0 0 575.6583148840582 -190.25311979522257 0 -190.25311979522257 -70.087413179244862 0 0 0 0 418.25282089464599 -359.38348879320671 0 -359.38348879320671 83.525723287901428 0 0 0 0 356.34806076940731 158.5466328230508 0 158.5466328230508 -164.30451657789229 0 0 0 0 387.97937930843909 -225.34034339205471 0 -225.34034339205471 -141.34073485454763 0 0 0 0 -8.9302110197750153 -12.11865686581973 0 -12.11865686581973 -9.7530804573052592 0 0 0 0 13.455108875437531 2.62172845264557 0 2.62172845264557 -1.0002247270771913 0 0 0 0 91.000006408372428 5.3415251933910213 0 5.3415251933910213 -23.102633665807048 0 0 0 0 10.080806936268345 55.966894336233793 0 55.966894336233793 49.192867790629862 0 0 0 0 67.710421788287931 90.613853881686794 0 90.613853881686794 -76.200524511682943 0 0 0 0 19.475240085288533 93.035592357224687 0 93.035592357224687 -66.870094544487984 0 0 0 0 69.835942613121006 63.458381690601414 0 63.458381690601414 -238.6972387312785 0 0 0 0 194.08433940456598 151.5134463407627 0 151.5134463407627 -455.36802355109955 0 0 0 0 32.645135286991717 166.01846820369292 0 166.01846820369292 -37.605439976957769 0 0 0 0 438.22824800113449 -181.32009244660753 0 -181.32009244660753 -7.7378702711162077 0 0 0 0 98.306885535974288 -39.854097686863952 0 -39.854097686863952 -6.0127682484726392 0 0 0 0 185.94962627306813 -61.744797958169784 0 -61.744797958169784 -5.1103389563591293 0 0 0 0 -15.005876801995328 8.244190528334002 0 8.244190528334002 -94.664637054238483 0 0 0 0 165.1393836166535 22.366725635458806 0 22.366725635458806 -24.638392418615695 0 0 0 0 4.1085594236608927 -0.2871124974316217 0 -0.2871124974316217 -3.4149144927100323 0 0 0 0 3.6290069104740041 0.97987720199613193 0 0.97987720199613193 -0.40862657265234414 0 0 0 0 96.506664270314104 53.064509909318204 0 53.064509909318204 -37.176330901233086 0 0 0 0 6.9466901735850115 -7.4666732148277504 0 -7.4666732148277504 -4.7592860730189912 0 0 0 0 -8.8794278972491156 -58.314829524178805 0 -58.314829524178805 -116.72389153804488 0 0 0 0 -98.73883293766994 14.621779060147674 0 14.621779060147674 -68.464017924389964 0 0 0 0 9.9453612021008553 -11.316325844814656 0 -11.316325844814656 -9.3377653605496018 0 0 0 0 362.43221364753845 23.405199773971162 0 23.405199773971162 -91.923725743642535 0 0 0 0 249.94248141249409 -32.898613855059921 0 -32.898613855059921 -279.25764325219097 0 0 0 0 -56.159100452721759 -234.93098561112527 0 -234.93098561112527 -169.00932699205441 0 0 0 0 2.1837686595451942 -0.4710293757221109 0 -0.4710293757221109 -1.7149944000942874 0 0 0 0 41.003272713988224 -19.849375849788046 0 -19.849375849788046 4.9684191028509375 0 0 0 0 21.091256805643724 -11.953971048235616 0 -11.953971048235616 -11.210608201115932 0 0 0 0 108.89342434087303 -8.3564510084493122 0 -8.3564510084493122 -137.31674992438275 0 0 0 0 88.339321723469766 -23.399696197550838 0 -23.399696197550838 -138.9142611378536 0 0 0 0 442.78943228065327 24.528578742870195 0 24.528578742870195 -1425.6978341234444 0 0 0 0 -1412.6385199460055 -831.26028579959348 0 -831.26028579959348 55.239708857818187 0 0 0 0 12.521037305809671 -0.32880677437452732 0 -0.32880677437452732 -1.8274229885301203 0 0 0 0 39.535845249090926 49.826595773451572 0 49.826595773451572 58.373968500199226 0 0 0 0 568.80661477871763 -431.50859362109509 0 -431.50859362109509 -926.95716513450134 0 0 0 0 39.603778172510772 -17.343017633728266 0 -17.343017633728266 1.7179632366577309 0 0 0 0 -241.16826287325239 -102.11674179416605 0 -102.11674179416605 -438.95451180490636 0 0 0 0 1495.4213694328064 93.906090280700937 0 93.906090280700937 -1537.6913925194758 0 0 0 0 94.941341502360501 171.03446060801292 0 171.03446060801292 -34.348123009991468 0 0 0 0 45.084748229325896 -11.352502979567618 0 -11.352502979567618 0.45617283539200804 0 0 0 0 124.75241596339038 -141.6217100669794 0 -141.6217100669794 -547.10280414440217 0 0 0 0 672.12586079144967 1108.0726462431567 0 1108.0726462431567 839.18692869791721 0 0 0 0 2532.0082044952433 1362.8577992625833 0 1362.8577992625833 -1210.7601245612791 0 0 0 0 56.928619271522621 10.085289492081756 0 10.085289492081756 -174.57393904823812 0 0 0 0 -38.61502948027919 -58.116401752551383 0 -58.116401752551383 -157.72957260394173 0 0 0 0 -142.14232475002063 -1232.1591247735414 0 -1232.1591247735414 -1547.4478286608355 0 0 0 0 -1469.6589807368 -1252.1798100891369 0 -1252.1798100891369 616.06760905303418 0 0 0 0 23.167858315598664 -6.9234910666294098 0 -6.9234910666294098 2.6886865283829753 0 0 0 0 718.29898583239992 1342.2710435514673 0 1342.2710435514673 1950.8650596486837 0 0 0 0 -570.17970706586493 237.26927278501216 0 237.26927278501216 318.46246465749209 0 0 0 0 44.017880593164591 -207.36389928143126 0 -207.36389928143126 -579.00695435890793 0 0 0 0 53.252671487343946 -11.772362216553645 0 -11.772362216553645 -2.0193964883446771 0 0 0 0 1637.956728485151 263.1292895479146 0 263.1292895479146 935.87718340553147 0 0 0 0 113.65221391615341 196.89888336620652 0 196.89888336620652 -20.986513720656149 0 0 0 0 266.69692464621039 6.6305435502890759 0 6.6305435502890759 -290.74738184212219 0 0 0 0 -124.4668095241941 108.71458679279931 0 108.71458679279931 -298.94589325939251 0 0 0 0 -258.17974447891174 -293.82920840358747 0 -293.82920840358747 -236.72196770860683 0 0 0 0 351.03179023826669 -651.11779092037614 0 -651.11779092037614 -643.3265615868022 0 0 0 0 21.634780507891094 -2.6245724631499741 0 -2.6245724631499741 -1.5921468143978572 0 0 0 0 285.28132534254109 -238.46160987710391 0 -238.46160987710391 -287.74184162527126 0 0 0 0 -62.640013694195659 -27.834830840991344 0 -27.834830840991344 -163.68695482874864 0 0 0 0 421.45610485858924 -103.90861509671777 0 -103.90861509671777 -318.53252857976076 0 0 0 0 424.94017594284378 32.966799948891094 0 32.966799948891094 -290.33306387625998 0 0 0 0 603.98291896590672 -133.35881422191869 0 -133.35881422191869 -329.61587359888472 0 0 0 0 216.82071784455911 -71.297033622511663 0 -71.297033622511663 -321.94054128637811 0 0 0 0 256.87257283853251 93.882581794170619 0 93.882581794170619 -329.07537877197234 0 0 0 0 287.25525016336178 24.398909307104077 0 24.398909307104077 -172.78800636920278 0 0 0 0 81.492890430963598 -267.01061605324048 0 -267.01061605324048 -382.00819394885275 0 0 0 0 657.25242714153137 984.37175288917751 0 984.37175288917751 -72.906884182294561 0 0 0 0 57.080602898329118 -29.402519163833517 0 -29.402519163833517 15.467825655640979 0 0 0 0 -311.44935214804718 2224.2786342961281 0 2224.2786342961281 1817.1126467730026 0 0 0 0 3063.677667826676 -749.30426808699303 0 -749.30426808699303 260.23622187460569 0 0 0 0 -277.78593544982141 -78.112204510840456 0 -78.112204510840456 -251.1774073687684 0 0 0 0 1207.5586546125123 -491.20665780075433 0 -491.20665780075433 -615.82659724921541 0 0 0 0 614.88489042807487 189.63205528782237 0 189.63205528782237 -576.32657724294586 0 0 0 0 1765.411883572735 333.22499460630024 0 333.22499460630024 -609.84543745681367 0 0 0 0 608.15067841333803 208.12694311435007 0 208.12694311435007 -125.57950053774948 0 0 0 0 -65.550751904927893 7.8852127600293898 0 7.8852127600293898 -67.86689793687583 0 0 0 0 -693.12120363634313 293.14941904419084 0 293.14941904419084 9.2170709647798503 0 0 0 0 651.79297406880505 -374.15134090073843 0 -374.15134090073843 42.755377264040362 0 0 0 0 155.50903671664128 -8.976724744555213 0 -8.976724744555213 -67.127949399891804 0 0 0 0 1102.2792277050758 76.290664225562068 0 76.290664225562068 -365.16218616528477 0 0 0 0 805.76100203633541 -12.778346512156531 0 -12.778346512156531 -387.21024072031287 0 0 0 0 808.96214384913901 112.58203581786219 0 112.58203581786219 -272.69236994333914 0 0 0 0 853.67906710724492 324.68553766172363 0 324.68553766172363 -45.656332431255578 0 0 0 0 1496.9625018662191 220.262106177237 0 220.262106177237 -151.58869370302909 0 0 0 0 -187.81783825004823 -169.48417417683504 0 -169.48417417683504 156.78606037615646 0 0 0 0 30.083932889130665 -267.43437542526044 0 -267.43437542526044 199.65914081211213 0 0 0 0 191.74522986559896 -1.1572636548348783 0 -1.1572636548348783 -238.74784866706614 0 0 0 0 55.421643308087368 -21.378826719394056 0 -21.378826719394056 -182.45961520519631 0 0 0 0 233.29731870957767 -66.687783004890662 0 -66.687783004890662 -172.44817431355105 0 0 0 0 278.49142509781814 56.650259415091114 0 56.650259415091114 -174.0780654733353 0 0 0 0 504.40026054476039 2.2816128913345892 0 2.2816128913345892 -263.54193442874089 0 0 0 0 317.07374106270436 87.193019297563524 0 87.193019297563524 59.698780996004643 0 0 0 0 299.32670469246659 -36.580670817337932 0 -36.580670817337932 -209.18595786653168 0 0 0 0 343.45884260624007 98.504572117308271 0 98.504572117308271 53.845176345961136 0 0 0 0 173.67129219215713 -103.93731882140673 0 -103.93731882140673 -109.54042096315789 0 0 0 0 176.18576054805635 -140.27753244479618 0 -140.27753244479618 -33.945762361581728 0 0 0 0 -14.69847675121855 -55.33794929144733 0 -55.33794929144733 -50.351803040595769 0 0 0 0 14.191437791093676 -1.7580569486926407 0 -1.7580569486926407 -3.1525263615830887 0 0 0 0 209.86500009934389 -119.95696476056037 0 -119.95696476056037 -217.23802932220497 0 0 0 0 -25.380404716648627 -10.036064175304091 0 -10.036064175304091 -15.077328710158326 0 0 0 0 -8.4294485595564765 -229.24031664504992 0 -229.24031664504992 -570.38920395441528 0 0 0 0 9.6883927506852388 -4.1033252234360589 0 -4.1033252234360589 -1.6347205234342255 0 0 0 0 -184.76353160303552 -76.895659538848122 0 -76.895659538848122 -380.06064935414361 0 0 0 0 -34.447325059387367 -63.264847437112621 0 -63.264847437112621 -59.260327691250495 0 0 0 0 -1.0216528672218601 0.39308819005259465 0 0.39308819005259465 0.53906009305013924 0 0 0 0 -236.27797113830457 399.29648598573931 0 399.29648598573931 42.215806793814409 0 0 0 0 8.1915060249634166 -7.6005331742420594 0 -7.6005331742420594 3.3199410076883211 0 0 0 0 4.248928963963408 -54.133151942347467 0 -54.133151942347467 -71.440590276207331 0 0 0 0 3.2775783684503921 1.0782180973410789 0 1.0782180973410789 0.202497317394986 0 0 0 0 6.5517310055170412 -8.4825842333848982 0 -8.4825842333848982 -0.065501677681666592 0 0 0 0 22.107302815325966 -1.7518453818247508 0 -1.7518453818247508 -12.502670190644494 0 0 0 0 404.22813855926506 -171.92113880437137 0 -171.92113880437137 -23.49522829854368 0 0 0 0 431.23281812475761 20.648105480500817 0 20.648105480500817 -144.02403032868824 0 0 0 0 413.83994305372471 -60.829308948712423 0 -60.829308948712423 -35.902630712360406 0 0 0 0 443.55304738596897 2.985448228477253 0 2.985448228477253 -134.33083024312691 0 0 0 0 230.33248662910773 -99.349522106947916 0 -99.349522106947916 -102.08017066315551 0 0 0 0 421.51371617265977 -154.17643179315201 0 -154.17643179315201 -158.37926456875039 0 0 0 0 392.37823186753667 -95.409827374756787 0 -95.409827374756787 -143.92961741767294 0 0 0 0 479.46251135095372 -15.070683219006241 0 -15.070683219006241 -234.15099923573416 0 0 0 0 420.23816344347142 -104.65444688293883 0 -104.65444688293883 -215.00318962379242 0 0 0 0 469.82467420125613 -60.865741484700266 0 -60.865741484700266 -298.84068535914503 0 0 0 0 334.14113155583618 -188.95802945727883 0 -188.95802945727883 -282.01002566643001 0 0 0 0 -0.15014753391039903 0.13065078463235125 0 0.13065078463235125 0.38036000578192031 0 0 0 0 0.51222192334707017 -1.4654224196252983 0 -1.4654224196252983 0.63685386069289507 0 0 0 0 364.51546592154773 -68.575776325697916 0 -68.575776325697916 -257.36585680729331 0 0 0 0 458.39034478520625 -26.528594436626008 0 -26.528594436626008 -363.02453807009078 0 0 0 0 451.24684735349729 -112.63148492705113 0 -112.63148492705113 -430.60016131985321 0 0 0 0 453.95837064485386 -89.881311533770941 0 -89.881311533770941 -351.26093418860546 0 0 0 0 463.93572087452048 -2.9078859338278562 0 -2.9078859338278562 -309.23937093725272 0 0 0 0 518.45877932436997 19.973270494676399 0 19.973270494676399 -289.76949206236441 0 0 0 0 457.95677139412146 -46.553264135012796 0 -46.553264135012796 -280.12790887595474 0 0 0 0 491.55429056606954 4.1951576369647228 0 4.1951576369647228 -286.97043296694756 0 0 0 0 518.35246024793014 24.456595269395621 0 24.456595269395621 -302.10978738098493 0 0 0 0 601.39422397461021 80.692704006110944 0 80.692704006110944 -268.85580848503196 0 0 0 0 559.9241285140015 19.997992125861856 0 19.997992125861856 -321.98689254678902 0 0 0 0 549.95842770696618 21.46187934493355 0 21.46187934493355 -295.91490162040463 0 0 0 0 514.2921811301494 -29.775652968655777 0 -29.775652968655777 -295.36770163002075 0 0 0 0 488.09630381626266 -30.527224095597603 0 -30.527224095597603 -296.01006556482753 0 0 0 0 547.3743695744779 -15.442585918171972 0 -15.442585918171972 -308.22319033282292 0 0 0 0 419.37511979608098 61.960424883327505 0 61.960424883327505 -86.242973253069067 0 0 0 0 463.78420161659596 94.42449972742088 0 94.42449972742088 -205.70042468194879 0 0 0 0 489.85032806306845 49.139236145154428 0 49.139236145154428 -242.15756326034625 0 0 0 0 475.60656547691906 -10.691837189696344 0 -10.691837189696344 -215.60887572221691 0 0 0 0 511.82483948400477 99.927299161459814 0 99.927299161459814 -250.73916716417443 0 0 0 0 539.94702508239425 75.681950185871756 0 75.681950185871756 -229.83753269437875 0 0 0 0 564.25094102346338 123.4276872453629 0 123.4276872453629 -240.23768267052947 0 0 0 0 186.16916670399951 99.57414007067382 0 99.57414007067382 -91.412065528404128 0 0 0 0 416.06025881366804 215.18222307286851 0 215.18222307286851 -153.46941463463008 0 0 0 0 527.11610378292971 138.84111679353737 0 138.84111679353737 -183.36561047683062 0 0 0 0 -2.3586790128586586 -1.4729164467133558 0 -1.4729164467133558 1.3067413903808713 0 0 0 0 206.87649353867164 -299.00025900869878 0 -299.00025900869878 -834.20044649882766 0 0 0 0 294.42415259452537 346.31520067091333 0 346.31520067091333 31.946327267462038 0 0 0 0 600.70380222163476 315.35104063213066 0 315.35104063213066 -127.89831767530268 0 0 0 0 588.47307094142161 188.40945618367186 0 188.40945618367186 -298.15837396626011 0 0 0 0 684.62872740798048 116.75351895067433 0 116.75351895067433 -389.90295409895953 0 0 0 0 622.47291768408832 6.1270701176233615 0 6.1270701176233615 -280.43135630793768 0 0 0 0 245.45875086280284 -56.768532343148763 0 -56.768532343148763 -196.07823516678036 0 0 0 0 363.65488667452883 -266.96690237505481 0 -266.96690237505481 -268.50520893719658 0 0 0 0 950.98090615950059 4.0167124794970732 0 4.0167124794970732 -341.0704005807047 0 0 0 0 751.63078341778601 119.8470956433448 0 119.8470956433448 -140.43833138402988 0 0 0 0 549.7756021477544 -101.6097538122558 0 -101.6097538122558 -359.18598844918597 0 0 0 0 709.88021275043138 65.674367782319678 0 65.674367782319678 -308.67454045383056 0 0 0 0 691.99386993519147 29.822932615668833 0 29.822932615668833 -271.82244349821121 0 0 0 0 618.69675551675027 20.839556906741564 0 20.839556906741564 -3.7861986542411614 0 0 0 0 1131.2808263357438 -112.3196520548554 0 -112.3196520548554 -230.09767676753836 0 0 0 0 659.45450284228718 -661.52649434688192 0 -661.52649434688192 -610.15887248110084 0 0 0 0 0.81014411469885772 -0.81490572268002381 0 -0.81490572268002381 -0.92345121341091385 0 0 0 0 1351.4853601513314 355.85012426307003 0 355.85012426307003 191.93274235522404 0 0 0 0 -379.67943751483108 412.73686233022727 0 412.73686233022727 -259.26898147124848 0 0 0 0 3.294447388698984 0.48940808955885018 0 0.48940808955885018 -0.29862157202932593 0 0 0 0 1270.7378371992963 -114.57014354941202 0 -114.57014354941202 -203.04983420644203 0 0 0 0 772.87074766610749 200.48128852896116 0 200.48128852896116 -344.23516433707846 0 0 0 0 1235.6340969740413 -23.40387311761242 0 -23.40387311761242 -366.94407914138719 0 0 0 0 249.01201346113521 142.9022630708414 0 142.9022630708414 -342.21625132207555 0 0 0 0 120.19787459597728 -115.09760989617385 0 -115.09760989617385 -441.01439523222325 0 0 0 0 395.50026731501566 -229.05243624755713 0 -229.05243624755713 -203.5779026977234 0 0 0 0 122.92866947413131 -57.611573426525865 0 -57.611573426525865 -239.2654992477419 0 0 0 0 358.72240178535139 -97.409606327289112 0 -97.409606327289112 -355.20119590230388 0 0 0 0 322.00935748209304 191.8860248813844 0 191.8860248813844 -224.28754680508519 0 0 0 0 324.55623841006309 271.95039888099836 0 271.95039888099836 31.81043254832457 0 0 0 0 2.7762155914502671 -0.52109735078394692 0 -0.52109735078394692 -3.4300215277716752 0 0 0 0 678.68221264088061 513.24290864638715 0 513.24290864638715 -33.618911940751786 0 0 0 0 2.4969806708760132 -0.21637997644636187 0 -0.21637997644636187 -2.6109071121076539 0 0 0 0 -360.65307494306762 -495.66686814350942 0 -495.66686814350942 -696.43847863483825 0 0 0 0 -245.35398519425507 -109.45380294943288 0 -109.45380294943288 -318.01300516782794 0 0 0 0 -147.93895310573134 -240.37232920982956 0 -240.37232920982956 -565.71558865046063 0 0 0 0 -1.2211094626661492 -10.962326577003296 0 -10.962326577003296 5.6218381052407125 0 0 0 0 -325.82016734112403 -247.11781778881868 0 -247.11781778881868 -419.32387117613143 0 0 0 0 366.87247611737985 26.023196847805593 0 26.023196847805593 -48.187814821449138 0 0 0 0 294.74499188183108 9.8786782111237699 0 9.8786782111237699 -51.01609122526861 0 0 0 0 -169.72530687403923 -72.258624927896904 0 -72.258624927896904 -49.766778724253527 0 0 0 0 360.12531633664912 -17.148198859598779 0 -17.148198859598779 -64.13674393846577 0 0 0 0 0.40020928767995656 -2.1329634613381359 0 -2.1329634613381359 -0.31152325888239574 0 0 0 0 333.14478874648921 18.67110271769161 0 18.67110271769161 -90.770270092569262 0 0 0 0 232.12274785683258 -10.478644336563775 0 -10.478644336563775 -44.047222208680068 0 0 0 0 1.1037210231836454 -3.2007121875329005 0 -3.2007121875329005 -0.47010919516883831 0 0 0 0 305.82550273381639 29.084965865235063 0 29.084965865235063 -82.303709451026407 0 0 0 0 -57.335767297947314 20.243167897017884 0 20.243167897017884 -134.59276103696993 0 0 0 0 440.11962126012077 46.716198989945042 0 46.716198989945042 -86.787770706692982 0 0 0 0 368.62779566383688 17.297035155058438 0 17.297035155058438 -82.510358160800024 0 0 0 0 351.67323244511499 -2.5999753407450044 0 -2.5999753407450044 -88.343776032299502 0 0 0 0 317.988793458484 0.73423676395600523 0 0.73423676395600523 -71.367552051229723 0 0 0 0 388.80655422635027 26.575823084468539 0 26.575823084468539 -91.847019690346315 0 0 0 0 447.84273341976223 111.71762136570305 0 111.71762136570305 -114.4197584890394 0 0 0 0 543.54373186340672 118.26297326972326 0 118.26297326972326 -117.61662060608251 0 0 0 0 442.13569054153049 99.987655755585365 0 99.987655755585365 -53.270059261169081 0 0 0 0 469.02089205795346 201.50091006316291 0 201.50091006316291 -84.614555089619898 0 0 0 0 485.98616177892109 154.36315873955573 0 154.36315873955573 -79.897146287114083 0 0 0 0 385.06629967971821 142.03086675978921 0 142.03086675978921 -38.983021642951826 0 0 0 0 356.76546961290296 75.666827445431409 0 75.666827445431409 -60.006160043470118 0 0 0 0 344.36725652421592 73.066898189158564 0 73.066898189158564 -15.130068616974313 0 0 0 0 242.79615903459489 66.322539218766906 0 66.322539218766906 -8.8254702874528448 0 0 0 0 263.93926882432925 64.420705253115841 0 64.420705253115841 -27.738037220595288 0 0 0 0 266.75132878302247 142.86523643153669 0 142.86523643153669 27.458356794119027 0 0 0 0 375.90727208663884 137.48012837685292 0 137.48012837685292 -41.142376794597112 0 0 0 0 391.08339063868698 192.01636944239863 0 192.01636944239863 1.1806633109299582 0 0 0 0 317.01289004602586 192.38542575081556 0 192.38542575081556 28.658419195969145 0 0 0 0 291.81665992579656 124.02603465185803 0 124.02603465185803 -11.546238755696322 0 0 0 0 147.83000028847891 68.652828478464471 0 68.652828478464471 37.030922282809115 0 0 0 0 154.76165516123001 -33.348362213835571 0 -33.348362213835571 -23.938415547012482 0 0 0 0 88.491633977420861 -43.404982832216774 0 -43.404982832216774 3.1877885284211516 0 0 0 0 247.52443537441695 -37.057372511805625 0 -37.057372511805625 -21.477368589976322 0 0 0 0 333.05787735851482 -24.635424545748265 0 -24.635424545748265 -23.664678920817096 0 0 0 0 96.107805811567232 -49.673087332859723 0 -49.673087332859723 -5.8489683555417287 0 0 0 0 30.274977787630633 -72.535803905715511 0 -72.535803905715511 10.90378217162106 0 0 0 0 53.638829132381943 -110.76829511529468 0 -110.76829511529468 -22.306263512909936 0 0 0 0 10.58421753309085 -73.531974126450223 0 -73.531974126450223 14.591345402517618 0 0 0 0 19.629348219095846 -66.852742462683636 0 -66.852742462683636 10.053322824089264 0 0 0 0 14.526149924495257 -57.914664256357355 0 -57.914664256357355 17.115381231384163 0 0 0 0 15.329778877436183 -63.101132407613477 0 -63.101132407613477 16.955752174901136 0 0 0 0 43.046036648040172 -54.189573599527648 0 -54.189573599527648 13.849672797347921 0 0 0 0 29.618921469314955 -66.361930741977631 0 -66.361930741977631 5.2501320922165178 0 0 0 0 22.077521952080133 -106.02483697528851 0 -106.02483697528851 44.88031452287396 0 0 0 0 76.654836141402484 -53.864371319941711 0 -53.864371319941711 -13.013851699113729 0 0 0 0 135.33675566886086 38.371489370237782 0 38.371489370237782 -153.22019495353743 0 0 0 0 150.91746818268439 -51.590628897109127 0 -51.590628897109127 -52.18162999022843 0 0 0 0 136.69665015029022 2.9442573494161479 0 2.9442573494161479 -122.69279078787804 0 0 0 0 209.14153934753267 -73.204792648961302 0 -73.204792648961302 -63.768131812739739 0 0 0 0 240.53253045293968 -35.95962545121256 0 -35.95962545121256 -141.84528749226592 0 0 0 0 321.16384823428234 -72.656934956939949 0 -72.656934956939949 -194.14480571595595 0 0 0 0 226.47133541080984 -116.89668315078961 0 -116.89668315078961 -140.16934811509418 0 0 0 0 281.03220922367109 -88.094471293587048 0 -88.094471293587048 -129.69831836647791 0 0 0 0 273.90198650513776 -26.792701661364845 0 -26.792701661364845 -222.86458271657466 0 0 0 0 230.47252081939951 -38.400159010998323 0 -38.400159010998323 -159.79618907252734 0 0 0 0 242.24481112253852 -7.1203558184570284 0 -7.1203558184570284 -231.95626445140806 0 0 0 0 43.857215900932715 -39.786591285932559 0 -39.786591285932559 17.39529200506513 0 0 0 0 26.858957583724987 -46.448818103339363 0 -46.448818103339363 24.044926592046977 0 0 0 0 198.02708063460886 20.662304261000827 0 20.662304261000827 -230.42799311506678 0 0 0 0 198.02708063507453 20.662304261204554 0 20.662304261204554 -230.4279931152123 0 0 0 0 198.0270806348999 20.662304261393729 0 20.662304261393729 -230.42799311524141 0 0 0 0 20.253878627606298 -5.8741027780911566 0 -5.8741027780911566 1.4544982856497839 0 0 0 0 163.85578623678884 -57.003381309735687 0 -57.003381309735687 -55.751310363415541 0 0 0 0 218.83796802299912 -116.59608941020633 0 -116.59608941020633 152.86680627284841 0 0 0 0 263.46401505543326 38.11038306319233 0 38.11038306319233 592.68879027223738 0 0 0 0 5.3593291428057057 -71.508755753705202 0 -71.508755753705202 0.51638870835274275 0 0 0 0 335.47840384478877 -175.88216238078098 0 -175.88216238078098 -112.10168786459326 0 0 0 0 385.63467012462206 -238.11190960296062 0 -238.11190960296062 -82.203578794196801 0 0 0 0 13.517358652636176 -80.538139721684274 0 -80.538139721684274 -64.564392444168334 0 0 0 0 11.30223250540439 -76.946719967803801 0 -76.946719967803801 -15.99245902452094 0 0 0 0 -66.560912225831999 -32.422695302377178 0 -32.422695302377178 -92.731155193698214 0 0 0 0 -107.35968653907184 -125.61197153560624 0 -125.61197153560624 -31.703143900736904 0 0 0 0 -24.626448479830287 -137.68841176283968 0 -137.68841176283968 -30.551195598152844 0 0 0 0 -10.097941825813905 -67.071741283192296 0 -67.071741283192296 -18.020451429132663 0 0 0 0 -0.94650452950736508 -83.763194029186707 0 -83.763194029186707 -0.97858572215773165 0 0 0 0 12.275458643820457 -31.17750514525477 0 -31.17750514525477 83.124995341517206 0 0 0 0 -9.2303654607967474 -41.018994077137904 0 -41.018994077137904 78.649588101219706 0 0 0 0 -4.6513738524517976 4.3371086082761394 0 4.3371086082761394 34.662867993360123 0 0 0 0 86.425076154788258 -49.193481692345813 0 -49.193481692345813 63.436785019158378 0 0 0 0 -13.497499494173098 -86.587783369159297 0 -86.587783369159297 51.090114788618848 0 0 0 0 104.38850865556742 -20.414744244350459 0 -20.414744244350459 -0.22956602958947769 0 0 0 0 221.52070040896069 -44.165577663292424 0 -44.165577663292424 -71.822290609742595 0 0 0 0 200.62224977783626 -63.963642182858166 0 -63.963642182858166 -69.103873942029168 0 0 0 0 216.03886256870464 -115.02084860593641 0 -115.02084860593641 -42.513176797869164 0 0 0 0 222.28604556450864 -202.65715362597263 0 -202.65715362597263 -6.4791765937043237 0 0 0 0 221.80885225057136 -193.06605303367905 0 -193.06605303367905 -94.359775914366764 0 0 0 0 191.47939372598194 -269.73764118105464 0 -269.73764118105464 -4.8352095575100975 0 0 0 0 29.608512465058084 -144.82838226146828 0 -144.82838226146828 31.622239649255789 0 0 0 0 83.91001682067872 -140.53519878546285 0 -140.53519878546285 -31.328977215060149 0 0 0 0 81.367751345744182 -139.4824540672812 0 -139.4824540672812 25.764159336991725 0 0 0 0 40.630506207351573 -218.27328466168183 0 -218.27328466168183 5.2709211107539886 0 0 0 0 -63.441091116925236 -170.75991869641075 0 -170.75991869641075 29.350233488974482 0 0 0 0 -6.7446273128880421 -103.26567040774262 0 -103.26567040774262 -68.539409077027813 0 0 0 0 -19.091983037913451 -82.419098371081418 0 -82.419098371081418 -25.176953194299131 0 0 0 0 -7.7563715805154061 -63.543362546786739 0 -63.543362546786739 142.95503228215057 0 0 0 0 26.320815644634422 -174.43888989527113 0 -174.43888989527113 56.019178780452421 0 0 0 0 -260.03186399056722 -364.14499519223637 0 -364.14499519223637 -258.17839444302626 0 0 0 0 91.157855686505627 -45.657162742158533 0 -45.657162742158533 17.578511407512291 0 0 0 0 41.701903786917683 -90.01292960201863 0 -90.01292960201863 -211.22880174552301 0 0 0 0 10.185303812228085 -166.25849625048568 0 -166.25849625048568 -131.54484959287947 0 0 0 0 22.422318495342779 -8.9530598638422418 0 -8.9530598638422418 -2.3463283760003222 0 0 0 0 -110.59044356734375 3.5898442386842362 0 3.5898442386842362 -142.99906860065676 0 0 0 0 14.249841464666588 6.1890444183348734 0 6.1890444183348734 -4.6923758590390676 0 0 0 0 5.7636067101848312 -214.00205341479887 0 -214.00205341479887 -5.5457118002380525 0 0 0 0 347.58673130330862 232.84030999689094 0 232.84030999689094 52.187885074858059 0 0 0 0 161.54450219174032 88.59503928434242 0 88.59503928434242 41.521551496697043 0 0 0 0 90.706268195221611 20.436355302139049 0 20.436355302139049 -24.73139761232822 0 0 0 0 -126.35644686128944 -85.515109580954231 0 -85.515109580954231 -31.446845553884486 0 0 0 0 271.50924494367791 -46.960519919427497 0 -46.960519919427497 -55.534380022523692 0 0 0 0 -639.71205722377636 1301.1667290539303 0 1301.1667290539303 216.39229005486686 0 0 0 0 243.08726486239175 -70.20532290263327 0 -70.20532290263327 -26.735820857644285 0 0 0 0 102.58718755642062 31.689946173681335 0 31.689946173681335 -22.134930175694471 0 0 0 0 1340.0584004021657 112.91554080264928 0 112.91554080264928 -1116.7418780981689 0 0 0 0 324.66733976616524 490.04633456773558 0 490.04633456773558 -1089.4774779869413 0 0 0 0 89.456152286671568 -333.83014318807227 0 -333.83014318807227 -316.48492497224333 0 0 0 0 321.47389264480444 -686.67836865424351 0 -686.67836865424351 -261.49607967481097 0 0 0 0 34.755252421069599 -191.93670743915339 0 -191.93670743915339 -665.86944148780822 0 0 0 0 948.97112837730674 -624.11443015220493 0 -624.11443015220493 -565.19554076357781 0 0 0 0 -253.48566203395603 -398.12363721780912 0 -398.12363721780912 -317.97280166543953 0 0 0 0 137.83026449104364 -162.17356774292057 0 -162.17356774292057 -41.073484026357619 0 0 0 0 -114.94549946358893 -42.976940072092475 0 -42.976940072092475 -86.02825888665393 0 0 0 0 -3.053827585056041 -1.6982585915010304 0 -1.6982585915010304 1.852665489264119 0 0 0 0 -114.20958835777128 -46.700214838154352 0 -46.700214838154352 -69.755257590421024 0 0 0 0 114.76764719550556 -84.121891892199301 0 -84.121891892199301 -9.1469561313933809 0 0 0 0 517.29121220413072 89.159921573600514 0 89.159921573600514 -243.67227116821959 0 0 0 0 264.34071845054859 -68.890636213525795 0 -68.890636213525795 -120.25485674379433 0 0 0 0 32.481363644386875 -103.49246956542083 0 -103.49246956542083 -4.8144361329450476 0 0 0 0 -63.705778701376403 -191.51155046429949 0 -191.51155046429949 -0.69300686417955148 0 0 0 0 243.59613279889163 -72.405471972002488 0 -72.405471972002488 -54.508742197773245 0 0 0 0 30.250097025201114 -71.361134387636071 0 -71.361134387636071 6.7110676813429038 0 0 0 0 76.896931136063358 -218.55061006575079 0 -218.55061006575079 -121.46282771556616 0 0 0 0 0.64296761671926106 -0.84646752551532245 0 -0.84646752551532245 0.57539651003543568 0 0 0 0 277.00476710355724 -223.44736663911272 0 -223.44736663911272 -102.45271017285813 0 0 0 0 138.10522593176574 -121.3193961130155 0 -121.3193961130155 -38.155370674445919 0 0 0 0 69.721046146456501 -186.73905807510414 0 -186.73905807510414 -33.177727832206074 0 0 0 0 112.70874972372621 -185.60215547062012 0 -185.60215547062012 -22.238932919792205 0 0 0 0 20.16503503999536 -8.4616186573564391 0 -8.4616186573564391 -1.361537439323758 0 0 0 0 -214.89815251028631 84.200546173739667 0 84.200546173739667 -365.59732917594738 0 0 0 0 81.071087580203312 -94.837079918393442 0 -94.837079918393442 -126.7522163392623 0 0 0 0 16.800221429217324 -9.117337350039378 0 -9.117337350039378 -2.4204010494162489 0 0 0 0 -283.64254660916049 29.945657379613294 0 29.945657379613294 -220.39322058145262 0 0 0 0 596.29153848675196 -166.39538261641519 0 -166.39538261641519 -96.673158633658204 0 0 0 0 434.19590628845617 -12.52336930920319 0 -12.52336930920319 -129.59464292513076 0 0 0 0 209.55277893488528 224.6269366343704 0 224.6269366343704 -362.98861956579492 0 0 0 0 -1.6778315250113565 0.35604731401960521 0 0.35604731401960521 1.7962666743936282 0 0 0 0 -248.11658648249249 363.36312133296258 0 363.36312133296258 -360.34508678206657 0 0 0 0 816.33640615263721 755.47500119127653 0 755.47500119127653 494.09869717836409 0 0 0 0 -181.08294752208167 -593.83174129555482 0 -593.83174129555482 -233.31917136600691 0 0 0 0 13.957457164347375 -6.1963138134139797 0 -6.1963138134139797 3.1224132508840139 0 0 0 0 409.3395844506158 285.47743007444024 0 285.47743007444024 282.19080959676603 0 0 0 0 856.45523312131991 244.28624896321116 0 244.28624896321116 -218.80358211801286 0 0 0 0 -466.4553367116423 -398.94628376099081 0 -398.94628376099081 151.11329350265441 0 0 0 0 603.40124915668275 -573.10965890615535 0 -573.10965890615535 -259.27583849206349 0 0 0 0 469.81971369421808 -88.574649488133218 0 -88.574649488133218 -178.06516493956019 0 0 0 0 1438.0478298774105 251.75409430843047 0 251.75409430843047 -193.37528406710589 0 0 0 0 94.393457808619132 169.51145875511338 0 169.51145875511338 -189.25559751847322 0 0 0 0 484.38415765340324 115.86328142074854 0 115.86328142074854 -440.24359497690818 0 0 0 0 543.98349656918435 -36.940509513193774 0 -36.940509513193774 -323.32712219167433 0 0 0 0 490.51034977836389 72.911013073745607 0 72.911013073745607 -162.56012072256726 0 0 0 0 671.8550281834614 233.21684879327518 0 233.21684879327518 -53.129554886404094 0 0 0 0 544.68452720364439 -13.835740212234214 0 -13.835740212234214 -445.23528397928379 0 0 0 0 0.22918988664626738 -8.7225318560350615 0 -8.7225318560350615 0.28713724737182034 0 0 0 0 186.75244341090729 -138.30099037243076 0 -138.30099037243076 -132.93434803140508 0 0 0 0 429.59402099397266 11.116127306760063 0 11.116127306760063 -42.86476892887049 0 0 0 0 482.87086803294369 57.145674404752299 0 57.145674404752299 -42.715792923930621 0 0 0 0 424.0223656436865 -9.3735282887919311 0 -9.3735282887919311 -92.920721304681592 0 0 0 0 332.23690077799256 75.828713591431779 0 75.828713591431779 -180.53978478025965 0 0 0 0 161.25591440190328 67.415403837890153 0 67.415403837890153 -112.91588778685013 0 0 0 0 146.68853474734351 78.24475491324938 0 78.24475491324938 -110.88115280311126 0 0 0 0 207.20827929889492 190.9703119735309 0 190.9703119735309 -222.85941347166226 0 0 0 0 -69.945951677604171 195.17474764357553 0 195.17474764357553 -142.97645141584144 0 0 0 0 -22.755919317511143 -0.36205410265301907 0 -0.36205410265301907 -220.19856577461627 0 0 0 0 -74.119056979689049 54.360475017137503 0 54.360475017137503 -54.671698821030077 0 0 0 0 18.770202879648423 10.039779567661753 0 10.039779567661753 4.2602878109057372 0 0 0 0 -2.7381157822965179 -11.560187541713276 0 -11.560187541713276 2.1115698572366455 0 0 0 0 27.199762727934285 64.822413538157662 0 64.822413538157662 -19.559852188209334 0 0 0 0 234.94362815115892 -18.862895324114561 0 -18.862895324114561 -68.623506109972368 0 0 0 0 126.61041443786235 -14.910929472424868 0 -14.910929472424868 7.1318347698343132 0 0 0 0 143.94641361775575 34.617888976496943 0 34.617888976496943 10.059695172902082 0 0 0 0 167.53327011902002 17.728265445239686 0 17.728265445239686 -28.656754524869939 0 0 0 0 280.99677095876541 70.20726930652836 0 70.20726930652836 -86.499593231535243 0 0 0 0 315.16418053602683 34.868274808813567 0 34.868274808813567 -50.923418786492221 0 0 0 0 268.42845712779672 38.901731115685834 0 38.901731115685834 -7.1983988711695019 0 0 0 0 257.68288740538992 -23.037884290058173 0 -23.037884290058173 -93.109460866857205 0 0 0 0 361.52810894499999 108.00575330338916 0 108.00575330338916 -33.25103154806709 0 0 0 0 432.13016613146465 78.746471527170684 0 78.746471527170684 -51.763194931639191 0 0 0 0 489.3564244369627 -43.699425082257449 0 -43.699425082257449 -72.69229863126202 0 0 0 0 401.80320669687353 20.769499868302546 0 20.769499868302546 -88.74932675954642 0 0 0 0 99.485879066152847 36.318748267396586 0 36.318748267396586 -32.253031755268239 0 0 0 0 0.48215003618430785 -1.2191047600078946 0 -1.2191047600078946 -0.17938593844599637 0 0 0 0 242.83702205494046 59.919339175678942 0 59.919339175678942 -74.706697551138859 0 0 0 0 301.0046480956953 1.4977485268409509 0 1.4977485268409509 -107.77486111570215 0 0 0 0 236.1477898415942 99.527056583384422 0 99.527056583384422 -145.61616546784899 0 0 0 0 288.44091606669826 49.34520509570757 0 49.34520509570757 -200.67829050130695 0 0 0 0 493.77689445417491 26.571995036097633 0 26.571995036097633 -120.67771485972662 0 0 0 0 388.54463539207791 -30.574583995832427 0 -30.574583995832427 -72.913551398768504 0 0 0 0 -35.346652935724705 29.035016527995595 0 29.035016527995595 -171.96309697836432 0 0 0 0 0.52416624188612104 -0.76439068812683786 0 -0.76439068812683786 0.5286717141030941 0 0 0 0 1.2451122906745908 -2.5736536833058778 0 -2.5736536833058778 -0.37987458302838206 0 0 0 0 411.77778078539995 43.808040098331276 0 43.808040098331276 -150.29182064316228 0 0 0 0 493.93476507384912 2.0053637116197933 0 2.0053637116197933 -98.692870285019126 0 0 0 0 410.15082323935349 -45.435019883567293 0 -45.435019883567293 -106.84125615781932 0 0 0 0 395.93206717411522 -6.3362056489927454 0 -6.3362056489927454 -89.513885714206481 0 0 0 0 390.44383515854133 10.083325218941354 0 10.083325218941354 -76.330423925196556 0 0 0 0 301.84081047920336 -47.824725030352965 0 -47.824725030352965 -73.040872652951293 0 0 0 0 379.51967253912881 -41.668597337648407 0 -41.668597337648407 -82.081622766294458 0 0 0 0 640.09593734616647 105.21150649134688 0 105.21150649134688 -142.84065042386192 0 0 0 0 579.6165998879078 198.44327723506149 0 198.44327723506149 -151.74525568088484 0 0 0 0 585.89350612118142 34.911389534537193 0 34.911389534537193 -112.9091373802521 0 0 0 0 471.44967288311454 23.946024525109351 0 23.946024525109351 -104.51820643628162 0 0 0 0 489.65240670205458 15.245431008407081 0 15.245431008407081 -99.893001034489316 0 0 0 0 627.52074738158262 40.111050967599112 0 40.111050967599112 -124.69517478887224 0 0 0 0 976.24749457238795 284.77899882965744 0 284.77899882965744 -142.2228642011205 0 0 0 0 652.46180009504315 192.8642956804083 0 192.8642956804083 -157.83901889618483 0 0 0 0 725.43769896766025 -73.352926951806467 0 -73.352926951806467 -52.80322687466014 0 0 0 0 637.44293409420061 70.334791371182746 0 70.334791371182746 -27.812940924395321 0 0 0 0 515.29842111645848 149.87113932441957 0 149.87113932441957 34.94609434215397 0 0 0 0 579.77665652503492 -15.579331224342468 0 -15.579331224342468 -23.28771485156949 0 0 0 0 814.43979680204939 -99.207009316450012 0 -99.207009316450012 103.45782239532764 0 0 0 0 883.49028399465897 279.94289308169664 0 279.94289308169664 87.142962878373226 0 0 0 0 789.99543662450742 -103.28445206260176 0 -103.28445206260176 -239.21736409388313 0 0 0 0 593.49026924502687 18.091988528077991 0 18.091988528077991 -165.06400308385548 0 0 0 0 704.81241568084806 71.051619632914708 0 71.051619632914708 -155.83991667866985 0 0 0 0 368.7752768160135 56.071920697180531 0 56.071920697180531 -41.606390279730931 0 0 0 0 448.38499528408283 46.278036807372814 0 46.278036807372814 -55.053020812627437 0 0 0 0 560.38165108213434 14.963632664693591 0 14.963632664693591 -94.983099654643866 0 0 0 0 370.99904869153397 36.911090005886081 0 36.911090005886081 -23.715027593771538 0 0 0 0 319.52204370591062 5.4319290962348532 0 5.4319290962348532 -27.720829885629428 0 0 0 0 299.31088825539337 58.951386704714878 0 58.951386704714878 -19.787388418305454 0 0 0 0 333.59103535633767 21.869503823418881 0 21.869503823418881 -18.685831286620214 0 0 0 0 337.78002907058544 29.871871342946974 0 29.871871342946974 -19.353774158304532 0 0 0 0 438.58248745794117 -27.250163080936204 0 -27.250163080936204 -107.79298442048298 0 0 0 0 405.04063717678946 -46.575110783798777 0 -46.575110783798777 -59.310353413474786 0 0 0 0 303.288521030423 -52.09240825202221 0 -52.09240825202221 -56.441057460965112 0 0 0 0 314.95679595514957 -7.2651812132602345 0 -7.2651812132602345 -45.054455063935961 0 0 0 0 409.95393828127999 -109.06512060996289 0 -109.06512060996289 -74.630605233426877 0 0 0 0 537.68440038796689 -158.09185717588758 0 -158.09185717588758 -103.57480698278027 0 0 0 0 435.53749415904167 -80.899966000339987 0 -80.899966000339987 -115.55569142520312 0 0 0 0 589.01934269809863 -147.73677338798166 0 -147.73677338798166 -159.92074044944366 0 0 0 0 595.51858595768863 -129.74825065657183 0 -129.74825065657183 -171.23069880364528 0 0 0 0 614.97537726507289 -151.74372416576057 0 -151.74372416576057 -236.07937805422034 0 0 0 0 583.78195016684185 -69.953780108056435 0 -69.953780108056435 -121.04919633107625 0 0 0 0 463.34003874438349 6.8854711712519929 0 6.8854711712519929 -87.778312765255123 0 0 0 0 425.18008365725109 -30.487128881350145 0 -30.487128881350145 9.7975852070312612 0 0 0 0 377.16586861143878 22.663805428028468 0 22.663805428028468 64.418481102432224 0 0 0 0 353.77970030724828 -17.376377320318852 0 -17.376377320318852 -4.1279377410662619 0 0 0 0 2.5950327620693088 -8.4019025183792735 0 -8.4019025183792735 -0.7293229249497859 0 0 0 0 473.51758409601462 18.749491954297014 0 18.749491954297014 -45.319467284499524 0 0 0 0 16.58499101822963 -6.8415340197086607 0 -6.8415340197086607 -7.4085307179359461 0 0 0 0 17.1198438515421 -9.4431511231292689 0 -9.4431511231292689 -9.2254214449094434 0 0 0 0 -1.1533440252096625 -5.8781346096464517 0 -5.8781346096464517 -1.9034358573535428 0 0 0 0 331.95461693014659 21.266894515277841 0 21.266894515277841 -14.841226611377351 0 0 0 0 0.52750265405320818 -1.0862174581301645 0 -1.0862174581301645 -0.26438521820994687 0 0 0 0 51.338839808930061 -20.325799287682003 0 -20.325799287682003 -13.024728307177611 0 0 0 0 11.805241644033231 -13.374525436184285 0 -13.374525436184285 -10.776789253597144 0 0 0 0 0.74830320927271998 -1.7834529248233935 0 -1.7834529248233935 -0.42903373689462221 0 0 0 0 49.975766921157629 -5.6405833496973514 0 -5.6405833496973514 -23.901193764167601 0 0 0 0 269.62503535332507 -14.108890958639336 0 -14.108890958639336 -27.003264390209097 0 0 0 0 99.245607111282879 -2.5239412419755922 0 -2.5239412419755922 -48.181935714503993 0 0 0 0 21.933610608204617 -13.368121370872359 0 -13.368121370872359 -3.165713717836752 0 0 0 0 20.973825185174064 -7.3397775718218554 0 -7.3397775718218554 -34.033637324195297 0 0 0 0 2.1287750906664655 -7.0388380667276635 0 -7.0388380667276635 -1.2414376333926 0 0 0 0 -7.4729690207896056 -21.326647824743645 0 -21.326647824743645 -5.4432904289672024 0 0 0 0 1.8113393340794062 -5.4878491463928185 0 -5.4878491463928185 -1.3382031616271863 0 0 0 0 -47.667204855810269 -32.999039203052405 0 -32.999039203052405 1.9471258281236032 0 0 0 0 525.62844415607105 36.956440437997742 0 36.956440437997742 -48.467074690043319 0 0 0 0 366.69225814842503 53.098533049179537 0 53.098533049179537 -4.0086658811027291 0 0 0 0 409.87285180861363 -12.762813310071977 0 -12.762813310071977 -26.664687401104629 0 0 0 0 404.40704457931133 -25.356064610641539 0 -25.356064610641539 9.9968306969665264 0 0 0 0 578.79237889860815 59.712219962235167 0 59.712219962235167 -37.05165652993378 0 0 0 0 378.11208938031905 42.855368148612179 0 42.855368148612179 17.846699759713601 0 0 0 0 27.768339933172683 -9.412606731015785 0 -9.412606731015785 -61.387713762372982 0 0 0 0 -116.77375230728649 -48.746347294359211 0 -48.746347294359211 21.015011237808352 0 0 0 0 1.3353589534724435 -3.5732806964703627 0 -3.5732806964703627 -0.87355828155641402 0 0 0 0 161.52131423416722 -1.0963110387806694 0 -1.0963110387806694 -67.547958708839985 0 0 0 0 28.322229830762808 -15.952354160078741 0 -15.952354160078741 7.4576762277981743 0 0 0 0 193.62132182455389 -17.075964596600215 0 -17.075964596600215 -50.732697318498424 0 0 0 0 167.65586987619827 -43.550938289122556 0 -43.550938289122556 -20.414494192117218 0 0 0 0 0.73670372277286589 -2.0283439428901033 0 -2.0283439428901033 -0.49022871985526884 0 0 0 0 2.3365504393987067 -54.117452389543971 0 -54.117452389543971 -3.3075146133029421 0 0 0 0 0.56857715402379227 -1.7434133652694754 0 -1.7434133652694754 -0.42045083573760333 0 0 0 0 146.05487284567789 -83.094334308046939 0 -83.094334308046939 -44.97431256544769 0 0 0 0 -33.645246602522093 -23.034470180484533 0 -23.034470180484533 -25.772626683654892 0 0 0 0 -169.87156790927111 -90.726480831628734 0 -90.726480831628734 43.722487912724489 0 0 0 0 -29.972982946841512 -126.7201693103729 0 -126.7201693103729 -0.043514447008472186 0 0 0 0 238.46924638223936 21.583382979304567 0 21.583382979304567 -56.862995676002868 0 0 0 0 80.283927319440409 -105.56982872741955 0 -105.56982872741955 -0.0089691057668645612 0 0 0 0 0.25536747449423558 -0.81258919126153728 0 -0.81258919126153728 -0.19239262445055938 0 0 0 0 54.085674197325716 -0.55703323576645403 0 -0.55703323576645403 52.069173400107587 0 0 0 0 49.698731584863708 -42.466142136587237 0 -42.466142136587237 -81.041588057740682 0 0 0 0 -151.9083637772128 -116.29185021355248 0 -116.29185021355248 0.15628767244927846 0 0 0 0 -21.412524463492446 35.373654633623268 0 35.373654633623268 27.35245177576066 0 0 0 0 668.65435375619927 32.237165218946672 0 32.237165218946672 -52.391018068944533 0 0 0 0 0.81201557241429612 -1.3141563239482252 0 -1.3141563239482252 -0.29950315094470104 0 0 0 0 487.34219928161474 -43.749895899158702 0 -43.749895899158702 0.012661276579948548 0 0 0 0 494.54341825225856 72.361100715827206 0 72.361100715827206 9.9394753281748223 0 0 0 0 496.45187973549764 -135.89130905460465 0 -135.89130905460465 -75.244562648431113 0 0 0 0 414.95837566383125 -166.76252449030807 0 -166.76252449030807 -58.544935530837733 0 0 0 0 502.76641150744217 -164.94990810605427 0 -164.94990810605427 -16.620989700142786 0 0 0 0 545.38769264647999 -167.3607676177333 0 -167.3607676177333 -79.391307436711486 0 0 0 0 531.11917237411399 -140.22239317339742 0 -140.22239317339742 -106.04379226989863 0 0 0 0 338.77699752268381 -78.513861340372102 0 -78.513861340372102 -67.538922699775554 0 0 0 0 272.04681740830711 -128.24069491994371 0 -128.24069491994371 -43.068407761439062 0 0 0 0 151.36161041050218 -70.686011324225547 0 -70.686011324225547 -33.63788597057723 0 0 0 0 323.51037089434089 -132.61053942156096 0 -132.61053942156096 -59.503766974674136 0 0 0 0 323.91051124135197 -152.98811785214667 0 -152.98811785214667 -7.6927985570934538 0 0 0 0 142.48010060121305 -90.11813397898726 0 -90.11813397898726 -5.9654739943929789 0 0 0 0 143.01660179403552 -83.462418699968225 0 -83.462418699968225 -57.366968259814037 0 0 0 0 282.24577507094364 -161.65235793738611 0 -161.65235793738611 -0.016967408050336502 0 0 0 0 373.75341661895072 -94.826857597096165 0 -94.826857597096165 -30.970255540650953 0 0 0 0 478.31468088402471 -181.59991352814851 0 -181.59991352814851 -0.089487004648832857 0 0 0 0 553.31036885507638 -116.96449796361659 0 -116.96449796361659 2.4008215400506856 0 0 0 0 681.09781950205797 -179.53444525546234 0 -179.53444525546234 0.2770438688287668 0 0 0 0 840.13505986257223 -107.4377136415672 0 -107.4377136415672 -13.868307981968144 0 0 0 0 664.39659147508792 -148.22306768333428 0 -148.22306768333428 28.384709997310921 0 0 0 0 662.33888557675527 -176.12917974476505 0 -176.12917974476505 -42.764203035512821 0 0 0 0 680.62320202100636 -119.38999778972861 0 -119.38999778972861 -63.566564219405223 0 0 0 0 665.98063469261979 -185.71537030055549 0 -185.71537030055549 -81.683508662229201 0 0 0 0 879.98567945334071 -166.7664984787686 0 -166.7664984787686 -71.521366689142553 0 0 0 0 677.9692230840883 -174.28685514295944 0 -174.28685514295944 -84.413259354888567 0 0 0 0 824.76515874614415 -80.839837665110167 0 -80.839837665110167 -167.9503984857447 0 0 0 0 675.24418160719506 -159.13106994136854 0 -159.13106994136854 -133.34002657010285 0 0 0 0 791.45264720605337 -22.822580605778739 0 -22.822580605778739 -151.02104882269509 0 0 0 0 1122.104265594855 -106.33639789991554 0 -106.33639789991554 -136.27130002041071 0 0 0 0 865.5396035857284 -99.287764469935354 0 -99.287764469935354 21.444954227082576 0 0 0 0 1279.9217388789548 -11.402846056405203 0 -11.402846056405203 -39.804002609865407 0 0 0 0 902.57257071597996 -190.11136046312137 0 -190.11136046312137 -1.042793188412811 0 0 0 0 1426.4308487078451 -212.78587768968274 0 -212.78587768968274 4.2593468405254935 0 0 0 0 2228.48727997487 400.13412916163009 0 400.13412916163009 -67.322817741487313 0 0 0 0 15.896815864776727 -0.38845989592097668 0 -0.38845989592097668 -0.037091900765238731 0 0 0 0 1648.3894112302332 1414.5966800077952 0 1414.5966800077952 1154.1662454481311 0 0 0 0 10.415076375829187 2.039578093514919 0 2.039578093514919 0.16412828448492545 0 0 0 0 567.05550670369121 558.49878151055827 0 558.49878151055827 478.17308348299605 0 0 0 0 1405.7081052207795 762.91842012792415 0 762.91842012792415 104.64551177507195 0 0 0 0 1400.5740369398991 97.210806959579145 0 97.210806959579145 -165.68421321538887 0 0 0 0 20.314585365937091 -3.8751436161572617 0 -3.8751436161572617 0.098560427513736407 0 0 0 0 22.883508021648595 -16.445221834063485 0 -16.445221834063485 1.0071748691186855 0 0 0 0 3.8634360290025427 -0.78837592671544598 0 -0.78837592671544598 -0.34188259500142137 0 0 0 0 -45.76925740227307 -10.591394123531547 0 -10.591394123531547 21.856921165790503 0 0 0 0 51.76295467762975 28.393562246974803 0 28.393562246974803 31.158305792349683 0 0 0 0 415.80464920098893 301.47434679427698 0 301.47434679427698 293.50938062750038 0 0 0 0 24.079314139369558 -1.7217841883761906 0 -1.7217841883761906 -2.1903234284358128 0 0 0 0 16.754307302937377 -0.15664851499754776 0 -0.15664851499754776 -2.5714498257938754 0 0 0 0 533.67814073211048 402.34007950142143 0 402.34007950142143 340.52196024923956 0 0 0 0 504.84998337437719 301.67450097008839 0 301.67450097008839 189.80856020109786 0 0 0 0 523.39930136621115 259.60938014550061 0 259.60938014550061 80.229040823635614 0 0 0 0 305.0374477567384 329.68103476769932 0 329.68103476769932 186.94034601274188 0 0 0 0 170.64564496162347 212.86165520899942 0 212.86165520899942 262.67442141326364 0 0 0 0 427.34941008685564 39.626793602634422 0 39.626793602634422 -180.4986528689285 0 0 0 0 0.12905393236474083 -0.32100991933167577 0 -0.32100991933167577 2.4265969214762153 0 0 0 0 -39.527720809273887 68.458424806171934 0 68.458424806171934 202.02953020266693 0 0 0 0 17.759649509676422 -9.7468179322446531 0 -9.7468179322446531 -0.347767459463308 0 0 0 0 2.4721465123483597 10.873426919238511 0 10.873426919238511 4.9145811025136474 0 0 0 0 577.07393014182162 265.25635468508551 0 265.25635468508551 114.56724326741892 0 0 0 0 518.20861026379862 225.91407299393882 0 225.91407299393882 130.09173092688519 0 0 0 0 583.28362916230981 395.72828489553564 0 395.72828489553564 202.6875818366866 0 0 0 0 816.37023042768124 562.19098229091469 0 562.19098229091469 152.85518378289612 0 0 0 0 780.30779860942857 397.56385332520858 0 397.56385332520858 30.829623662597214 0 0 0 0 699.08930674506701 420.93233817151724 0 420.93233817151724 54.610614114841837 0 0 0 0 888.27675863889453 345.73205366003555 0 345.73205366003555 -140.59513546800599 0 0 0 0 835.77791624821839 411.09136040829958 0 411.09136040829958 -45.229645734436417 0 0 0 0 707.63088963129849 256.80107041893433 0 256.80107041893433 14.760753172071418 0 0 0 0 926.66318535373284 219.71877061637616 0 219.71877061637616 2.0296952191956734 0 0 0 0 1156.0092805577069 197.47746167461983 0 197.47746167461983 -154.57697777485191 0 0 0 0 927.76307004567207 443.38355763583274 0 443.38355763583274 -47.985486494634188 0 0 0 0 822.535378219618 387.48702703825188 0 387.48702703825188 -44.735064196960451 0 0 0 0 1075.0853211770554 318.24891276909165 0 318.24891276909165 -218.52738128477813 0 0 0 0 979.18308805495326 110.96839605705327 0 110.96839605705327 -196.63371461842348 0 0 0 0 816.70095764580765 238.005333527836 0 238.005333527836 -242.61303271088423 0 0 0 0 818.31518643932941 216.25355779020265 0 216.25355779020265 -342.07310144552503 0 0 0 0 854.54851990449242 241.96612305590816 0 241.96612305590816 -354.17430947845423 0 0 0 0 852.23048233683221 231.42050962160693 0 231.42050962160693 -401.12303156600956 0 0 0 0 918.66307204414625 249.49610638682475 0 249.49610638682475 -359.25642882236207 0 0 0 0 850.99520238463447 138.96202545926121 0 138.96202545926121 -258.29399129581134 0 0 0 0 956.08073742964189 235.10467757393553 0 235.10467757393553 -2.6767570300248735 0 0 0 0 658.49731246466399 440.63758587764096 0 440.63758587764096 -177.29959182477205 0 0 0 0 262.11878119324683 235.83712742769853 0 235.83712742769853 -171.64777415677463 0 0 0 0 737.47624257544521 272.28588887082879 0 272.28588887082879 -335.95222195189234 0 0 0 0 626.4941583629261 67.348336921515966 0 67.348336921515966 -376.10746316131554 0 0 0 0 1589.15070540538 159.5542212358605 0 159.5542212358605 -79.249744016114164 0 0 0 0 1876.2435121250164 -151.09305446315284 0 -151.09305446315284 -229.99362449279215 0 0 0 0 1.8189976921056967 1.1471158677456685 0 1.1471158677456685 0.24030996299601171 0 0 0 0 1571.0739533663873 174.25202387086256 0 174.25202387086256 -496.14987578821092 0 0 0 0 2547.7897467737203 -266.10096508451761 0 -266.10096508451761 -503.21040911265845 0 0 0 0 -10.649143981609313 -2.0553634903470765 0 -2.0553634903470765 2.1951271760318285 0 0 0 0 2035.0492069444736 -432.94924749251913 0 -432.94924749251913 -411.49724767173757 0 0 0 0 2212.4780367897765 -242.52352990967256 0 -242.52352990967256 -292.21293711381804 0 0 0 0 8.2789849520486598 1.6981727504408468 0 1.6981727504408468 0.096567256430031279 0 0 0 0 852.5446649643709 108.6840278551299 0 108.6840278551299 -387.54312681920203 0 0 0 0 885.56283504834573 115.26563232177887 0 115.26563232177887 -399.85583590303304 0 0 0 0 1007.2202068992483 70.319123332062645 0 70.319123332062645 -420.25565222577461 0 0 0 0 2.5901116912271327 4.2946557894063346 0 4.2946557894063346 -0.19297920203281294 0 0 0 0 1934.5867356671952 661.72521066555191 0 661.72521066555191 -1058.6637496092353 0 0 0 0 464.47558317059884 209.36499493465999 0 209.36499493465999 -257.361400997489 0 0 0 0 833.62655644549523 31.395152474936367 0 31.395152474936367 -410.69477594240016 0 0 0 0 830.79070143259742 301.63430708018495 0 301.63430708018495 -325.90065798710657 0 0 0 0 872.66796090832213 270.18284025995126 0 270.18284025995126 -380.74748346605065 0 0 0 0 871.70739299579873 262.94260258416989 0 262.94260258416989 -415.99762701216332 0 0 0 0 870.45311476999632 253.10304158627883 0 253.10304158627883 -394.6725378121173 0 0 0 0 1007.0425200129102 269.88695109957007 0 269.88695109957007 -418.57842188799714 0 0 0 0 573.12692981376313 319.45517846729126 0 319.45517846729126 -295.38104560658144 0 0 0 0 605.18084332880971 170.29393747040922 0 170.29393747040922 -306.60733837479347 0 0 0 0 421.81434920206084 146.2368597857735 0 146.2368597857735 -240.99322907312626 0 0 0 0 527.63501656349399 5.8555345186755403 0 5.8555345186755403 -265.06920034003036 0 0 0 0 205.42433027218794 -69.933533434897981 0 -69.933533434897981 -277.74562097230603 0 0 0 0 996.20709298749898 -128.93956933644 0 -128.93956933644 -422.35817568031462 0 0 0 0 557.27097723647603 -281.79234551383524 0 -281.79234551383524 -342.53950207781372 0 0 0 0 385.87136217383522 -95.304144636996284 0 -95.304144636996284 -185.93243155556502 0 0 0 0 641.26897610783635 -95.080481025602126 0 -95.080481025602126 -186.6597949642337 0 0 0 0 604.60806681735266 -175.10249347084675 0 -175.10249347084675 -167.874137630924 0 0 0 0 583.45088640067115 -141.64338411560266 0 -141.64338411560266 -131.94012351282231 0 0 0 0 635.76139538775897 -97.738436885525971 0 -97.738436885525971 -169.38457201117038 0 0 0 0 897.62463138837484 -12.800773354677403 0 -12.800773354677403 -205.1724177899971 0 0 0 0 922.41502884931106 166.581742556172 0 166.581742556172 -250.26720741962322 0 0 0 0 693.73004452412715 224.47307794417043 0 224.47307794417043 -295.05103685575023 0 0 0 0 719.16539589217609 75.170173972965046 0 75.170173972965046 -242.13948212399418 0 0 0 0 703.21275507762039 76.677960189652822 0 76.677960189652822 -233.00441437022482 0 0 0 0 4992.5784947251959 214.08331483487635 0 214.08331483487635 -285.90001803510722 0 0 0 0 4996.1658818445867 162.386225582431 0 162.386225582431 60.021392608735091 0 0 0 0 4214.8949936966928 1849.1886315799106 0 1849.1886315799106 496.47958435467348 0 0 0 0 28.167833013501649 -15.951628565493451 0 -15.951628565493451 -0.51807944119057669 0 0 0 0 4419.2135443287116 328.25373703447929 0 328.25373703447929 -15.199229177167016 0 0 0 0 51.637282833296922 8.2419803425153759 0 8.2419803425153759 28.500694452159223 0 0 0 0 10.513372953246517 -6.132327686834941 0 -6.132327686834941 11.355628806550728 0 0 0 0 63.865373135115078 8.5471225796670751 0 8.5471225796670751 6.9922362971092298 0 0 0 0 61.432601918553701 -4.0544874653494389 0 -4.0544874653494389 14.523992870804591 0 0 0 0 38.410279440007912 -21.518821851425542 0 -21.518821851425542 0.20466315553109915 0 0 0 0 63.285862145196006 7.4041142546124092 0 7.4041142546124092 20.366304792087249 0 0 0 0 66.866399583930615 -20.764819551528788 0 -20.764819551528788 61.042632346398662 0 0 0 0 10.44640138828882 -4.0807467696396316 0 -4.0807467696396316 0.48249464790817609 0 0 0 0 4561.8565806495026 -870.88970717358939 0 -870.88970717358939 167.53724492856463 0 0 0 0 6.636746991706957 -2.1259288801050467 0 -2.1259288801050467 0.99292820712639163 0 0 0 0 1175.8222724203661 1336.5695335604123 0 1336.5695335604123 804.95006952350809 0 0 0 0 12.020091023597672 1.1146847461545804 0 1.1146847461545804 0.0023476040683507726 0 0 0 0 4929.4807351208001 -2.9422833274943638 0 -2.9422833274943638 -3.338847103101473 0 0 0 0 225.0404248595878 -15.409721359714386 0 -15.409721359714386 -208.51045280558316 0 0 0 0 -225.99054069971316 -123.08190773159416 0 -123.08190773159416 -146.92418746707517 0 0 0 0 17.509570838588672 1.6476395628932323 0 1.6476395628932323 -0.82869066827518489 0 0 0 0 46.354926223750226 -322.2177121863088 0 -322.2177121863088 -2.0478861738123255 0 0 0 0 385.16334473264578 -106.30417351763023 0 -106.30417351763023 -445.02376854793442 0 0 0 0 198.80684946427937 40.913558914356145 0 40.913558914356145 -559.16702257580789 0 0 0 0 40.304227994398445 -1.9688151665144389 0 -1.9688151665144389 0.71149591116611643 0 0 0 0 66.533451419105404 -3.9535604819075161 0 -3.9535604819075161 8.9133321924887241 0 0 0 0 71.59901197173167 8.5952652266657985 0 8.5952652266657985 3.0486772690042017 0 0 0 0 14.94239877170196 -9.6234105789295086 0 -9.6234105789295086 5.386304256100451 0 0 0 0 62.552172183262883 -12.14193593521054 0 -12.14193593521054 8.3126966075915334 0 0 0 0 68.446408154341043 -7.3526572512212738 0 -7.3526572512212738 -6.9438844799676644 0 0 0 0 61.239939065548242 5.9782501160922266 0 5.9782501160922266 -2.9823249594327592 0 0 0 0 52.943570116971387 -71.29137506518731 0 -71.29137506518731 -0.34747496836865688 0 0 0 0 56.880623741048908 3.0171420081766485 0 3.0171420081766485 -0.70807961765549532 0 0 0 0 50.983216874174104 -41.447917248795051 0 -41.447917248795051 0.035044617787140436 0 0 0 0 51.620191571419127 -48.152532032800124 0 -48.152532032800124 -64.137117195308576 0 0 0 0 55.018093451779748 -4.3186881752602417 0 -4.3186881752602417 0.7554310241329234 0 0 0 0 59.670344275340597 -18.502234517268221 0 -18.502234517268221 0.99315699811099023 0 0 0 0 130.4290431190966 -55.413354693580118 0 -55.413354693580118 -278.52466225844478 0 0 0 0 104.88833242922556 -99.744377047194575 0 -99.744377047194575 -293.55601642773388 0 0 0 0 -56.972148914908757 -419.45991801831656 0 -419.45991801831656 -699.44433753612066 0 0 0 0 60.896806660632137 -5.0392534974911882 0 -5.0392534974911882 26.774118831276155 0 0 0 0 340.84218063183653 -131.09091532785146 0 -131.09091532785146 -717.17003645180182 0 0 0 0 219.8578432410286 5.4784334226787905 0 5.4784334226787905 -502.24298604254182 0 0 0 0 289.87514711155382 -2.2886561730863946 0 -2.2886561730863946 -534.01547266899979 0 0 0 0 285.98626457927321 104.48642667354336 0 104.48642667354336 -285.72012998546143 0 0 0 0 247.67169546204968 227.98965722310228 0 227.98965722310228 -403.38481670069081 0 0 0 0 136.09757971777253 56.690569667776231 0 56.690569667776231 -84.807350650013632 0 0 0 0 151.89719195931684 75.021153821667781 0 75.021153821667781 -288.25715043070954 0 0 0 0 140.16789449301723 -13.534469728151862 0 -13.534469728151862 -100.1649418292086 0 0 0 0 120.54008878776955 -2.7081906039822883 0 -2.7081906039822883 -0.68263288695891189 0 0 0 0 208.20402395659767 108.67611731776819 0 108.67611731776819 -59.460144354686925 0 0 0 0 12.951392232506123 5.2374654472093312 0 5.2374654472093312 -1.0673275144615502 0 0 0 0 194.08820564291091 -21.118746859918623 0 -21.118746859918623 -96.321680852421451 0 0 0 0 136.18359697262713 -21.406901881828489 0 -21.406901881828489 0.16785261824885303 0 0 0 0 122.04814154526878 7.1066914683480107 0 7.1066914683480107 -3.761707355731319 0 0 0 0 158.2146908818977 39.661850535323325 0 39.661850535323325 5.4848275345041273 0 0 0 0 110.7623015577019 70.68820658222262 0 70.68820658222262 537.17190857454648 0 0 0 0 18.132491309341759 -2.3945812560202171 0 -2.3945812560202171 -0.19719978856188397 0 0 0 0 79.156419751700014 46.685254739029091 0 46.685254739029091 47.786747004121054 0 0 0 0 109.51895567000611 20.869708571272803 0 20.869708571272803 -0.26033587920003243 0 0 0 0 51.652264435659163 47.03875060474256 0 47.03875060474256 33.755172639936077 0 0 0 0 30.593422213103622 33.590963851645782 0 33.590963851645782 44.772213387621079 0 0 0 0 56.608609397289854 8.0355518895158689 0 8.0355518895158689 -0.50740026836651408 0 0 0 0 133.68878490466159 -448.10966253394645 0 -448.10966253394645 -218.94251555042823 0 0 0 0 2.0681410195377907 -2.9567818528342826 0 -2.9567818528342826 0.72735425802139408 0 0 0 0 -5.4071720863448718 -13.488464342536146 0 -13.488464342536146 37.425833352187944 0 0 0 0 70.843023581517627 11.93604467665422 0 11.93604467665422 -2.5785983908430126 0 0 0 0 71.897154234462505 9.1686621069001859 0 9.1686621069001859 3.3472808566792764 0 0 0 0 103.40690980173531 90.944840302813816 0 90.944840302813816 -117.35388326749558 0 0 0 0 37.626547523050647 26.408166319892729 0 26.408166319892729 -6.8302658751954564 0 0 0 0 -128.22969281213591 221.04582815438829 0 221.04582815438829 -99.208283466224458 0 0 0 0 103.94715610123239 19.000262795678623 0 19.000262795678623 5.2137854070565766 0 0 0 0 14.058317911935134 32.576399346300292 0 32.576399346300292 2.4536879133175442 0 0 0 0 12.809252108419997 11.845253195172432 0 11.845253195172432 8.1880625630542063 0 0 0 0 -131.69005581783858 222.83445744413646 0 222.83445744413646 -87.079226878539941 0 0 0 0 -312.34976981408545 180.93208925688992 0 180.93208925688992 -59.604083394457462 0 0 0 0 -196.66861829405025 528.78621954750588 0 528.78621954750588 -322.99822915077277 0 0 0 0 -442.51858103717677 565.41389596737952 0 565.41389596737952 -323.26421271951881 0 0 0 0 -644.9501143652742 467.79817661934294 0 467.79817661934294 -350.31042846680748 0 0 0 0 1010.8895996226347 -411.10398052126516 0 -411.10398052126516 220.21946834509072 0 0 0 0 -420.68673043954186 569.16905679909064 0 569.16905679909064 -398.91212543537767 0 0 0 0 -454.87856966206618 382.69313092806522 0 382.69313092806522 -433.3782132624724 0 0 0 0 15.35048603626214 42.217993894155569 0 42.217993894155569 22.657537577264737 0 0 0 0 -776.39045886651729 445.62228166699799 0 445.62228166699799 -180.96972242424351 0 0 0 0 23.466587002847547 4.7806182917242381 0 4.7806182917242381 0.92197859078526267 0 0 0 0 -575.84506713844894 139.30704185479976 0 139.30704185479976 -519.08089183956736 0 0 0 0 -21.320319005052284 25.929483357122137 0 25.929483357122137 31.09339768986942 0 0 0 0 -810.18313517926435 843.08862614563645 0 843.08862614563645 -773.17981251736819 0 0 0 0 -439.98363436979707 397.49356001010187 0 397.49356001010187 -731.5973663832583 0 0 0 0 -575.33360439297394 175.65017524271303 0 175.65017524271303 -240.06782723427659 0 0 0 0 -482.14843131686212 388.8891963012984 0 388.8891963012984 -434.60407404827765 0 0 0 0 -21.153791963759346 24.456432117103361 0 24.456432117103361 34.321023846382062 0 0 0 0 702.04125095131167 320.82920933437254 0 320.82920933437254 -611.49637560020165 0 0 0 0 355.42049534741091 473.86860127826458 0 473.86860127826458 -409.63047632156486 0 0 0 0 -87.709103774119285 -70.249158266675295 0 -70.249158266675295 -598.59657191747851 0 0 0 0 -5.6384424452073176 1.0494616048839873 0 1.0494616048839873 -0.17666383550375464 0 0 0 0 -393.61321604444674 194.32929352767331 0 194.32929352767331 -91.390491674949772 0 0 0 0 1.7963314197931339 2.8580263479514656 0 2.8580263479514656 -1.4998612682763506 0 0 0 0 -523.87552642344963 351.59858444536997 0 351.59858444536997 -430.74643886205104 0 0 0 0 344.07386245833186 360.29725407198043 0 360.29725407198043 -222.02282385227159 0 0 0 0 447.82956969199586 229.00606646658599 0 229.00606646658599 -314.57056962102843 0 0 0 0 -183.75140984856989 11.526904392811275 0 11.526904392811275 -255.7220314624002 0 0 0 0 174.58866744852276 319.72986455133901 0 319.72986455133901 -211.57450903913877 0 0 0 0 178.4870230351662 295.04347848030307 0 295.04347848030307 -70.120254528081205 0 0 0 0 520.53260810446227 428.23806597325324 0 428.23806597325324 -275.962551439023 0 0 0 0 582.04899159015258 285.38735463244518 0 285.38735463244518 -163.64197389474384 0 0 0 0 460.74842980836547 276.33675920916227 0 276.33675920916227 -336.53320189080551 0 0 0 0 368.44577330569155 418.52602954998986 0 418.52602954998986 -310.09062100970942 0 0 0 0 196.76993218055577 297.52319763711887 0 297.52319763711887 -241.40851765544502 0 0 0 0 16.539590953645529 368.31267025745478 0 368.31267025745478 -264.41890198492331 0 0 0 0 441.79919302616327 317.11368551168164 0 317.11368551168164 -370.2221030129632 0 0 0 0 578.05055049824296 73.670958781520426 0 73.670958781520426 -611.7333614393666 0 0 0 0 650.51400885814292 241.8756055613843 0 241.8756055613843 -399.80280711780892 0 0 0 0 763.37695860854183 -445.59985877564969 0 -445.59985877564969 -406.91359157725674 0 0 0 0 852.16811777187104 15.050984900678941 0 15.050984900678941 -246.48826028702848 0 0 0 0 696.67240873949777 394.62022076364406 0 394.62022076364406 -294.36899896753425 0 0 0 0 1125.0708994283486 437.65913816515092 0 437.65913816515092 -257.06111500427255 0 0 0 0 1270.5458491486497 -39.450873409074234 0 -39.450873409074234 -143.10348050229391 0 0 0 0 1189.4742240747437 157.97541611755267 0 157.97541611755267 -281.51032099367819 0 0 0 0 2077.4850314144642 -983.24245060360738 0 -983.24245060360738 1.3656286769786448 0 0 0 0 3754.7493082693836 -805.61025311113553 0 -805.61025311113553 -910.27007769132513 0 0 0 0 2801.5415652189404 -998.98426904606742 0 -998.98426904606742 -930.64519959730023 0 0 0 0 4986.7250356351578 -2104.2878251961729 0 -2104.2878251961729 -870.23648512326929 0 0 0 0 -1862.144773785607 -1515.0017482662161 0 -1515.0017482662161 157.54993387229479 0 0 0 0 2293.1874064186559 -2603.0553949494401 0 -2603.0553949494401 417.20880609702874 0 0 0 0 11.100769300049492 -5.8635035129832147 0 -5.8635035129832147 6.0444503430057868 0 0 0 0 663.95916398899863 -330.3195689374279 0 -330.3195689374279 -285.36722549856825 0 0 0 0 -279.11091366955588 -1155.9988564596645 0 -1155.9988564596645 -1005.0624929073329 0 0 0 0 238.9463795592892 -145.75594753838936 0 -145.75594753838936 -565.51997838546094 0 0 0 0 -357.00821296815411 -504.78688837183847 0 -504.78688837183847 -646.91954439420283 0 0 0 0 451.75940759405057 -836.21301363809471 0 -836.21301363809471 -1056.0785197114387 0 0 0 0 4984.9921378896106 -14.932107929926971 0 -14.932107929926971 19.486360891495643 0 0 0 0 1.4736152218073357 2.0768822189394598 0 2.0768822189394598 5.0650323457404021 0 0 0 0 4999.7202907823739 1249.8411851509375 0 1249.8411851509375 -463.31205818228318 0 0 0 0 1831.686022535665 1382.202023998909 0 1382.202023998909 295.88785243411547 0 0 0 0 4322.1657038764388 2062.0245396765426 0 2062.0245396765426 345.28382371737433 0 0 0 0 3961.2822788589192 1002.8242937285539 0 1002.8242937285539 -481.9610892781742 0 0 0 0 3928.1472235118999 660.82047543890758 0 660.82047543890758 -773.40585856895052 0 0 0 0 4998.4698179275083 486.7884458169778 0 486.7884458169778 -1134.9499183570931 0 0 0 0 5001.6807129313238 -336.67701737395458 0 -336.67701737395458 -1333.0993375469416 0 0 0 0 3797.1836445086519 -43.295324047186796 0 -43.295324047186796 -1245.8920773349571 0 0 0 0 3825.5393780312143 183.44102740265922 0 183.44102740265922 -757.42409317596162 0 0 0 0 2398.5704714603853 -87.516952417124799 0 -87.516952417124799 -609.04367018271296 0 0 0 0 2478.5682865042618 590.18713179894951 0 590.18713179894951 -474.89088184237664 0 0 0 0 2385.3821290134219 309.4826628442641 0 309.4826628442641 -384.71141225296003 0 0 0 0 1434.8761594645766 314.84714361867304 0 314.84714361867304 -233.58958164474529 0 0 0 0 2448.280531826229 60.489405722397748 0 60.489405722397748 -406.47101460840736 0 0 0 0 1439.926787454272 443.35615418729992 0 443.35615418729992 -187.45980583521441 0 0 0 0 679.50860974569514 309.59536536121266 0 309.59536536121266 -24.016527016179566 0 0 0 0 611.24800432981283 354.65826771131947 0 354.65826771131947 94.82373493167006 0 0 0 0 1023.0714863801841 259.85622887087402 0 259.85622887087402 -134.18992866361714 0 0 0 0 1271.2751406675416 775.1660205868867 0 775.1660205868867 264.75327729432684 0 0 0 0 1724.829972435502 629.8007121181696 0 629.8007121181696 26.445716331131621 0 0 0 0 606.22013087758387 678.79281896643852 0 678.79281896643852 646.45780887810588 0 0 0 0 -7.8429113233578391 227.00459096399567 0 227.00459096399567 351.11730006551653 0 0 0 0 367.16975339327473 161.7453895739452 0 161.7453895739452 139.02302558423935 0 0 0 0 -8.4931842581863748 239.45801794767192 0 239.45801794767192 113.30729720578017 0 0 0 0 -311.78483858134132 132.48869512824967 0 132.48869512824967 190.55404867082495 0 0 0 0 -344.25489513865614 207.00788449631091 0 207.00788449631091 36.757561864290437 0 0 0 0 -351.49986549000459 221.56195135126427 0 221.56195135126427 124.63732346135589 0 0 0 0 -325.01227810678211 106.43964845939601 0 106.43964845939601 137.94322618395699 0 0 0 0 -230.20869074559596 412.4045771965317 0 412.4045771965317 114.40455852439112 0 0 0 0 589.53186896107218 554.89159226404217 0 554.89159226404217 181.59967960261673 0 0 0 0 -61.28999764805485 120.40803048061434 0 120.40803048061434 51.504196343303192 0 0 0 0 611.19759708859328 347.45272869905966 0 347.45272869905966 -194.58241306846321 0 0 0 0 653.43557089724527 431.0285414879242 0 431.0285414879242 -224.61650893776459 0 0 0 0 44.735398403994623 332.95430205082789 0 332.95430205082789 39.590935549773462 0 0 0 0 20.349729876325 144.92362585748947 0 144.92362585748947 -237.4403713386273 0 0 0 0 -278.78987512367894 239.73222716749569 0 239.73222716749569 -37.461394442150549 0 0 0 0 -385.12380532851967 275.0754690118946 0 275.0754690118946 -90.592679521641003 0 0 0 0 -891.77056110763806 -265.38238225243487 0 -265.38238225243487 -161.25325927383483 0 0 0 0 -316.57454657725611 377.74818763934019 0 377.74818763934019 78.155131032558529 0 0 0 0 3.141761942888337 5.6226304029856351 0 5.6226304029856351 4.8187467350948161 0 0 0 0 -731.13985202634649 -107.31528496975898 0 -107.31528496975898 -151.91648119349475 0 0 0 0 -273.48023279694826 106.28145536617465 0 106.28145536617465 -280.92758262852431 0 0 0 0 35.564471699472051 250.84756979848225 0 250.84756979848225 -13.836204052320682 0 0 0 0 322.33151034452021 65.721875696362076 0 65.721875696362076 36.557028038845147 0 0 0 0 3.5999507715955303 29.928888788294984 0 29.928888788294984 32.815646049765888 0 0 0 0 335.16488173113612 -2.9489875446083715 0 -2.9489875446083715 63.273945834540427 0 0 0 0 307.87148696075019 38.654905673146459 0 38.654905673146459 -0.13258499404855684 0 0 0 0 12.89236078266687 29.186516608027603 0 29.186516608027603 30.566510329542311 0 0 0 0 -788.81004416466749 234.1878934127397 0 234.1878934127397 311.36724209674639 0 0 0 0 460.62995893668995 -71.192864185794406 0 -71.192864185794406 -23.611015695041715 0 0 0 0 -94.319886003038846 58.99990942640278 0 58.99990942640278 -246.73209811851422 0 0 0 0 305.38339432893554 730.6930859654351 0 730.6930859654351 239.32355940036632 0 0 0 0 -0.79004513556463962 0.27813224728976138 0 0.27813224728976138 0.47257952401430536 0 0 0 0 -460.98534653880051 230.68023661479003 0 230.68023661479003 285.03003793150111 0 0 0 0 -442.79275203542056 229.3650964752031 0 229.3650964752031 9.5723587113213853 0 0 0 0 -566.56823052844265 42.731553875330519 0 42.731553875330519 3.437189231949894 0 0 0 0 -453.77692521215067 116.20001556860962 0 116.20001556860962 144.84168984280376 0 0 0 0 -581.89727905650216 74.343395489821205 0 74.343395489821205 -60.656491976780217 0 0 0 0 -624.17669626820134 26.969894970138739 0 26.969894970138739 -91.728395241727412 0 0 0 0 8.5388751411354065 23.002273690856754 0 23.002273690856754 26.589534722281297 0 0 0 0 -463.80219100800605 158.94577876146025 0 158.94577876146025 15.461264297870002 0 0 0 0 -619.55662125702656 141.82663443106458 0 141.82663443106458 -162.08233150111573 0 0 0 0 -404.17131917226652 154.85298112091573 0 154.85298112091573 -139.93507453487382 0 0 0 0 -550.73470919187821 29.483653205450082 0 29.483653205450082 -53.621677345978242 0 0 0 0 -506.53288421064644 62.727832023578117 0 62.727832023578117 -471.84216097464832 0 0 0 0 -551.07750292808487 89.421321431077104 0 89.421321431077104 -110.84200219149807 0 0 0 0 -686.19417301373323 -112.39689118860406 0 -112.39689118860406 -505.23537882827168 0 0 0 0 -849.06135031228769 312.92460317641417 0 312.92460317641417 -441.89854621626 0 0 0 0 -4.6495606324410232 1.9139946918296005 0 1.9139946918296005 14.83238780028821 0 0 0 0 -439.20474451161863 278.11218331791952 0 278.11218331791952 -127.3160750139441 0 0 0 0 -4.0169319225371396 1.5046794601533264 0 1.5046794601533264 12.391029513753148 0 0 0 0 -468.39607582226745 291.09097770644212 0 291.09097770644212 -103.74968824748794 0 0 0 0 -534.29553515749285 453.04793001021926 0 453.04793001021926 -135.66410916265522 0 0 0 0 -42.005115743217175 146.11187436790078 0 146.11187436790078 -142.29915281946205 0 0 0 0 -145.41844450322969 208.99224551579823 0 208.99224551579823 -87.356784641946206 0 0 0 0 -417.17124515515752 377.16064143740277 0 377.16064143740277 -188.25104362575985 0 0 0 0 12.980262306463771 27.202743320430102 0 27.202743320430102 44.037492557767045 0 0 0 0 -469.39642468044622 351.00604561473824 0 351.00604561473824 -200.56159033109907 0 0 0 0 27.259312619982154 11.971876298498998 0 11.971876298498998 -21.032281678134584 0 0 0 0 -55.866181695047999 -95.899177985101232 0 -95.899177985101232 -510.38748652133472 0 0 0 0 -112.49777926924071 131.31246554711134 0 131.31246554711134 -38.729444859957539 0 0 0 0 -18.24344789958559 77.287263961677127 0 77.287263961677127 -64.457713655999214 0 0 0 0 15.981265166614321 78.213240526564732 0 78.213240526564732 -78.51606004429209 0 0 0 0 38.979083834055928 71.476591216835004 0 71.476591216835004 -230.93711205549243 0 0 0 0 32.949971044057008 8.2053864845380957 0 8.2053864845380957 -22.348499297924196 0 0 0 0 23.739735651558476 23.181378925231414 0 23.181378925231414 -64.630939152106748 0 0 0 0 -6.1951681274513248 7.9604224713004896 0 7.9604224713004896 -264.94200408059805 0 0 0 0 -57.699839839799097 -132.1095436907317 0 -132.1095436907317 -348.53596303177983 0 0 0 0 146.24598010069167 -5.2616338311163418 0 -5.2616338311163418 -340.24007327929939 0 0 0 0 183.11832251699525 66.658607356147968 0 66.658607356147968 -303.02362431639267 0 0 0 0 -75.289822655322496 132.25193417935179 0 132.25193417935179 -140.07092623339827 0 0 0 0 49.342733407625929 -55.426394418733935 0 -55.426394418733935 -248.53047188307028 0 0 0 0 -73.46729435180896 28.024679227364686 0 28.024679227364686 -462.97355261027042 0 0 0 0 -59.063467662024777 63.281902341353089 0 63.281902341353089 -378.517931644898 0 0 0 0 -125.69099964515772 10.243528804623566 0 10.243528804623566 -445.88551146267855 0 0 0 0 3.831999271333757 0.86557746894115439 0 0.86557746894115439 -2.3454659680407843 0 0 0 0 -349.77679557452211 161.87156748559528 0 161.87156748559528 -260.06426170949726 0 0 0 0 -369.68271831783932 54.027264674677554 0 54.027264674677554 -411.16767763114603 0 0 0 0 -125.80030236362654 22.026999879997447 0 22.026999879997447 -181.20533225316558 0 0 0 0 -284.76421782975376 201.08680003833547 0 201.08680003833547 -36.12709398278912 0 0 0 0 -381.14804853691021 91.634059744197771 0 91.634059744197771 31.448007366170714 0 0 0 0 -89.953819922782714 88.222939223187041 0 88.222939223187041 6.1392738525587447 0 0 0 0 138.31599275406916 -36.624382077431392 0 -36.624382077431392 -7.3848837160726362 0 0 0 0 -52.7028654679998 214.41498342710457 0 214.41498342710457 220.83028209693703 0 0 0 0 336.04456368902902 246.63393351575485 0 246.63393351575485 28.569168154286672 0 0 0 0 368.94001887860941 53.227959225185714 0 53.227959225185714 365.21099523389444 0 0 0 0 1139.7882529013004 792.59481002639711 0 792.59481002639711 410.1549963765483 0 0 0 0 -104.35585163069481 -177.22782002912027 0 -177.22782002912027 -12.462694781924256 0 0 0 0 240.01252175651462 295.92309693219192 0 295.92309693219192 -667.56827085363875 0 0 0 0 337.09239863083349 -86.163262072507905 0 -86.163262072507905 -340.9032488163939 0 0 0 0 120.94842996008811 -18.35465985286919 0 -18.35465985286919 -23.653917784936539 0 0 0 0 -38.797459906490985 153.16704549281621 0 153.16704549281621 -256.27299595640579 0 0 0 0 151.17705099198793 152.68026030820147 0 152.68026030820147 -418.32087688517049 0 0 0 0 39.025902550456522 71.970520129899228 0 71.970520129899228 -240.83974586880504 0 0 0 0 22.865283972873726 26.565349701738413 0 26.565349701738413 26.659748169975352 0 0 0 0 -355.66353282419732 385.4036474786094 0 385.4036474786094 -247.76821852903049 0 0 0 0 -449.39288424797269 147.8509316413672 0 147.8509316413672 318.76423741601457 0 0 0 0 21.136123137436925 25.734375034063675 0 25.734375034063675 28.036039475093894 0 0 0 0 -176.25186779182332 571.37816240738118 0 571.37816240738118 -550.04808898665215 0 0 0 0 623.41424949748034 1461.8331389840928 0 1461.8331389840928 328.5155364856472 0 0 0 0 -187.54462085076375 67.420630744793016 0 67.420630744793016 190.72963281855067 0 0 0 0 -257.41734054176777 32.169031502978214 0 32.169031502978214 968.70516548011142 0 0 0 0 1576.2206901268437 1688.6914716112149 0 1688.6914716112149 1478.3609189848287 0 0 0 0 4991.8385296874185 2037.8986146901404 0 2037.8986146901404 -322.05097316735856 0 0 0 0 2407.9777312435835 722.02399378668565 0 722.02399378668565 -639.00601050039052 0 0 0 0 6196.0055805063894 1713.0795896535051 0 1713.0795896535051 -695.55770352506102 0 0 0 0 -718.88739117567457 1091.2760238648211 0 1091.2760238648211 1448.1391416142365 0 0 0 0 10.728577592166175 11.735289662137205 0 11.735289662137205 13.289615705089668 0 0 0 0 259.06709225803934 1931.8496757588671 0 1931.8496757588671 1725.0482008771801 0 0 0 0 4567.5987287419139 745.11441513720195 0 745.11441513720195 554.48396766651626 0 0 0 0 5000.2411704471015 1523.6301552104314 0 1523.6301552104314 1211.9111674408257 0 0 0 0 226.62458337150747 232.95655282111829 0 232.95655282111829 -88.221998703154441 0 0 0 0 139.92407040817125 -93.67740123799507 0 -93.67740123799507 -567.32282832746478 0 0 0 0 273.31685692525934 256.94283183040307 0 256.94283183040307 -270.5103395150154 0 0 0 0 262.62401993318417 156.43692597784229 0 156.43692597784229 -34.815293236668367 0 0 0 0 351.87565884306969 327.73330580047605 0 327.73330580047605 -105.57972375073814 0 0 0 0 439.66853875125526 273.00274185747776 0 273.00274185747776 -105.79441077135607 0 0 0 0 513.6862942987209 296.97856772018713 0 296.97856772018713 -116.94871079807308 0 0 0 0 552.49890459327435 211.25360427407622 0 211.25360427407622 -109.76484038512081 0 0 0 0 622.04979929708134 352.910899335983 0 352.910899335983 -89.973194493741175 0 0 0 0 440.15416018699761 266.67312919731876 0 266.67312919731876 -177.70472420687065 0 0 0 0 393.53755009103952 202.65067085469678 0 202.65067085469678 -187.39368033773735 0 0 0 0 394.44134521699743 188.70685508742599 0 188.70685508742599 -10.064604841012965 0 0 0 0 551.04732541104022 336.91013404129444 0 336.91013404129444 127.1496318835475 0 0 0 0 8.4891938693178872 0.18821262061538846 0 0.18821262061538846 -1.6602568032404248 0 0 0 0 171.8410314702196 -582.76917861215634 0 -582.76917861215634 -662.83655500976465 0 0 0 0 1440.1369576505167 717.69994155488916 0 717.69994155488916 247.01342709103437 0 0 0 0 94.822349038375251 97.970915393903283 0 97.970915393903283 -482.97681910851315 0 0 0 0 338.83227101213924 280.32219807043845 0 280.32219807043845 -287.30136497551121 0 0 0 0 19.14392332648697 -0.35974449661379992 0 -0.35974449661379992 -3.5900446513537663 0 0 0 0 248.40074422425823 -200.4361513158874 0 -200.4361513158874 -815.52327542321973 0 0 0 0 433.12973105290439 231.56887704474843 0 231.56887704474843 -327.65154040453672 0 0 0 0 20.64949496991926 -0.35078487115428914 0 -0.35078487115428914 -3.6699552674212121 0 0 0 0 65.404205543760327 -32.930995882135448 0 -32.930995882135448 -349.5947647091898 0 0 0 0 943.08371178191737 480.90896483813731 0 480.90896483813731 -306.50671658103829 0 0 0 0 1097.2930892985823 203.0130044276757 0 203.0130044276757 -369.09602974487552 0 0 0 0 1062.914582213627 817.67475399172929 0 817.67475399172929 279.48670313495768 0 0 0 0 418.08238797311787 225.52478119268335 0 225.52478119268335 -133.22726734208686 0 0 0 0 461.71459105843678 122.60550593192602 0 122.60550593192602 -167.79721027221422 0 0 0 0 2.1413734924197669 4.2909869754952581 0 4.2909869754952581 -0.19259043214471916 0 0 0 0 1378.2517503300041 127.09777494201671 0 127.09777494201671 -411.56751688331974 0 0 0 0 1173.2964817614993 272.11979251438947 0 272.11979251438947 -306.446744194453 0 0 0 0 1341.4051272692668 45.061000276865229 0 45.061000276865229 -111.14143369392059 0 0 0 0 320.41165801021998 79.850000895170751 0 79.850000895170751 -33.090252955084907 0 0 0 0 362.73738681001123 7.0660194512274757 0 7.0660194512274757 -82.744556428785472 0 0 0 0 295.31497426217538 -22.555938630159744 0 -22.555938630159744 16.177895914473993 0 0 0 0 1.6365290942994921 1.2062963561232039 0 1.2062963561232039 0.23776102105243169 0 0 0 0 2027.9691254446516 204.88336924052692 0 204.88336924052692 -83.315005747479745 0 0 0 0 1704.0973050990729 221.68812904533453 0 221.68812904533453 215.55015122384248 0 0 0 0 1288.2739816431131 226.08925309992628 0 226.08925309992628 -89.415605634138046 0 0 0 0 1553.5927878174116 453.42588140035423 0 453.42588140035423 12.724841301568631 0 0 0 0 375.36743485077022 11.600220272777506 0 11.600220272777506 -15.189080383310284 0 0 0 0 1240.2309113756637 142.03482644841461 0 142.03482644841461 -14.922903643419971 0 0 0 0 1575.6981428739673 989.28178998554722 0 989.28178998554722 335.86960438792221 0 0 0 0 590.50551753572654 -686.61649362733078 0 -686.61649362733078 -745.27008989602382 0 0 0 0 10.058038210502161 0.26546234693464044 0 0.26546234693464044 -1.7925595750990642 0 0 0 0 1683.5000708487314 22.898283211326884 0 22.898283211326884 -344.18636367641375 0 0 0 0 1075.9115414552216 -241.16348635359645 0 -241.16348635359645 -301.7406656209414 0 0 0 0 -13.543664205993991 -17.211091499324539 0 -17.211091499324539 -27.733908359954512 0 0 0 0 584.88661953502742 -44.950249809553043 0 -44.950249809553043 2.0401787123446411 0 0 0 0 638.32692109655909 16.993492719703681 0 16.993492719703681 -56.845690701062267 0 0 0 0 964.55228611154598 -47.431344296166571 0 -47.431344296166571 -27.248035151726981 0 0 0 0 988.81975412136671 14.821256219677252 0 14.821256219677252 9.3773405359115714 0 0 0 0 626.22916267823894 30.239498305245434 0 30.239498305245434 79.67341135116294 0 0 0 0 259.78868001361843 -212.10471331127769 0 -212.10471331127769 250.98383379269762 0 0 0 0 1551.9664459438936 -35.141600337748969 0 -35.141600337748969 -28.959672916416821 0 0 0 0 1679.6335278199404 263.80213044854099 0 263.80213044854099 31.717802138274237 0 0 0 0 10.341345975255592 4.8104826037053527 0 4.8104826037053527 1.3935124297164805 0 0 0 0 1177.1889105437003 195.65143726121323 0 195.65143726121323 85.373297105961683 0 0 0 0 1283.9099163782957 14.999426289738039 0 14.999426289738039 154.93677144779303 0 0 0 0 1433.8948610982625 151.587262977509 0 151.587262977509 -75.005856827830939 0 0 0 0 1287.3572936009732 3.503176965129569 0 3.503176965129569 -143.59621099580954 0 0 0 0 1263.4924712988432 14.301638243383422 0 14.301638243383422 -29.060641581171694 0 0 0 0 1261.5581057188974 -30.307860868811076 0 -30.307860868811076 -8.0080762126767695 0 0 0 0 3.2949061611607959 5.9316868814103429 0 5.9316868814103429 3.3593432745570553 0 0 0 0 1421.4444745079672 39.559853724548248 0 39.559853724548248 5.5204893078207533 0 0 0 0 1318.4147240224265 126.81615532701653 0 126.81615532701653 -4.8631978160010476 0 0 0 0 1.7753396438991444 2.125351279929788 0 2.125351279929788 0.85222666195150509 0 0 0 0 -853.97211208475346 364.20476318852798 0 364.20476318852798 -95.701860469346684 0 0 0 0 1323.2672600140504 -77.858794652336655 0 -77.858794652336655 37.691606605499828 0 0 0 0 1113.7128732174606 109.93366766060899 0 109.93366766060899 -26.828945663926788 0 0 0 0 1096.2463765880675 313.00378241051931 0 313.00378241051931 -190.89108453057042 0 0 0 0 2248.7209077174193 120.9987434805862 0 120.9987434805862 -180.53286759246112 0 0 0 0 638.67371315383934 81.325817609510523 0 81.325817609510523 120.76020794657052 0 0 0 0 925.35599889256991 40.688633774222581 0 40.688633774222581 40.593566716967871 0 0 0 0 923.15754764854501 34.73730060685466 0 34.73730060685466 37.066951910460375 0 0 0 0 1318.3879670939566 84.452929781230793 0 84.452929781230793 -11.662831800143977 0 0 0 0 885.52621381904464 119.64514541713197 0 119.64514541713197 46.325232289776068 0 0 0 0 886.79005787879214 116.99765528013336 0 116.99765528013336 42.293681290235327 0 0 0 0 512.73616929986747 125.33965624297616 0 125.33965624297616 126.12126842973657 0 0 0 0 513.27961619853158 106.22874981634823 0 106.22874981634823 50.912848980418858 0 0 0 0 642.29231226478078 85.432464218098175 0 85.432464218098175 71.414040579076755 0 0 0 0 656.49491337187646 81.271401726321301 0 81.271401726321301 42.567807738329066 0 0 0 0 458.79847178560158 110.60848931165401 0 110.60848931165401 116.34217213701322 0 0 0 0 382.33387391474389 198.01028725452989 0 198.01028725452989 54.331200595124756 0 0 0 0 503.17919317333872 170.74689835086383 0 170.74689835086383 30.731679015583723 0 0 0 0 452.23214900695893 206.68939398709836 0 206.68939398709836 -22.543630606326587 0 0 0 0 350.1237993730756 70.157160137807296 0 70.157160137807296 69.002104353789946 0 0 0 0 458.9442311906314 245.51931912608961 0 245.51931912608961 -47.025663532944463 0 0 0 0 420.12751664640382 259.32901707858082 0 259.32901707858082 -42.725858950008842 0 0 0 0 449.22434238850838 190.05809990378748 0 190.05809990378748 -6.3608163913423823 0 0 0 0 460.86113282912993 227.23043133247302 0 227.23043133247302 -11.183121246132941 0 0 0 0 458.74053748286678 216.71929923972766 0 216.71929923972766 -46.867040619215913 0 0 0 0 447.28868278584559 179.12444873774712 0 179.12444873774712 -47.487429298726198 0 0 0 0 457.99208101841214 196.62023972310271 0 196.62023972310271 -1.4570603488791676 0 0 0 0 452.78838377562352 160.14586556217455 0 160.14586556217455 82.338558985598866 0 0 0 0 481.02119597655837 149.94444776704904 0 149.94444776704904 32.581349149828384 0 0 0 0 457.09284085071704 182.90290338050545 0 182.90290338050545 -28.660212554406826 0 0 0 0 461.14067044875992 141.16164958986155 0 141.16164958986155 32.926598848782305 0 0 0 0 466.56832339246466 138.53716442626182 0 138.53716442626182 3.5274714621918974 0 0 0 0 550.74207504501101 59.205617508285286 0 59.205617508285286 51.137490457733747 0 0 0 0 446.75223241106141 46.102810075787602 0 46.102810075787602 124.72958481851674 0 0 0 0 516.86444145972928 -48.832885628490658 0 -48.832885628490658 230.20280971932516 0 0 0 0 699.52349783969112 23.345369054657567 0 23.345369054657567 -4.8492655242231422 0 0 0 0 559.07744917417858 -165.27878755508434 0 -165.27878755508434 -206.38305390852656 0 0 0 0 353.30527622971567 101.11184419590518 0 101.11184419590518 238.66096636387374 0 0 0 0 561.62509883755411 165.51415899120275 0 165.51415899120275 -91.633173004616765 0 0 0 0 321.24650028347969 -63.977293226091206 0 -63.977293226091206 -246.26540489114905 0 0 0 0 132.50349977365113 299.19986731929566 0 299.19986731929566 -87.5081327328935 0 0 0 0 383.70783454546472 129.85910478027745 0 129.85910478027745 -355.70972594651903 0 0 0 0 275.34425941680092 191.39916325362901 0 191.39916325362901 -84.489029643817958 0 0 0 0 428.08187143605028 134.26932881419452 0 134.26932881419452 -69.617196166635495 0 0 0 0 303.62758004738862 227.18610647846026 0 227.18610647846026 119.29869865409819 0 0 0 0 652.87659071000235 230.43029458718411 0 230.43029458718411 -79.046666873149661 0 0 0 0 592.9636455251748 189.42887328119195 0 189.42887328119195 107.9795122209498 0 0 0 0 511.54534252180019 165.47697194070315 0 165.47697194070315 101.18491267206537 0 0 0 0 542.4230780712096 84.499247006577207 0 84.499247006577207 111.78363742887586 0 0 0 0 423.36298881664698 99.935967808860823 0 99.935967808860823 143.47377259020504 0 0 0 0 652.45593265679713 133.39985458206249 0 133.39985458206249 72.639659860444226 0 0 0 0 651.72237631110556 185.50823950953892 0 185.50823950953892 73.042547027278488 0 0 0 0 834.57749580059317 93.877931377168352 0 93.877931377168352 48.894058196038486 0 0 0 0 917.65764640823181 229.89433691048202 0 229.89433691048202 -77.413075821204984 0 0 0 0 908.6811879548186 263.64405293698474 0 263.64405293698474 -72.359460878861682 0 0 0 0 817.3817356436557 358.92445475732711 0 358.92445475732711 81.926927408185293 0 0 0 0 604.56562045385363 178.22708174374202 0 178.22708174374202 71.918902637770771 0 0 0 0 622.5209646765361 16.213989483173464 0 16.213989483173464 -151.03096695994282 0 0 0 0 1425.6289367039353 154.16076863869785 0 154.16076863869785 -254.79125718431715 0 0 0 0 -286.2034320623352 -45.832631292760198 0 -45.832631292760198 562.29623910552982 0 0 0 0 2.6484066599246034 5.7007207698471234 0 5.7007207698471234 13.509703501984553 0 0 0 0 -175.04830006035627 529.79560830561059 0 529.79560830561059 828.56696523122628 0 0 0 0 1070.509683163822 493.03766641655511 0 493.03766641655511 234.93680000006316 0 0 0 0 1407.2199665995868 -218.53976982077438 0 -218.53976982077438 -257.53986411168444 0 0 0 0 940.21340655269159 -44.438979531140831 0 -44.438979531140831 466.76013583003987 0 0 0 0 127.04307026002789 365.61978473521958 0 365.61978473521958 -137.03489550669838 0 0 0 0 1359.3384179998379 745.39228639551516 0 745.39228639551516 -99.321684516446112 0 0 0 0 663.5497770737129 185.17911286208073 0 185.17911286208073 110.07657614775781 0 0 0 0 978.41665184081648 53.266248907213594 0 53.266248907213594 -141.60833212195303 0 0 0 0 891.55449813677114 134.49455845845296 0 134.49455845845296 -186.00681210307812 0 0 0 0 937.15759480598172 345.58342789083849 0 345.58342789083849 -490.04696870163389 0 0 0 0 1.7100690817717918 1.7735261548035055 0 1.7735261548035055 0.83499163903913853 0 0 0 0 1094.1210413929657 -0.52004309335370635 0 -0.52004309335370635 -245.18627547935102 0 0 0 0 1132.9874787591689 55.980743623411399 0 55.980743623411399 -168.60657294330849 0 0 0 0 1224.243254723413 79.120690377506435 0 79.120690377506435 -385.94880724241011 0 0 0 0 1274.6573142509151 180.4719884942715 0 180.4719884942715 -314.36670996470093 0 0 0 0 1262.6868169713998 156.38883151661321 0 156.38883151661321 -250.68715201011946 0 0 0 0 1079.1140302101267 -469.64826243444986 0 -469.64826243444986 86.81831381712982 0 0 0 0 1348.047384746329 83.841471153738894 0 83.841471153738894 -268.68308461370179 0 0 0 0 1097.499363529234 95.027855487402121 0 95.027855487402121 -249.93772367613929 0 0 0 0 -183.2339859684289 32.448455507064864 0 32.448455507064864 -243.55761521686145 0 0 0 0 960.53584410807525 355.10782983908575 0 355.10782983908575 -427.10392287552349 0 0 0 0 1084.5788811754319 46.103487975846292 0 46.103487975846292 -441.62855390361437 0 0 0 0 841.90039761408116 -29.147447517272667 0 -29.147447517272667 -207.39669137089277 0 0 0 0 1164.862458868849 96.858997788975103 0 96.858997788975103 -270.64221435080981 0 0 0 0 1171.3056488313014 38.824613933722503 0 38.824613933722503 -355.56241098287865 0 0 0 0 761.31734756237711 -10.490320538803644 0 -10.490320538803644 -254.30636925285944 0 0 0 0 913.07231803695322 45.703043417106528 0 45.703043417106528 -255.02017923712344 0 0 0 0 990.93242213042686 135.14321017853217 0 135.14321017853217 -328.52395441498084 0 0 0 0 764.69523892580764 63.845594376900408 0 63.845594376900408 -306.94381965961657 0 0 0 0 59.479330286994809 46.620633114733209 0 46.620633114733209 -95.641014478329453 0 0 0 0 436.09481083877108 198.37693347346459 0 198.37693347346459 -188.40490776726074 0 0 0 0 687.32277989634895 -59.943970315851402 0 -59.943970315851402 -378.89630893023423 0 0 0 0 681.20666814543074 81.019952738690336 0 81.019952738690336 -321.85234512786337 0 0 0 0 687.78492452191131 -37.975725351730944 0 -37.975725351730944 -456.38610767229693 0 0 0 0 681.4301729160652 43.138473178571076 0 43.138473178571076 -455.37053407791973 0 0 0 0 14.854289233568124 -7.8216709224816441 0 -7.8216709224816441 -41.919183127314682 0 0 0 0 7.6880212944928985 7.153222873662628 0 7.153222873662628 2.9495312684038737 0 0 0 0 -52.343355918890666 50.184712481897122 0 50.184712481897122 62.316508187162981 0 0 0 0 0.25099570906621693 0.67102230693917519 0 0.67102230693917519 1.8419559440132502 0 0 0 0 -46.080999356519897 5.8453493037341104 0 5.8453493037341104 -71.969662165523914 0 0 0 0 -61.176610804803204 -11.928084541603312 0 -11.928084541603312 -29.128112638190942 0 0 0 0 422.59934206120306 -92.034478012860177 0 -92.034478012860177 113.33055087021785 0 0 0 0 1405.6591289133939 -662.23414094304826 0 -662.23414094304826 294.31109271148944 0 0 0 0 836.74698608517065 -417.55798035429325 0 -417.55798035429325 243.25936415355682 0 0 0 0 944.26495117213926 -52.46134669868843 0 -52.46134669868843 -180.50915705884108 0 0 0 0 1285.9576895210193 -41.585327741791843 0 -41.585327741791843 -180.70812034935716 0 0 0 0 1258.0750761474192 -41.367420538512306 0 -41.367420538512306 -75.940473895425384 0 0 0 0 1863.4746855337871 -135.31953569114012 0 -135.31953569114012 -157.80823515259544 0 0 0 0 2412.0115442402312 37.957657399929303 0 37.957657399929303 -216.43989856777625 0 0 0 0 3.4739443012282152 1.8959755520004364 0 1.8959755520004364 1.5348470195492041 0 0 0 0 -128.19189010619993 322.21714929992663 0 322.21714929992663 -300.53783987942006 0 0 0 0 2298.8501421711553 -674.69828113484255 0 -674.69828113484255 -76.703299624325155 0 0 0 0 0.4046440938473097 -42.705785183090484 0 -42.705785183090484 -42.549957411451032 0 0 0 0 -0.44823085165390353 -2.55227944101037 0 -2.55227944101037 4.0654368358548822 0 0 0 0 -144.28535780014863 18.237023526532539 0 18.237023526532539 -16.650484065437922 0 0 0 0 -16.129613149969373 21.201946450823016 0 21.201946450823016 -223.97986942132411 0 0 0 0 142.05476075125625 -126.41890572680859 0 -126.41890572680859 -128.97562478210966 0 0 0 0 991.86384385358542 291.7738289981753 0 291.7738289981753 -82.932475975449051 0 0 0 0 974.92575824973756 222.74349325189542 0 222.74349325189542 -111.14122679232969 0 0 0 0 734.24912219226826 193.43951603651749 0 193.43951603651749 -85.460460852329561 0 0 0 0 1203.2361183909234 209.21117121043062 0 209.21117121043062 -252.04385771635862 0 0 0 0 1469.2211028234742 96.797614255498047 0 96.797614255498047 -270.69327864333491 0 0 0 0 1331.5134145996126 202.47266793472409 0 202.47266793472409 -155.85294943820918 0 0 0 0 1351.2255619295174 207.41551337733108 0 207.41551337733108 -259.09442937038148 0 0 0 0 1452.1305071898023 382.5262824157162 0 382.5262824157162 -147.6845509930572 0 0 0 0 1635.8146993495757 70.723624985275819 0 70.723624985275819 -203.03626731411623 0 0 0 0 1566.4668537108664 31.766674346008585 0 31.766674346008585 -59.50620047920529 0 0 0 0 1279.3841132093512 240.71534260841145 0 240.71534260841145 -28.834052468158916 0 0 0 0 1949.6598524711444 426.97847851540064 0 426.97847851540064 0.071061715450923657 0 0 0 0 754.14963371210615 724.45070552451944 0 724.45070552451944 374.5674642382437 0 0 0 0 436.03236656880472 321.06898321957487 0 321.06898321957487 172.51647182279703 0 0 0 0 89.552096199302468 39.713856842390669 0 39.713856842390669 71.097184664209635 0 0 0 0 250.29452168276475 -67.808515543752037 0 -67.808515543752037 -17.502223442519607 0 0 0 0 296.18691771631711 -85.160461639447021 0 -85.160461639447021 -92.181821894962923 0 0 0 0 -44.561585114366608 10.80973476062718 0 10.80973476062718 9.4239034881811676 0 0 0 0 -3.7304084624883558 -14.505077198198702 0 -14.505077198198702 -12.047218183112733 0 0 0 0 38.347812291144578 -16.893678107842646 0 -16.893678107842646 -18.777312175973023 0 0 0 0 241.4676635623764 112.99804907624093 0 112.99804907624093 -5.4538549890858121 0 0 0 0 640.26533278515853 -67.864962471879153 0 -67.864962471879153 -57.998645964413299 0 0 0 0 93.459341087145731 9.6110595697791723 0 9.6110595697791723 -26.125590874673435 0 0 0 0 36.677389345843295 -23.459210179880159 0 -23.459210179880159 -6.9097281624683546 0 0 0 0 -68.33092853242124 -51.190344380289389 0 -51.190344380289389 47.867030324763618 0 0 0 0 82.231007231552212 -29.468100388301536 0 -29.468100388301536 -73.390164294018177 0 0 0 0 89.706226861892475 -17.346954157518233 0 -17.346954157518233 -29.291288952647481 0 0 0 0 88.023330684911343 6.4285939922065154 0 6.4285939922065154 -167.54683522890264 0 0 0 0 123.49703199512442 -9.3352929374409541 0 -9.3352929374409541 -231.45723819417617 0 0 0 0 93.17663873053894 21.86141206720265 0 21.86141206720265 -16.868310726156714 0 0 0 0 102.24711223103805 -28.799804709875389 0 -28.799804709875389 -133.89734569141001 0 0 0 0 114.06816735929169 35.306832457415112 0 35.306832457415112 -74.184544744531195 0 0 0 0 318.01639623249503 -19.713382419007758 0 -19.713382419007758 -284.14300396175895 0 0 0 0 249.42614764877362 92.75329506271737 0 92.75329506271737 -163.70130410887214 0 0 0 0 120.82271604964626 19.899713857220377 0 19.899713857220377 -72.347777725668493 0 0 0 0 36.308682443199842 -16.967928090073087 0 -16.967928090073087 -27.44349650860314 0 0 0 0 139.83364096839796 28.428838968725813 0 28.428838968725813 -333.0241521476637 0 0 0 0 277.17500500666938 -29.371799882462028 0 -29.371799882462028 -108.21434449460548 0 0 0 0 155.18981567661291 2.2473286781726216 0 2.2473286781726216 -24.193810512226634 0 0 0 0 180.07739842870797 -12.610844563771025 0 -12.610844563771025 -314.32703446445885 0 0 0 0 80.00832177173254 14.156344960778569 0 14.156344960778569 -9.7791432284960109 0 0 0 0 77.665515297616366 -21.018376574502327 0 -21.018376574502327 -44.303488931061111 0 0 0 0 178.95418921502642 134.53164951209533 0 134.53164951209533 -441.90000313525161 0 0 0 0 345.21581109541148 68.604716684851155 0 68.604716684851155 -423.13764492864721 0 0 0 0 242.28425293954206 -5.5396830903691807 0 -5.5396830903691807 -369.96352471893078 0 0 0 0 224.59813830940402 0.29380678324196197 0 0.29380678324196197 -369.01239354831887 0 0 0 0 243.50064766444484 -44.432912313167435 0 -44.432912313167435 -343.54776443316587 0 0 0 0 309.76481221186259 -159.18256010481787 0 -159.18256010481787 -305.30579641830263 0 0 0 0 379.97864845482036 18.816399161232312 0 18.816399161232312 -368.31168149266341 0 0 0 0 -45.635040418070275 831.91413183263103 0 831.91413183263103 -722.70974314014893 0 0 0 0 -56.655093129404122 47.579622398407082 0 47.579622398407082 -371.0149269285921 0 0 0 0 9.6761116439350872 -1.8382775758196317 0 -1.8382775758196317 0.28898184350153855 0 0 0 0 191.26510952460012 40.231632731149148 0 40.231632731149148 -8.5847097019614012 0 0 0 0 180.29910475356155 -18.495681681539281 0 -18.495681681539281 14.701834607973069 0 0 0 0 9.135516069422323 -2.1096917704543614 0 -2.1096917704543614 -2.993697795956507 0 0 0 0 -59.173099676481797 300.09055239174631 0 300.09055239174631 -627.12290697379103 0 0 0 0 4998.4408709739 -759.87514004078787 0 -759.87514004078787 -824.29708610814578 0 0 0 0 2563.3408158483544 -1488.5372532302447 0 -1488.5372532302447 556.07817953030849 0 0 0 0 3502.0924984020021 -736.81897145191761 0 -736.81897145191761 -611.72936586707476 0 0 0 0 3213.1058954755717 -1896.5566231526454 0 -1896.5566231526454 1038.9221198250211 0 0 0 0 4999.8612645435569 -1713.8448265586467 0 -1713.8448265586467 -75.760199053098958 0 0 0 0 4996.8014558152991 -2878.0567341475803 0 -2878.0567341475803 1541.9113634173896 0 0 0 0 20.946938701477563 11.003370599913268 0 11.003370599913268 11.398842797329088 0 0 0 0 311.41135659250722 275.7682285077658 0 275.7682285077658 -141.89939801111632 0 0 0 0 3133.0708169855088 -1408.5647666368361 0 -1408.5647666368361 556.88927433257913 0 0 0 0 -23.114171293083928 252.50664709575722 0 252.50664709575722 -142.58218209176994 0 0 0 0 50.444972063610692 38.072156951835538 0 38.072156951835538 26.235986390349041 0 0 0 0 -11.124769407935673 36.439383289623038 0 36.439383289623038 -83.691319988702162 0 0 0 0 -134.3667811383857 87.339952484062451 0 87.339952484062451 -49.686815336890504 0 0 0 0 204.19228982759523 -65.195976480636659 0 -65.195976480636659 -98.554302982531226 0 0 0 0 -149.30960945696279 4.0970952111310908 0 4.0970952111310908 -87.604779836720354 0 0 0 0 -448.73366641148459 282.75934193473745 0 282.75934193473745 -82.801977000504849 0 0 0 0 4.15790838905329 -0.70646258771498083 0 -0.70646258771498083 -1.4847776535583623 0 0 0 0 -344.44532954716124 67.09423939881799 0 67.09423939881799 51.247390445643759 0 0 0 0 9.5812970901433232 6.5754013697196712 0 6.5754013697196712 -0.66314391971458164 0 0 0 0 -181.4266403976435 50.994056154007922 0 50.994056154007922 -63.585615966676414 0 0 0 0 -169.5602642545382 158.16544836407945 0 158.16544836407945 -86.60339726694292 0 0 0 0 -154.50678786574281 73.021760235318652 0 73.021760235318652 -8.4286980525903346 0 0 0 0 -76.172706663361168 88.825529620025009 0 88.825529620025009 -40.343267191678024 0 0 0 0 -212.68100445400341 33.706213799084253 0 33.706213799084253 -28.707687539113977 0 0 0 0 -166.62244171661587 76.758862327514635 0 76.758862327514635 69.189845343158595 0 0 0 0 -101.76318180383532 234.02984758880302 0 234.02984758880302 62.922830682036874 0 0 0 0 -130.54109252503258 160.4772519281496 0 160.4772519281496 -109.40925469933063 0 0 0 0 -144.73676790589525 180.63331396392641 0 180.63331396392641 -7.6443079802620559 0 0 0 0 70.855731952384275 59.574343724284276 0 59.574343724284276 42.746703983554148 0 0 0 0 1799.3034406029674 -307.1773008800659 0 -307.1773008800659 92.689651462871666 0 0 0 0 910.83134304057603 -520.12401516640557 0 -520.12401516640557 144.1094024351558 0 0 0 0 715.17881468843552 509.45672592748758 0 509.45672592748758 -46.077727624997124 0 0 0 0 -116.35276534975856 381.03067761198145 0 381.03067761198145 31.048444128296978 0 0 0 0 85.838984951468078 75.809256356127975 0 75.809256356127975 57.869507281976595 0 0 0 0 -0.54823769452530868 -4.8723253188443607 0 -4.8723253188443607 0.78419448039836936 0 0 0 0 -119.41392888354312 372.57137362645699 0 372.57137362645699 111.39116600264177 0 0 0 0 -712.36780564567016 314.42583434783955 0 314.42583434783955 43.441706844698274 0 0 0 0 71.838840042204538 102.81550866607313 0 102.81550866607313 38.739835411026434 0 0 0 0 119.65893171238713 432.9647616245984 0 432.9647616245984 -111.39855299198643 0 0 0 0 -12.014349897536704 183.75658303191324 0 183.75658303191324 477.67736227868772 0 0 0 0 30.637509410458733 214.72528457888802 0 214.72528457888802 108.78180861776855 0 0 0 0 707.33635743267951 233.0353413761286 0 233.0353413761286 -19.970768555576797 0 0 0 0 282.98608973673254 455.59345706674685 0 455.59345706674685 318.08093075767829 0 0 0 0 -12.507610184085934 286.93895192697005 0 286.93895192697005 206.48612158385185 0 0 0 0 -87.068185658819857 192.40185942228527 0 192.40185942228527 109.9412496753632 0 0 0 0 -76.265282797040072 89.529838775560748 0 89.529838775560748 106.90468606593276 0 0 0 0 -0.60306865294114687 86.496376328783299 0 86.496376328783299 75.46840805703232 0 0 0 0 168.56532476618304 -19.182896018666725 0 -19.182896018666725 -67.8863650477943 0 0 0 0 44.977646877872758 65.02572288698002 0 65.02572288698002 -87.401539163913185 0 0 0 0 99.196242214529775 46.742723190878678 0 46.742723190878678 -81.754631192788565 0 0 0 0 2.0821356292217388 154.68135547239422 0 154.68135547239422 -26.06264162998832 0 0 0 0 216.82788354552758 -35.974299883981075 0 -35.974299883981075 64.351597019707697 0 0 0 0 -132.67875014084711 347.37043618250755 0 347.37043618250755 261.06400292873695 0 0 0 0 -129.98102038260549 80.395662660422204 0 80.395662660422204 -65.655650853432235 0 0 0 0 9.1832242902764278 17.779639160545571 0 17.779639160545571 32.094551591831447 0 0 0 0 188.99456710084633 536.03232641562863 0 536.03232641562863 -155.23586499974863 0 0 0 0 -276.88287416404637 353.9206062018045 0 353.9206062018045 50.916225712717278 0 0 0 0 -321.71076409496891 101.58779115217749 0 101.58779115217749 -36.866176241734138 0 0 0 0 -965.36968905004323 414.99458542706452 0 414.99458542706452 346.16232165476868 0 0 0 0 -0.45001781618648806 1.9928209493654094 0 1.9928209493654094 6.7248325131231894 0 0 0 0 682.32027854609578 -192.62852623176815 0 -192.62852623176815 -1.251003025638056 0 0 0 0 332.13415668088419 115.0658291964719 0 115.0658291964719 -173.62867406478472 0 0 0 0 152.2705553205451 -41.651398813111882 0 -41.651398813111882 168.04999959230372 0 0 0 0 -590.05034324814915 -60.444831419466027 0 -60.444831419466027 125.99935646219092 0 0 0 0 249.28471253757016 561.50522880645622 0 561.50522880645622 -568.84203438993791 0 0 0 0 -17.5612676810415 -91.684536262317124 0 -91.684536262317124 27.040157561496017 0 0 0 0 5.3904454363528203 7.6602799838625515 0 7.6602799838625515 7.0895582264536259 0 0 0 0 -402.12231156461348 834.99661440861564 0 834.99661440861564 -221.64829526658832 0 0 0 0 -14.561695400632743 -89.124716128820182 0 -89.124716128820182 15.778635988288443 0 0 0 0 235.79520020924247 55.167873687181782 0 55.167873687181782 -93.934751386495918 0 0 0 0 48.572547177798697 171.81506650074243 0 171.81506650074243 -132.07691470289137 0 0 0 0 114.00588071989478 212.66598147775949 0 212.66598147775949 -149.09682129280554 0 0 0 0 -1.048468375412682 0.4052718618464155 0 0.4052718618464155 -0.14461982089594017 0 0 0 0 -244.82329707371537 15.602094033201865 0 15.602094033201865 54.699607891729102 0 0 0 0 17.405412940890528 107.38122949263015 0 107.38122949263015 -69.492714870676082 0 0 0 0 28.292190257009281 9.7463865814556812 0 9.7463865814556812 -14.431541590244137 0 0 0 0 -0.23191460151463161 0.82848422315997539 0 0.82848422315997539 2.1847300819943172 0 0 0 0 -135.26865158672445 -5.3018411819721223 0 -5.3018411819721223 -120.47056477181468 0 0 0 0 -12.5366793408175 -15.561065483867424 0 -15.561065483867424 -154.91639904869226 0 0 0 0 -13.164448946656194 1.5032708072249079 0 1.5032708072249079 117.59954859526624 0 0 0 0 23.70429741757107 126.84089754206434 0 126.84089754206434 -107.39736420387089 0 0 0 0 34.328243783209473 153.44345049450567 0 153.44345049450567 -45.760872250812099 0 0 0 0 -4.5389845208529493 2.1382365284127332 0 2.1382365284127332 19.552526601523255 0 0 0 0 -98.030423304400756 129.9600403281529 0 129.9600403281529 -43.22829016504329 0 0 0 0 -71.832628798816586 120.47799681198012 0 120.47799681198012 -59.065964293095021 0 0 0 0 15.211502263798138 23.537079533835509 0 23.537079533835509 10.720401472421138 0 0 0 0 49.810101372798655 61.534236407003789 0 61.534236407003789 52.993847377576749 0 0 0 0 95.867433397363129 123.7283208636336 0 123.7283208636336 118.68269537894594 0 0 0 0 -642.69223801005865 41.042736889081425 0 41.042736889081425 35.088259939067939 0 0 0 0 -254.70822433843568 90.974830448401917 0 90.974830448401917 -30.124350617435994 0 0 0 0 119.15427989132877 6.8680115847646448 0 6.8680115847646448 0.35937705837568501 0 0 0 0 79.011637589836027 14.62868493802489 0 14.62868493802489 23.527175734014236 0 0 0 0 80.697396891424432 77.042136611908063 0 77.042136611908063 36.062249413516838 0 0 0 0 127.32677906341996 22.52461797668002 0 22.52461797668002 6.9787834682610992 0 0 0 0 169.17163561304915 10.67427514605879 0 10.67427514605879 -59.448370446923946 0 0 0 0 34.247047258366365 147.30030903062288 0 147.30030903062288 -49.877156699214538 0 0 0 0 23.887962643396094 1.1091308014762831 0 1.1091308014762831 -17.824081384952166 0 0 0 0 97.946752674168579 31.292948185286981 0 31.292948185286981 -9.0154477287312389 0 0 0 0 34.247047258366365 147.30030903055012 0 147.30030903055012 -49.877156699149054 0 0 0 0 -95.786260942550143 118.80174341685915 0 118.80174341685915 -9.423676255166356 0 0 0 0 21.822369138035356 68.839673042298955 0 68.839673042298955 -36.031994673350709 0 0 0 0 -54.761583569852519 85.414330005423835 0 85.414330005423835 -20.681715560189332 0 0 0 0 41.837041110188807 31.448714546183552 0 31.448714546183552 33.986653483358076 0 0 0 0 34.247047258191742 147.30030903063016 0 147.30030903063016 -49.877156699083571 0 0 0 0 47.490851611422841 35.875851003478601 0 35.875851003478601 30.253171002004819 0 0 0 0 35.750698028715817 42.31419770383097 0 42.31419770383097 39.734000146506361 0 0 0 0 27.588599062012143 47.955128457734503 0 47.955128457734503 49.658525083293526 0 0 0 0 54.519482984258502 43.656705711714494 0 43.656705711714494 35.316429673885068 0 0 0 0 40.860515973432456 31.416355254155746 0 31.416355254155746 20.736154437335191 0 0 0 0 36.566461154550552 17.208211365521606 0 17.208211365521606 5.4312431548140339 0 0 0 0 62.503307562416012 27.295017155474852 0 27.295017155474852 24.363216151396045 0 0 0 0 48.936481463693781 35.679728663744754 0 35.679728663744754 33.852113119803107 0 0 0 0 3.5697718116004538 18.129851391254064 0 18.129851391254064 30.628081686161487 0 0 0 0 17.245949410443245 32.865033707883583 0 32.865033707883583 31.292663731979701 0 0 0 0 -2.4184996951355231 6.6900463325640374 0 6.6900463325640374 18.347982676905822 0 0 0 0 15.509259414305575 20.074432048583418 0 20.074432048583418 3.7031891520840947 0 0 0 0 -91.966574084319291 -142.18106433541607 0 -142.18106433541607 35.661296756307024 0 0 0 0 19.45168244055094 4.3283719554560776 0 4.3283719554560776 9.4432519691608832 0 0 0 0 -252.69362392618041 64.330298750418976 0 64.330298750418976 244.01175125226064 0 0 0 0 -178.08283867477439 366.24590233249785 0 366.24590233249785 192.99377729870832 0 0 0 0 33.66936713306908 11.684586986954429 0 11.684586986954429 -2.088286406207331 0 0 0 0 114.91885357942374 31.267352227172857 0 31.267352227172857 113.67062958070525 0 0 0 0 -61.396221834234893 140.45998084738676 0 140.45998084738676 -35.041046741747778 0 0 0 0 2.8273496595247707 145.26372012331967 0 145.26372012331967 -42.751288835308515 0 0 0 0 -182.32942842210468 246.78147120729773 0 246.78147120729773 -93.668096256998979 0 0 0 0 -2.5615216107689776 176.83328509645253 0 176.83328509645253 -78.345553286324503 0 0 0 0 -1.913522999143197 141.70268088950283 0 141.70268088950283 -166.63210540145519 0 0 0 0 159.02619238157604 315.97546537975177 0 315.97546537975177 -139.97832143692358 0 0 0 0 735.9146008511234 50.697629211945014 0 50.697629211945014 -238.90361680335991 0 0 0 0 83.797136006741468 86.848095305655931 0 86.848095305655931 71.899118888944145 0 0 0 0 714.8905643673279 -125.73976076893678 0 -125.73976076893678 -173.21689666443194 0 0 0 0 2871.8425808658139 -167.72108752460679 0 -167.72108752460679 -326.65650117488735 0 0 0 0 858.42855136451362 114.52172815956942 0 114.52172815956942 -34.300227876313329 0 0 0 0 1944.5092328858882 314.8560453261822 0 314.8560453261822 -70.688074903999222 0 0 0 0 433.64674917225784 197.93679642484059 0 197.93679642484059 324.88114407163243 0 0 0 0 410.49193163387827 266.40767770734601 0 266.40767770734601 194.73322992878343 0 0 0 0 4.2937724112489377 28.373995300300976 0 28.373995300300976 423.70311910590732 0 0 0 0 248.01825179583102 -76.606961080850624 0 -76.606961080850624 92.990879129151381 0 0 0 0 159.18297917133896 -58.594015825770839 0 -58.594015825770839 -134.04659396732404 0 0 0 0 17.607598904636689 -19.723671915044179 0 -19.723671915044179 85.936384584958432 0 0 0 0 17.996218842810777 31.874009597830309 0 31.874009597830309 -117.50907595362423 0 0 0 0 -103.67866125329601 42.877081084467363 0 42.877081084467363 247.87405927667942 0 0 0 0 125.81769947285648 22.535149547476976 0 22.535149547476976 -118.10097154064715 0 0 0 0 150.34723341243807 34.741032483343133 0 34.741032483343133 -96.577461993892939 0 0 0 0 105.87916052472428 -15.207575750533579 0 -15.207575750533579 53.745470635889205 0 0 0 0 333.86086744151362 178.20883465941836 0 178.20883465941836 106.62774880430243 0 0 0 0 21.611912450283853 284.99066663406285 0 284.99066663406285 639.45197010938091 0 0 0 0 1716.2956454543528 969.57920582265695 0 969.57920582265695 520.97781207425965 0 0 0 0 2166.1981246768592 501.32180866993025 0 501.32180866993025 -67.700263274583676 0 0 0 0 3340.2959696106482 1388.5885209458393 0 1388.5885209458393 111.67635619300908 0 0 0 0 3594.3012477053198 1152.5062128112795 0 1152.5062128112795 78.040820722032208 0 0 0 0 1818.5537221444392 1580.6663218707024 0 1580.6663218707024 1386.8777736266336 0 0 0 0 8.1934414970602578 0.23749158875101273 0 0.23749158875101273 1.3729188279909534 0 0 0 0 5.5829183005236303 3.4095946218759252 0 3.4095946218759252 6.1995752116098855 0 0 0 0 3676.4851626585587 1447.8794795388346 0 1447.8794795388346 949.10967636799887 0 0 0 0 3539.8771435749659 2187.4475523436636 0 2187.4475523436636 984.01052872016442 0 0 0 0 5000.3020894230831 1367.0036043079124 0 1367.0036043079124 -274.00181626599442 0 0 0 0 3804.797090646709 583.31063802266499 0 583.31063802266499 -772.96601572294605 0 0 0 0 4998.8235327210932 772.85451908503319 0 772.85451908503319 -919.78728614882493 0 0 0 0 2195.354332876901 754.19794173592572 0 754.19794173592572 -13.76084501415599 0 0 0 0 2962.1856371840076 -58.620820232622684 0 -58.620820232622684 -806.04235945766266 0 0 0 0 3767.5563919066153 103.08081252122247 0 103.08081252122247 -773.86052620862301 0 0 0 0 4993.7998314650104 1192.2018807516281 0 1192.2018807516281 -612.34365130089907 0 0 0 0 1614.143703355734 849.91385436601354 0 849.91385436601354 339.80044835420057 0 0 0 0 2355.0046430528087 2461.6336233412471 0 2461.6336233412471 1300.1759178688926 0 0 0 0 -603.23898345525595 1041.8821654436595 0 1041.8821654436595 1574.7729598769597 0 0 0 0 2346.6689815463105 634.08776287052979 0 634.08776287052979 179.97070066641146 0 0 0 0 -1.2581353373591944 -0.14774666343980414 0 -0.14774666343980414 2.6227906086696766 0 0 0 0 -293.66390163591495 -50.296516257560654 0 -50.296516257560654 706.01748366884453 0 0 0 0 912.82776836318226 -383.50312546379297 0 -383.50312546379297 -304.756373778392 0 0 0 0 763.11192942076013 449.96761713470744 0 449.96761713470744 -358.93726463485473 0 0 0 0 1793.7466632506676 -942.09846687618267 0 -942.09846687618267 450.79545854512139 0 0 0 0 2691.8784501311748 67.841218988104629 0 67.841218988104629 -772.93201211355574 0 0 0 0 2715.0425446253066 -0.32668412515215861 0 -0.32668412515215861 -761.46922783243485 0 0 0 0 4993.1800042159157 -1353.9783905321904 0 -1353.9783905321904 -815.33736029906197 0 0 0 0 241.08449228021891 104.8546670540657 0 104.8546670540657 297.2944332362888 0 0 0 0 1558.4299500572542 -1992.9651560527461 0 -1992.9651560527461 1210.7351562048341 0 0 0 0 22.808170431409849 1.2107980910097584 0 1.2107980910097584 2.6934160873457649 0 0 0 0 4993.333229369643 2922.0456362784325 0 2922.0456362784325 626.04377953697497 0 0 0 0 428.58257268926536 378.36807258306385 0 378.36807258306385 575.50337411965529 0 0 0 0 2479.1708474507541 3343.8485604640828 0 3343.8485604640828 2980.9116899373325 0 0 0 0 3565.7482447945658 2203.0085004175567 0 2203.0085004175567 819.74981879317238 0 0 0 0 2504.74831770522 27.127183534522146 0 27.127183534522146 -47.549022088931224 0 0 0 0 1227.0670560507497 -26.835068059664195 0 -26.835068059664195 -395.57457037289851 0 0 0 0 35.312934362137327 -1.1056963005113687 0 -1.1056963005113687 2.4403252848214034 0 0 0 0 -732.13178326503839 -256.70430253315863 0 -256.70430253315863 438.4027739588563 0 0 0 0 -235.92728317121146 124.53870622011286 0 124.53870622011286 389.24138020447884 0 0 0 0 10.334514714158653 3.1248212833711264 0 3.1248212833711264 -0.11788216608396601 0 0 0 0 342.17392162647593 12.444621168158847 0 12.444621168158847 -550.93444146515037 0 0 0 0 51.196081783182194 -2.7738089910258887 0 -2.7738089910258887 -1.5492315052414429 0 0 0 0 147.4873577563626 22.703990811616595 0 22.703990811616595 -14.051085994403365 0 0 0 0 25.145318787952419 -5.809720768746427 0 -5.809720768746427 -32.67506186104913 0 0 0 0 116.04344492982636 20.715425824711986 0 20.715425824711986 -24.968425816039115 0 0 0 0 89.448552073787141 82.282237756254972 0 82.282237756254972 37.266293200547466 0 0 0 0 14.715059735553552 9.1368416475752454 0 9.1368416475752454 1.8460630524495336 0 0 0 0 134.34392831959849 12.437838342212103 0 12.437838342212103 -15.81318557943564 0 0 0 0 35.753508489833152 12.147095338050839 0 12.147095338050839 6.0492581804001633 0 0 0 0 30.11837173337085 11.005714021314237 0 11.005714021314237 0.089780774462724366 0 0 0 0 43.156752542390223 12.073698744570095 0 12.073698744570095 6.0711059282404136 0 0 0 0 75.823074738436844 11.959172432397281 0 11.959172432397281 -109.37747795979158 0 0 0 0 25.728861771713127 15.164104481641743 0 15.164104481641743 -4.7632385500105556 0 0 0 0 39.187847261191649 12.022529148289621 0 12.022529148289621 4.905843252342847 0 0 0 0 45.565512882788553 11.843916160792105 0 11.843916160792105 9.8473278602230572 0 0 0 0 83.807423740130616 5.0263458042568345 0 5.0263458042568345 -103.69404538875642 0 0 0 0 76.984938828813029 4.5934872353686842 0 4.5934872353686842 -96.354309249384642 0 0 0 0 74.112632240750827 85.789415639605522 0 85.789415639605522 -147.41270716884901 0 0 0 0 13.519893017721984 1.9488793410342993 0 1.9488793410342993 14.377294685100944 0 0 0 0 1.4089035045695653 2.9212060693350068 0 2.9212060693350068 5.2133819450976908 0 0 0 0 90.387774582257407 -120.70246481397521 0 -120.70246481397521 -267.22212219257653 0 0 0 0 20.913465758108941 -60.19414511788753 0 -60.19414511788753 53.39005008958884 0 0 0 0 29.113500934909098 -57.52921971478554 0 -57.52921971478554 -93.512133366180024 0 0 0 0 89.495133267031633 -10.408354834304191 0 -10.408354834304191 -86.811354327204754 0 0 0 0 32.368627157295123 8.6677774388663238 0 8.6677774388663238 -91.824033819135821 0 0 0 0 25.365569381577117 18.510621957246933 0 18.510621957246933 9.2923144533104995 0 0 0 0 59.955869452037405 66.634022378555926 0 66.634022378555926 -8.205883675076052 0 0 0 0 44.615671883917486 28.977843788475109 0 28.977843788475109 18.449552794562244 0 0 0 0 35.210404260040377 49.824568147244008 0 49.824568147244008 23.161447504469834 0 0 0 0 44.966563630499877 21.305538067497764 0 21.305538067497764 16.550684162429206 0 0 0 0 80.243123530351113 75.917375596302804 0 75.917375596302804 -4.4156710749056742 0 0 0 0 60.77684574405248 19.243756969486761 0 19.243756969486761 20.077772686820481 0 0 0 0 15.126375260497298 17.021982121972698 0 17.021982121972698 105.58715562660788 0 0 0 0 123.60403047020736 43.544510109398431 0 43.544510109398431 27.021141142109116 0 0 0 0 162.45911332521791 8.1242450383202822 0 8.1242450383202822 39.869358087743763 0 0 0 0 94.762802152697986 77.373446467524445 0 77.373446467524445 118.63224646413755 0 0 0 0 484.76639593662549 143.98502452731339 0 143.98502452731339 -5.5802755560525839 0 0 0 0 170.92476810898188 381.23901741847959 0 381.23901741847959 128.46310108641546 0 0 0 0 187.45451126906732 98.329430723113759 0 98.329430723113759 144.69178734146772 0 0 0 0 -162.06482533157396 112.60996449296226 0 112.60996449296226 175.04897969060789 0 0 0 0 3.8736667231869433 11.802673769899855 0 11.802673769899855 182.64180683849554 0 0 0 0 28.119013834431826 35.380166527964661 0 35.380166527964661 132.46805809804118 0 0 0 0 6.7654753930764855 -5.5773469104976812 0 -5.5773469104976812 80.973193283056844 0 0 0 0 23.977438242873177 23.756783263838088 0 23.756783263838088 110.61082568497659 0 0 0 0 49.185356758578564 23.385724190561973 0 23.385724190561973 126.25819367039117 0 0 0 0 62.256797906455176 56.577073385597714 0 56.577073385597714 96.438882079918358 0 0 0 0 13.942295671480679 21.885992256169885 0 21.885992256169885 106.59971991172206 0 0 0 0 89.253949565776566 38.989773785201578 0 38.989773785201578 9.2554394615744968 0 0 0 0 41.561256096923898 -8.3087401715720262 0 -8.3087401715720262 117.17399774355363 0 0 0 0 66.814722876208776 54.239999323161172 0 54.239999323161172 36.091874046601774 0 0 0 0 96.064419036265463 46.880365695986256 0 46.880365695986256 61.375163837938089 0 0 0 0 105.66136378840019 72.117282695137192 0 72.117282695137192 41.396769523227704 0 0 0 0 54.277491475790157 49.068439526404745 0 49.068439526404745 15.235723333315946 0 0 0 0 28.168462541718263 36.565891508543459 0 36.565891508543459 28.974447574072862 0 0 0 0 45.009136172408873 40.346236154025974 0 40.346236154025974 31.79514265736049 0 0 0 0 84.425606452437933 102.01769940233089 0 102.01769940233089 26.401199428839092 0 0 0 0 79.300977100268938 31.15719655413568 0 31.15719655413568 27.126936469810971 0 0 0 0 36.414928534431056 23.939713225388019 0 23.939713225388019 30.742176454976288 0 0 0 0 24.334243689329014 31.834867676753674 0 31.834867676753674 43.409887108737166 0 0 0 0 23.903106618163292 32.668576468555329 0 32.668576468555329 43.906025118346406 0 0 0 0 41.750153379689436 38.243216885619631 0 38.243216885619631 38.701825938354659 0 0 0 0 34.715079763574892 18.829699194184911 0 18.829699194184911 2.2300657798426888 0 0 0 0 18.439838712908237 18.954746835599579 0 18.954746835599579 24.136512242465404 0 0 0 0 8.7545907793828519 28.394283320321847 0 28.394283320321847 31.107236898398696 0 0 0 0 6.6527715419887912 31.838841518045498 0 31.838841518045498 37.260358604368434 0 0 0 0 20.336482665187759 57.182291575768318 0 57.182291575768318 72.557945562963141 0 0 0 0 105.60392435883841 62.991874899357754 0 62.991874899357754 20.476963986671763 0 0 0 0 92.232091726604267 51.281071753688593 0 51.281071753688593 19.336902561325587 0 0 0 0 4.1789653412394898 10.83332584667324 0 10.83332584667324 7.9626482672126428 0 0 0 0 154.20124186546309 79.420131616011531 0 79.420131616011531 28.70078215965259 0 0 0 0 66.764616415588534 18.241805369409121 0 18.241805369409121 20.939288794937966 0 0 0 0 84.515357594529632 112.35509822953554 0 112.35509822953554 119.34067572665845 0 0 0 0 112.46856285081594 16.365389652495651 0 16.365389652495651 15.56659116796618 0 0 0 0 117.37071619968629 8.6863237865291012 0 8.6863237865291012 18.129256704635736 0 0 0 0 85.954960352879425 62.853212738705906 0 62.853212738705906 30.421284595820907 0 0 0 0 34.769895299839845 62.217374256119911 0 62.217374256119911 43.766302782116327 0 0 0 0 62.736022458520893 58.838007960209325 0 58.838007960209325 32.425410709516655 0 0 0 0 95.281224034391926 65.194664287717387 0 65.194664287717387 23.974742703874654 0 0 0 0 105.42564959912852 64.135215658774541 0 64.135215658774541 21.219689966370424 0 0 0 0 91.801462451614498 57.716784000558619 0 57.716784000558619 44.276584859981085 0 0 0 0 96.518444829647706 52.053259288817799 0 52.053259288817799 35.952534361906146 0 0 0 0 106.89079320876044 37.064439961031894 0 37.064439961031894 47.650998420029282 0 0 0 0 103.24765389401819 64.671082568215525 0 64.671082568215525 39.765527203766396 0 0 0 0 66.913069516187534 54.431250038647704 0 54.431250038647704 39.961154919757973 0 0 0 0 98.603494937240612 65.988398182334095 0 65.988398182334095 3.7838718478715236 0 0 0 0 102.04792128127451 41.9931884868178 0 41.9931884868178 7.1184603646352942 0 0 0 0 65.4343795637173 20.815232743724284 0 20.815232743724284 -16.384749408569455 0 0 0 0 94.994955660789856 31.111462291552016 0 31.111462291552016 -112.58008428086214 0 0 0 0 77.644761776529748 10.569625239003955 0 10.569625239003955 -12.730365819910748 0 0 0 0 121.14295374492347 28.040532627817015 0 28.040532627817015 4.7358220834245008 0 0 0 0 83.056549721455667 70.86097739577508 0 70.86097739577508 1.286742000385857 0 0 0 0 109.79578044718073 102.73223288804547 0 102.73223288804547 3.9427635077590821 0 0 0 0 90.614199355441656 54.691284085339447 0 54.691284085339447 24.038014098353131 0 0 0 0 72.197164964603871 66.615007822284042 0 66.615007822284042 22.684801341696584 0 0 0 0 94.541022413090104 106.13390500536116 0 106.13390500536116 53.539502695399278 0 0 0 0 22.481975838583196 23.644468112887381 0 23.644468112887381 -3.4896944632826568 0 0 0 0 139.50379486614838 -22.371969125139003 0 -22.371969125139003 -52.778014368232107 0 0 0 0 149.5501403400599 -322.53365731799909 0 -322.53365731799909 -874.50454674484263 0 0 0 0 840.92936641706183 748.15289629849224 0 748.15289629849224 -854.7888725268615 0 0 0 0 489.5996949135897 -860.34766707885171 0 -860.34766707885171 -113.53764557313292 0 0 0 0 -386.81626495048749 -368.1300869424025 0 -368.1300869424025 534.13086616019064 0 0 0 0 -161.41343038189007 96.647232908947444 0 96.647232908947444 161.96782979955663 0 0 0 0 -200.17291128378565 343.45155775455225 0 343.45155775455225 205.75617172816243 0 0 0 0 -183.20542636631899 403.23152185573537 0 403.23152185573537 -134.46023724674689 0 0 0 0 2.1935368535171165 3.3946279406879256 0 3.3946279406879256 50.960586494984909 0 0 0 0 5.476259687522063 7.492256322048167 0 7.492256322048167 7.8666176868496223 0 0 0 0 850.93852924473686 178.15502450713745 0 178.15502450713745 14.813819081858355 0 0 0 0 742.0427779095362 -506.14963999430586 0 -506.14963999430586 89.242989802814492 0 0 0 0 7.8752308259423547 4.0648869717242171 0 4.0648869717242171 2.5926564933801535 0 0 0 0 482.53115423209965 -277.87310088443922 0 -277.87310088443922 101.78732888760101 0 0 0 0 588.35695923285016 113.98391246924612 0 113.98391246924612 -321.90955104087743 0 0 0 0 952.07010696014049 -155.48539087149106 0 -155.48539087149106 -276.51641758822802 0 0 0 0 917.89568706906698 -29.795594324012683 0 -29.795594324012683 -307.27112890824924 0 0 0 0 -570.04368577063178 423.97653245705334 0 423.97653245705334 749.63253562635646 0 0 0 0 47.472531812539273 -8.9552028860409791 0 -8.9552028860409791 52.25160244041399 0 0 0 0 -3.908835329947538 -6.4580154476556908 0 -6.4580154476556908 12.671022397160762 0 0 0 0 195.4188465490588 -21.020682914430154 0 -21.020682914430154 -107.9905439956101 0 0 0 0 101.39641937714259 -105.61543600999448 0 -105.61543600999448 170.15092235054271 0 0 0 0 129.0741427851674 26.764396891831154 0 26.764396891831154 -14.674163526662596 0 0 0 0 59.600119413436914 29.466756232979606 0 29.466756232979606 -14.593049085156053 0 0 0 0 90.458179136983745 -20.273098666052874 0 -20.273098666052874 -7.5067029086130788 0 0 0 0 11.528898592083866 -10.993070498560009 0 -10.993070498560009 -3.29614469160345 0 0 0 0 37.582235609337388 16.258722044321033 0 16.258722044321033 -2.8093638676181332 0 0 0 0 63.61158272600187 38.300649341014832 0 38.300649341014832 -16.466931615073008 0 0 0 0 -0.79836559705654508 5.213494822240591 0 5.213494822240591 -1.544169448372827 0 0 0 0 23.913086997034775 4.9248277292648588 0 4.9248277292648588 0.9092732574564355 0 0 0 0 50.17493215635659 0.41640218798556816 0 0.41640218798556816 -4.8957144151822831 0 0 0 0 0.85164385417898103 -0.93184820184788641 0 -0.93184820184788641 1.3186194201816175 0 0 0 0 93.768741005536867 -77.365199400628626 0 -77.365199400628626 62.244201611143581 0 0 0 0 38.633062248307851 -18.750937081263743 0 -18.750937081263743 0.37870872204075567 0 0 0 0 22.340060267541958 -0.66637721776328362 0 -0.66637721776328362 -18.236375806267461 0 0 0 0 61.943952564453866 50.750823771751129 0 50.750823771751129 31.415316047545275 0 0 0 0 7.8084024713174429 -5.2937796788321876 0 -5.2937796788321876 -0.72072329440376404 0 0 0 0 43.265124781168652 2.2410941516988174 0 2.2410941516988174 -7.4283339097243015 0 0 0 0 17.655326645479601 -3.6022754329687885 0 -3.6022754329687885 -1.3509003876756311 0 0 0 0 82.395980494084142 0.74232809123162724 0 0.74232809123162724 -30.997081411296506 0 0 0 0 113.49432316853563 -20.970474616370439 0 -20.970474616370439 -17.312580580065855 0 0 0 0 22.387446847955218 -5.9391740958948489 0 -5.9391740958948489 0.80791640089260941 0 0 0 0 -457.94726426613852 -182.76533883112552 0 -182.76533883112552 90.465344185402955 0 0 0 0 108.8053035293633 25.132921418059595 0 25.132921418059595 -78.082073906190885 0 0 0 0 72.060742596782802 20.938907088410758 0 20.938907088410758 -38.188100120181218 0 0 0 0 62.931105168694678 8.6068598752341039 0 8.6068598752341039 2.8925525057819339 0 0 0 0 109.4048287923506 58.183169564991658 0 58.183169564991658 5.8205519162384007 0 0 0 0 40.201896167978852 26.992275092284856 0 26.992275092284856 25.657840471762469 0 0 0 0 75.163888648923603 12.537875107667787 0 12.537875107667787 -13.443532010529452 0 0 0 0 90.361108800409056 6.8875373773256854 0 6.8875373773256854 -29.445353213933572 0 0 0 0 36.938243768850043 10.717635641753787 0 10.717635641753787 57.472869659741264 0 0 0 0 14.425949318092087 0.94704020644746123 0 0.94704020644746123 0.76520010745820688 0 0 0 0 81.110272134559636 -9.943451454168553 0 -9.943451454168553 31.338700210089883 0 0 0 0 47.946948876764509 29.851052396665409 0 29.851052396665409 47.686478315960812 0 0 0 0 36.739493231555436 3.530174867429448 0 3.530174867429448 1.0161837433457106 0 0 0 0 44.775130893907772 2.2670256285716732 0 2.2670256285716732 -8.1010343991187028 0 0 0 0 65.323147427508957 -9.4049875907160185 0 -9.4049875907160185 -5.6044291448765762 0 0 0 0 8.2339522319380194 -92.35108430288301 0 -92.35108430288301 75.112087860706396 0 0 0 0 8.2468310589368699 1.7180134625184138 0 1.7180134625184138 -1.0344468783243306 0 0 0 0 -22.194042846676894 -113.41489807456082 0 -113.41489807456082 195.91317586270009 0 0 0 0 -531.3121790494688 410.74008285347901 0 410.74008285347901 224.94845564664502 0 0 0 0 15.695756716066171 400.71230253082427 0 400.71230253082427 194.96187798403889 0 0 0 0 12.796927803986993 2.8432528890609383 0 2.8432528890609383 -1.6770594909468652 0 0 0 0 201.78489904225353 169.18020178530077 0 169.18020178530077 42.931635985233925 0 0 0 0 18.319068399941692 7.1021432999293985 0 7.1021432999293985 -2.109709785041328 0 0 0 0 36.381872922149341 0.15686606424475258 0 0.15686606424475258 -0.43866515266279293 0 0 0 0 42.933792994816031 2.3087568308596929 0 2.3087568308596929 -6.4529115451853158 0 0 0 0 44.424473694654807 0.0099631180810888509 0 0.0099631180810888509 -3.4575116771179637 0 0 0 0 46.848255452394369 3.2576305115155719 0 3.2576305115155719 -7.321464749089273 0 0 0 0 46.919446449741372 0.2157446502806124 0 0.2157446502806124 -3.6825332013577281 0 0 0 0 30.776690694895137 -2.9327309453811878 0 -2.9327309453811878 -0.074752814583022964 0 0 0 0 26.471707033658603 4.9493235908327158 0 4.9493235908327158 -6.316277475923795 0 0 0 0 21.066995576154568 6.0694750859941564 0 6.0694750859941564 -14.995084065454648 0 0 0 0 19.471989087890833 9.9423839364118614 0 9.9423839364118614 -4.5487406941390347 0 0 0 0 28.213732652930407 0.48926217920400816 0 0.48926217920400816 -5.7698050779076935 0 0 0 0 46.764032182294613 -0.26018723999914073 0 -0.26018723999914073 0.52922962295815523 0 0 0 0 71.616517091661763 2.3234758358786962 0 2.3234758358786962 -100.47768949892173 0 0 0 0 -36.554390284304418 72.654573593991074 0 72.654573593991074 -109.95287988470608 0 0 0 0 13.436480111713152 14.227839435397211 0 14.227839435397211 -6.3156615300551628 0 0 0 0 17.697500334255892 29.78148240243047 0 29.78148240243047 -63.409094530945254 0 0 0 0 23.673735032537277 -3.0359356115101952 0 -3.0359356115101952 -7.837052356554195 0 0 0 0 112.29913325235805 -30.070107356961842 0 -30.070107356961842 -164.14340713503282 0 0 0 0 -105.49443134550756 -43.755068780979286 0 -43.755068780979286 -77.527750958078968 0 0 0 0 41.878587669658451 -5.9476368277718787 0 -5.9476368277718787 -0.86760827691804199 0 0 0 0 332.16277138398891 34.556585029348014 0 34.556585029348014 -55.996203182839309 0 0 0 0 -117.47384695987057 -70.561231299722294 0 -70.561231299722294 -4.6738365892001639 0 0 0 0 931.27330773909989 -380.11629332842921 0 -380.11629332842921 -68.519324499743902 0 0 0 0 -140.39934612744372 -76.361517856838333 0 -76.361517856838333 439.9765159128001 0 0 0 0 710.34876185958046 -709.6991807770878 0 -709.6991807770878 736.82292696835179 0 0 0 0 17.957752723626445 -3.0128985103097286 0 -3.0128985103097286 1.3260514937885042 0 0 0 0 4959.8266423566456 -390.69778987257422 0 -390.69778987257422 -648.21300161995259 0 0 0 0 1136.7341116482239 -85.907781594805556 0 -85.907781594805556 -365.22179296630009 0 0 0 0 4986.8817157596513 1514.8773189613485 0 1514.8773189613485 -296.10083534409279 0 0 0 0 4995.6417975598488 -485.99504851289214 0 -485.99504851289214 -389.02591122377618 0 0 0 0 -31.93126586272956 -409.68593008139158 0 -409.68593008139158 298.11990295291662 0 0 0 0 1393.7734927885194 0.017792944175880621 0 0.017792944175880621 79.000301058453914 0 0 0 0 518.02836166614725 -113.67532786452875 0 -113.67532786452875 -139.91982329151529 0 0 0 0 23.363499597773625 6.8351976244248362 0 6.8351976244248362 2.1910171142742456 0 0 0 0 25.993300025657533 4.3855269589426173 0 4.3855269589426173 0.13776096868400151 0 0 0 0 23.741685300881379 5.4833984381499725 0 5.4833984381499725 -1.7133234043776786 0 0 0 0 210.36542858656321 -172.10842200507193 0 -172.10842200507193 -133.69239241812147 0 0 0 0 944.51239313146743 -1810.0903863153667 0 -1810.0903863153667 1652.4700619395287 0 0 0 0 1621.5622336176602 1678.3822457634342 0 1678.3822457634342 2041.8878706083674 0 0 0 0 6.8162402394286445 -2.5202870162561233 0 -2.5202870162561233 -2.440034392559113 0 0 0 0 18.305591017924677 3.0387540101319654 0 3.0387540101319654 2.5158945574294531 0 0 0 0 107.4191596340396 -39.467325221286721 0 -39.467325221286721 1.0688968140396642 0 0 0 0 965.13976135407574 136.54286086057255 0 136.54286086057255 -2296.9652825294834 0 0 0 0 83.257017992742476 -305.47064199205488 0 -305.47064199205488 -740.9939781949397 0 0 0 0 974.90656930585101 161.29942997186026 0 161.29942997186026 -1074.6852686754137 0 0 0 0 282.00352782204573 -68.971588305159457 0 -68.971588305159457 -1125.1378700913192 0 0 0 0 292.35696750428906 346.27430426148203 0 346.27430426148203 -2230.298578151851 0 0 0 0 -447.39170071873377 -454.77244102362783 0 -454.77244102362783 -773.09846387513971 0 0 0 0 38.85962417949861 -53.91989011071616 0 -53.91989011071616 -3.8450727758159093 0 0 0 0 -455.18709744725493 -359.09468018804182 0 -359.09468018804182 -743.1406393453799 0 0 0 0 143.53072324518871 -403.02117843873202 0 -403.02117843873202 -1466.0290777458504 0 0 0 0 12.682463597069727 -727.44527881711838 0 -727.44527881711838 -1065.2762231221932 0 0 0 0 -189.06411577350809 -865.5707252341017 0 -865.5707252341017 213.21646545629483 0 0 0 0 454.56006101593084 -616.95082155340788 0 -616.95082155340788 -1050.7298352618045 0 0 0 0 96.050544894009363 -980.43632243315187 0 -980.43632243315187 170.31275878702218 0 0 0 0 -9.2792761389719089 -1078.8738761751365 0 -1078.8738761751365 905.53962238100212 0 0 0 0 288.57555442897137 -837.54746648892069 0 -837.54746648892069 -224.91053811138408 0 0 0 0 1515.3132437358145 -863.76813710908209 0 -863.76813710908209 231.15341828602959 0 0 0 0 800.37330431274313 -418.23134931064851 0 -418.23134931064851 -25.27033459498125 0 0 0 0 347.92260650292155 31.6972846785211 0 31.6972846785211 -224.79637068831562 0 0 0 0 1597.0136331024696 -145.39641628953541 0 -145.39641628953541 -210.77391353318421 0 0 0 0 213.85483317807302 212.34847005805204 0 212.34847005805204 674.43661665450054 0 0 0 0 589.48026534301607 232.93085675355542 0 232.93085675355542 -195.84001726716178 0 0 0 0 337.91300349442645 715.90725355388486 0 715.90725355388486 14.010758699889266 0 0 0 0 352.40771294411388 660.78696545606726 0 660.78696545606726 -505.07623853406039 0 0 0 0 156.93938966336196 -38.319668182787126 0 -38.319668182787126 -1.9848114224592477 0 0 0 0 121.09186097857423 -56.681037345927933 0 -56.681037345927933 -1087.5173369135373 0 0 0 0 726.41714597652026 359.42997014700086 0 359.42997014700086 -2150.8842378823465 0 0 0 0 747.67844171551405 190.44540730547669 0 190.44540730547669 -1375.3867354074609 0 0 0 0 -254.33494937834621 -645.65968396006792 0 -645.65968396006792 -1969.3957335730374 0 0 0 0 406.26921024603507 -377.73352071694535 0 -377.73352071694535 -1099.2574460181495 0 0 0 0 2.6895370596262183 18.771394800334612 0 18.771394800334612 -16.015123450016219 0 0 0 0 140.87998420142128 2.3229503994998062 0 2.3229503994998062 -470.85596831706789 0 0 0 0 141.01991935432744 -66.466051369986047 0 -66.466051369986047 -504.07407970926215 0 0 0 0 130.46812454715837 -49.556047642210615 0 -49.556047642210615 -431.94104037059697 0 0 0 0 202.99572513418389 -25.468762519687516 0 -25.468762519687516 -641.35626620180142 0 0 0 0 109.80488715248066 -19.820224915859399 0 -19.820224915859399 -468.37271007752133 0 0 0 0 180.85901415185072 24.31547842092732 0 24.31547842092732 -448.77192090740573 0 0 0 0 180.73330925833383 -83.570373839520798 0 -83.570373839520798 -436.46133495942559 0 0 0 0 240.34104485738499 -12.352304697603358 0 -12.352304697603358 -382.41765136402682 0 0 0 0 196.2994644183018 43.172706120918747 0 43.172706120918747 -304.16496443529104 0 0 0 0 217.39907082049467 -63.633495719576558 0 -63.633495719576558 -297.51349194130489 0 0 0 0 148.24554897686414 26.161448736154128 0 26.161448736154128 -349.60962265947455 0 0 0 0 147.48301018611528 -31.220982671708043 0 -31.220982671708043 -351.97451669812108 0 0 0 0 145.86227543202767 39.002753121927071 0 39.002753121927071 -231.59863781816603 0 0 0 0 152.48684228475031 -8.0576589629181399 0 -8.0576589629181399 -227.53421705250639 0 0 0 0 123.24677214366966 -28.389816423352386 0 -28.389816423352386 -297.89304426175295 0 0 0 0 102.41007521768915 22.931354935950367 0 22.931354935950367 -245.23745613901792 0 0 0 0 103.67515955728595 -43.004275483692254 0 -43.004275483692254 -331.37351668748124 0 0 0 0 130.42735495616728 9.7806977646507605 0 9.7806977646507605 -402.548178592966 0 0 0 0 155.88282886659727 -41.160487855935571 0 -41.160487855935571 -555.55752083778452 0 0 0 0 62.400453138357989 25.781240521858535 0 25.781240521858535 -425.21139646433221 0 0 0 0 53.066365554142976 -66.649467670809827 0 -66.649467670809827 -444.02571162193453 0 0 0 0 78.146030399526353 -3.3068305781962408 0 -3.3068305781962408 -482.99085409334111 0 0 0 0 46.444797530879441 -34.536490126244644 0 -34.536490126244644 -433.29123982800593 0 0 0 0 83.652079320844578 -68.546091463518906 0 -68.546091463518906 -65.45045740834405 0 0 0 0 36.865102905299864 -23.234306026495688 0 -23.234306026495688 -360.48165277928456 0 0 0 0 76.811979524541172 -60.56702513189677 0 -60.56702513189677 -58.26421275636325 0 0 0 0 -57.647027101309504 -5.921102480276204 0 -5.921102480276204 -388.60245503573969 0 0 0 0 159.42957861325704 -5.0296596524440247 0 -5.0296596524440247 -283.056971848795 0 0 0 0 91.695579331198132 45.348814217464337 0 45.348814217464337 -318.00117782139023 0 0 0 0 325.62261910227244 -288.64452551987779 0 -288.64452551987779 -636.47908210361129 0 0 0 0 7.6407079030734053 5.0648208222269524 0 5.0648208222269524 -4.7245436580315783 0 0 0 0 28.421040293105762 78.438121347202468 0 78.438121347202468 -316.55255418764136 0 0 0 0 1342.5808372165484 829.62061108258058 0 829.62061108258058 381.52180890110685 0 0 0 0 1899.4943782779228 307.94332460254191 0 307.94332460254191 -161.41745757815806 0 0 0 0 1979.5797668317973 270.79260698545841 0 270.79260698545841 -178.33927461021085 0 0 0 0 1664.0779675166486 642.2943748636153 0 642.2943748636153 -178.88633495089744 0 0 0 0 2030.261633045011 1608.3952274610219 0 1608.3952274610219 471.69664492635638 0 0 0 0 233.82585619910969 -28.547513491306745 0 -28.547513491306745 -91.940311463563376 0 0 0 0 325.31671860079223 19.797441193464692 0 19.797441193464692 -543.19102116900467 0 0 0 0 17.140718995797215 -127.91015811517354 0 -127.91015811517354 -184.41428029859526 0 0 0 0 214.99116668003262 -105.82384232629556 0 -105.82384232629556 -127.7987275179039 0 0 0 0 -1.8443252963983809 -1.5176974017854263 0 -1.5176974017854263 1.9478482744020766 0 0 0 0 69.968130628796644 -224.13401550677372 0 -224.13401550677372 -98.507807345027686 0 0 0 0 2213.2447689000692 217.64027832014835 0 217.64027832014835 -657.41071348130026 0 0 0 0 432.46763818181353 -752.75790568096636 0 -752.75790568096636 -312.17811557243112 0 0 0 0 309.11855267050123 235.01738118612866 0 235.01738118612866 -649.72125419288204 0 0 0 0 2179.7723691905412 296.45757892258189 0 296.45757892258189 -717.54138838498329 0 0 0 0 3890.7668314438051 560.87800092739053 0 560.87800092739053 -719.4320872262997 0 0 0 0 3405.8732828523498 -870.08553214154017 0 -870.08553214154017 -309.92778552871175 0 0 0 0 246.98366393567994 -1803.858268798811 0 -1803.858268798811 1570.2030822057422 0 0 0 0 48.303079915784721 64.585150862431988 0 64.585150862431988 54.128133896690009 0 0 0 0 -1783.8131373850629 427.5276775759794 0 427.5276775759794 612.31256140229743 0 0 0 0 39.097654045373929 85.738715248056906 0 85.738715248056906 26.040272013928188 0 0 0 0 59.081339619626689 63.609998014540963 0 63.609998014540963 26.882276429551879 0 0 0 0 -1231.0847836131579 1948.4893152528857 0 1948.4893152528857 450.1915277856715 0 0 0 0 181.88967436019448 3199.6551065748863 0 3199.6551065748863 1455.4922757701834 0 0 0 0 4366.7791942588374 1343.9063868611229 0 1343.9063868611229 -2205.4985564403542 0 0 0 0 801.13008786942373 -939.9998843081512 0 -939.9998843081512 -3548.3410740549843 0 0 0 0 38.504667238021796 3.2458271459514165 0 3.2458271459514165 11.174035493639565 0 0 0 0 132.09571247936401 13.927205950678399 0 13.927205950678399 -85.744320243180482 0 0 0 0 54.896675876864208 38.574608221622128 0 38.574608221622128 -16.013489991592678 0 0 0 0 71.401592973663355 64.365586831012479 0 64.365586831012479 5.0994330570447346 0 0 0 0 -751.74769554094746 -923.1518344211554 0 -923.1518344211554 236.47622338707151 0 0 0 0 4350.7881100005616 -889.79205248639846 0 -889.79205248639846 -1601.7333930969326 0 0 0 0 12.449898633300904 -2.106380729760474 0 -2.106380729760474 4.1753203227607258 0 0 0 0 2747.2424998274801 -1715.9230149864816 0 -1715.9230149864816 1337.2193571677235 0 0 0 0 119.50137717594697 -28.845184366010344 0 -28.845184366010344 -16.79837477763067 0 0 0 0 -179.289845072155 -2659.0013927449236 0 -2659.0013927449236 58.164805407643144 0 0 0 0 -486.26944328188256 -3587.5992954198264 0 -3587.5992954198264 3915.94396388721 0 0 0 0 43.810886524348916 -4.6075739687913071 0 -4.6075739687913071 1.1253075204848697 0 0 0 0 5.5938523165225433 -16.846569073475347 0 -16.846569073475347 12.058491887382182 0 0 0 0 153.74829251741176 -52.578369638396907 0 -52.578369638396907 98.99239911074983 0 0 0 0 344.90389550500549 268.40257113606094 0 268.40257113606094 304.85925798764129 0 0 0 0 2808.7399474601698 177.25066776395579 0 177.25066776395579 -60.763264571014588 0 0 0 0 -23.923331866608351 -1597.0704310887395 0 -1597.0704310887395 723.10071808587236 0 0 0 0 1051.9220680644048 -1123.0516405343556 0 -1123.0516405343556 810.48415705927255 0 0 0 0 1148.6309462698373 0.31473913963651512 0 0.31473913963651512 -75.552463606552919 0 0 0 0 -200.92175202239741 -325.50202202138462 0 -325.50202202138462 340.43551851916709 0 0 0 0 528.74988242689869 41.608186523682434 0 41.608186523682434 -358.47465160685897 0 0 0 0 368.85370185510328 -9.592452425271631 0 -9.592452425271631 -247.22067541384422 0 0 0 0 -1.5630674810963683 121.0037150058929 0 121.0037150058929 234.11013835693802 0 0 0 0 381.21385666359856 55.313736698010871 0 55.313736698010871 59.393435173212765 0 0 0 0 -165.26621713604254 63.957125088053999 0 63.957125088053999 28.004886983418146 0 0 0 0 -1.7541897037315266 14.741455411878018 0 14.741455411878018 -5.2301936764958716 0 0 0 0 89.471542835369888 44.375709553344763 0 44.375709553344763 -20.392837627369527 0 0 0 0 238.96226281266718 148.44852250503095 0 148.44852250503095 -168.14436785263206 0 0 0 0 478.83301091754402 -157.24461321448939 0 -157.24461321448939 -340.65557515948694 0 0 0 0 169.11482381162932 191.40570694739949 0 191.40570694739949 111.9989461656296 0 0 0 0 53.72534875537778 -15.877557717960386 0 -15.877557717960386 14.3400298623956 0 0 0 0 95.466429664662428 77.019034869181723 0 77.019034869181723 -27.833863012845541 0 0 0 0 70.30813883015071 82.950857847403313 0 82.950857847403313 47.758295232932142 0 0 0 0 88.530154628824675 51.825382490203083 0 51.825382490203083 -30.526333809943026 0 0 0 0 -2.3916642080148449 155.13758839326556 0 155.13758839326556 106.83447633159767 0 0 0 0 53.705252836800724 45.610980667830702 0 45.610980667830702 3.4998573068758958 0 0 0 0 103.62868669092859 52.60053037147668 0 52.60053037147668 -17.465985344967521 0 0 0 0 65.286656211959553 47.141405555706925 0 47.141405555706925 0.82017900687477097 0 0 0 0 93.708675580914132 55.502901134999775 0 55.502901134999775 -15.210117719181653 0 0 0 0 90.707849309110316 61.062323433190727 0 61.062323433190727 -22.885635596014026 0 0 0 0 93.322350229762378 41.788220260303206 0 41.788220260303206 -5.1503807427434367 0 0 0 0 61.835285542270867 53.221522353901491 0 53.221522353901491 -47.619272513418082 0 0 0 0 66.188724478661612 46.862259544483805 0 46.862259544483805 13.159243402588389 0 0 0 0 54.352858491292864 49.711593215648918 0 49.711593215648918 -5.5408732437081198 0 0 0 0 -107.15655815373248 121.52248163149601 0 121.52248163149601 -120.54347177118655 0 0 0 0 78.259081648099027 31.398562181769609 0 31.398562181769609 8.086159550374731 0 0 0 0 -62.646187342183111 277.2310057144432 0 277.2310057144432 -170.12993580262969 0 0 0 0 -106.72747032208463 143.92859107945878 0 143.92859107945878 -201.50775242604959 0 0 0 0 68.061568729927259 37.950280383869014 0 37.950280383869014 24.574804551326551 0 0 0 0 -84.055205110727911 199.66259266180191 0 199.66259266180191 -67.290117568144524 0 0 0 0 18.241221124857091 19.005868803299048 0 19.005868803299048 -1.633179150730129 0 0 0 0 103.22120139827894 159.24591987631447 0 159.24591987631447 -185.63851227106716 0 0 0 0 119.84464189517894 93.577349894799227 0 93.577349894799227 49.49108553631595 0 0 0 0 114.91303517205067 12.298649915915895 0 12.298649915915895 -21.735682941461121 0 0 0 0 3.3549080827833677 42.113932100672855 0 42.113932100672855 43.393768804248793 0 0 0 0 144.63496596457117 63.482437669684259 0 63.482437669684259 -126.676117793495 0 0 0 0 38.871028301445563 28.875316362886302 0 28.875316362886302 19.251711944800306 0 0 0 0 82.21135171597416 150.4378821193277 0 150.4378821193277 -215.73798975579325 0 0 0 0 119.81912963501964 60.032681975215382 0 60.032681975215382 -223.70521027136056 0 0 0 0 -23.607050890437677 18.469069283931731 0 18.469069283931731 -138.52851207123786 0 0 0 0 -169.96793118159258 204.19555002997186 0 204.19555002997186 -105.11591850233253 0 0 0 0 -1.0014460885868175 15.303229412971604 0 15.303229412971604 13.319857546650383 0 0 0 0 21.449030512323134 19.432904200398166 0 19.432904200398166 16.462636407245874 0 0 0 0 12.843417796888389 42.979465415708773 0 42.979465415708773 11.350368264349527 0 0 0 0 20.962558731763394 13.354517886449083 0 13.354517886449083 8.5727818988525897 0 0 0 0 194.6443049792797 55.247465301206034 0 55.247465301206034 -105.52682378239365 0 0 0 0 129.25063403724198 -6.4947899101023268 0 -6.4947899101023268 -89.488928313736324 0 0 0 0 170.56600660779804 34.166836347426738 0 34.166836347426738 -4.097492838752828 0 0 0 0 77.692055886314577 49.339755601666269 0 49.339755601666269 -9.2819543707727767 0 0 0 0 276.49813458619246 -0.80547505235972494 0 -0.80547505235972494 -50.456901222977649 0 0 0 0 138.05631538612943 -36.705635671788514 0 -36.705635671788514 -34.725814952887958 0 0 0 0 60.835605827029212 168.60217340751842 0 168.60217340751842 -199.47936955486512 0 0 0 0 136.39865801462292 97.36250467798709 0 97.36250467798709 -118.76705661689812 0 0 0 0 71.11500089954643 82.898197118156531 0 82.898197118156531 -46.42676404006329 0 0 0 0 108.44537137139378 69.751875666235719 0 69.751875666235719 -144.88932220615243 0 0 0 0 146.279024416217 -94.533871665153214 0 -94.533871665153214 -71.5884919143964 0 0 0 0 63.64521529396562 32.142694704565173 0 32.142694704565173 -48.232492902065133 0 0 0 0 84.731992599634395 72.290551945815196 0 72.290551945815196 59.790374118969339 0 0 0 0 157.25719378304711 -102.37532789959045 0 -102.37532789959045 -211.6583449934742 0 0 0 0 53.749579524377822 -26.527354212587163 0 -26.527354212587163 20.728126353618158 0 0 0 0 144.81803999174736 -5.8390739695505545 0 -5.8390739695505545 -136.80845490859065 0 0 0 0 93.059951156588795 117.82336602738314 0 117.82336602738314 -72.96911269943223 0 0 0 0 131.65048061027846 -117.17029746419689 0 -117.17029746419689 171.06942695535145 0 0 0 0 -4.8514270951673097 109.45976511538061 0 109.45976511538061 153.22786491821626 0 0 0 0 618.53908712908014 -316.3048859692135 0 -316.3048859692135 41.451385663941437 0 0 0 0 23.39713044381449 -25.392879765654932 0 -25.392879765654932 25.158358203936803 0 0 0 0 277.82984920788294 -106.32408836688137 0 -106.32408836688137 186.86718243512257 0 0 0 0 294.33149115235915 186.74989758014371 0 186.74989758014371 157.82932158551193 0 0 0 0 74.51423539458483 49.134691157036741 0 49.134691157036741 -141.71683508636079 0 0 0 0 -31.296775708906353 -424.08492286796809 0 -424.08492286796809 -345.46540603349194 0 0 0 0 220.96667507620805 355.63369145628803 0 355.63369145628803 530.779358460195 0 0 0 0 126.69988987975557 -1630.0177087792174 0 -1630.0177087792174 1556.9868960280128 0 0 0 0 704.22082392923039 217.08912751239859 0 217.08912751239859 -374.01477806717713 0 0 0 0 707.34916859969235 -28.629421922485562 0 -28.629421922485562 1093.9439949643747 0 0 0 0 6.7878270883797427 -17.081239372874037 0 -17.081239372874037 14.485547150954849 0 0 0 0 -58.041904468438588 -778.36570356467018 0 -778.36570356467018 1769.0894975938627 0 0 0 0 716.72783218371478 -1497.4822768818067 0 -1497.4822768818067 1110.0169524263511 0 0 0 0 462.41078838580142 6.8078464123746016 0 6.8078464123746016 1949.326632695931 0 0 0 0 508.95861183448733 284.3271118685102 0 284.3271118685102 409.4803909339571 0 0 0 0 1937.8988349514548 255.35501192205265 0 255.35501192205265 651.49998939304714 0 0 0 0 1182.5724132288087 -1053.8070211028062 0 -1053.8070211028062 1850.0360389734042 0 0 0 0 2502.9294867523276 555.16206434801143 0 555.16206434801143 76.102712231747319 0 0 0 0 9.2346970424180483 -10.125891915448229 0 -10.125891915448229 12.331989066788495 0 0 0 0 2833.4752693659975 -866.56010373991285 0 -866.56010373991285 -2.4474555398173834 0 0 0 0 1534.304433489091 -1255.3166594903723 0 -1255.3166594903723 1398.4228764834224 0 0 0 0 815.00666607027233 -377.76724652411576 0 -377.76724652411576 453.29961503583399 0 0 0 0 752.85535073509891 -505.63480638784222 0 -505.63480638784222 466.76048690318567 0 0 0 0 1182.7627195435925 -734.9586503035498 0 -734.9586503035498 379.55038286277772 0 0 0 0 1003.9498171728774 -153.436102204279 0 -153.436102204279 -34.731780025260377 0 0 0 0 1850.7828682606141 -411.84458752207615 0 -411.84458752207615 -383.24755800087951 0 0 0 0 1932.788025707865 -439.05237379441041 0 -439.05237379441041 -385.58473443094147 0 0 0 0 1851.7080795703732 -528.23924311024439 0 -528.23924311024439 -379.01105665162686 0 0 0 0 1165.2133130006041 -64.349911464933484 0 -64.349911464933484 -231.24394539899004 0 0 0 0 1818.6597042847134 -345.49902385903783 0 -345.49902385903783 -242.214006458933 0 0 0 0 1603.8759577529854 -437.76852407952356 0 -437.76852407952356 -278.79951037121646 0 0 0 0 1495.9629777209957 -479.48203596558687 0 -479.48203596558687 -27.609587045071748 0 0 0 0 1141.1645925704797 -27.011777572399296 0 -27.011777572399296 59.136241951870034 0 0 0 0 158.06201512386906 63.001511247837698 0 63.001511247837698 -209.71365918769823 0 0 0 0 996.28777948362404 -317.68702626547747 0 -317.68702626547747 -78.273969314745045 0 0 0 0 1253.9498556565777 -1549.4413983490267 0 -1549.4413983490267 828.40527069100972 0 0 0 0 2633.315589183665 -811.70270444723974 0 -811.70270444723974 -574.55347966645786 0 0 0 0 1730.1888195134379 -2824.2678763167123 0 -2824.2678763167123 2875.0429873909525 0 0 0 0 888.69941888619724 -1190.9548919840804 0 -1190.9548919840804 802.44802308110957 0 0 0 0 20.287446918926136 4.2924588053509041 0 4.2924588053509041 -4.9290520909906217 0 0 0 0 1926.1536181279771 244.1589795614068 0 244.1589795614068 -1044.9223684190551 0 0 0 0 3907.4710585602661 -1299.7117270078652 0 -1299.7117270078652 1004.3047657683173 0 0 0 0 14.985377996357755 -6.7554776896691529 0 -6.7554776896691529 -0.076524496956160648 0 0 0 0 2279.9606210780039 -159.5343990055444 0 -159.5343990055444 -615.19325986608783 0 0 0 0 1304.4679762135856 48.428199450703687 0 48.428199450703687 -542.14151752317593 0 0 0 0 2096.7621774468789 -356.3306964075955 0 -356.3306964075955 -816.71521750539614 0 0 0 0 4241.0238748727897 -842.43673717713818 0 -842.43673717713818 -810.22030186187294 0 0 0 0 874.26584205036488 531.90982826666959 0 531.90982826666959 -719.67682389012771 0 0 0 0 -225.84587105478568 237.50056408554337 0 237.50056408554337 -210.51469221492152 0 0 0 0 -289.70433693993255 -437.31865971633351 0 -437.31865971633351 -385.96641471147268 0 0 0 0 -115.53258696499688 -135.55286156763304 0 -135.55286156763304 -15.191000000299027 0 0 0 0 -32.802212668516631 -233.41141413567871 0 -233.41141413567871 -19.500011321702914 0 0 0 0 -98.602564497545245 -318.07465057794343 0 -318.07465057794343 -517.98001309006759 0 0 0 0 -56.274516452012904 -420.45181284351088 0 -420.45181284351088 -637.03129315286014 0 0 0 0 30.217984960043459 -9.3445686081897854 0 -9.3445686081897854 -1.024055536596606 0 0 0 0 8.8874742183341908 -1.9563736598309944 0 -1.9563736598309944 -2.0314769651937397 0 0 0 0 189.41856531178928 -289.07840759070314 0 -289.07840759070314 -5.5785531042952243 0 0 0 0 -167.4176301620646 -203.56599974540677 0 -203.56599974540677 231.32053800129506 0 0 0 0 2.990264283470303 0.82940587779192043 0 0.82940587779192043 -2.9044614583316992 0 0 0 0 83.38873766100005 -513.70031832577843 0 -513.70031832577843 507.31575532537681 0 0 0 0 186.50111788840877 9.7372939380829848 0 9.7372939380829848 158.37153469299665 0 0 0 0 159.10374946906813 -312.84062022962826 0 -312.84062022962826 564.90111014836657 0 0 0 0 455.29391245602164 2.4075803757077665 0 2.4075803757077665 -65.2152053740474 0 0 0 0 258.63565745183223 -209.3281920164568 0 -209.3281920164568 -25.450237492370434 0 0 0 0 51.726752123035112 72.609637721399849 0 72.609637721399849 -68.735018385683361 0 0 0 0 -15.977313420777136 -95.609632055517295 0 -95.609632055517295 -65.576218440364755 0 0 0 0 -39.319339446934237 -142.83168978785315 0 -142.83168978785315 -51.026502346181587 0 0 0 0 23.610837595144986 -6.2763344810912969 0 -6.2763344810912969 -0.1931350361995951 0 0 0 0 -109.4298856643727 -120.66321643306037 0 -120.66321643306037 -22.760506463394833 0 0 0 0 -191.12116688275273 -148.02278071678302 0 -148.02278071678302 12.5686831861276 0 0 0 0 -207.14519954522257 -4.8111918508639064 0 -4.8111918508639064 -139.453747687945 0 0 0 0 -207.8222691176868 -10.784711195213049 0 -10.784711195213049 -149.24229153896522 0 0 0 0 -175.71183033215493 -81.153790853158171 0 -81.153790853158171 -53.807789856568888 0 0 0 0 116.00244600849692 -118.34037531001832 0 -118.34037531001832 -97.521542538413996 0 0 0 0 208.32437674210087 -75.463475599352023 0 -75.463475599352023 -77.636182210168045 0 0 0 0 2.4776333318338537 2.5957926890725105 0 2.5957926890725105 -2.3973706387485159 0 0 0 0 -252.02457459208381 83.604980868048187 0 83.604980868048187 -60.453948760973844 0 0 0 0 122.31609282815771 -81.791756086895475 0 -81.791756086895475 -285.33198086544508 0 0 0 0 145.90614636427927 -85.181824143724953 0 -85.181824143724953 -287.88603117309322 0 0 0 0 30.928303352908188 22.052187057494848 0 22.052187057494848 -22.928085855590325 0 0 0 0 48.229237946504348 12.04024466203998 0 12.04024466203998 -2.0168847526821541 0 0 0 0 91.881872578665934 -40.217863468194992 0 -40.217863468194992 -201.44467886560415 0 0 0 0 -375.24798621795708 19.289262414895347 0 19.289262414895347 -120.67207742726623 0 0 0 0 7.7096201157808082 4.496010203361692 0 4.496010203361692 -4.83121792596204 0 0 0 0 -295.48510146124681 249.69185251812814 0 249.69185251812814 44.841804824695828 0 0 0 0 -0.72385523032266974 -1.2615257010782166 0 -1.2615257010782166 2.7237740186811674 0 0 0 0 -236.35125943239655 -68.323041485335125 0 -68.323041485335125 -209.34401734491985 0 0 0 0 -9.3129514983292623 11.875740070632332 0 11.875740070632332 -1.274051312285998 0 0 0 0 -281.94809634911871 106.85013267844079 0 106.85013267844079 -100.10018713261343 0 0 0 0 -223.00574868623153 408.76375456244568 0 408.76375456244568 -321.88770451757046 0 0 0 0 38.108743917294014 14.153300836719978 0 14.153300836719978 -4.8858220299486774 0 0 0 0 172.54616266149242 9.8506563310465936 0 9.8506563310465936 -15.07343041112108 0 0 0 0 71.811454415330005 13.714800514057096 0 13.714800514057096 -8.1643802208396394 0 0 0 0 -12.375481421211589 -144.19861815785771 0 -144.19861815785771 367.57768531568945 0 0 0 0 265.72295375031536 -178.40051753686566 0 -178.40051753686566 1097.6330248725553 0 0 0 0 216.05496073626273 57.973001464359186 0 57.973001464359186 416.51812789976611 0 0 0 0 -41.704048780185985 -176.66504066711605 0 -176.66504066711605 796.34878009341628 0 0 0 0 -2.0847401842838877 -4.2810905215258099 0 -4.2810905215258099 2.2075975516279396 0 0 0 0 -228.54451650362898 49.476511927286992 0 49.476511927286992 219.42871810282486 0 0 0 0 -256.29015311276635 33.8679039353608 0 33.8679039353608 210.68655004184257 0 0 0 0 -327.39502251431259 151.59712880042025 0 151.59712880042025 361.60747719747769 0 0 0 0 21.388999591566972 528.3462208488354 0 528.3462208488354 -934.16691279464976 0 0 0 0 -230.46172036745702 194.35555113128248 0 194.35555113128248 2.9971380424958625 0 0 0 0 -446.83424365872634 274.61575410251316 0 274.61575410251316 25.137008390418941 0 0 0 0 -101.51621837863058 662.44442529778644 0 662.44442529778644 138.2161335240362 0 0 0 0 76.892769936104742 273.73780295741199 0 273.73780295741199 611.04718853595477 0 0 0 0 15.040216811070422 -94.851046210275854 0 -94.851046210275854 318.10385374192992 0 0 0 0 182.11732290444979 621.69157639196442 0 621.69157639196442 220.8961936814303 0 0 0 0 232.30693252516357 412.05883088805058 0 412.05883088805058 -411.31615901014811 0 0 0 0 332.60254934973455 298.43767552290956 0 298.43767552290956 -813.20666637711111 0 0 0 0 122.01776425493074 430.29346139832194 0 430.29346139832194 -411.07854220484296 0 0 0 0 -6.3739133255658089 332.05811888208154 0 332.05811888208154 -82.282718267909786 0 0 0 0 98.297054513293915 160.43070154755151 0 160.43070154755151 -411.66110964744439 0 0 0 0 -126.94404953545745 54.188857758384984 0 54.188857758384984 841.08387743307685 0 0 0 0 4.6674932095174597 -4.1845528317322263 0 -4.1845528317322263 -4.2240964836471733 0 0 0 0 -45.738060438659886 -1.0924095725395091 0 -1.0924095725395091 -31.66638947307365 0 0 0 0 -273.40173483594117 126.46586762829429 0 126.46586762829429 127.09551269076655 0 0 0 0 153.0422530859978 14.483217209813574 0 14.483217209813574 -19.810849689591123 0 0 0 0 50.874230784367128 51.496874262786193 0 51.496874262786193 -29.412763109310298 0 0 0 0 167.78820292942692 5.3913161829386809 0 5.3913161829386809 21.53828710509697 0 0 0 0 162.51368809302221 -6.4892810170813391 0 -6.4892810170813391 -4.180892564705573 0 0 0 0 210.77876321448275 -22.18683468418476 0 -22.18683468418476 -21.977716127667009 0 0 0 0 184.8881242128482 0.60726146740125841 0 0.60726146740125841 -1.6751547856838442 0 0 0 0 248.61397432154627 -46.226540314080921 0 -46.226540314080921 37.175720623039524 0 0 0 0 25.014262780553352 15.583017304133506 0 15.583017304133506 -0.5532634248603685 0 0 0 0 125.7234810590744 -0.14529698049591389 0 -0.14529698049591389 2.136102333344752 0 0 0 0 184.43815578021895 -8.3853547351409361 0 -8.3853547351409361 -29.110431817203789 0 0 0 0 133.30633468448286 7.2382964876260303 0 7.2382964876260303 -16.573464871036776 0 0 0 0 159.57656710171432 -4.8968464035779107 0 -4.8968464035779107 -33.955117288787733 0 0 0 0 82.116048076115234 35.045912531145596 0 35.045912531145596 -41.183112755953957 0 0 0 0 152.43261546116264 -15.232566568056427 0 -15.232566568056427 -1.1221280932331865 0 0 0 0 130.5088559768119 1.3048711801939135 0 1.3048711801939135 -728.3502593970843 0 0 0 0 132.09024109443413 -1.1220916546176909 0 -1.1220916546176909 -5.1699164335719008 0 0 0 0 23.831290134893976 -8.1861812424428706 0 -8.1861812424428706 -1.9260415174970902 0 0 0 0 298.9056821999111 60.600143786834906 0 60.600143786834906 -809.73746660063534 0 0 0 0 280.6960649919929 -2.2853017966626794 0 -2.2853017966626794 -20.882487466122257 0 0 0 0 331.82700603152625 37.137201378020109 0 37.137201378020109 -793.07979228811882 0 0 0 0 107.32728381028733 15.896518738421841 0 15.896518738421841 -9.1059597865631829 0 0 0 0 51.418248482405033 -61.019802985365459 0 -61.019802985365459 -964.90149925319565 0 0 0 0 32.07058149586377 -3.5757675303576946 0 -3.5757675303576946 0.22362234372037904 0 0 0 0 175.77321575861424 -13.856495677420753 0 -13.856495677420753 9.2020482539337536 0 0 0 0 130.71002255395371 -27.502732130300643 0 -27.502732130300643 3.0001787245218177 0 0 0 0 22.203214369196925 -6.9853398269476656 0 -6.9853398269476656 -1.6630803996486208 0 0 0 0 151.98005309472501 -115.75317701788867 0 -115.75317701788867 -332.94097807129583 0 0 0 0 116.97208839847008 -23.921373949000099 0 -23.921373949000099 -366.3524183688196 0 0 0 0 126.44422182806193 89.175041584471842 0 89.175041584471842 -541.11248849104595 0 0 0 0 138.88556447275914 110.26346364509618 0 110.26346364509618 -456.13567425654651 0 0 0 0 219.69481514330255 -92.562714379391764 0 -92.562714379391764 -448.89585454684675 0 0 0 0 185.20668182738882 36.479237362508684 0 36.479237362508684 -307.88075459399806 0 0 0 0 203.93170261686012 -37.225570173753013 0 -37.225570173753013 -4.5775268854954181 0 0 0 0 279.52651517791674 -140.62601058278824 0 -140.62601058278824 -587.25795958886556 0 0 0 0 426.21564763243077 -45.08577042590332 0 -45.08577042590332 -528.27457093091652 0 0 0 0 -46.241694053242099 32.887802947069758 0 32.887802947069758 -478.43502334828099 0 0 0 0 47.537674706688989 -13.230668746168988 0 -13.230668746168988 2.9778568066743389 0 0 0 0 244.92626491854026 114.11630582533871 0 114.11630582533871 -396.37953223963814 0 0 0 0 189.93476079648462 53.45201975432542 0 53.45201975432542 -333.17795303069215 0 0 0 0 260.49453981990519 150.32981064690466 0 150.32981064690466 -314.45510545667457 0 0 0 0 315.70564912648115 72.070780935957828 0 72.070780935957828 -228.79057397455472 0 0 0 0 356.84943611240305 13.415379151987054 0 13.415379151987054 -180.5047753706167 0 0 0 0 367.46762262893753 83.408062001126837 0 83.408062001126837 -264.1800331460754 0 0 0 0 328.11326020938213 109.51357651147009 0 109.51357651147009 -300.95186661908156 0 0 0 0 197.4891756841098 77.55854204276875 0 77.55854204276875 -271.6850582273596 0 0 0 0 95.521671442635125 -92.180008095978337 0 -92.180008095978337 -365.11705738820115 0 0 0 0 78.326553685619729 196.98410555064766 0 196.98410555064766 -449.56024100269792 0 0 0 0 -105.97406479759957 -76.556266492771556 0 -76.556266492771556 -745.38988538849662 0 0 0 0 21.044907642365828 4.6490305884741474 0 4.6490305884741474 0.8108666249672325 0 0 0 0 -49.507888046151493 111.46875571341025 0 111.46875571341025 -253.55403925591781 0 0 0 0 -78.427928887442249 156.12563233515016 0 156.12563233515016 -825.44473570853006 0 0 0 0 143.17616573159466 -13.016620522609628 0 -13.016620522609628 -1079.3683765368896 0 0 0 0 45.131040726570063 87.379580828785038 0 87.379580828785038 -694.32640572996752 0 0 0 0 186.56985547686054 -17.694330314152467 0 -17.694330314152467 14.564298630735721 0 0 0 0 123.17995133565682 4.6491034615694389 0 4.6491034615694389 -25.445726402340462 0 0 0 0 46.538165851743543 15.042713516810409 0 15.042713516810409 -1021.4804755313817 0 0 0 0 1.8375597989998482 13.180187051676995 0 13.180187051676995 -0.73355085453905788 0 0 0 0 126.86340439535707 217.04430788976106 0 217.04430788976106 -143.15638728292106 0 0 0 0 130.32811834065433 197.39977250921561 0 197.39977250921561 -217.52138665196799 0 0 0 0 217.99135278034009 -51.011534799193214 0 -51.011534799193214 25.384179987060634 0 0 0 0 63.714563154638626 45.305843715749845 0 45.305843715749845 -25.737825119898169 0 0 0 0 -181.80985080600658 315.49358123719412 0 315.49358123719412 190.04957776757294 0 0 0 0 37.722401141760152 -6.4189593608638944 0 -6.4189593608638944 -1.9657426521263801 0 0 0 0 242.3967876795632 -78.837900232336779 0 -78.837900232336779 1.1019853828547639 0 0 0 0 247.98006142216036 -74.547683649801911 0 -74.547683649801911 2.6868446519547433 0 0 0 0 257.00895890687389 -79.350931550444329 0 -79.350931550444329 -10.154296839005838 0 0 0 0 263.74768380534078 -74.21449590976863 0 -74.21449590976863 -7.6924886251381395 0 0 0 0 290.08831180185371 56.237790461309487 0 56.237790461309487 63.008478628276862 0 0 0 0 50.530720708702574 177.87171319971003 0 177.87171319971003 -160.14276808678551 0 0 0 0 296.72484529512803 76.218493418825346 0 76.218493418825346 11.196360978108714 0 0 0 0 63.670308126048894 47.092941490548171 0 47.092941490548171 -20.586377178334921 0 0 0 0 155.25671763016726 152.76822566485225 0 152.76822566485225 -173.1660536035597 0 0 0 0 85.000862711458467 116.79519904752738 0 116.79519904752738 -157.13176003349145 0 0 0 0 348.37033904976852 -149.80697627411246 0 -149.80697627411246 58.251093391580071 0 0 0 0 -19.885813931901907 17.926301543238424 0 17.926301543238424 13.439219939469265 0 0 0 0 166.53656547305582 97.830881225920621 0 97.830881225920621 -153.86119211455298 0 0 0 0 228.5050587944279 141.71312947335264 0 141.71312947335264 -209.16690368340096 0 0 0 0 222.33356720776646 123.37051760660506 0 123.37051760660506 -195.3425887150388 0 0 0 0 218.61402930709301 136.48578877389627 0 136.48578877389627 -199.2657169105205 0 0 0 0 227.6777499007294 131.66660311251326 0 131.66660311251326 -196.75686858739573 0 0 0 0 207.28507443796843 131.64366731970131 0 131.64366731970131 -195.30579700272105 0 0 0 0 209.69427821976387 152.24891329372019 0 152.24891329372019 -209.03578312273748 0 0 0 0 153.79574244737159 160.50358722533986 0 160.50358722533986 -206.4212234250499 0 0 0 0 176.85768986197218 221.71542230556906 0 221.71542230556906 -307.76343020245258 0 0 0 0 225.51579973808839 161.91758384484638 0 161.91758384484638 -236.48551130962005 0 0 0 0 226.08254183878944 152.77719682646543 0 152.77719682646543 -230.75032454666143 0 0 0 0 272.15411881172622 132.28176946799931 0 132.28176946799931 -237.60555784024109 0 0 0 0 252.58759102718614 156.66770108415858 0 156.66770108415858 -256.42377050293317 0 0 0 0 239.64330046824762 148.13894794773933 0 148.13894794773933 -226.14537748628027 0 0 0 0 239.39523564337287 146.71968192598706 0 146.71968192598706 -229.87548386686285 0 0 0 0 237.21438786789076 155.06612577765372 0 155.06612577765372 -233.13282959573826 0 0 0 0 232.90613014571136 139.61586497345797 0 139.61586497345797 -208.10319549666747 0 0 0 0 238.32163980534824 144.38019760063071 0 144.38019760063071 -217.14306938811569 0 0 0 0 233.94351403624751 137.42609937258931 0 137.42609937258931 -205.78940494117705 0 0 0 0 242.60334142221836 141.04790512991167 0 141.04790512991167 -222.65645525488344 0 0 0 0 240.89018070031307 142.97621263109704 0 142.97621263109704 -219.06451273397397 0 0 0 0 243.66772218688857 137.29094469242409 0 137.29094469242409 -213.53780143865788 0 0 0 0 245.11089142150013 139.96208080187716 0 139.96208080187716 -219.56867691828302 0 0 0 0 243.09495723881992 117.17830638248324 0 117.17830638248324 -185.04352108147486 0 0 0 0 277.56159692353617 53.491790990477227 0 53.491790990477227 -15.778281185611938 0 0 0 0 317.88633832728215 289.76695116841665 0 289.76695116841665 -299.92367836774065 0 0 0 0 242.53637431637617 138.0061627990026 0 138.0061627990026 -211.19605016967762 0 0 0 0 246.06720497927745 124.00191733003339 0 124.00191733003339 -199.01025200700678 0 0 0 0 250.25709203796578 129.86130940337716 0 129.86130940337716 -208.65336421060329 0 0 0 0 247.53064313414507 135.05054424216314 0 135.05054424216314 -214.02648826899531 0 0 0 0 230.2905971207656 129.20159013315606 0 129.20159013315606 -183.22846270909213 0 0 0 0 232.74523832194973 132.21895869970649 0 132.21895869970649 -196.3702075109868 0 0 0 0 236.51101316977292 124.79949609702817 0 124.79949609702817 -187.33723591477246 0 0 0 0 231.43697243536008 130.7720183684396 0 130.7720183684396 -191.65378939646325 0 0 0 0 237.38340229634196 134.4169950730402 0 134.4169950730402 -202.96326752991445 0 0 0 0 238.28545309064793 132.96349454369647 0 132.96349454369647 -202.81994035878597 0 0 0 0 232.0426033452386 133.45674132039858 0 133.45674132039858 -196.217265348826 0 0 0 0 232.87953814829234 133.35598595022202 0 133.35598595022202 -198.78535296654445 0 0 0 0 227.91944652918028 137.63991232476474 0 137.63991232476474 -199.91478166462548 0 0 0 0 232.65363900837838 133.60870905428874 0 133.60870905428874 -193.50609781359162 0 0 0 0 146.3272674940884 1.4174445446028869 0 1.4174445446028869 2.8429113860920019 0 0 0 0 231.9943765521748 131.74974921039757 0 131.74974921039757 -197.54531869345192 0 0 0 0 230.96218438493088 124.6056747861976 0 124.6056747861976 -197.16565651325072 0 0 0 0 149.27863895823742 8.8369789767071225 0 8.8369789767071225 -16.503928607460601 0 0 0 0 368.15068503347993 -208.39084240056218 0 -208.39084240056218 -295.88611830124501 0 0 0 0 230.30816560750827 134.80322157246883 0 134.80322157246883 -193.90143042735872 0 0 0 0 230.07500396948308 134.47528567905283 0 134.47528567905283 -187.29747613722793 0 0 0 0 71.846914685573211 6.4076669122450767 0 6.4076669122450767 -233.52217962220675 0 0 0 0 769.56304710357836 -150.54326561706966 0 -150.54326561706966 -343.49816594112508 0 0 0 0 33.004854151238142 -4.5004850650317412 0 -4.5004850650317412 -2.578069766462697 0 0 0 0 420.34015054362681 73.818938539588999 0 73.818938539588999 -237.27550420378611 0 0 0 0 488.09837690640143 73.646374141465287 0 73.646374141465287 -250.85043699048401 0 0 0 0 464.9850042907313 -240.1504872439715 0 -240.1504872439715 -312.32755139723668 0 0 0 0 709.22400796850616 160.70417296059713 0 160.70417296059713 -253.32717133935421 0 0 0 0 455.73535487204452 269.07399742744673 0 269.07399742744673 -302.88148408688721 0 0 0 0 63.192756075411047 11.025923269900527 0 11.025923269900527 -4.441301060687735 0 0 0 0 477.12863942046772 184.34155278118033 0 184.34155278118033 -229.35359570912078 0 0 0 0 32.234730443744489 15.655144013631059 0 15.655144013631059 -3.6776896568708111 0 0 0 0 185.72613108782753 -9.5261830001832095 0 -9.5261830001832095 -12.090174526882038 0 0 0 0 189.91672765881958 -13.651398368022456 0 -13.651398368022456 33.506851514659502 0 0 0 0 264.85972633468919 -57.883236094968197 0 -57.883236094968197 -42.384159403912236 0 0 0 0 103.88651276458404 -36.794196787061082 0 -36.794196787061082 35.87653641920042 0 0 0 0 155.18870128353069 -28.171129901126911 0 -28.171129901126911 -1.1007089983179537 0 0 0 0 110.77983749448322 9.2172050205117557 0 9.2172050205117557 -24.442506692080315 0 0 0 0 206.92551427957369 -45.806933074464723 0 -45.806933074464723 -11.31256882379239 0 0 0 0 77.833599289560908 -17.967544667262914 0 -17.967544667262914 0.49990584332415722 0 0 0 0 171.86154183926783 -277.49039810179579 0 -277.49039810179579 -104.25615885318985 0 0 0 0 22.058336128144674 -26.09638553525383 0 -26.09638553525383 -213.07135608969929 0 0 0 0 246.92228486587555 -204.15262025660195 0 -204.15262025660195 -361.84355721807697 0 0 0 0 185.93475546416084 -38.08667792865981 0 -38.08667792865981 -582.91175520896104 0 0 0 0 22.187959319558729 -0.30840636409881128 0 -0.30840636409881128 -0.64815796725832087 0 0 0 0 128.65919672665768 -85.506019442058459 0 -85.506019442058459 -229.7160250785164 0 0 0 0 14.198458550573633 -17.316185274906243 0 -17.316185274906243 -1.9980580555633303 0 0 0 0 128.9613155019324 -75.216432530352449 0 -75.216432530352449 -207.87833238763415 0 0 0 0 33.806689498396736 -34.654462756892372 0 -34.654462756892372 -316.44407605340712 0 0 0 0 98.749970542528899 13.648991063942958 0 13.648991063942958 -384.50383388718183 0 0 0 0 33.363609846281179 4.454025812206055 0 4.454025812206055 -123.03138695567031 0 0 0 0 82.199675955013106 -21.140880887185773 0 -21.140880887185773 -29.064150648005793 0 0 0 0 150.44886973314351 -21.665305104217545 0 -21.665305104217545 2.8623442356092355 0 0 0 0 67.695242797144402 11.639667519422272 0 11.639667519422272 -2.4921883944388821 0 0 0 0 108.37493264767727 -72.799537460145302 0 -72.799537460145302 -116.85087658112388 0 0 0 0 182.05666781512173 -10.96445984514844 0 -10.96445984514844 -45.471413824632691 0 0 0 0 125.45063230908499 -33.749249780905245 0 -33.749249780905245 -52.975211428654802 0 0 0 0 191.09199552613245 -278.12941090726872 0 -278.12941090726872 84.145467354745961 0 0 0 0 43.885612834284075 -104.98873184390459 0 -104.98873184390459 -42.205829090316911 0 0 0 0 246.56915388744841 15.408432375184988 0 15.408432375184988 -268.2300366871732 0 0 0 0 554.158005285939 -39.408787540237427 0 -39.408787540237427 -264.18972562924137 0 0 0 0 7.3730948277395676 -3.4436113073416195 0 -3.4436113073416195 0.35259196008631205 0 0 0 0 535.77752616759972 -390.26431215334742 0 -390.26431215334742 449.70897638136785 0 0 0 0 -27.663730154681616 -65.877571880860387 0 -65.877571880860387 193.4065080951583 0 0 0 0 258.50371731655105 -350.86922681489614 0 -350.86922681489614 467.38380048242652 0 0 0 0 16.045599028989272 40.439902864122359 0 40.439902864122359 82.891595139883066 0 0 0 0 20.566083164267184 -13.250511370027652 0 -13.250511370027652 27.6901105458453 0 0 0 0 17.775839376656602 -4.9885920692887122 0 -4.9885920692887122 -0.03437718112999491 0 0 0 0 488.50497923590729 215.66316948171698 0 215.66316948171698 -143.12313054459082 0 0 0 0 727.49258531019677 -224.12755420031317 0 -224.12755420031317 -68.810352603088177 0 0 0 0 966.11216067568239 358.55199720945257 0 358.55199720945257 -103.22057260013298 0 0 0 0 1460.4920901984342 73.265132720373913 0 73.265132720373913 666.2255005878942 0 0 0 0 1519.1269228543579 314.36157224839462 0 314.36157224839462 -160.40972677466516 0 0 0 0 1397.0192969216332 -372.86317515256815 0 -372.86317515256815 117.42891958145083 0 0 0 0 708.71541553431598 -34.94193507435466 0 -34.94193507435466 -29.617206368370944 0 0 0 0 40.742558289988892 -384.72441834592519 0 -384.72441834592519 91.407028039873609 0 0 0 0 0.39910496600738554 -32.128266687146095 0 -32.128266687146095 46.70430800406757 0 0 0 0 181.78245051008975 140.64748794753723 0 140.64748794753723 -175.05671569722472 0 0 0 0 -9.2253980688415389 0.076229319449937938 0 0.076229319449937938 3.4125301979619014 0 0 0 0 343.89861895415299 117.33082209023689 0 117.33082209023689 -110.95298896212444 0 0 0 0 481.40206816001887 -56.096009848852191 0 -56.096009848852191 -4.2738405589188915 0 0 0 0 202.00600631629788 62.524885227668165 0 62.524885227668165 -54.359714083379004 0 0 0 0 567.63637485031666 182.78940780596406 0 182.78940780596406 -92.421487718424942 0 0 0 0 370.77000461001535 59.138516171767606 0 59.138516171767606 -236.05683715276064 0 0 0 0 291.945714493987 114.7264170804965 0 114.7264170804965 -274.68803737952021 0 0 0 0 303.89360109527524 65.901468412776921 0 65.901468412776921 -278.85117143029515 0 0 0 0 323.09329937847122 145.98130715150751 0 145.98130715150751 -279.37081275789205 0 0 0 0 296.21718676028831 265.12406206163905 0 265.12406206163905 -343.46620105963234 0 0 0 0 268.97681808379002 147.1915859384826 0 147.1915859384826 -236.14807363910495 0 0 0 0 337.02547671269349 150.95988970644794 0 150.95988970644794 -278.64010628045406 0 0 0 0 266.0793692995112 129.67977702198004 0 129.67977702198004 -281.36599584911528 0 0 0 0 192.77696950142126 195.50186152689639 0 195.50186152689639 -277.34694051886879 0 0 0 0 312.22098017007738 197.32407692043716 0 197.32407692043716 -51.054448893539302 0 0 0 0 410.14640362198179 146.73443332102306 0 146.73443332102306 -236.47514141671476 0 0 0 0 411.16267126350886 161.27404571751958 0 161.27404571751958 -38.277736095556065 0 0 0 0 208.63907046837994 271.91000238567312 0 271.91000238567312 -36.889548464676864 0 0 0 0 398.66421085268598 327.26306372249854 0 327.26306372249854 1.0589846702987415 0 0 0 0 207.63051005548095 202.39488245986331 0 202.39488245986331 -70.363329888420594 0 0 0 0 210.28089006157325 222.33181608073369 0 222.33181608073369 -223.84835378385287 0 0 0 0 129.57062031563873 181.74333253218492 0 181.74333253218492 54.958251640466187 0 0 0 0 464.96304666738433 -31.705691167720033 0 -31.705691167720033 -209.95719373067936 0 0 0 0 64.403659492880621 1.7544163048980863 0 1.7544163048980863 -5.4407054267009229 0 0 0 0 285.87738997092487 76.417407419452161 0 76.417407419452161 -13.295778697549483 0 0 0 0 297.46174322572278 62.731961584921592 0 62.731961584921592 -8.2870480903404591 0 0 0 0 323.37886785940623 177.91761285668008 0 177.91761285668008 -292.355111670714 0 0 0 0 326.53963871095851 241.90397151274695 0 241.90397151274695 -346.96196313080782 0 0 0 0 486.12429951102968 282.57672329962384 0 282.57672329962384 -459.74758255855704 0 0 0 0 269.08944945195981 -17.321325111370243 0 -17.321325111370243 -89.158032686251318 0 0 0 0 693.2389854217472 -129.38441362622689 0 -129.38441362622689 -186.46090229747597 0 0 0 0 765.43280251112446 -75.214322581389297 0 -75.214322581389297 -149.23840742474022 0 0 0 0 -213.0751494797878 161.1212653819515 0 161.1212653819515 -140.59141504727359 0 0 0 0 -1.3670600444390999 4.5328186161421513 0 4.5328186161421513 -2.3268801153129761 0 0 0 0 -93.598406980658183 111.55969216438734 0 111.55969216438734 -222.98464308528628 0 0 0 0 623.05314275281853 -62.067859178906019 0 -62.067859178906019 -49.663432783353528 0 0 0 0 880.41322074354684 -97.745063129626033 0 -97.745063129626033 -44.720303921059894 0 0 0 0 763.55861164469388 137.98866749022181 0 137.98866749022181 -180.63665838432826 0 0 0 0 580.43402593096835 -79.315988550523798 0 -79.315988550523798 -56.197618714827513 0 0 0 0 0.99067387191355749 3.0928344749561916 0 3.0928344749561916 -0.53355946806291144 0 0 0 0 881.88921917433618 79.832732654717802 0 79.832732654717802 -109.53260532857814 0 0 0 0 1088.1518982077396 88.102862777079281 0 88.102862777079281 -232.85059152680697 0 0 0 0 -464.0358178406168 354.0887927758281 0 354.0887927758281 -212.15509462609043 0 0 0 0 800.53030464411131 79.58648027556319 0 79.58648027556319 -108.93453196026201 0 0 0 0 968.98031351793907 286.28540101643125 0 286.28540101643125 -286.44418595629941 0 0 0 0 921.68610323578469 -33.434081925704049 0 -33.434081925704049 -75.765887294513959 0 0 0 0 67.745223359379096 13.075662071296222 0 13.075662071296222 -3.5263182967406657 0 0 0 0 -264.12477598089026 406.65484405417374 0 406.65484405417374 -311.82192193434457 0 0 0 0 260.489767857885 142.37816235222198 0 142.37816235222198 -220.4827542263738 0 0 0 0 245.15532493742649 137.783314137243 0 137.783314137243 -212.88401090360276 0 0 0 0 261.2704933382629 122.11977202900971 0 122.11977202900971 -202.0909522055199 0 0 0 0 290.76122069301113 63.203340675993758 0 63.203340675993758 -9.2792442270681335 0 0 0 0 45.86438266542973 380.93215219044214 0 380.93215219044214 -348.01464502133422 0 0 0 0 -357.03295868105488 453.68615326703275 0 453.68615326703275 -310.54206405410559 0 0 0 0 276.218045649543 118.51655584401351 0 118.51655584401351 -275.81227485298405 0 0 0 0 234.64208391512921 76.373327247703855 0 76.373327247703855 -267.44491594760257 0 0 0 0 597.47909088205779 282.08699347207676 0 282.08699347207676 -586.05634662546618 0 0 0 0 -71.316611261776416 197.89641068242963 0 197.89641068242963 -364.22586443243836 0 0 0 0 544.46983743621968 64.606918032555313 0 64.606918032555313 -199.56228857190854 0 0 0 0 707.7782742347772 405.55940575332033 0 405.55940575332033 -310.31138080230994 0 0 0 0 76.564985489851097 -72.38301857779993 0 -72.38301857779993 386.58463816126914 0 0 0 0 164.3007149460318 -66.069303162024426 0 -66.069303162024426 11.085591657311397 0 0 0 0 74.877178941358579 242.02120025068382 0 242.02120025068382 -136.09092421228411 0 0 0 0 -114.676194799722 413.0351115250964 0 413.0351115250964 -422.67828661154624 0 0 0 0 -409.3063907846954 -80.126977836752303 0 -80.126977836752303 -347.30253245088488 0 0 0 0 -8.3815326824179124 1.67653137555196 0 1.67653137555196 18.789515317293414 0 0 0 0 134.71253485121269 154.62233937546887 0 154.62233937546887 -436.43122761015286 0 0 0 0 106.90496760170208 244.64175785313034 0 244.64175785313034 -661.98892789030515 0 0 0 0 63.417830716896106 41.814749313689518 0 41.814749313689518 -26.310906540602733 0 0 0 0 -74.347403125095298 299.68677243312573 0 299.68677243312573 -156.89477442363443 0 0 0 0 10.098295981486444 233.06604787076412 0 233.06604787076412 7.2741274922100274 0 0 0 0 59.670167055737693 201.54018027954157 0 201.54018027954157 -121.22176345095539 0 0 0 0 48.354501176057965 245.96078504489833 0 245.96078504489833 -106.51525341610545 0 0 0 0 70.450032867927803 192.62360617682157 0 192.62360617682157 -201.11858008149716 0 0 0 0 127.25818163008253 19.835766300934779 0 19.835766300934779 -7.7717485218582691 0 0 0 0 117.30906059016706 140.22291639574792 0 140.22291639574792 -155.1577410525021 0 0 0 0 88.252907226080424 36.113865933757495 0 36.113865933757495 -2.0015372977047718 0 0 0 0 131.45160131453503 54.11653930779898 0 54.11653930779898 7.0068241025317404 0 0 0 0 98.14501070835783 70.614155112019063 0 70.614155112019063 -11.325606104198357 0 0 0 0 190.42144997985451 22.236714916149595 0 22.236714916149595 -58.270369708903104 0 0 0 0 208.97994458872563 36.620832385605581 0 36.620832385605581 -50.903607488924081 0 0 0 0 82.449561915800587 163.45872813231452 0 163.45872813231452 -132.38313285805657 0 0 0 0 50.396579409571132 139.21608575421862 0 139.21608575421862 -57.66405722922218 0 0 0 0 4.6371707470607362 161.76447061533008 0 161.76447061533008 -168.13322024463832 0 0 0 0 -94.026458930253284 78.16474169295725 0 78.16474169295725 -168.88910599694145 0 0 0 0 -84.350916555922595 71.633323119982833 0 71.633323119982833 -149.98575920596579 0 0 0 0 -12.6976154231088 72.119750559135809 0 72.119750559135809 -117.10617337314727 0 0 0 0 77.487762179953279 198.17521004626656 0 198.17521004626656 -107.55238921278124 0 0 0 0 -3.6679082414830191 174.52323633643795 0 174.52323633643795 -72.57329118421103 0 0 0 0 110.20705906588591 60.604169205181194 0 60.604169205181194 58.082754886749626 0 0 0 0 512.92690737344674 -250.63770240705571 0 -250.63770240705571 49.296579333155933 0 0 0 0 532.10345689742098 88.544525089926196 0 88.544525089926196 -169.98328656952776 0 0 0 0 797.42117910391244 -36.090905182230472 0 -36.090905182230472 -237.14052496759587 0 0 0 0 822.86673682817218 -214.09053888470223 0 -214.09053888470223 -146.8242222757699 0 0 0 0 4.1587876560045629 0.53042672597965179 0 0.53042672597965179 -1.4539433343117789 0 0 0 0 85.122173028437828 249.20941151059833 0 249.20941151059833 -193.14898609564671 0 0 0 0 503.13489391397161 -162.67290328165791 0 -162.67290328165791 -155.04809055932947 0 0 0 0 6.3322335321702781 1.7660774207982826 0 1.7660774207982826 -1.3891182210783484 0 0 0 0 150.17688548610022 161.95815333058135 0 161.95815333058135 -308.46675252524255 0 0 0 0 -5.4194615542583051 88.864393288074325 0 88.864393288074325 -227.68105996262511 0 0 0 0 18.022434368322138 11.555494470160738 0 11.555494470160738 -172.56333909159571 0 0 0 0 -16.880415679023827 -6.3359432974320953 0 -6.3359432974320953 -124.96853566900154 0 0 0 0 144.45411811409576 120.27956108362469 0 120.27956108362469 -39.677762434150154 0 0 0 0 117.21492563433458 96.560961057871737 0 96.560961057871737 -93.206506996776625 0 0 0 0 540.84565370160999 195.93258472465732 0 195.93258472465732 -44.879787896444213 0 0 0 0 269.04290849064637 -59.477949857531257 0 -59.477949857531257 -151.35755436655927 0 0 0 0 764.03581934073736 33.80902385500076 0 33.80902385500076 -291.29226290532279 0 0 0 0 794.03821435006103 -32.884752229458172 0 -32.884752229458172 -285.78437349208093 0 0 0 0 1.7291075846007224 5.8301864628574549 0 5.8301864628574549 -1.0047932206166621 0 0 0 0 550.92150243145443 102.85512813243213 0 102.85512813243213 -176.54820105651106 0 0 0 0 231.28651910257031 81.290819177962476 0 81.290819177962476 -198.25135431961462 0 0 0 0 218.28931330492196 92.000481285334445 0 92.000481285334445 -196.43618138481452 0 0 0 0 225.39050350110847 167.37792592752561 0 167.37792592752561 -231.65224824295365 0 0 0 0 -116.80475980672054 30.771024686386227 0 30.771024686386227 -60.017930297137355 0 0 0 0 227.51665413373848 150.41514520452984 0 150.41514520452984 -226.223449249228 0 0 0 0 250.30287420457171 140.73709687493147 0 140.73709687493147 -222.38002647549365 0 0 0 0 243.96525101774751 157.3594036506347 0 157.3594036506347 -233.53623729899664 0 0 0 0 245.82686207594816 148.14639488352623 0 148.14639488352623 -231.76246587884998 0 0 0 0 -207.61762089439071 -95.545921013065822 0 -95.545921013065822 -19.135869083300349 0 0 0 0 807.65735878507257 -53.097265503185554 0 -53.097265503185554 -64.067533198044657 0 0 0 0 690.44012409533025 1.3697380125165637 0 1.3697380125165637 -28.041471487034869 0 0 0 0 719.59442695375765 -57.536138635219686 0 -57.536138635219686 -48.911398141030077 0 0 0 0 787.51091831020312 40.334361752688892 0 40.334361752688892 -12.435122460232378 0 0 0 0 814.62967736824066 50.106714906459274 0 50.106714906459274 -35.404915816925495 0 0 0 0 2.5387780920545993 2.8887804371092614 0 2.8887804371092614 -1.6496418139695841 0 0 0 0 818.79800287516991 217.07410607133033 0 217.07410607133033 -232.5710738539492 0 0 0 0 442.48841397830984 201.85870421342179 0 201.85870421342179 -190.61901733924446 0 0 0 0 1273.0346317883232 -55.869274951660373 0 -55.869274951660373 -174.16739024192975 0 0 0 0 -418.69825045417383 173.3963417803011 0 173.3963417803011 -164.09711311181081 0 0 0 0 -15.257706377843533 200.55485064989793 0 200.55485064989793 -219.23857828174823 0 0 0 0 368.32960866195208 -12.726587532627491 0 -12.726587532627491 -195.51025853960118 0 0 0 0 463.82676257987623 -29.376398307538693 0 -29.376398307538693 -127.42154521536122 0 0 0 0 3.229114558734409 0.86999259623600267 0 0.86999259623600267 -0.90157531369470334 0 0 0 0 376.11950456883642 164.27761454858774 0 164.27761454858774 -133.07731874874935 0 0 0 0 -37.157105257425428 316.39690719163616 0 316.39690719163616 -187.94422467315144 0 0 0 0 302.65885771845205 101.03820208266916 0 101.03820208266916 -123.39108322684615 0 0 0 0 565.80227747817116 90.358442379147846 0 90.358442379147846 -203.83896013174308 0 0 0 0 1.7589996013204008 5.8568882603924521 0 5.8568882603924521 -1.0095651252610836 0 0 0 0 464.95024012841895 -20.841959613166637 0 -20.841959613166637 -215.03890379795649 0 0 0 0 498.56611622685159 -51.558302139148509 0 -51.558302139148509 -193.60125024473587 0 0 0 0 1.6018915992454161 4.6436968517872401 0 4.6436968517872401 -0.80195548731020239 0 0 0 0 238.41840973012586 10.739965551491878 0 10.739965551491878 -192.04946163325258 0 0 0 0 670.86787778563121 24.442602309891186 0 24.442602309891186 -197.96187725497293 0 0 0 0 155.57374111041918 83.45242699918316 0 83.45242699918316 -205.23909403260404 0 0 0 0 182.56703063710302 91.461618417350564 0 91.461618417350564 -156.74310108539339 0 0 0 0 346.19363162873742 21.47944302099188 0 21.47944302099188 -143.63806426431256 0 0 0 0 344.566831950302 34.01196406211875 0 34.01196406211875 -231.15011095965929 0 0 0 0 372.07040691665316 -27.323595953510448 0 -27.323595953510448 -196.53593713711598 0 0 0 0 337.43772093193547 -27.991064901464597 0 -27.991064901464597 -158.04225222166497 0 0 0 0 326.11475093526678 -15.542963839628328 0 -15.542963839628328 -157.26890483847455 0 0 0 0 328.22404218236625 -80.467633337039842 0 -80.467633337039842 44.884249219749108 0 0 0 0 328.85202213385492 -118.4749727767221 0 -118.4749727767221 -45.537544557298588 0 0 0 0 487.37528967439721 -125.44951741164914 0 -125.44951741164914 -110.18987341329739 0 0 0 0 498.29303289899644 56.24821966345354 0 56.24821966345354 -195.53270687015902 0 0 0 0 592.47333636799885 422.43269343973316 0 422.43269343973316 -106.58994459464066 0 0 0 0 388.396942376683 53.462550444704902 0 53.462550444704902 -40.057275229721427 0 0 0 0 200.90880958263733 125.191928793849 0 125.191928793849 64.674814366217106 0 0 0 0 291.56323294321191 303.89585219123319 0 303.89585219123319 242.18150244057961 0 0 0 0 -222.52375787483106 251.03953036709345 0 251.03953036709345 -36.291386932416572 0 0 0 0 994.54894333551783 228.76822372763684 0 228.76822372763684 -89.867065049993471 0 0 0 0 0.9049469889656514 1.9566606020443942 0 1.9566606020443942 -0.33957829299234987 0 0 0 0 263.43963232191891 77.261128822356568 0 77.261128822356568 -170.96518780120459 0 0 0 0 211.88029651880788 -11.902823401107526 0 -11.902823401107526 -208.77098041566964 0 0 0 0 -132.16719978627225 297.07029385788883 0 297.07029385788883 131.11186661169961 0 0 0 0 1875.5617274452707 283.88552097525871 0 283.88552097525871 -125.30681417520827 0 0 0 0 6.1217285781809778 4.5642041915041318 0 4.5642041915041318 2.3830154777912966 0 0 0 0 830.91816554552497 541.5561912285807 0 541.5561912285807 111.06942942641945 0 0 0 0 264.02778645907529 77.487474512519839 0 77.487474512519839 -54.699130496187138 0 0 0 0 116.84460985127225 -39.304605965541214 0 -39.304605965541214 -94.720880223014319 0 0 0 0 99.210543946697726 11.233740186334217 0 11.233740186334217 38.395021936457738 0 0 0 0 134.16302193688171 -41.188681860507131 0 -41.188681860507131 -69.308701525474135 0 0 0 0 218.17818579282903 88.459560663592129 0 88.459560663592129 26.054069762349172 0 0 0 0 149.42663406691281 13.046211479876547 0 13.046211479876547 -37.278323992378759 0 0 0 0 150.78993364000053 3.8813138213413367 0 3.8813138213413367 -18.290500725369384 0 0 0 0 196.43955729495792 -96.632815947291874 0 -96.632815947291874 -45.601608563345508 0 0 0 0 157.11070522499358 -22.538368641372927 0 -22.538368641372927 -82.021462784401592 0 0 0 0 45.427778681689233 -103.08878958995183 0 -103.08878958995183 107.43874406877512 0 0 0 0 77.776098746544449 -42.064172698319453 0 -42.064172698319453 -20.025264960497225 0 0 0 0 18.776374068271252 39.974862792265412 0 39.974862792265412 -38.486055956754399 0 0 0 0 -13.169479761647381 109.8086787364557 0 109.8086787364557 -128.12479612831885 0 0 0 0 9.7015892898660354 9.2121288723808448 0 9.2121288723808448 6.947466448218556 0 0 0 0 -15.662741064414149 298.26722026806783 0 298.26722026806783 124.14311367609116 0 0 0 0 399.99489902539062 -194.85339038541679 0 -194.85339038541679 12.548412439214189 0 0 0 0 833.25458094240457 -369.53901025172809 0 -369.53901025172809 -1.7209356809980818 0 0 0 0 383.51783940146561 28.146447663343679 0 28.146447663343679 141.47640820663219 0 0 0 0 427.21203916583909 -142.97088521880414 0 -142.97088521880414 90.828522995910134 0 0 0 0 740.93867893822608 112.6619103446892 0 112.6619103446892 56.377476434692653 0 0 0 0 722.87627572434576 -113.01501359186523 0 -113.01501359186523 27.30974591960512 0 0 0 0 -143.74228140167543 -56.115171729430585 0 -56.115171729430585 172.56930666936387 0 0 0 0 300.67778721317882 -151.59526548714439 0 -151.59526548714439 26.676213623573858 0 0 0 0 -1.9358594447985524 -10.810660897986963 0 -10.810660897986963 105.44726247562721 0 0 0 0 -78.437406154247583 22.566985890490741 0 22.566985890490741 13.621341203292104 0 0 0 0 -26.230019672671915 -58.46251633765678 0 -58.46251633765678 15.010640466039435 0 0 0 0 7.7185303357673831 7.9935292442159493 0 7.9935292442159493 6.5889363686279765 0 0 0 0 -163.92805634322576 182.34655983041051 0 182.34655983041051 14.412438269198901 0 0 0 0 58.222603673057165 1.9767615103564822 0 1.9767615103564822 -30.299481479554743 0 0 0 0 83.99992719443253 -52.79458715719602 0 -52.79458715719602 19.744139926202479 0 0 0 0 6.988795688495884 4.1452579790930884 0 4.1452579790930884 2.8924863500311346 0 0 0 0 13.723031169560272 11.106642145470687 0 11.106642145470687 -23.625140248925163 0 0 0 0 3.7734764843127095 1.2931277588862997 0 1.2931277588862997 1.6392366800964169 0 0 0 0 9.0448232709032652 -5.4473248500841862 0 -5.4473248500841862 -3.214554469391274 0 0 0 0 -34.278395442415786 -33.267232525507097 0 -33.267232525507097 22.180660856436589 0 0 0 0 29.574503441799607 9.350823253388171 0 9.350823253388171 -12.942691497892156 0 0 0 0 -12.919181103454321 -21.196702143041875 0 -21.196702143041875 -3.6156049204928422 0 0 0 0 36.381686093154713 -6.5084790897153653 0 -6.5084790897153653 -27.009337058499113 0 0 0 0 1.3949895906625898 -35.432338042597166 0 -35.432338042597166 -12.562144001778506 0 0 0 0 13.87737588971504 -19.378122556463495 0 -19.378122556463495 -18.462156246402174 0 0 0 0 6.8898770020994391 -7.5874727851048647 0 -7.5874727851048647 -2.1927098573217876 0 0 0 0 5.0561449297820218 -23.381777433470234 0 -23.381777433470234 -17.247380800426072 0 0 0 0 5.9906031234077091 -35.424413989884442 0 -35.424413989884442 -6.5644137528615829 0 0 0 0 98.461850628184038 -87.505404294559412 0 -87.505404294559412 12.934209078917775 0 0 0 0 0.2731661856221308 -0.3137946471830162 0 -0.3137946471830162 0.14122618277403376 0 0 0 0 36.851856024281005 -39.191464533970702 0 -39.191464533970702 -20.91519503994823 0 0 0 0 0.62342639351632556 0.32948069630873533 0 0.32948069630873533 -0.20647548268402005 0 0 0 0 482.90163274781662 -190.86361558194153 0 -190.86361558194153 -64.140340333124186 0 0 0 0 309.92790196466376 -77.27399505095309 0 -77.27399505095309 -109.07205469593828 0 0 0 0 385.84213367494522 -190.922875075511 0 -190.922875075511 41.011519609157403 0 0 0 0 427.77699294366175 -162.85651089878775 0 -162.85651089878775 -111.23929779804095 0 0 0 0 363.97483444375757 -97.643933505334417 0 -97.643933505334417 84.655174310350048 0 0 0 0 1001.7474056525534 -47.95299870014378 0 -47.95299870014378 -403.40271091376962 0 0 0 0 956.62889606210229 -126.23054861423952 0 -126.23054861423952 -531.86634019324265 0 0 0 0 106.45274397791945 -518.19420170322974 0 -518.19420170322974 -702.53784890439238 0 0 0 0 7.3751757828533755 -0.60822199957523537 0 -0.60822199957523537 -0.60739262364878144 0 0 0 0 1130.1670469667006 228.09596134097228 0 228.09596134097228 -18.291779253470168 0 0 0 0 621.46500023687986 666.95107688408916 0 666.95107688408916 574.74084092179874 0 0 0 0 688.05880020131008 -276.86781685973847 0 -276.86781685973847 79.789472191219829 0 0 0 0 543.55699861046742 -110.78635194318576 0 -110.78635194318576 42.16203406324712 0 0 0 0 419.94607379125955 -187.17969563987481 0 -187.17969563987481 59.723568402170713 0 0 0 0 -0.15355358090457116 0.28015628011013405 0 0.28015628011013405 1.1343410502307947 0 0 0 0 -25.902484775302582 -25.205155618870776 0 -25.205155618870776 83.443090204358214 0 0 0 0 323.33448931248859 79.280126990814097 0 79.280126990814097 4.1208107681602542 0 0 0 0 80.765186408214504 -82.564950701455018 0 -82.564950701455018 31.811426458283677 0 0 0 0 502.48249376978492 -217.77118643791255 0 -217.77118643791255 -64.518550426400907 0 0 0 0 770.70065755562973 90.94089159091709 0 90.94089159091709 196.05322418058449 0 0 0 0 950.7970570339312 -737.93356546474706 0 -737.93356546474706 117.41000078144862 0 0 0 0 502.11370320711285 -111.34159709059895 0 -111.34159709059895 -42.860840916049938 0 0 0 0 11.331166675533808 7.0376851465574077 0 7.0376851465574077 0.75097649494883001 0 0 0 0 1.5318589242378948 44.867768083047849 0 44.867768083047849 45.610790195380446 0 0 0 0 211.33160503083491 -312.04886592023558 0 -312.04886592023558 33.508633925976028 0 0 0 0 -0.64433888559869956 -16.221480569275627 0 -16.221480569275627 -44.649928323583708 0 0 0 0 8.5639892209648281 -0.035742706214534792 0 -0.035742706214534792 -5.1445302020216417 0 0 0 0 7.9929054644405824 -5.6119647725111008 0 -5.6119647725111008 0.88206085597862227 0 0 0 0 116.22986427043907 -390.57325033043344 0 -390.57325033043344 446.8624195856537 0 0 0 0 -17.869403381555458 142.08548760688245 0 142.08548760688245 67.817762006921839 0 0 0 0 1217.4905437669295 -607.7869531343606 0 -607.7869531343606 169.58162020095006 0 0 0 0 912.34697843597314 570.56582676146854 0 570.56582676146854 23.298957706812871 0 0 0 0 1548.6247255248018 -283.13486890587683 0 -283.13486890587683 -489.09309922031753 0 0 0 0 -152.50570092051441 -51.932416512245439 0 -51.932416512245439 -65.872163862077286 0 0 0 0 -152.51184620335698 -53.959657377085023 0 -53.959657377085023 -6.7805256206765989 0 0 0 0 -112.67840194010932 50.847117423413238 0 50.847117423413238 -2.8743646686598368 0 0 0 0 2.9313521893724612 -3.0818818292342485 0 -3.0818818292342485 2.8069334162396231 0 0 0 0 48.102147977420827 -40.615689640914752 0 -40.615689640914752 -147.45191933878505 0 0 0 0 105.59985532530118 3.183538064120512 0 3.183538064120512 -13.608438928007672 0 0 0 0 46.724017172324238 -91.439467017469724 0 -91.439467017469724 32.769060612295107 0 0 0 0 194.89456312934635 40.22755865192994 0 40.22755865192994 78.160093699207209 0 0 0 0 139.6582796695875 -34.700182472461165 0 -34.700182472461165 0.52553460469732727 0 0 0 0 324.68775518446637 -146.01135177310789 0 -146.01135177310789 55.733917977213423 0 0 0 0 174.69404234366084 -64.14475703950302 0 -64.14475703950302 -45.44825495897021 0 0 0 0 185.52296817870956 -10.11231116678573 0 -10.11231116678573 -60.170983423655343 0 0 0 0 18.854695676142001 28.718606730333704 0 28.718606730333704 -4.1346348905299237 0 0 0 0 312.87866183157894 23.23619072427573 0 23.23619072427573 -26.168173082221983 0 0 0 0 -113.03704012278467 -170.05415815052038 0 -170.05415815052038 -39.941321734165285 0 0 0 0 3.5993450712185222 -4.5270055643254068 0 -4.5270055643254068 4.3877457318596811 0 0 0 0 -192.82628213983844 -282.92814670140433 0 -282.92814670140433 -154.41090855548782 0 0 0 0 251.01983180052775 -22.850985009954456 0 -22.850985009954456 -150.94118415570119 0 0 0 0 1.4650469983378684 -1.7155299157097375 0 -1.7155299157097375 0.82576978728603478 0 0 0 0 186.53289528032474 -71.052420682775846 0 -71.052420682775846 -76.818419740903664 0 0 0 0 206.11786959737219 -128.56020973831983 0 -128.56020973831983 79.254031263499201 0 0 0 0 263.80679309937113 8.4608766736573671 0 8.4608766736573671 -497.43365954379988 0 0 0 0 209.40739284499432 36.991578201077573 0 36.991578201077573 -298.72951690842456 0 0 0 0 243.80301416883594 59.554641067903503 0 59.554641067903503 -858.61657316965648 0 0 0 0 220.56048837216804 -76.649272763117551 0 -76.649272763117551 -576.76190665727881 0 0 0 0 -384.52588638631278 -431.81838494314252 0 -431.81838494314252 -444.98513461543189 0 0 0 0 -78.580954220324202 2.5280915091477709 0 2.5280915091477709 -733.74651079297655 0 0 0 0 18.90593630553667 -0.80794624256603953 0 -0.80794624256603953 -3.0783529564694128 0 0 0 0 231.65668865610496 117.38774369345811 0 117.38774369345811 38.27838627903111 0 0 0 0 -73.625799845467554 -384.8120741500652 0 -384.8120741500652 -884.72610957914412 0 0 0 0 -200.78812175062194 -189.78638155254248 0 -189.78638155254248 -640.57254809991355 0 0 0 0 13.964474516091286 -39.82440024574953 0 -39.82440024574953 -319.97671554966973 0 0 0 0 211.90920852204727 -10.569724738073091 0 -10.569724738073091 -470.69587283943292 0 0 0 0 76.665755859052297 91.452190029984195 0 91.452190029984195 -361.45782905469605 0 0 0 0 -68.208014988340437 -160.44722997918871 0 -160.44722997918871 -607.6894067999674 0 0 0 0 -104.54200115450658 -57.830978398764273 0 -57.830978398764273 -465.7211233463313 0 0 0 0 78.390010436327429 -123.70613543550826 0 -123.70613543550826 -643.84091600357351 0 0 0 0 -7.6784721383592114 -78.035514315433829 0 -78.035514315433829 -495.96711949571181 0 0 0 0 -9.295076000969857 -76.622438596030406 0 -76.622438596030406 -496.89154736608907 0 0 0 0 94.55116879940033 13.479399310141162 0 13.479399310141162 -437.27381078949838 0 0 0 0 43.986152035125997 96.715871636464726 0 96.715871636464726 -351.51472596767599 0 0 0 0 -14.967025807127357 34.628315452609968 0 34.628315452609968 -370.70506526358076 0 0 0 0 218.98459623861618 -31.755648239094398 0 -31.755648239094398 -634.13522806465335 0 0 0 0 194.35079694286105 -134.40609266546562 0 -134.40609266546562 -811.05520050212363 0 0 0 0 80.789666130731348 -109.15776046735482 0 -109.15776046735482 -572.01401158646649 0 0 0 0 164.54206758603686 -18.950831643469428 0 -18.950831643469428 -573.20536522555426 0 0 0 0 149.33036385802552 -60.836276524445566 0 -60.836276524445566 -499.92202278320474 0 0 0 0 177.64177889365237 -29.660220379577368 0 -29.660220379577368 -287.65456804534915 0 0 0 0 222.93267653888324 40.369865271266463 0 40.369865271266463 -392.69915402867161 0 0 0 0 215.30190003843745 7.5359537474796525 0 7.5359537474796525 -475.09514587122248 0 0 0 0 144.09164662088733 125.10099016004278 0 125.10099016004278 -313.31855122092475 0 0 0 0 112.57081522999215 27.688736708481883 0 27.688736708481883 -287.15316817670464 0 0 0 0 67.848624972277321 -13.775797494663493 0 -13.775797494663493 -395.7467665938093 0 0 0 0 149.32376503768319 61.847771330063551 0 61.847771330063551 -201.97299587640009 0 0 0 0 150.5650684935099 0.31127184089200455 0 0.31127184089200455 -210.42445185015094 0 0 0 0 411.52812153994455 -54.866590865085527 0 -54.866590865085527 -213.63873843873614 0 0 0 0 190.61740519945306 131.61102401502649 0 131.61102401502649 -90.319809091173738 0 0 0 0 3.2868539386797693 -13.116458627469498 0 -13.116458627469498 -0.0096534511809878154 0 0 0 0 -32.01833173596242 40.27283841088547 0 40.27283841088547 -250.35399456859886 0 0 0 0 136.96273483769619 37.739724817426577 0 37.739724817426577 -329.4344901021941 0 0 0 0 9.0994899274848393 -26.245231543575102 0 -26.245231543575102 -6.4061314457029965 0 0 0 0 43.389484757454625 -27.863265730725988 0 -27.863265730725988 -8.4439427715259576 0 0 0 0 41.238278194199665 -19.265081393845321 0 -19.265081393845321 -213.72964176261485 0 0 0 0 35.253947766664226 -34.834653808940132 0 -34.834653808940132 0.73255730966090837 0 0 0 0 -10.171709287766134 -42.254053775695866 0 -42.254053775695866 -23.847718957347297 0 0 0 0 32.361294987946167 -57.499132743309019 0 -57.499132743309019 -71.071803354134317 0 0 0 0 20.841149409333113 -29.427586940244993 0 -29.427586940244993 -7.3349996349385478 0 0 0 0 128.16067711671349 -41.806942953064208 0 -41.806942953064208 -24.747160718921805 0 0 0 0 365.21864780486794 -139.32374832056121 0 -139.32374832056121 -9.9756201704749401 0 0 0 0 34.387153125018202 -68.230133165798776 0 -68.230133165798776 -7.783343067132904 0 0 0 0 88.631245819677133 -214.56136142920514 0 -214.56136142920514 101.01568044328451 0 0 0 0 137.0934762765537 -241.3862196561895 0 -241.3862196561895 81.50873196905377 0 0 0 0 379.78208629286382 17.263823553399561 0 17.263823553399561 -40.893737822860203 0 0 0 0 -20.03068344137165 -19.830021305564259 0 -19.830021305564259 3.890186786621971 0 0 0 0 315.94208037570206 -209.18152485330211 0 -209.18152485330211 15.110714899266895 0 0 0 0 351.03657533571823 0.76131428759435948 0 0.76131428759435948 -65.046749101491969 0 0 0 0 21.496361317840638 -93.637683994402323 0 -93.637683994402323 -32.512357489822534 0 0 0 0 71.453475588816218 -71.110123325265704 0 -71.110123325265704 -17.375838905631099 0 0 0 0 55.79108155699214 -89.046232909005994 0 -89.046232909005994 -32.877258704390442 0 0 0 0 24.735716835100902 -78.047587819221008 0 -78.047587819221008 6.5934077749079734 0 0 0 0 -6.6899548063738621 -46.079244228415973 0 -46.079244228415973 -29.581342566929379 0 0 0 0 39.181349313817918 -74.952940932525962 0 -74.952940932525962 -8.9952537692427086 0 0 0 0 36.382106797471351 -66.276105984182323 0 -66.276105984182323 -26.867177396499756 0 0 0 0 67.243119919672608 -48.738708532591772 0 -48.738708532591772 -47.394540955619959 0 0 0 0 66.586814798392879 -3.7372129031739405 0 -3.7372129031739405 -15.756022939465765 0 0 0 0 61.463409215104548 25.388692000817173 0 25.388692000817173 0.81558448215946555 0 0 0 0 89.596750914744916 -8.582451224903707 0 -8.582451224903707 -176.51338765291439 0 0 0 0 13.507658297819319 2.0171259249366642 0 2.0171259249366642 -2.6628438298875832 0 0 0 0 -9.7732083075970877 1.1770204108197504 0 1.1770204108197504 -77.647784541868532 0 0 0 0 19.055642366831307 -72.598132378103401 0 -72.598132378103401 -97.58185542857791 0 0 0 0 16.524350686186949 2.7194179514121402 0 2.7194179514121402 -8.1666470597485095 0 0 0 0 -2.0427969984557421 -67.751027492283697 0 -67.751027492283697 -95.782691321874154 0 0 0 0 3.165712815129325 -23.653753557224064 0 -23.653753557224064 -2.0371446844083168 0 0 0 0 526.48582216606155 211.21803590031641 0 211.21803590031641 -6.9751976215738978 0 0 0 0 158.92228748617345 159.18065100191416 0 159.18065100191416 82.941285418743064 0 0 0 0 122.18242696719244 24.272582831086766 0 24.272582831086766 -17.180506961320134 0 0 0 0 5.5963097432104405 21.74752128862383 0 21.74752128862383 10.310741594402316 0 0 0 0 58.147084642478148 -46.839680278438209 0 -46.839680278438209 -113.68107981414687 0 0 0 0 445.57181953932741 293.00174648111488 0 293.00174648111488 48.333834486204069 0 0 0 0 5.5935168740953713 1.7182898930919208 0 1.7182898930919208 0.66748245547490725 0 0 0 0 100.2020129240409 175.6979645876836 0 175.6979645876836 74.240192398321597 0 0 0 0 205.05210497786175 -190.75757641097334 0 -190.75757641097334 86.812636611801963 0 0 0 0 33.224876142470748 94.035581669203566 0 94.035581669203566 53.964528603506551 0 0 0 0 16.77488888589869 -205.54655979100426 0 -205.54655979100426 -377.40503013058333 0 0 0 0 0.65520310621565159 0.37279222111783383 0 0.37279222111783383 -0.84955006346648787 0 0 0 0 44.640311355884478 -113.76101473351082 0 -113.76101473351082 -304.23756270400372 0 0 0 0 242.37481970072258 -141.18794069309843 0 -141.18794069309843 -359.10672833482022 0 0 0 0 211.4746126231621 -83.913447540988273 0 -83.913447540988273 -222.99098957166734 0 0 0 0 -42.838905029551825 -30.171326187963132 0 -30.171326187963132 -291.50871855747391 0 0 0 0 -49.053755115863169 -50.911726502314195 0 -50.911726502314195 -250.34776453780319 0 0 0 0 10.305821786893929 -40.03585214729631 0 -40.03585214729631 -8.3059194434177783 0 0 0 0 -62.340559198128176 -94.074098851891449 0 -94.074098851891449 -306.31567098776213 0 0 0 0 4.434771751198582 2.884716151523179 0 2.884716151523179 -5.1158769026920652 0 0 0 0 -42.994146465003723 -67.683046013191415 0 -67.683046013191415 -284.29646013187084 0 0 0 0 45.490082142845495 33.951609674842985 0 33.951609674842985 -76.27961992117298 0 0 0 0 -2.8638859127095202 -53.034959234501002 0 -53.034959234501002 -332.12429006146067 0 0 0 0 50.806437140185153 -109.64729795274252 0 -109.64729795274252 -306.7852455313141 0 0 0 0 54.734981723595411 -70.869799025688735 0 -70.869799025688735 -327.04210334478375 0 0 0 0 31.820697683394059 -31.036680642051209 0 -31.036680642051209 -6.6887380842414572 0 0 0 0 135.89026755588321 -0.75790710281584239 0 -0.75790710281584239 -23.875216271554631 0 0 0 0 71.487274643757701 -103.34137129960288 0 -103.34137129960288 -374.14998006049973 0 0 0 0 27.311279904677082 -0.4035649942946975 0 -0.4035649942946975 3.256908759894749 0 0 0 0 143.21672975656111 20.072440508369255 0 20.072440508369255 33.923753108656683 0 0 0 0 203.75894942026935 -91.690153182644281 0 -91.690153182644281 -338.26826566803538 0 0 0 0 146.98089806505595 -157.02702571878581 0 -157.02702571878581 -313.90460804864779 0 0 0 0 74.217972577263936 -122.96832199407368 0 -122.96832199407368 -325.79748684200604 0 0 0 0 160.952356813199 -132.55038711087946 0 -132.55038711087946 -372.21623915448436 0 0 0 0 148.61220310186036 -123.38825929661652 0 -123.38825929661652 -343.05003818982232 0 0 0 0 147.36563352509984 -1.5513320140416909 0 -1.5513320140416909 -57.653142502945684 0 0 0 0 146.76129445481689 2.9826508139420298 0 2.9826508139420298 -22.215736296065895 0 0 0 0 106.60132670946768 80.198560573159739 0 80.198560573159739 11.910906744158638 0 0 0 0 136.17167159995006 86.932500581009208 0 86.932500581009208 -80.202127061375904 0 0 0 0 153.2789655968154 3.7359254424262645 0 3.7359254424262645 -187.24257548496007 0 0 0 0 171.44659775905893 31.900488134010175 0 31.900488134010175 -193.78437048836804 0 0 0 0 169.91407113469177 28.5733053932845 0 28.5733053932845 -96.106454580813079 0 0 0 0 183.49681964760384 -65.964955381991786 0 -65.964955381991786 -116.13245074993574 0 0 0 0 192.70964700277909 93.822997810394384 0 93.822997810394384 -7.2713511898709839 0 0 0 0 111.89330715256801 -18.301828194952122 0 -18.301828194952122 -3.5922307886539784 0 0 0 0 339.4362546098273 161.45928001372477 0 161.45928001372477 -438.22790320399247 0 0 0 0 -2.5248367392068829 -8.5006270894643308 0 -8.5006270894643308 -1.7141691986880474 0 0 0 0 119.15139457306759 112.47778434256577 0 112.47778434256577 -143.30237757246505 0 0 0 0 40.05658636429871 32.578616835424327 0 32.578616835424327 -363.96974770885754 0 0 0 0 -19.177433474444115 -7.7785316427450653 0 -7.7785316427450653 15.817153919499106 0 0 0 0 4.2339340628459468 -14.305021954007088 0 -14.305021954007088 67.910503477711245 0 0 0 0 -4.5562356344982149 3.3866683352852647 0 3.3866683352852647 11.809569660551883 0 0 0 0 27.140171048340562 21.866356249838645 0 21.866356249838645 30.857428844046808 0 0 0 0 76.799347658379702 14.717818605126013 0 14.717818605126013 -12.184133186809049 0 0 0 0 17.02802466211142 -3.2094211526837171 0 -3.2094211526837171 -4.475397776977843 0 0 0 0 14.129628935887013 12.71491045050243 0 12.71491045050243 -22.284808610286746 0 0 0 0 40.393312660133233 18.923361250370363 0 18.923361250370363 -22.465901891101566 0 0 0 0 132.49860729044303 23.146939164369542 0 23.146939164369542 -53.782672545188689 0 0 0 0 37.113510420389503 6.8526317782364004 0 6.8526317782364004 -9.0560915512178326 0 0 0 0 -14.658996412432771 -40.223685305001652 0 -40.223685305001652 -119.60185520211598 0 0 0 0 41.830616927443771 -59.674896510081226 0 -59.674896510081226 -126.72735856553481 0 0 0 0 -0.58932186746827675 -0.16483118025121257 0 -0.16483118025121257 0.0061437365234127128 0 0 0 0 160.85790757025825 18.267116520722084 0 18.267116520722084 -202.3697182484575 0 0 0 0 260.7827001100668 -20.791191357062417 0 -20.791191357062417 -221.97962453883929 0 0 0 0 168.52908858854789 45.065283974945487 0 45.065283974945487 -124.30632218126266 0 0 0 0 134.11529239959782 -27.917870228468018 0 -27.917870228468018 -113.22955735113464 0 0 0 0 336.68162177070917 65.279750779268397 0 65.279750779268397 -125.60863084028097 0 0 0 0 380.49530951223278 -18.020622715513127 0 -18.020622715513127 -121.7934595714438 0 0 0 0 438.28431503707543 65.934824945035871 0 65.934824945035871 -31.324510247066428 0 0 0 0 236.85008752881549 38.049494819376378 0 38.049494819376378 -76.125596579371631 0 0 0 0 244.9073089814774 66.737943625385014 0 66.737943625385014 -24.8338806364427 0 0 0 0 268.72921119560488 18.516985614549412 0 18.516985614549412 -38.720834740956889 0 0 0 0 85.43620495009236 40.580773187423802 0 40.580773187423802 30.453108272769896 0 0 0 0 98.083208139942144 14.95090464695113 0 14.95090464695113 14.84988933808927 0 0 0 0 176.27281767562818 109.97291347671353 0 109.97291347671353 88.327917023001646 0 0 0 0 189.68847650915268 136.96842645894867 0 136.96842645894867 130.57645113924627 0 0 0 0 115.31889551505446 17.597240475743092 0 17.597240475743092 33.777144330411829 0 0 0 0 60.203649073064298 38.66444799133194 0 38.66444799133194 57.556032399377727 0 0 0 0 57.809884651436732 -0.28443661982242929 0 -0.28443661982242929 8.1903450331847125 0 0 0 0 480.46758934526588 -17.053942396849379 0 -17.053942396849379 -44.913604073016245 0 0 0 0 451.51473180948233 154.21133939247284 0 154.21133939247284 -3.7367744158000278 0 0 0 0 293.9530620858277 209.29679196457164 0 209.29679196457164 117.83689007941575 0 0 0 0 302.0406987958122 114.13718401122696 0 114.13718401122696 6.2195640053032548 0 0 0 0 156.37232829230197 40.615190356730636 0 40.615190356730636 72.150978783938626 0 0 0 0 105.98759978823364 122.22397436606116 0 122.22397436606116 44.798154644375245 0 0 0 0 46.687334419082617 -23.714507414711989 0 -23.714507414711989 -1.3738295899856894 0 0 0 0 0.8025480316428002 -21.643582240178148 0 -21.643582240178148 59.012873170187959 0 0 0 0 102.48772122856462 72.189861713457503 0 72.189861713457503 64.447347033810729 0 0 0 0 -84.869433519837912 35.942446985591232 0 35.942446985591232 80.765305987054944 0 0 0 0 -19.226578565139789 -86.999538768443017 0 -86.999538768443017 10.45512892473198 0 0 0 0 44.799782450776547 -246.79697927465168 0 -246.79697927465168 -763.48113089627441 0 0 0 0 21.693254361474828 1.6103785643016053 0 1.6103785643016053 -4.1484080713787446 0 0 0 0 222.4430085986678 -187.81755219761908 0 -187.81755219761908 -919.70134358670475 0 0 0 0 42.19271884005866 -65.525792451973757 0 -65.525792451973757 -70.637167379811217 0 0 0 0 -150.11216339099337 -148.00848293936542 0 -148.00848293936542 -574.83636034849042 0 0 0 0 40.682820543064736 -27.439243654687743 0 -27.439243654687743 -32.955000188881968 0 0 0 0 29.986590706161223 -19.084528482524547 0 -19.084528482524547 20.182251169338997 0 0 0 0 9.883421032485785 27.796079482313871 0 27.796079482313871 -36.054990342763631 0 0 0 0 37.717774165415904 0.5158582773328817 0 0.5158582773328817 -72.073213343217503 0 0 0 0 -93.882736527128145 -215.27734677063199 0 -215.27734677063199 -669.14856242739916 0 0 0 0 12.646318552317098 -187.20004032850557 0 -187.20004032850557 -691.84693323251486 0 0 0 0 19.80342682627785 -19.077143114299673 0 -19.077143114299673 -4.8450469697791547 0 0 0 0 122.36725386394392 -1.0431319093181628 0 -1.0431319093181628 -436.89949902604349 0 0 0 0 190.32896492021518 36.04221964825166 0 36.04221964825166 -523.3257197957937 0 0 0 0 6.4738741450340029 2.9875160545867914 0 2.9875160545867914 -0.11020921331483891 0 0 0 0 64.593305607624075 -0.97176003054588733 0 -0.97176003054588733 -15.286802871165214 0 0 0 0 14.091948598738895 0.87782328783091401 0 0.87782328783091401 3.0350587617380658 0 0 0 0 45.387797581395716 1.4684739882821987 0 1.4684739882821987 6.287939726091281 0 0 0 0 41.75509498520114 -6.6076511664059581 0 -6.6076511664059581 12.132328677658961 0 0 0 0 7.7311682521709457 6.1002216480590903 0 6.1002216480590903 20.230096498849193 0 0 0 0 82.994446840864839 17.562654495120796 0 17.562654495120796 37.422196313764744 0 0 0 0 3.6678178493778777 0.96983924056198134 0 0.96983924056198134 0.54650335593341737 0 0 0 0 -15.262129200100389 19.693310076008572 0 19.693310076008572 24.762197424817714 0 0 0 0 -7.3349401649902575 4.9306189941908087 0 4.9306189941908087 32.921738217159145 0 0 0 0 38.624353386840085 13.697627365325388 0 13.697627365325388 26.095022366310332 0 0 0 0 67.61411245855561 48.822001397084023 0 48.822001397084023 35.605932185670099 0 0 0 0 2.3079012017406058 33.000089877987193 0 33.000089877987193 41.232828894244449 0 0 0 0 25.178791529928276 6.4867961906682012 0 6.4867961906682012 20.568146149191307 0 0 0 0 23.134302131569711 15.725513271358068 0 15.725513271358068 59.730971831522766 0 0 0 0 9.2702618305338547 23.123847345827016 0 23.123847345827016 3.3709272307114588 0 0 0 0 
</DataArray>
<DataArray type="Float64" Name="cross_section_updated" format="ascii">
1 1 1 0.011171364565070209 1 1 1 1 1 0.0099999999998854686 1 1 1 1 1 1 1 1 1 1 0.014083958506066509 1 1 1 0.013052106706719038 1 1 1 1 1 0.010012055306180894 1 0.010093861819446825 1 1 1 1 1 1 1 1 1 0.0099999999964044527 1 1 1 1 0.0102521859483862 1 1 1 1 0.013975123320860788 0.010355169039972283 1 1 0.012668291210491907 0.013800607860465178 1 0.0099999957650998197 1 1 1 1 0.013221387916276368 0.0099999977106689838 1 0.010007720158831286 1 0.01000000007813571 1 0.01204816300486234 0.0099999998196654526 1 1 1 1 1 0.010609004272426573 0.013137552938263179 1 1 0.011976491222631322 1 0.011445024540494966 1 1 1 0.010108841297562638 1 1 1 1 1 1 1 1 0.016106439256344189 1 1 1 1 1 0.013057132114939758 1 0.010055833391574379 1 1 1 1 1 0.010000000921382765 1 0.0099999999513977859 1 1 1 1 1 0.010090226830319394 1 1 1 1 0.010093922098315545 1 1 1 1 0.016529324711264479 1 1 1 1 1 1 1 0.016183561410156748 1 1 1 1 1 1 1 1 1 1 1 1 1 0.0102948970770824 0.010000000018048223 1 1 1 1 1 0.010135235479241465 1 1 1 0.010727399022049803 1 1 1 1 0.01055456912889443 1 1 1 0.010000001543221665 1 0.010671690386368497 1 1 1 0.010003659263842359 1 0.011094220075244049 1 1 0.010020080826739386 1 1 1 0.01000095972690386 1 1 0.010000000979998591 1 0.01168824883798119 1 1 0.010000163134868768 1 1 0.010138277980487317 0.010047919953839836 0.01084574736975423 1 1 1 1 1 1 1 1 1 1 1 1 0.010082646316545041 1 0.017779556025912226 1 0.0099999976480837291 1 1 1 1 1 1 1 0.016602646444163177 1 1 1 1 1 1 0.010000001529643322 1 1 0.012476832389397008 0.010000001575336613 0.010000002205256341 1 0.0099999999874995638 1 1 0.013565242121633285 0.013030756235809515 1 0.013286544067264948 1 1 1 1 1 1 1 1 1 1 1 1 1 1 1 1 1 1 1 1 1 1 1 1 1 1 0.012990350305331314 1 1 1 0.013778736129505892 0.014013902926041689 1 1 1 0.015020697806006879 1 1 1 1 0.010070623971581788 1 1 1 0.016391804331116512 1 1 1 1 1 1 0.010855636191415842 1 1 1 1 1 0.011646606705620425 1 1 1 0.011470099336232146 1 1 0.010579331808496739 1 1 1 1 1 1 1 1 0.016203872230310584 1 1 1 0.015534553363204077 1 1 1 1 0.014770671355131056 1 1 0.0099999997844190877 0.0099999983876296987 1 0.01167991050974098 1 0.010889660193981351 1 1 0.010606515079922078 1 1 1 1 1 0.01312856169319248 0.015990983581966229 1 0.010000000928686126 1 1 1 0.0099999996954550519 1 1 1 0.010858273396561313 1 1 1 1 0.010000333851573461 0.011530163442735655 1 1 1 1 0.018565851251189008 1 1 1 0.01055804823931665 1 1 1 0.0099999997546234461 0.011745242344744104 1 1 1 0.014820673364737504 1 1 0.0099999999091124163 1 0.010000328121501546 1 0.010850216543059661 1 1 1 1 1 1 1 1 1 1 0.010251792559632551 1 1 1 1 1 0.010312829629014635 1 0.016230957973457045 0.010205292001575382 1 1 1 0.010035431333134899 1 1 1 0.0099999998491186112 0.01252558282745864 1 0.017379684129444545 1 1 0.011901605514629748 0.0099999973694220312 1 1 1 1 1 1 1 0.0099999995526182696 1 1 0.015445860156575331 1 1 1 1 0.010529016782663138 1 0.012216169592635719 1 0.014684292760246267 1 0.010061371366845087 0.010891564675721856 1 1 1 1 1 1 0.010414503461633032 1 1 1 1 1 1 1 1 1 1 1 1 1 1 1 1 1 0.010477061214088812 1 1 1 1 1 1 1 1 0.010104042922100574 1 0.017465415079163965 1 1 1 0.010099554775137895 1 1 1 0.016824594915977591 1 0.010329335014182215 1 1 1 1 1 1 1 0.011707485462271719 0.0099999999872280275 1 0.014738235137810165 1 0.011903474576507339 1 1 1 1 1 1 1 0.011420758909884471 1 1 1 1 1 1 1 1 1 1 1 1 1 1 1 1 1 1 1 1 1 1 1 1 1 1 1 1 1 1 1 1 1 1 1 0.010247609991346447 1 1 1 1 1 0.010392383961083329 1 1 1 0.010000000058274238 1 1 1 1 0.010998007422254243 1 0.010000002111418729 1 1 1 1 1 0.017401628036794625 1 1 0.014094169877867059 1 1 0.010101499955481775 1 1 1 0.010000002190634606 0.010681513512432872 1 1 1 1 0.014280541033198636 1 0.011591159155932847 1 1 1 1 1 1 1 0.012074437972280996 1 1 1 1 1 1 1 1 1 1 1 1 1 1 1 1 1 1 1 0.01053343657061151 1 1 0.011970264986741152 1 1 0.014845525177480071 1 1 1 1 1 1 1 1 1 1 1 1 1 1 1 1 1 1 1 1 1 1 1 1 1 0.010044324218632104 1 1 1 1 0.017874115382371963 1 1 1 1 0.017508189089802256 1 1 0.010009136280333637 1 1 1 1 1 1 1 1 1 1 1 1 1 0.014197982631671067 1 0.012850703426683305 1 1 1 1 1 1 1 1 1 1 1 1 1 1 1 1 1 1 1 1 1 1 1 0.010501636873283858 1 1 1 1 1 1 1 1 1 1 1 1 0.010520642089188301 1 1 1 1 1 1 1 1 1 0.017070153208420862 0.01000000004791415 1 1 0.010000000068618214 1 1 1 1 1 1 1 1 1 1 1 1 1 1 0.010197253800061687 1 1 0.017022745796353794 1 1 0.011224916084962521 1 1 1 1 1 1 1 1 1 1 1 1 1 1 1 1 1 1 0.013279738864069138 1 1 1 1 1 1 0.015178959670420876 0.0099999988093902314 1 1 1 0.010012089091432506 1 1 0.010207523330300894 1 1 1 1 1 1 1 1 1 1 1 0.010020533883668487 1 1 1 1 1 1 1 1 1 1 1 1 1 1 1 1 0.012737465528408638 1 1 1 0.015824908068699708 1 1 1 1 1 1 1 1 1 1 1 1 1 1 1 1 1 1 1 1 1 0.017615919194967859 1 1 1 0.017882027161841188 1 1 1 0.010000000598053444 1 1 0.016151138199933725 1 0.010000000018870248 0.011746208727270701 1 1 1 0.010035129238151983 0.010020080229715048 1 0.010000001223903028 1 1 0.01646556908654951 1 0.013935494401533414 0.011292547423279493 1 0.015702883099893074 1 0.010699506321058436 1 1 1 1 1 0.014280140627107217 1 0.023605955060996074 1 1 1 0.010102574075453301 1 1 1 1 1 1 1 1 1 1 0.0099999999204619678 1 1 1 1 1 1 1 1 1 1 1 1 1 1 1 1 0.016603518063283106 1 1 1 1 1 1 1 1 1 0.012601539895475097 1 1 1 1 0.011855221110307684 1 1 1 1 1 1 1 1 1 1 1 1 0.023016370006267703 1 1 0.022276782068668635 1 1 1 1 1 1 0.010000000349448243 1 1 0.025588952400321045 1 1 1 1 0.011171130409552133 1 1 1 1 1 1 1 1 1 1 1 0.010052471706614607 1 1 1 0.010957313264849224 1 1 0.015772432457187163 1 1 0.010000000960608397 0.010000000769139296 0.010000000261584907 1 0.01000000191293763 1 1 1 0.021420022248213481 1 1 1 0.010000001206585476 1 1 1 1 1 1 0.010308081188263469 1 1 1 1 0.010507579869312651 1 1 1 1 1 1 1 1 1 0.010004904990533466 0.010000005716919808 1 1 1 1 0.01046815848268963 0.01008487247692957 1 1 0.012705396209369712 0.009999993985542131 1 1 0.016093098012347297 0.0099999973435209444 1 1 1 1 1 0.017289575731660047 1 1 1 0.012201693721514086 0.010000000005399291 1 1 1 0.010023916379104486 1 1 1 0.010210552863589968 1 1 0.011574509470610743 0.012177165680247952 0.010455692035627332 1 1 1 1 1 1 1 1 1 1 0.010600433664134771 1 0.010000000818276516 1 1 0.011424656029555363 1 0.012632743087282981 1 1 1 1 1 1 1 1 1 1 1 1 0.010893807630329069 1 1 1 0.012262882306478 1 1 1 1 1 0.01338816379380422 1 1 1 1 1 1 1 1 1 1 1 0.010314310198497585 1 1 1 1 1 1 1 0.010086267837127518 1 1 0.010000000757525621 1 1 1 0.0099999999564371472 1 1 1 1 1 1 1 1 1 1 1 1 1 1 1 1 1 1 1 1 1 1 1 1 1 1 1 0.0099999981621117211 1 1 1 1 0.010184734667075512 1 0.010698859287680666 0.010973956378796721 1 1 1 1 1 1 1 0.009999999813924465 0.010000000324192421 1 1 1 1 1 1 1 1 1 0.011213279750999002 1 1 0.010000000700497672 0.010055954020711218 1 0.010099142694603498 1 1 1 1 1 1 1 1 1 0.011479503410966702 1 1 1 1 1 1 1 1 1 1 1 1 0.012071475871040582 1 1 1 0.018772053564988504 0.017753131570997775 1 1 1 1 1 1 0.012671555477991706 1 0.01059357148864495 1 1 1 1 1 1 1 1 0.010101752119451777 1 1 1 1 1 1 1 1 1 1 1 1 1 1 1 1 1 1 1 1 1 0.010077851712815125 1 1 1 1 0.012981642291875945 1 1 1 0.012148431967655849 0.010000000118825984 0.010830566686995226 1 0.019495326122891857 1 1 0.011042069043406004 1 0.011800330703199965 1 1 0.014391302252933239 1 0.010005194597392401 1 1 0.014611868359167998 1 1 1 0.0099999987690032825 1 1 1 1 1 1 1 1 1 1 1 1 1 0.012173913282761729 1 1 0.010800500093954897 1 1 1 1 1 1 1 0.010032771756046971 1 1 1 1 1 1 1 1 1 1 1 1 1 1 1 1 0.0099999991648289516 1 0.011185518093072163 1 0.013119915227905999 1 1 1 1 1 1 1 1 1 0.010338706497614824 0.010463428716347497 1 1 1 0.0099999987396341711 0.010669424327047653 1 0.010000001750635628 1 1 1 0.010345264712449159 1 1 1 1 1 0.010405592995208279 0.011686603926163086 1 1 1 0.010859849141590314 1 1 1 0.0099999998079416067 1 1 1 1 1 0.0099999986065099807 1 0.010000001093277299 1 1 0.0099999992644400279 1 1 1 1 0.0099999998780963845 1 1 1 1 1 1 0.0099999997269828288 1 0.010000000291230516 1 1 0.0099999998792339746 0.015470333984790672 1 1 1 0.010940259020855226 1 1 1 1 0.013330513181140837 1 0.015125475118214583 1 1 1 1 0.012297927122439321 1 1 1 1 1 1 1 1 1 1 1 0.016942367032606903 1 1 1 1 1 1 1 1 1 1 1 1 1 1 1 1 1 1 1 1 1 1 1 1 1 1 1 1 1 1 1 1 1 1 1 1 1 1 1 0.010000000138834423 1 1 1 1 1 1 1 1 1 1 1 1 1 1 1 1 0.011155351105912642 1 1 1 1 1 1 0.010666567320385432 1 0.010000001193283023 1 1 0.01008322070075361 1 1 1 1 1 0.010059612339075083 1 1 1 1 1 1 1 1 1 1 1 1 0.010166982713661251 1 1 1 1 1 1 0.010049381173796739 1 1 1 1 0.010000000726812886 1 1 1 1 1 1 0.010144988390406676 1 1 1 0.0099999996178181932 0.010000000487846545 1 1 0.010000000145178137 1 1 1 1 1 1 1 1 1 1 1 1 1 1 1 0.02018839377352033 1 0.01753032776664451 1 1 0.039957230704951774 0.010000003439738399 0.013787826546903264 1 1 1 0.013384291826234837 1 1 1 1 0.016355513986400734 1 1 0.019467949715802839 1 1 1 1 1 1 1 1 1 0.010698592941294636 1 0.01051906106122877 1 1 0.010171094735268353 1 1 1 1 1 1 1 1 1 1 1 1 1 0.01056764512101661 1 1 1 1 1 1 1 1 1 1 1 1 1 1 1 1 1 1 1 1 1 1 1 1 1 1 1 1 1 1 1 1 1 1 1 1 1 1 1 1 1 1 1 1 1 1 1 1 0.010072331473427851 1 0.010000000525948138 1 1 1 1 1 1 1 1 1 1 1 1 1 1 1 1 1 0.010640449678126787 1 1 1 1 0.01015475975575803 1 1 1 1 1 1 1 1 1 1 1 1 1 1 1 1 0.012868426677320317 1 1 1 1 1 0.010000000637762319 1 1 1 1 0.011287207054213724 1 1 1 1 1 1 1 1 1 1 1 1 1 1 1 1 1 1 1 1 1 1 1 1 1 1 1 0.011074401058160098 1 1 1 1 1 1 1 1 0.012655620681266688 1 1 1 1 1 1 1 1 1 1 1 1 1 1 1 1 1 1 0.014044388732305398 1 1 1 1 1 1 1 1 1 1 1 1 0.011426132143727246 1 1 1 1 0.011921931318540356 1 1 1 1 1 1 1 1 1 1 1 1 1 1 1 1 1 1 1 1 1 1 0.010019857880014684 1 1 1 1 1 1 0.013794511883590637 1 1 1 1 1 0.011295956643767166 1 1 1 1 1 1 1 0.010821390054141761 1 1 1 1 1 0.010000000072603127 1 1 1 1 1 1 1 1 1 1 1 0.0099999996277883169 1 1 1 1 1 1 0.0099999965728065909 1 0.012570675391673395 1 0.010889583196198378 1 1 0.012900849925343166 1 1 1 1 1 1 1 0.012445679537952664 1 1 1 1 1 0.013197395318358722 1 1 1 1 1 1 0.014450845391264344 0.0099999992460542107 1 0.014489253776242158 1 0.010432126839990154 1 0.015528570546993362 1 1 1 0.010046214666923004 0.010010592511842307 1 0.014704991263030386 1 1 1 1 0.010000003023791382 1 1 0.010872825598643658 0.010000001334612482 1 0.0151432376657635 0.013741776845170951 1 1 1 1 1 1 0.010020963873059256 1 1 1 1 1 1 1 1 1 1 1 1 1 1 1 0.0099999997399214287 1 1 1 1 1 1 1 1 1 1 1 1 1 1 0.011259714395232556 1 1 1 1 1 1 1 1 1 1 1 1 1 1 1 1 1 1 1 1 1 1 0.010098452068356229 1 1 1 0.01043832434109079 1 1 1 1 1 1 1 1 1 1 1 1 1 1 1 1 1 1 1 1 1 1 1 1 1 1 0.010255152595395832 1 1 1 1 1 1 1 1 1 1 1 1 1 0.01036671072029381 1 1 0.013622745798136479 1 1 0.013776023100217106 1 1 0.010486974191994718 1 1 1 1 1 1 0.012862443275597799 1 1 1 1 1 1 1 1 1 1 0.01037419036154379 1 1 1 1 1 1 1 1 1 1 0.010683918206443824 1 1 1 1 1 1 1 1 1 1 1 1 1 1 1 1 1 1 1 1 1 1 1 1 1 0.010855562647088035 1 1 1 1 1 1 1 1 0.011287542808185676 1 1 1 1 1 1 0.012030599300345612 1 1 1 1 1 1 1 1 1 1 1 1 1 1 1 1 1 0.011175036653257574 1 1 1 1 1 1 1 1 1 1 1 1 1 1 1 1 1 1 1 1 1 1 1 1 1 1 1 1 1 1 1 1 1 1 1 1 1 1 1 1 1 1 1 1 1 0.010043433549554226 1 1 1 1 1 1 1 1 1 1 1 1 1 1 1 1 1 1 1 1 1 1 1 1 1 1 1 1 1 1 1 1 1 1 1 1 1 1 1 1 1 1 1 1 1 1 1 1 1 1 1 1 1 1 0.010471285661341973 1 1 1 1 1 1 1 1 1 1 1 1 1 1 0.010000000259757467 0.040653778737738747 1 1 1 1 1 1 1 0.010776536703037966 1 1 1 1 1 0.041084098280417113 1 1 0.0099999993677464261 1 0.014340389918355345 1 0.0099999976953571955 1 1 1 1 0.030083069241798915 0.010000000995090881 1 0.012331998343173467 1 1 0.010214592573515136 1 1 0.015337005053836148 0.021091312831668554 0.010000000103201246 1 1 0.0099999999894027965 1 0.020255036893065289 1 1 1 1 1 1 1 1 1 1 1 1 1 1 1 1 1 1 0.012711011740831581 1 1 1 1 1 0.010000000133888198 1 1 1 1 1 1 1 1 1 1 0.012950926576622787 1 1 1 1 1 1 1 0.0099999968034035092 1 0.017589815082069186 1 1 0.016010661497067036 1 1 1 0.015871283475087775 1 1 1 0.010000000628757385 1 1 1 0.0099999992043259319 1 0.010047460276178054 1 1 0.010000000406364135 1 0.011562787003871075 0.012093770690844869 0.010000001447136746 1 1 1 1 0.014150606900768362 1 0.014635139237051918 1 1 1 1 1 0.013598434957158626 1 1 1 1 0.015130801691304244 1 0.014023914130541361 1 1 1 1 1 1 1 1 1 0.010000391763807048 1 0.010386765028176998 1 1 1 1 0.0099999995081123481 1 1 1 0.016627798689494867 0.022269419401620784 1 1 0.0099999996610183016 1 1 0.011426976393742537 1 1 1 1 1 0.010103007079667721 1 1 0.01000000040561845 1 1 1 1 1 1 0.012515989637982103 1 0.010000000448490656 0.0099999999994409665 0.01071195842143694 1 1 1 1 0.010048492705001948 1 1 1 1 1 1 1 1 1 1 1 1 1 1 1 1 1 1 1 1 1 1 1 1 1 1 1 1 1 1 1 1 1 1 1 1 1 1 1 1 1 1 1 1 1 1 1 1 1 1 1 0.010516245169918809 1 1 0.042704323841836464 1 1 1 1 1 0.04213084523891187 1 1 1 1 1 1 1 1 1 1 1 0.010000001433427941 1 1 0.011208930333527548 1 0.010000000403453592 1 1 1 1 0.033962315695646603 1 1 0.022671076471580398 1 1 1 0.010000000002556379 0.022132018641258897 1 0.0099999998942849992 1 0.020023404109808365 1 0.015571024311412275 0.015005189742904412 1 0.0099999995542580638 1 1 1 0.010000002432334714 1 1 1 1 1 0.022356825615816651 1 1 0.0099999998483126257 0.01409905855996834 1 0.010000000007608869 1 1 1 1 1 1 1 1 1 0.0099999991036133339 1 1 0.014434253178048403 1 1 0.016524735246466901 1 1 0.010000000005960054 0.011396111725780094 0.010000002891146522 1 1 0.011719612028506552 1 1 0.01078831399620782 1 0.010532355534155567 0.014689180296088285 1 1 0.010009371454610293 1 1 0.0099999991414003227 0.010113998574379146 1 1 1 1 0.010880105782284362 1 1 1 1 0.010969057064643312 1 1 1 1 1 1 1 1 1 1 1 0.01813750152915887 1 1 1 1 1 1 0.010000002704117543 1 0.012765420618656272 1 1 1 0.010000000027173127 1 0.010000000463539195 1 1 1 0.011727838998408626 1 1 1 1 1 1 1 0.010048522590340135 1 1 1 0.010051963101569854 1 1 1 0.010378235208073322 1 1 1 1 1 1 1 1 1 1 1 1 1 1 1 1 1 1 1 1 1 1 1 1 1 1 1 1 1 1 0.010508952890119962 1 1 1 1 0.010529309497363117 1 1 0.010973513750084591 1 1 1 1 1 1 0.010660785983924875 1 1 1 0.010196287289370781 1 1 1 1 1 1 1 1 1 1 0.010000000090306986 1 0.01000000005011872 0.011192343129701399 1 1 1 0.010954191914188015 1 1 1 1 1 1 1 1 1 0.010100798145545875 1 1 1 1 1 0.010003101058974687 1 1 1 1 0.0099999999205113085 1 1 1 0.010193978985077517 0.0099999990959619006 1 1 1 1 0.010000000400357784 1 1 1 1 1 1 0.019438847473110997 1 1 1 1 1 1 1 1 1 1 1 0.02499192585650882 1 1 1 1 0.013785398864559571 0.032951857307531571 1 1 1 1 1 0.010078192789354921 1 0.013475562277181632 1 1 0.01986617940822738 1 0.017182557375795993 1 1 1 1 0.017004217050080504 1 1 0.012995176780083918 1 1 1 0.0099999987459398944 1 1 1 1 1 1 1 1 1 1 1 1 1 1 1 1 1 1 1 0.0099999998294328721 1 0.010100692459990804 1 1 1 1 1 1 1 1 1 1 1 1 1 1 1 1 1 1 1 1 1 1 1 1 1 1 1 1 1 1 1 1 1 1 1 0.01564891625864346 0.012026861675639482 1 1 1 1 1 1 1 1 1 0.010838334040783574 1 1 1 1 1 1 1 0.010309302880727667 1 1 1 1 1 1 1 1 1 1 1 1 1 1 1 1 1 1 1 1 1 1 1 1 1 1 1 1 1 0.0100949378370849 1 1 1 1 1 1 1 1 0.010000000022587469 1 1 1 0.0099999999952008305 1 1 1 0.010012331140593765 1 0.010034108013346005 1 1 1 1 1 1 0.010055178225475123 1 1 1 1 1 1 1 1 1 1 0.010003282238714627 0.010069431053344893 1 1 0.010318481256496821 1 1 1 1 0.01045990409037849 1 1 0.0099999999648506602 1 0.010312870241031266 1 1 1 1 1 1 1 0.010491715983848834 0.0099999999954154539 1 1 1 1 1 1 1 1 1 1 1 1 1 1 1 1 1 1 1 1 1 1 1 0.010103432818142497 1 1 1 1 1 1 0.010115257423235997 1 1 1 1 1 1 0.010000000245787457 1 1 1 1 1 1 1 1 1 1 1 1 1 1 0.010374593050553195 0.010432532869611683 1 1 1 1 1 0.0099999984658804518 1 1 1 1 1 1 1 0.010000000064418538 1 1 1 0.040628081697802028 1 1 1 1 1 1 1 1 0.025436319069336334 1 0.0099999999955659065 0.014492635321085457 1 1 1 1 0.017076595460708822 1 0.01194892585256482 0.017499939257202484 0.016951072795592697 1 1 1 1 0.040354021375563764 1 1 0.010537613380284777 1 1 0.014400246314562248 1 1 1 1 1 1 1 1 1 1 1 1 1 1 1 1 1 1 0.010298443620351993 1 1 1 1 1 1 0.010306743834164897 1 1 1 1 1 1 1 1 1 1 0.011385931700611647 1 1 1 1 1 1 0.011039071699256402 1 1 1 1 1 1 1 1 1 1 1 1 1 1 1 0.011226848170611536 1 1 1 1 1 1 0.010403107111181809 1 1 1 1 1 1 1 0.01312759816265107 1 1 0.012689055010199473 1 1 1 1 0.018501513265997672 0.0099999999239543929 1 1 1 1 1 1 1 1 1 0.010251354236564637 1 1 1 1 1 1 1 1 1 1 1 1 1 1 0.01007113687582421 1 1 1 1 1 1 1 1 1 1 1 1 1 0.010132504709666215 1 1 1 1 1 1 1 1 1 1 1 0.010106281371072341 1 0.010387302759604956 1 0.027674589710054188 1 1 1 1 1 0.019275723238537421 1 1 1 1 1 1 1 1 1 1 0.018524327646450886 0.0099999998386346798 1 1 0.010213150927057262 1 0.013962872275467303 1 1 1 1 1 1 1 1 1 1 1 1 1 1 1 1 1 1 1 1 0.026649473957026507 1 1 0.023478978785792561 1 1 1 1 1 1 1 1 1 1 1 0.010080922634601983 1 0.010088193580816498 1 1 1 1 1 1 1 1 0.0167195301703368 1 1 1 1 1 1 1 0.0218823096490895 1 1 0.02501099533166596 1 1 1 1 1 1 0.0102690872208526 1 1 1 0.029327517614991978 1 1 0.010101759029009628 1 0.01946016649803102 1 0.022511505346289269 1 1 1 0.015456114850818803 1 1 1 1 1 1 1 1 0.01095644580095996 1 1 0.010436249731253032 0.022249206502822787 1 1 0.018182136059751348 1 1 0.010307550930015395 1 1 1 1 1 1 1 1 1 1 1 1 1 1 1 1 1 1 1 1 0.010843086611308006 1 1 1 1 1 1 0.012050274574791069 1 1 1 1 0.010619423972993487 1 1 1 1 1 1 0.010300793220144712 1 1 1 1 1 1 1 1 1 1 1 1 1 1 1 1 1 1 1 1 1 1 1 1 1 1 1 1 1 1 1 1 1 1 1 1 1 1 1 1 1 0.012009311681308468 1 1 1 1 1 0.010000000031068726 1 1 1 1 1 0.011011278065826689 0.010117424394464917 1 1 1 1 1 1 1 1 1 1 1 1 1 0.010525842603549565 1 1 0.011689174237009464 1 1 1 1 1 1 1 1 1 1 1 1 0.011391091947413834 1 1 0.012741927720542581 1 1 1 1 1 1 1 1 1 1 1 1 1 1 1 1 1 1 1 1 1 1 1 1 1 1 1 1 1 1 1 1 1 1 1 1 1 0.0099999999967803101 1 1 1 1 1 1 1 1 1 1 1 1 1 1 1 1 1 1 1 1 1 1 1 1 1 1 1 1 1 1 1 1 1 1 1 1 1 1 1 1 1 1 1 1 1 1 1 1 1 1 1 1 1 1 1 1 1 1 1 1 1 1 1 1 1 1 1 1 1 0.010089861196133598 1 1 1 1 0.011175349342415621 1 1 1 1 1 1 1 1 1 1 1 1 1 1 1 1 1 1 1 1 0.0099999999725912218 1 1 1 1 1 1 1 1 1 1 1 1 1 1 1 1 1 1 0.010351528197255558 1 1 1 1 0.0099999999362588195 1 1 1 1 1 1 0.011462629327444089 0.041623061989250601 1 1 1 1 1 1 0.0099999996020491994 1 1 1 1 0.010075390596651558 0.024860803656416894 1 1 1 1 0.023830257640035261 1 1 1 1 0.018531691450448855 0.01093033788176008 0.023109606466644662 1 1 1 1 1 0.011380635020446275 1 1 1 1 0.01252590741283589 1 1 1 1 1 1 1 1 1 1 1 0.010491071346654859 1 1 0.010148641324231916 1 1 1 1 1 1 1 1 1 1 1 1 1 1 1 0.010531941140870638 1 1 1 1 1 1 1 1 1 0.011224799048432849 1 1 0.011641016428437546 0.013385485898203639 1 1 1 1 1 1 0.011748055040594042 1 1 1 0.012502344801983742 1 1 1 0.010004239903130416 1 1 1 0.010000000003252905 1 1 1 0.0099999997893531964 0.016703757255422856 1 1 0.015757133754942178 1 1 1 1 0.010004012464391608 1 1 1 0.011526025383156906 1 0.013376009676173924 1 1 1 0.009999997184004069 0.016585904776025048 1 1 1 1 1 1 1 0.010534437307099916 1 1 1 0.010000000003206118 0.015514088322384698 1 0.014993656390966913 1 1 0.01000000201161636 1 1 1 1 1 1 1 1 1 0.010000000307837013 0.020918258761529918 1 1 1 1 1 0.010031927066510861 1 1 1 0.010716134491474304 1 1 0.011304892491917354 1 1 1 1 1 1 1 0.013062040812917508 1 1 1 1 0.012523374545867442 0.011975433321252123 1 1 0.010000000239901344 1 1 1 1 0.010545457691964544 1 1 1 1 1 1 0.0099999999831242269 1 1 1 1 1 1 1 1 0.012029549390668665 1 1 1 1 1 1 1 1 1 1 1 1 0.012293146780796405 1 1 1 1 1 1 1 1 1 1 1 1 1 1 1 1 1 1 1 1 1 1 1 1 1 0.017709679057007995 1 1 1 0.015758589712434948 1 1 1 1 1 0.013879739538278601 1 0.018895587627065953 1 1 1 1 1 1 1 1 1 1 1 1 1 1 1 1 1 1 1 1 1 1 0.020840980901651852 1 1 1 1 0.011249724026007248 1 1 1 1 0.010418502363594213 1 1 1 1 1 1 1 0.010646462800285653 1 1 1 1 1 1 1 1 1 1 1 1 1 1 1 1 1 1 0.010201826651077182 1 0.010227960436691434 1 1 1 1 1 0.010373114383761803 1 1 1 1 1 1 1 0.010182909351187423 1 1 1 1 1 1 1 1 1 1 1 1 1 1 1 1 1 1 1 1 1 1 1 1 1 1 1 1 1 1 1 1 1 1 1 1 1 1 1 1 1 0.019753936205366383 1 1 1 1 1 1 1 1 1 0.013988065758148878 1 1 0.01004960278008258 1 1 1 1 1 1 0.010968358206389944 1 0.010000001189461614 1 0.01043526353401298 0.0100000003221608 0.015357652352616442 1 0.017762189396289721 1 0.020141521889276613 0.0099999999932307432 1 0.018259272527497573 1 1 1 1 1 1 1 1 1 1 1 1 1 1 1 1 1 1 0.010190396697669919 1 1 1 1 1 1 1 1 1 1 1 1 1 0.010022038151642886 1 1 1 1 1 1 1 1 1 1 0.018212766985950188 0.019743736922624822 1 1 1 0.014111961096787008 0.010000000013320921 1 1 0.017917049462550481 1 1 1 1 1 1 1 1 0.016920400725769499 1 1 0.014921111376071425 1 1 0.018407982860812792 1 1 1 1 1 1 1 1 1 1 1 1 1 1 1 1 1 1 1 1 1 1 1 1 1 1 1 1 1 1 1 1 1 1 1 1 1 1 1 1 1 1 1 1 0.010318630752848782 1 1 1 1 1 1 1 1 1 0.010540226230043991 1 1 1 0.011377103126846318 1 1 1 1 1 1 1 1 1 1 1 1 1 1 1 1 1 1 1 1 1 1 1 1 1 1 1 1 1 1 1 0.01011024720572129 1 1 1 1 1 1 0.010070953564923827 1 1 1 1 1 1 1 1 1 1 1 0.010000000639223161 1 0.020188351477262938 1 1 1 1 1 1 1 1 1 1 0.010000001505878821 1 1 0.011905103761220243 1 1 1 1 1 1 1 1 1 1 1 1 1 1 1 1 1 1 1 1 1 1 0.018921673651427048 1 1 1 1 0.010000000052518776 1 1 1 1 1 1 0.016175119406012496 1 1 1 1 1 1 1 1 1 1 1 1 1 1 1 1 1 1 1 1 1 1 1 1 1 0.011599825494047328 1 1 1 1 0.010024594025699943 1 1 1 1 0.016400963246618654 1 1 0.010027802648443537 0.010000000286384302 1 1 1 1 1 1 1 0.010653646726946971 1 1 1 0.018096874664743259 1 1 1 0.019347937192293919 1 1 1 1 1 1 0.010244195398195389 1 1 1 1 0.018338919313987463 1 1 1 1 0.010000000883027065 1 1 0.010184943192816192 1 0.011082724715212785 0.014447986495033396 1 1 1 1 1 1 1 1 1 1 1 1 0.015176082361069173 0.011896117290616031 1 1 1 0.013893815962950652 1 1 1 1 1 1 1 1 1 1 0.012503858292912225 1 1 1 1 1 1 0.010470165845068449 1 1 1 1 1 1 1 1 1 1 1 1 1 1 1 1 1 1 1 1 1 1 1 1 1 1 1 1 0.0099999998872431061 1 1 1 1 1 1 1 1 0.01149173059344194 1 1 0.012121039897868386 1 1 1 1 1 0.018022154505526924 1 1 0.019559554691249689 1 1 1 1 1 1 0.010181049744994269 1 1 1 1 1 1 1 1 1 1 1 1 1 1 1 1 0.010240375191891455 1 1 1 0.012342006077233925 1 1 1 1 1 1 1 1 1 1 1 1 1 1 1 1 1 1 1 1 1 1 1 0.011843187554208736 1 0.011839805199297396 1 1 1 1 1 1 1 1 1 1 1 1 1 1 1 1 1 1 1 1 1 1 1 1 1 1 0.010480916188118038 1 1 1 0.010671633836360293 0.012006428113776188 1 1 1 1 1 1 1 1 1 1 1 1 0.010000000295613072 1 1 1 0.0099999999268786562 1 1 1 0.015950345432452915 1 1 1 0.0099999997345183791 1 1 1 1 1 1 1 1 0.011239608690930821 1 1 0.014255143865550783 1 1 1 1 1 1 0.010010411675182624 1 1 1 1 1 1 1 1 0.020807348900155415 1 0.010663170411548959 0.0099999999718559749 0.011620783366901593 1 0.012780249874823795 1 1 0.010005207985202668 1 1 1 1 1 1 1 1 1 0.011696894977722978 0.011273501527467079 1 1 1 0.010000000115002629 1 0.015379630187146913 1 1 1 1 1 1 1 0.016276596648069325 1 1 1 1 1 1 1 1 1 1 1 1 1 0.0099999987707150555 1 1 0.010000000218697607 1 1 0.010039281496713131 1 1 1 1 1 1 1 1 1 1 1 1 1 0.012896689862743779 1 1 1 1 1 1 1 1 1 1 1 1 0.013276324253807131 1 1 1 1 1 1 1 1 1 1 1 1 1 1 0.012628011906540063 1 0.011392909541445074 1 1 1 1 1 1 1 1 1 1 1 1 1 1 1 1 1 1 1 1 0.010913583238060801 1 1 1 0.014198957011342495 1 1 1 0.012269688825877397 1 1 1 1 0.012376958996321357 1 1 1 0.014582152552152802 1 0.010000000126315767 1 0.011908546763140588 0.010112388990878721 1 1 1 1 1 1 1 0.014057753131774578 1 1 1 1 1 1 0.01551187513584611 0.015330696218618288 1 1 1 1 1 1 1 1 1 1 1 1 1 1 1 1 1 1 1 1 1 1 1 1 1 1 1 1 1 1 1 1 1 1 1 1 1 1 1 1 1 1 1 1 1 1 1 1 1 1 1 1 1 1 1 1 1 1 1 1 1 1 1 1 1 1 1 1 1 1 1 1 1 1 1 1 1 1 1 1 1 1 1 1 1 1 1 1 1 1 1 1 1 1 1 1 1 1 1 1 1 1 1 1 1 1 1 1 1 1 1 1 1 1 1 1 1 1 1 1 1 1 1 1 1 1 1 1 1 1 1 1 1 1 1 0.01019161561066354 0.031502223431864602 1 1 1 0.0145830902668095 1 0.027566980439065407 1 1 1 0.0099999996626773217 1 1 1 1 1 1 1 0.01113669587414092 1 1 1 1 0.010222506201616686 1 1 1 1 1 1 0.010000001317219339 0.028959363249429496 1 1 1 1 1 1 1 1 1 1 1 1 0.02638737998640759 1 1 1 1 1 1 1 1 0.010093983462943252 1 1 1 1 1 1 1 1 1 1 1 1 1 0.010342107854765624 0.011431506388494037 1 1 1 1 1 0.023249866802308835 1 1 1 1 1 1 1 1 0.0099999986994543828 0.020348721075906972 1 1 1 1 1 1 1 0.010133996859124375 1 1 1 1 1 1 1 1 1 1 1 1 1 1 1 1 1 1 1 1 1 1 1 1 1 1 1 1 1 1 1 1 1 1 1 1 1 1 1 1 1 1 1 1 1 1 1 1 1 1 1 1 1 1 1 1 1 1 1 1 1 1 1 1 1 0.011862655209586695 1 1 1 1 0.011679069369305951 0.014539457285148095 1 1 0.012273002493244353 1 0.010761122163460948 0.017415769299970144 1 1 1 1 1 1 1 0.01143403011477726 1 1 1 1 1 1 1 0.014915690916416327 1 1 0.010017544031521731 0.010000000815696661 1 1 1 1 1 1 1 1 1 1 1 1 1 1 0.010960204049134717 1 1 1 1 0.0099999999882204559 1 1 1 1 0.013515677605376777 1 1 1 1 1 0.015034265297253961 1 1 0.016826663992444753 1 1 1 1 1 1 1 1 1 1 1 1 0.022004636739084902 1 1 0.021842612338480984 1 1 1 1 1 1 0.015512829490532402 1 1 1 0.014951671114336965 1 1 1 1 0.011813948904774529 1 1 1 1 1 0.01216947013604569 1 1 1 1 1 1 1 1 1 1 0.011553991543855504 1 1 1 1 1 1 1 1 1 1 1 1 1 0.013536653720904391 1 1 1 1 1 1 1 1 1 0.017046705159798611 1 1 1 1 1 1 1 1 1 1 1 1 1 1 1 0.010247430551212869 1 1 1 0.010007095168996383 1 1 1 1 1 1 1 1 1 1 1 1 1 1 1 1 1 0.010000000131176263 1 1 0.0099999999744181198 1 0.01036287461646097 1 0.010505319241558094 1 0.010020197008332492 1 1 1 0.015479640368643802 1 1 0.015016656490696213 1 1 0.01094805532050762 1 1 1 1 1 0.019386338395585616 1 1 0.016513509325159336 1 1 1 1 1 1 1 0.012440651632889318 0.014240729343118529 1 1 1 1 1 1 1 0.013537091622750835 1 1 1 1 1 1 1 1 1 1 1 1 1 1 1 1 1 1 1 1 1 1 1 1 1 1 1 1 1 1 1 1 1 1 1 1 1 1 1 1 1 1 1 1 1 1 1 1 1 1 1 1 1 1 1 1 1 1 1 1 1 1 1 1 1 1 1 1 1 1 1 1 1 1 1 1 1 1 1 1 1 1 1 1 1 1 1 1 1 1 1 1 1 1 1 1 0.010864579696504902 1 1 1 1 1 0.010101277243965267 1 1 1 1 1 1 1 1 1 1 1 1 0.012152092944403101 1 1 1 1 1 1 0.010096548021764695 1 1 1 1 1 1 0.011328714954143646 1 1 1 0.010545579313788377 1 1 1 1 1 1 1 1 1 1 1 0.010110423768956309 1 1 1 0.010206971790720996 1 1 1 1 1 1 1 1 1 1 1 0.012844092915890424 1 1 1 0.013698007805550864 1 1 1 0.014384118533303125 1 1 1 1 1 1 1 1 1 1 1 1 1 1 0.01593022126434605 1 1 1 0.010048828441246225 1 1 0.011718549518903627 1 1 1 1 1 1 1 1 1 1 1 1 1 1 1 1 1 1 1 1 1 1 1 1 1 1 1 1 1 1 1 1 1 1 1 1 1 1 1 1 1 1 1 1 1 1 1 1 1 1 1 1 1 1 1 1 0.011297316666533972 1 1 1 1 0.01086077907103964 1 1 1 1 0.010000000169597456 1 1 1 1 1 1 1 1 1 1 1 1 1 1 1 1 1 1 1 1 1 1 1 1 1 1 1 1 1 1 1 1 1 1 1 1 1 1 1 1 1 1 1 1 1 1 1 1 1 1 1 1 1 1 1 1 1 1 1 1 1 1 0.010000000464346952 1 1 0.011220080328448269 1 1 1 0.013600283710980923 1 1 0.0099999997928090639 1 1 1 0.014425821504900536 0.015695784494750859 1 1 1 1 1 1 0.0099999985386590266 1 0.018529562581029422 0.011236663940634373 1 1 1 1 0.011559022905305853 1 1 1 1 1 1 1 1 1 1 0.010148613864615831 1 1 1 1 1 1 0.012182380512131882 1 0.0099999999460327147 1 1 1 1 1 1 0.011102947600832001 1 1 1 1 1 1 1 1 1 1 1 1 1 1 1 1 1 1 0.010763952116824002 1 1 1 1 1 1 1 1 1 1 1 1 1 1 1 1 1 1 0.012760582934621709 1 1 1 1 0.010957611838597069 1 1 1 0.010391290458376338 1 1 1 1 1 1 0.027825912005233235 1 1 1 0.028662692758352176 1 1 0.010617149493433502 1 1 1 1 1 1 1 1 1 1 1 1 0.010000002082055631 1 0.029119218738107969 1 1 1 1 1 1 1 1 1 0.010000000088527184 1 1 1 1 1 1 1 0.016908190816476407 0.010000000097554798 1 1 0.010000000185807198 0.011184708979290352 1 1 0.018531356069363944 0.012305209665363196 1 0.022124517284504541 0.029925652412737709 1 1 1 0.010175572066349073 1 1 1 1 1 0.010125216073494377 0.010000000080168346 1 1 1 1 1 1 1 1 1 1 1 1 1 1 1 1 1 0.011133612971729545 1 1 1 1 1 1 1 1 1 1 1 0.029754539920985673 1 1 1 1 0.010159613897045292 1 1 1 0.010477192581663474 1 1 1 1 1 1 1 1 0.022890317995872676 1 1 1 0.014532860385500746 1 1 1 1 1 1 1 1 1 1 1 1 1 1 1 1 1 1 1 1 1 1 1 1 1 1 1 1 0.010349266662930821 1 1 0.010000000116683685 1 1 1 1 0.0099999989217433895 1 1 1 1 1 1 0.012911800106991476 1 1 1 1 1 1 1 1 1 1 1 1 1 0.01092061956636891 1 1 1 1 1 1 1 1 1 1 1 1 1 1 1 1 1 1 1 1 0.0099999999879308021 1 1 1 1 0.01039369108878534 1 1 0.032058821981533071 0.010927279282464149 1 1 1 1 1 0.036393589834942973 1 1 1 1 1 1 1 1 1 1 1 0.038790708409554467 1 1 1 1 1 1 0.0099999998709698161 1 1 1 1 1 1 1 1 1 1 1 1 1 1 1 1 1 1 0.01199416812982021 0.015331158947179549 1 1 1 1 1 1 1 1 1 1 1 1 1 1 1 1 0.009999998572236355 1 1 0.010001003324129763 1 1 1 1 1 1 1 1 1 1 1 1 1 1 1 1 1 1 1 1 1 0.010552081404188118 1 1 0.010054599879252958 1 1 1 0.010000000903084326 1 1 1 1 1 0.019611320033848845 0.013099068077204947 1 1 1 1 0.024148927185535227 1 1 0.027642630256519224 1 1 1 1 1 1 1 1 1 0.0099999975147057659 1 0.012382585105217076 1 1 1 1 1 1 1 1 1 0.011535025277539837 1 1 1 1 1 0.014888262273280427 1 1 1 1 1 1 1 1 1 1 1 0.017257755070303488 1 1 1 1 0.010143508540509136 0.011123404086033378 1 1 1 1 1 1 1 1 1 1 0.009999999464426805 1 1 1 1 1 0.011767469776789751 1 1 1 0.010762094069546478 1 1 1 1 1 1 1 1 1 1 1 1 1 1 1 1 1 1 1 1 1 0.011871440160301604 1 1 0.0099999999832491911 0.010000000450633918 1 1 1 0.0099999971836096744 1 1 0.010000003820444709 1 1 1 1 1 1 1 1 1 1 1 1 1 1 0.010349447227902531 1 1 1 0.010932336524911912 1 1 1 1 1 1 1 1 1 1 1 1 1 1 1 1 1 0.0099999999107458926 1 0.0099999998875004714 1 1 1 1 1 1 1 1 1 1 1 1 1 1 1 1 0.010000000363303438 1 1 1 0.013071895780762042 1 1 1 0.010038521968625053 0.0099999986729682796 0.0099999997695741152 1 1 0.011694828764462397 1 1 1 1 0.012174087756913268 1 1 1 0.010367720927361369 1 1 1 1 1 1 0.0104864104400198 1 1 1 1 1 1 1 1 1 0.012792516381540314 1 1 1 1 1 1 1 1 0.010067709011377726 1 1 1 1 1 1 1 1 1 1 1 0.010002093599253005 1 1 0.012160950949148319 1 1 0.0100000011636628 1 1 1 0.011022161170017968 1 1 1 1 1 1 1 1 1 1 1 1 1 1 1 1 1 0.010215022037238031 1 1 0.010054671243595296 0.010824793523658865 1 0.010021504431380085 1 1 1 1 0.010889831527824707 1 1 1 1 1 1 1 1 1 1 1 1 1 1 1 1 1 1 0.010000000148367156 1 1 1 1 1 1 1 1 1 1 1 1 1 1 1 1 1 1 1 1 1 1 1 1 1 1 1 1 1 1 1 1 1 1 1 1 1 1 1 1 0.011127911531610534 1 1 1 1 1 1 1 0.010087070881266695 1 1 0.010054618467557251 1 1 1 1 1 1 1 1 1 1 1 1 1 1 1 1 1 1 1 1 1 0.010380862180602295 1 1 1 1 1 1 1 0.01099391127977749 1 1 1 1 1 0.010691005458913244 1 1 1 1 1 1 1 1 1 1 1 0.010000000462730696 1 1 0.012023476229891384 1 1 1 1 1 1 1 0.012234989830912398 1 1 1 1 1 1 1 1 1 1 1 1 1 0.012083007963311694 1 1 1 1 1 1 1 1 1 1 0.010123274481694974 1 1 1 1 1 1 1 1 1 1 0.010711445797045627 1 0.01126855680845924 1 1 1 1 1 0.011384508884628081 1 1 1 1 1 0.010207771867865865 1 1 1 0.011104954420601082 1 1 0.010124853849661027 1 0.010562659747151128 1 1 1 1 1 1 1 1 1 1 1 1 1 1 1 1 1 1 1 1 0.009999999996805075 1 0.010322906714783843 1 1 1 1 1 1 1 1 1 1 1 1 1 1 1 0.011197332494419506 1 1 0.012569587898550491 1 1 1 1 1 1 1 1 1 0.01000000065215869 1 1 1 1 0.011222059250756308 1 1 1 0.010213457309715861 1 1 1 0.010097875487670873 1 1 0.010309443388911878 0.012067582889819668 1 1 1 0.010000000590240064 1 1 0.010120286418898818 1 1 0.010050714720394779 1 0.0099999995127588118 1 1 1 1 1 0.013512617991854702 1 1 1 0.013152970899589483 1 1 1 0.010095378364610708 1 0.010000001148862042 1 1 0.012521004270025778 1 1 1 1 1 1 0.010008112032252657 1 1 1 1 0.0099999999989569977 1 1 1 0.010832864780666765 1 0.010221175385823031 1 1 1 1 1 1 1 1 0.010335717714471979 1 1 1 1 1 1 1 1 1 1 1 1 1 1 1 1 1 1 1 0.012222042441265932 1 1 1 1 0.010330160208066264 1 1 1 0.010230714467626001 1 1 1 0.010653832987418583 1 1 1 1 1 1 1 1 0.010040940987050721 1 1 1 1 1 1 1 1 1 1 0.013454393393373379 1 1 1 1 0.0179095513301098 1 1 1 1 1 0.010020188523046637 1 0.0099999995558324901 1 1 1 1 1 1 1 1 1 1 1 1 1 1 1 1 1 1 1 1 1 1 0.0099999999052700107 1 0.01037243271500511 0.013908993949525635 1 1 1 1 1 1 1 1 1 1 1 1 1 1 1 0.010905315988589043 1 1 1 1 1 0.010339852934447091 1 1 1 1 1 1 0.010601565219908826 1 1 1 1 1 1 1 1 1 1 1 1 1 1 0.010261712285461733 1 1 1 1 1 1 1 1 1 1 1 1 1 1 1 1 1 1 1 1 1 1 1 0.011827407890064772 0.013647081157307265 1 1 1 0.010000000494983161 0.011076211017432952 1 1 1 1 1 1 1 1 1 1 1 0.010374193129009137 1 1 1 1 1 1 1 1 0.011188330625402801 1 1 0.011641286940367002 1 1 0.0099999995821246582 1 1 1 1 1 1 1 1 1 1 1 0.011566764521327539 1 1 1 1 1 1 1 1 1 1 1 1 1 0.011686121429110442 1 1 1 1 0.01117118805810737 1 1 1 1 1 0.012285084664006263 1 1 1 1 1 1 1 1 1 1 1 1 1 1 1 1 1 1 1 1 1 1 1 1 1 1 1 1 1 1 1 1 1 1 1 1 1 1 1 1 1 1 1 1 1 1 1 1 1 1 1 1 1 1 1 1 1 1 1 1 1 1 1 1 1 1 1 1 1 1 1 1 1 1 1 1 1 1 1 1 1 1 1 1 1 1 1 1 1 1 1 1 1 1 1 1 1 1 1 1 1 1 1 1 1 1 1 1 1 1 1 1 1 1 1 1 1 1 1 1 1 1 1 1 1 1 1 1 1 1 1 1 1 1 1 1 1 1 1 1 1 1 1 1 1 1 1 1 1 0.011628982856643821 1 1 1 1 1 1 1 1 1 1 1 1 1 1 1 1 1 1 1 1 1 1 1 1 1 1 1 1 1 1 1 1 1 0.021159503769119133 1 1 1 1 0.010000000006162099 0.0099999985925274728 1 1 1 1 1 1 1 1 1 0.015814945249311194 1 1 1 1 1 1 1 0.017910454613101923 1 1 1 1 1 1 1 1 1 1 1 1 1 1 1 1 1 1 1 1 1 1 1 1 1 1 1 1 1 1 1 1 0.0099999999732635625 1 0.012054642358121028 1 1 1 1 1 0.012208463622566104 0.0099999992568344243 1 1 1 1 1 1 1 1 1 1 0.013805977097648057 1 1 1 0.019423474873989245 1 1 1 1 1 1 1 1 1 1 1 1 0.010242773192100043 1 1 1 1 0.010169479096282085 1 1 1 1 1 1 1 1 1 1 1 1 1 1 1 1 1 1 0.010004680600324485 1 0.0099999995569063187 1 1 0.010038358365140616 1 1 1 1 0.0099999997486906553 1 0.0099999996479286785 1 1 1 1 1 1 1 1 1 1 1 0.010437933654635015 1 1 1 1 1 0.0099999990330782197 0.01381415570740392 1 1 1 1 1 0.0099999998082156635 1 1 1 1 1 1 1 1 1 1 1 1 1 1 1 1 1 1 0.015476603329394281 1 1 0.019370220262550863 1 1 0.010078444018866279 1 1 1 1 1 1 1 1 0.010243894582694165 0.012751312170457616 1 1 0.011801157925867476 1 1 1 1 1 1 1 1 1 1 1 1 1 1 1 1 1 1 1 1 1 1 1 1 1 1 1 1 1 1 0.011304120018863002 1 1 0.0099999983346071228 1 1 0.0099999991558785174 1 0.012961765120359958 1 1 0.010105192686973376 1 1 0.0099999988928819224 1 0.014777018010812843 1 1 1 1 1 1 1 1 1 1 0.011745754097846613 1 1 1 1 1 1 1 1 0.012194747723329527 1 1 1 1 1 0.014626183219674791 0.014695434861519368 1 1 1 0.0099999998044463315 1 1 0.010000000605058613 1 1 1 1 1 0.010545953981581192 1 1 1 0.01130843128731307 1 1 1 1 1 1 1 0.010000000595065195 1 1 0.010626410759269476 0.017621444301454681 1 1 1 1 1 0.0099999971451157545 1 1 1 1 1 0.0099999986855757606 1 1 1 1 1 1 0.01721799221668649 1 1 0.017247832501174738 1 1 1 1 0.010023878082492768 1 1 1 1 0.010572104893776232 1 1 1 0.01191616180820587 1 1 1 1 1 1 0.010034685505514725 1 1 1 1 1 1 1 1 1 1 1 1 1 1 1 1 1 1 1 1 1 0.013290957424714589 1 0.010910645915052905 0.0099999999824926245 1 1 1 0.010000000749205481 1 1 1 1 1 1 1 1 1 0.012677833741333203 1 1 1 0.011084591575984293 1 1 1 1 1 1 1 1 1 1 1 0.0099999988250782101 1 1 1 0.009999998139834803 1 1 1 1 1 1 1 1 1 1 1 1 1 1 1 1 1 1 1 1 1 1 1 1 1 1 1 0.010274051531970241 1 1 1 1 1 1 1 1 1 1 1 1 0.010006660487354256 1 1 1 1 1 1 1 0.01384185507684864 1 1 0.01054876369440718 1 1 1 1 1 1 1 1 0.014253151447935108 0.0099999995988755037 1 1 0.0099999984498195596 1 0.01000000058620067 1 1 1 1 1 1 1 1 1 1 1 1 1 1 1 1 1 0.010194432602070595 1 1 1 0.010911919772468678 1 0.010847883722605429 1 1 1 1 0.010016960852395059 1 0.011524781545675867 1 1 1 1 1 1 1 1 1 1 1 1 1 1 1 1 1 1 1 1 1 1 1 1 1 1 1 1 0.011998868622710372 1 1 1 0.011070433864660842 1 1 1 1 0.010000001621170731 1 1 1 1 1 1 1 1 1 1 1 1 1 1 1 1 1 1 1 1 1 1 1 1 1 1 1 1 1 1 1 1 1 1 1 1 1 1 1 1 1 1 1 1 1 1 1 1 1 1 1 1 1 1 1 1 1 1 1 1 1 1 1 1 1 1 1 1 1 1 1 1 1 1 1 1 1 1 1 1 1 1 1 1 1 1 1 1 1 1 1 1 1 1 1 1 1 1 1 1 1 1 1 1 1 1 1 1 1 1 1 1 1 1 1 1 1 1 1 1 1 1 1 1 1 1 1 1 1 1 1 1 1 1 1 1 1 1 1 1 1 1 1 1 1 1 1 1 1 1 1 1 1 1 1 0.010375917688170706 1 1 1 1 1 1 1 1 1 1 1 1 1 1 1 1 1 1 1 1 1 1 1 1 1 1 1 1 1 1 1 1 1 1 1 1 1 1 1 0.0099999991542413062 1 1 1 1 1 1 1 1 1 1 1 1 1 0.011164339491672982 1 1 1 1 0.012302498800495366 0.011214923257065187 1 1 1 0.010000000100694765 1 1 1 1 1 1 1 1 1 1 1 1 1 1 1 1 0.021258579355006808 1 1 1 1 1 1 1 1 1 1 1 1 1 0.012136666336212475 1 1 1 1 1 1 1 0.012413013313660674 0.016629306281691417 1 1 1 1 1 1 1 1 0.020645015148545096 0.010736078110072433 1 1 1 1 1 1 1 1 1 1 1 0.010043919795673636 1 1 1 0.011765010701434285 1 1 0.011016018473691762 1 1 0.010000000237739937 1 1 1 1 1 1 1 1 1 1 1 0.010012559329237877 0.010118577545737723 1 1 1 0.010383428773199171 1 1 1 1 1 1 1 1 0.011515745453302396 1 1 1 1 0.0099999998038604668 0.011010823721321679 1 1 1 1 1 1 1 1 1 0.009999999783486771 1 1 1 1 1 0.01061789468277664 1 1 0.015520372819265493 1 1 1 1 1 1 0.01173085831049879 1 0.01313484411151724 1 1 1 1 1 1 1 1 0.010029420308482574 1 0.010360446903363144 1 1 1 1 1 1 1 1 1 1 1 0.010000000010145116 1 1 1 1 1 1 1 1 1 1 1 1 0.011142704479709949 1 1 1 1 1 1 1 1 1 1 1 1 1 1 0.021220507625237021 1 1 1 1 0.013867524646711267 1 1 1 1 1 0.0149990253870722 1 1 1 1 1 1 1 1 1 0.0099999994347425014 1 1 1 1 1 1 0.0099999981768546103 1 1 1 1 1 1 0.010230598222019979 1 1 1 1 1 1 1 1 1 1 1 1 1 1 1 1 1 1 1 0.016042244724472063 1 0.010354535109390543 1 1 1 1 1 1 1 1 1 1 1 1 1 1 1 1 1 1 0.02087319684096748 1 1 1 1 1 1 1 0.010797360019020066 1 1 1 1 1 1 1 1 1 1 1 1 1 0.010655716757375802 0.011450982254264223 1 1 1 1 1 1 1 1 1 1 1 1 1 1 1 1 1 1 1 1 1 1 1 1 1 1 0.012150605247332857 1 1 1 1 1 0.0099999998393147799 1 1 1 1 1 1 1 1 1 1 1 1 1 1 1 1 1 1 1 1 1 1 1 0.0111265892301589 1 1 1 1 1 1 1 1 0.0104938592596689 1 1 1 1 1 1 1 1 1 0.011078597185237668 1 1 0.01114858045746589 1 1 1 1 1 1 1 0.011922192771166802 1 1 1 1 0.012129975302757195 1 1 1 1 0.012405087870407623 1 1 1 1 1 1 1 1 0.013280626396397202 1 0.011855762054884315 1 1 0.010033231545447725 1 0.012563133159064738 1 1 1 1 0.010085433643631226 1 1 1 0.0099999995249575261 1 1 1 0.0099999998690971179 1 1 1 0.010102266513177147 1 1 1 1 1 1 1 1 1 1 1 1 0.010000000020150925 1 1 1 1 1 0.010000000838842536 1 1 1 1 1 1 1 1 1 1 1 1 1 1 1 1 1 0.010470853528814253 1 1 1 1 1 1 1 1 1 1 0.016024963477041278 1 1 1 1 1 0.019158325831698068 1 1 1 0.0099999990852034839 1 1 1 1 1 1 1 1 1 1 1 1 1 1 1 1 0.012571434805725734 1 1 0.010000000261629878 1 1 1 0.018904769066590436 1 1 1 1 0.012031746254993973 1 1 1 1 0.010000001591360105 0.0159415628078272 1 1 1 0.011019447619402043 1 1 0.010929255584412054 1 1 1 1 0.02009699851954113 1 1 1 1 1 1 1 1 1 1 1 1 1 1 1 1 1 1 1 1 1 1 1 1 1 1 1 1 1 1 1 1 1 1 1 1 1 1 1 1 1 1 1 1 1 1 1 1 1 1 1 1 1 1 1 1 1 1 1 1 1 1 1 1 1 1 1 1 1 1 1 1 1 1 0.010326668817588232 1 0.010222447641296971 1 1 1 1 1 0.024016462355347643 1 1 1 1 0.023422324997288309 1 1 1 1 1 1 1 1 1 0.023389836324478726 1 1 1 1 1 1 1 1 1 1 1 1 1 1 1 1 1 0.010138274558428997 1 1 1 1 1 1 1 1 1 1 1 1 1 1 1 1 1 1 1 1 1 1 1 1 1 1 1 1 1 1 1 1 1 1 1 1 1 0.010886561174841491 1 1 1 1 1 1 1 0.010803863653869164 1 1 0.011121439879374119 1 1 1 1 1 1 1 1 1 1 1 1 1 1 0.010594803208468742 1 1 1 0.010521801463164712 1 1 1 1 1 0.011095592598138783 1 1 1 1 1 1 0.010665709427958928 1 1 1 1 1 0.010254725997948758 1 0.010017617033229169 1 1 1 1 1 1 1 1 1 1 1 0.010545508105625823 1 1 1 1 1 1 0.011059099381576676 1 1 1 1 0.010004958768704698 1 0.010000000468688562 1 0.010897223777751276 1 1 1 0.010481029722465391 1 1 1 1 1 1 1 1 1 1 1 1 1 0.010416169214659862 1 1 1 1 0.010266886660300796 1 1 1 1 1 1 1 1 1 1 1 0.010216548733293807 1 0.0099999995392714078 1 1 1 0.010447429171556361 1 1 1 1 0.012209440863224785 1 1 1 1 1 1 0.010100168413348265 0.0099999993408479496 1 1 1 1 1 1 1 1 1 1 1 1 1 1 1 0.014207508820322477 1 1 1 1 1 0.015185417588414296 0.013045668344987819 1 1 1 0.010253685805368336 1 0.012647039708874604 1 1 1 1 1 0.012717126933679677 1 1 0.014201916574801056 1 1 1 1 1 0.010946531316197765 1 1 1 0.010083308236338365 1 1 0.015132634718908321 1 0.010105808154986858 1 1 1 1 1 0.010000000300187835 1 1 1 1 1 1 1 1 1 0.0099999985564677776 1 1 1 1 1 1 1 1 1 1 1 1 0.0099999989149538587 1 1 1 1 1 1 1 1 1 0.010000000000690012 1 1 1 1 1 1 1 1 1 1 1 1 1 1 1 1 1 0.010063238772044422 1 1 1 0.010240881889739423 1 1 1 1 1 1 1 1 1 1 1 1 1 1 1 1 1 1 1 1 1 1 1 1 1 1 1 1 1 1 1 1 1 1 1 0.010583566298353527 1 1 1 0.0099999991595896079 1 1 1 1 1 1 0.0099999999527716696 1 0.010568277421503278 1 1 1 0.010797633366195039 1 1 1 1 1 1 1 1 0.01016775989209568 1 1 1 1 1 1 1 1 1 1 1 1 1 1 1 1 1 0.011207950193878879 1 1 1 1 1 1 1 0.013021262466063749 1 1 0.013903401198034092 1 1 1 1 1 1 0.010000001928343516 1 0.017585115639908042 1 1 0.010224425302227537 1 1 0.013679973555247006 1 0.012558511425820764 0.011522935347703583 1 1 1 1 0.012949160186103646 1 1 1 1 1 1 1 1 1 1 1 0.012147968760463991 0.010339974119523891 1 1 1 0.017229860803909189 1 1 1 0.010386658381167889 0.011736906173050489 1 1 1 1 1 1 1 1 1 0.011320829568271913 1 1 1 1 1 1 1 1 1 1 1 1 0.010000000805675723 0.010373425212728812 1 0.010000000072145208 1 1 0.010000001041753505 1 1 1 0.01003723577791828 0.014972632334750623 0.0099999998813355695 1 1 1 1 0.010000003464017321 1 1 0.014633769727830051 1 1 1 0.01467428343458628 1 1 1 1 1 1 1 0.012386621863167808 1 1 1 0.015037489827471336 1 1 1 1 1 1 0.011846525247943912 1 1 1 1 1 1 1 1 1 1 0.01720169172177901 1 1 1 1 1 1 1 1 1 1 1 1 1 1 1 1 1 1 1 1 1 1 1 1 1 1 1 1 1 0.011088418232331535 1 1 1 0.011018879309766371 1 1 0.010000000031805794 1 0.010000000433186983 1 0.01008997885433793 0.010722380041611294 1 1 1 1 1 1 1 1 1 1 1 1 0.0099999998227405951 0.010000000541533126 1 1 1 1 1 1 1 1 1 1 1 1 1 1 1 1 1 1 1 1 1 1 1 1 1 0.009999999966738015 1 1 1 1 1 1 1 1 1 1 1 1 1 1 1 1 0.010076557019544853 1 1 0.010008699050169002 1 1 1 1 1 1 1 1 1 1 0.0099999997319413607 1 0.0099999999924907344 1 1 1 0.010000000697998767 1 1 1 1 1 0.0099999995605326349 1 1 0.010000000117615026 1 1 1 1 1 1 1 1 1 1 1 1 1 1 1 1 1 1 1 1 1 1 1 1 1 1 1 1 1 1 1 1 1 1 1 1 1 1 1 1 1 1 1 1 1 1 1 1 1 1 1 1 1 1 0.010000000435861741 1 1 1 0.011744359337305502 1 1 1 1 1 1 1 1 1 1 1 1 1 1 1 1 1 1 1 1 1 1 1 1 1 1 1 1 1 1 1 0.021198631674582656 1 1 0.010000000074002164 1 0.010379503968150079 1 1 1 0.014811177935575952 1 1 1 1 0.016613732557969909 1 1 1 1 1 1 1 1 1 0.010000000219459616 1 1 1 1 1 1 1 0.012386697950432041 1 0.0099999999782187533 1 1 1 1 0.010000000449271997 1 1 0.010000001121054904 1 1 1 1 0.010057113826426101 1 1 1 0.011673789288542 1 1 1 1 1 1 1 1 1 1 1 1 0.010234274974543234 1 1 1 1 1 1 1 1 1 1 1 1 1 1 1 1 1 1 1 1 1 1 1 1 1 1 1 0.0099999997187703114 1 1 1 1 1 1 1 0.0099999993532953243 0.010000001674237965 1 1 1 1 1 1 1 1 1 1 1 1 1 1 1 1 1 1 1 1 1 1 1 1 1 1 1 1 1 1 1 1 1 1 1 1 1 1 1 1 1 1 1 1 1 1 1 0.010129836939901674 1 1 1 1 1 0.010000000751747437 1 1 0.010000337506716195 1 1 1 1 1 0.010046554414322131 1 0.010000000633834407 1 1 1 1 1 1 1 1 1 0.010000001387251998 1 1 1 1 0.010000000851131655 1 0.010000001576812429 1 1 1 1 1 1 0.010000340062301834 1 1 1 1 1 0.010002598932315357 1 1 1 1 1 1 1 1 1 1 1 1 1 1 1 1 1 1 1 1 1 1 1 1 1 1 1 1 1 1 1 1 1 1 1 1 1 0.010864316556924158 1 1 1 1 1 0.010000000006956642 1 1 1 0.012310281156260296 1 1 1 1 1 1 1 0.010008594313208906 1 0.01030671345125939 0.010153043896372917 1 1 1 1 1 1 1 1 1 1 1 1 1 1 1 1 1 1 1 1 1 1 1 1 1 1 1 1 0.010029226867272289 1 1 0.0099999998291662277 1 1 0.010036633449110226 1 1 1 0.0099999990934768104 1 1 1 1 1 1 1 1 1 1 1 1 1 1 1 1 1 1 1 1 1 1 1 1 1 1 1 1 0.012956456375013137 1 1 0.01149322852435709 1 1 0.014054398725168647 1 1 0.01022657716145005 1 0.010606773176429801 1 0.010000000069255209 1 1 1 0.010000000066956049 1 1 1 0.01393101869638045 1 1 0.011207397723764115 1 1 1 1 0.015679660933904112 1 1 0.015328050129643334 0.014840197502964031 1 1 1 1 1 1 1 1 1 1 1 1 0.021826537212713215 1 0.01006023917256136 1 1 0.022198394525796132 1 1 0.010000000008726235 1 1 1 1 0.015769314958623291 1 0.010348992542212894 1 1 1 1 0.011139797309806946 1 1 0.012136234438727246 0.010467593257079806 1 1 1 1 1 1 1 1 0.014531370928015751 1 0.01000000002585158 1 0.010000002204386332 1 1 1 1 0.010379509508326782 1 1 1 0.0099999964620198847 1 0.0099999986371661631 1 1 1 1 1 1 1 1 1 1 1 1 1 1 1 1 1 1 1 1 1 1 1 1 1 1 1 0.011004351496469902 1 1 1 1 1 1 0.010121898478583909 1 1 1 1 1 1 1 1 1 1 1 1 1 1 1 1 1 1 1 1 1 1 1 1 1 1 1 1 1 1 1 1 1 1 1 1 1 1 1 0.0099999990853984321 1 1 1 1 0.0144948292352208 1 1 0.014300472337769168 1 1 1 1 0.0099999993154327171 1 1 1 1 1 1 0.013616115989351592 1 1 1 1 1 1 1 1 0.01000000056223227 1 0.010000000313669811 1 1 1 1 1 0.015982970356158435 1 0.010000000180478179 1 1 1 1 1 0.010691563359628359 1 1 1 1 1 1 1 1 1 1 0.0099999999513593757 1 1 1 1 1 1 1 1 1 1 1 1 1 1 1 1 1 1 0.015105181062647906 1 1 0.015042389320238981 1 1 1 1 1 1 1 1 1 0.012372421559471573 1 1 1 1 1 1 1 1 1 1 1 1 1 1 1 1 0.010695040811290968 1 1 1 1 0.011623741654543079 1 1 0.011751674347130925 1 1 1 1 1 1 0.0099999992480354159 1 1 1 1 1 1 0.010029227021830898 1 1 1 1 1 1 1 1 0.01082297350387882 1 1 1 1 1 1 1 1 1 1 1 0.010285060924631099 1 1 1 1 1 1 0.010608500146457122 1 1 0.010188189715431355 1 1 1 1 1 1 1 1 1 1 1 1 1 1 1 1 1 1 1 1 1 1 1 1 1 1 1 1 1 1 1 1 1 1 1 1 1 1 1 1 1 1 1 1 1 1 1 1 1 1 1 1 1 1 1 1 1 1 1 1 0.011569967220385887 1 1 1 1 1 1 1 1 1 1 0.010307881617003349 1 1 1 1 1 1 1 1 1 1 1 1 1 1 1 1 1 1 1 1 1 1 1 1 1 0.011043363228399054 1 0.010000610442400859 1 1 1 1 1 1 1 1 1 1 0.010369488429921771 1 1 1 0.01011549229080029 1 1 1 1 1 1 1 1 1 1 1 1 1 1 1 1 1 1 1 1 1 0.010473980888262076 0.0099999991897633915 1 1 1 0.011452354293098191 1 1 0.018657381839670823 1 1 0.016550332258031562 1 1 1 1 1 0.010091233063035223 1 1 0.023190526385470811 1 0.016533088180699942 1 1 1 1 1 1 1 1 1 1 0.010507440479262872 1 1 0.010000000062223142 1 1 1 1 1 1 1 0.012604048198768187 1 1 1 0.017333945047431673 1 1 1 1 1 0.010000000151992686 1 0.0099999998480509548 1 1 1 1 1 1 1 1 1 0.021251505732210869 1 1 1 1 0.024350783976437952 0.0099999997862787789 1 1 1 1 1 1 1 1 1 1 1 1 1 1 1 1 1 1 1 0.014174440532678075 1 1 1 1 0.010661678328643429 1 1 1 1 1 1 0.01133555312712071 1 1 1 1 1 0.010000000347250173 1 1 0.010000000298767887 0.0099999996579280409 1 1 1 1 1 0.011652948599060445 1 1 0.0099999983105890852 0.020166384716095165 1 1 1 1 1 1 1 1 1 0.010007221258762305 0.016663216089858782 1 1 1 1 0.016800076932668988 1 1 0.017963850188101163 0.015715248419506389 1 0.010092934730068743 0.012238654490065433 1 1 0.013334189039071437 1 0.010000000896510651 0.010165970638770807 1 1 1 1 0.009999999540511258 1 1 1 1 1 1 1 1 0.026189024793119554 1 1 1 1 1 1 1 1 1 1 1 1 1 1 1 1 1 1 1 1 1 1 0.0101383898458795 0.010917876605810657 1 1 1 1 1 1 1 1 1 1 1 1 1 0.010261608142322307 1 1 1 1 1 1 1 1 1 0.012206913176134069 1 1 1 1 1 1 0.010241086565572962 1 1 0.010000001118858636 1 0.015092054526035122 1 1 1 1 0.01000430235630146 1 0.013566692298216027 1 0.013904402557912482 1 1 0.013514526760354733 0.014274999852581696 1 1 1 0.01119608596322532 0.010000000014608667 1 1 1 1 1 0.0099999999168593565 1 0.016247900626761114 1 1 1 1 1 1 1 1 1 1 1 1 1 1 1 1 1 1 1 1 1 0.02076308150119853 1 1 1 0.013479078655932255 0.017926700584630188 1 1 1 1 1 1 0.012880603588193023 0.012711787686205081 1 0.014213407480722265 1 1 1 0.010122696862669447 1 1 1 1 1 1 1 1 1 1 1 1 1 1 1 1 0.020888609878780953 0.013567806629915417 1 0.015148142402170224 0.022526808048404907 1 1 0.021737818861549362 1 1 0.010018433566934239 1 1 1 1 1 1 1 1 1 0.011334849325305554 1 1 0.01099938124886056 1 1 1 1 1 1 0.011153713921180109 1 1 1 1 1 0.010000001452692933 0.013502703857854582 1 1 0.010000000440264516 1 0.010111034084464066 1 1 1 1 0.010089316641915886 1 0.0099999992365599442 1 1 0.0099999987043193073 1 1 1 0.016399509716206094 1 0.013004790113941227 1 1 1 0.010076714048097598 1 1 0.013708358800442326 1 1 1 0.0099999999067266788 1 1 1 0.0099999980831978232 1 0.01159085168040918 1 1 1 1 1 0.0099999994502687362 0.011616926331345647 1 0.011636247435728268 0.012745883141049016 1 1 1 0.0099999988852450435 1 0.010599948430324342 1 1 0.014269070194425861 1 1 1 1 1 0.011846130091087708 1 1 1 1 1 1 1 1 0.012657484130102009 0.011738027351156848 1 1 1 0.010000000021899498 0.011872622529064063 0.020565004796133789 1 1 1 1 1 1 0.013869620988447169 1 1 1 1 1 1 1 1 1 1 1 1 1 1 1 1 0.026148025326180047 1 1 1 1 1 0.0099999999984725207 1 1 1 1 1 1 1 1 1 1 1 1 1 1 1 1 1 1 1 1 1 1 1 0.010000001883672465 1 0.010000000495785978 1 1 1 1 0.01028261587644843 1 1 1 1 1 1 1 1 1 1 0.0099999999423380885 1 1 1 1 1 1 1 1 0.020471232150850456 1 1 0.018432380484799608 1 1 1 1 0.013136154713778995 1 0.011361721025352819 1 1 1 0.010666617089189909 1 0.021941369624912353 1 1 0.014379683288044787 0.011941268904206031 1 1 1 1 1 1 1 1 1 1 1 1 0.010089458277532746 0.013723795709000907 1 1 1 0.015882067432658204 1 1 1 1 0.01501354673406902 1 0.017331335569014557 1 1 1 1 0.017425984902630025 1 1 0.018070698472836089 1 1 0.018772889959698301 1 0.0099999999817303488 1 1 0.018068247175562407 1 1 0.015955622315585328 1 1 1 1 1 0.013812165749577833 1 0.012947161713528853 1 1 1 0.014772820132214906 1 1 1 1 1 1 1 0.010000001094838696 1 1 0.016386739313789381 1 1 1 1 1 0.014966471879431349 1 1 1 1 1 1 1 1 0.012134041831263114 1 1 1 1 1 1 1 0.012089950484656942 1 1 1 1 1 1 1 1 1 1 1 1 1 1 1 1 1 1 1 1 0.010000000019662447 1 1 0.011508281912683264 1 1 1 1 1 1 1 1 1 1 1 0.013035222094272114 0.010000000319565055 1 1 0.010000000167652592 1 1 1 1 1 1 1 1 0.01237008488869093 1 1 1 1 1 1 1 0.010006559879049162 1 1 1 1 0.014045030440809196 1 1 0.010000000150596548 1 0.010000000635690242 1 0.0099999990775519604 1 1 0.011080784754683212 1 0.01702170853425446 1 1 1 1 0.010000000491311146 1 1 1 1 1 1 1 1 1 1 1 1 1 1 1 1 0.010054768078916252 1 1 1 0.011718283644471842 1 1 1 1 1 0.010588179003882436 1 1 1 1 0.0099999998335156496 1 1 0.023158440737273481 0.0099999993028172598 1 1 1 0.020456506993074566 1 0.009999999925256008 1 0.023390334270536745 0.0099999999643268726 1 1 1 1 1 1 0.03080821929075047 1 1 1 0.010000001342261767 1 1 1 1 1 1 1 1 1 1 1 0.0099999995438751488 1 1 1 1 1 0.022182018129416232 1 0.01000000035729591 1 1 1 0.012295252502640134 1 0.010010697619235537 1 1 1 1 1 1 1 0.012856989830025646 1 1 1 0.010041245348193131 1 1 1 1 1 1 1 1 1 1 1 1 1 1 1 1 1 1 1 1 1 1 1 1 0.036494656812322404 1 1 1 1 1 1 1 1 1 1 1 1 1 1 1 0.023850768932778269 1 1 0.022437191884785955 1 1 1 1 1 0.0099999994936958367 1 1 1 1 1 0.010000002062325285 1 0.010312691481618383 1 1 1 1 0.025964635743210104 1 1 0.0099999987944652587 1 1 1 1 0.01000000014467284 1 0.010000000360117618 1 1 1 1 0.015220707879682157 0.010000000059175541 0.015909048208349284 1 1 1 1 1 1 1 0.010742280029052673 1 1 1 1 1 0.011784744134056365 1 1 1 1 1 1 1 1 1 1 0.010089033957146352 1 1 1 1 1 1 1 1 1 1 1 1 1 1 1 1 1 1 1 1 1 1 0.010009772065526586 0.038927537164463295 0.038891784635734963 1 1 1 1 1 1 1 0.0099999988004174766 1 1 1 1 1 0.010000000850318179 1 1 1 1 1 1 0.0099999998748266736 1 1 1 1 0.038366145620202165 1 1 1 1 1 1 1 1 1 1 1 1 1 0.010000000459097552 1 1 0.013077654737766984 1 1 1 1 1 0.021733077913891181 1 1 0.025032850998263217 0.013123309483280769 1 1 1 1 1 1 1 1 1 1 1 1 1 1 1 0.010270236814803085 1 1 0.010531704689450784 1 1 1 1 1 1 1 1 1 1 0.010000001371513301 1 1 1 1 1 1 1 1 1 1 1 1 1 1 1 0.010007205121371671 1 1 1 1 1 1 1 0.010261467874647691 1 1 1 1 0.01000000029494846 1 1 0.0099999992358915518 1 1 1 1 1 1 1 1 1 1 1 1 1 1 1 1 1 1 1 0.0099999994621382225 1 1 1 1 0.010822134025730299 1 1 1 1 1 1 1 1 1 1 1 1 1 1 0.011692079754647621 1 1 1 1 1 1 1 1 1 1 1 1 0.0114766858216895 1 1 1 0.010845967065675616 1 0.010103244936604255 0.010275201164346597 1 1 1 1 1 1 0.010483514044207724 1 1 1 0.010000000201890541 1 0.010000000505286252 1 1 1 1 1 1 1 1 0.010680196703375375 1 1 1 1 1 0.010072197294013849 1 1 1 1 1 1 1 0.011157254506230271 1 1 1 0.0099999995152793598 0.01110382856630052 1 1 1 1 1 1 1 1 0.01057305809958177 1 1 1 1 1 1 1 1 1 1 1 0.010836818171531195 1 1 0.010263760071949419 1 1 1 1 1 1 1 1 0.011676048073134982 1 1 1 1 1 1 1 1 1 1 1 1 1 1 1 1 1 1 1 1 1 1 1 1 1 1 1 1 1 0.010152958267336171 1 1 0.010000000243517583 0.013945779953010613 1 0.015646486364312887 1 1 0.009999999191326105 1 1 0.010889700171719138 1 1 1 0.010144791352077905 1 1 1 1 1 1 1 1 1 1 1 1 1 0.011370397685190194 1 1 0.010895791827021759 1 0.010000000127629166 1 1 1 1 1 1 0.010579997444091604 1 1 1 1 0.0100023711456328 1 1 1 1 1 0.010000000009527343 1 0.009999999808221284 1 1 1 1 1 0.0099999996988179331 0.021695601005702524 1 0.010358821075034667 1 1 1 1 1 1 1 0.022426166386444683 1 1 1 1 1 1 1 1 1 0.0099999986206155932 1 1 1 1 0.011078046027409319 1 1 1 1 1 1 1 1 1 0.009999998700050694 1 1 1 1 1 1 1 1 1 1 1 1 1 1 1 1 1 1 1 1 1 1 1 1 1 1 1 1 1 0.01174978822846514 1 1 1 1 1 1 1 1 1 0.0099999997341068906 1 1 0.010000000287559751 0.015551400192690142 0.011217346424184392 1 1 0.011861573956442623 1 0.010058260348675097 1 1 1 1 1 1 1 1 
</DataArray>
</CellData>
</Piece>
</UnstructuredGrid>
</VTKFile>
