<?xml version="1.0"?>
<VTKFile type="UnstructuredGrid" version="0.1" byte_order="LittleEndian">
<UnstructuredGrid>
<Piece NumberOfPoints="30955" NumberOfCells="10810">
<Points>
<DataArray type="Float64" NumberOfComponents="3" format="ascii">
-0.50000000000000155 -0.48419765407264242 0 -0.48529676213839412 -0.47447408852495482 0 -0.47012831285000473 -0.50000000000000022 0 -0.5 -0.5 0 -0.50000000000000155 -0.48419765407264242 0 -0.47012831285000473 -0.50000000000000022 0 -0.50000000000000155 -0.48419765407264242 0 -0.48529676213839412 -0.47447408852495482 0 -0.5 -0.4669643512799645 0 -0.50000000000000155 -0.48419765407264242 0 -0.48529676213839412 -0.47447408852495482 0 -0.48529676213839412 -0.47447408852495482 0 -0.47012831285000473 -0.50000000000000022 0 -0.48529676213839412 -0.47447408852495482 0 -0.47012831285000473 -0.50000000000000022 0 -0.45780046482859882 -0.48158793016502399 0 -0.47012831285000473 -0.50000000000000022 0 -0.45780046482859882 -0.48158793016502399 0 -0.44080006507285319 -0.5 0 -0.48529676213839412 -0.47447408852495482 0 -0.45780046482859882 -0.48158793016502399 0 -0.46141025537886649 -0.45867743092017271 0 -0.45780046482859882 -0.48158793016502399 0 -0.46141025537886649 -0.45867743092017271 0 -0.43136692870287552 -0.47478813137999248 0 -0.45780046482859882 -0.48158793016502399 0 -0.44080006507285319 -0.5 0 -0.43136692870287552 -0.47478813137999248 0 -0.4375237486193394 -0.44288077331538978 0 -0.46141025537886649 -0.45867743092017271 0 -0.43136692870287552 -0.47478813137999248 0 -0.4375237486193394 -0.44288077331538978 0 -0.46141025537886649 -0.45867743092017271 0 -0.45468057226742697 -0.43239194474585302 0 -0.4375237486193394 -0.44288077331538978 0 -0.46141025537886649 -0.45867743092017271 0 -0.46141025537886649 -0.45867743092017271 0 -0.47591562671170878 -0.43484397156934512 0 -0.45468057226742697 -0.43239194474585302 0 -0.46141025537886649 -0.45867743092017271 0 -0.48063157609710488 -0.45411185987348668 0 -0.47591562671170878 -0.43484397156934512 0 -0.48529676213839412 -0.47447408852495482 0 -0.46141025537886649 -0.45867743092017271 0 -0.48529676213839412 -0.47447408852495482 0 -0.46141025537886649 -0.45867743092017271 0 -0.48063157609710488 -0.45411185987348668 0 -0.48529676213839412 -0.47447408852495482 0 -0.5 -0.4669643512799645 0 -0.50000000000000133 -0.44973104848728668 0 -0.48529676213839412 -0.47447408852495482 0 -0.50000000000000133 -0.44973104848728668 0 -0.48529676213839412 -0.47447408852495482 0 -0.48063157609710488 -0.45411185987348668 0 -0.50000000000000133 -0.44973104848728668 0 -0.48063157609710488 -0.45411185987348668 0 -0.50000000000000133 -0.44973104848728668 0 -0.47591562671170878 -0.43484397156934512 0 -0.5 -0.42184499613522619 0 -0.48205788583089482 -0.41184115531095228 0 -0.47591562671170878 -0.43484397156934512 0 -0.50000000000000133 -0.44973104848728668 0 -0.5 -0.42184499613522619 0 -0.47591562671170878 -0.43484397156934512 0 -0.5 -0.42184499613522619 0 -0.48205788583089482 -0.41184115531095228 0 -0.5 -0.39395894378316548 0 -0.48205788583089482 -0.41184115531095228 0 -0.47591021458970972 -0.39591588020800722 0 -0.45846358785305519 -0.41264198485901771 0 -0.48205788583089482 -0.41184115531095228 0 -0.47591562671170878 -0.43484397156934512 0 -0.45846358785305519 -0.41264198485901771 0 -0.5 -0.39395894378316548 0 -0.49601755043525658 -0.37136641777270429 0 -0.5 -0.366072891431105 0 -0.48496112833222899 -0.38358702294648611 0 -0.5 -0.39395894378316548 0 -0.49601755043525658 -0.37136641777270429 0 -0.48205788583089482 -0.41184115531095228 0 -0.5 -0.39395894378316548 0 -0.47591021458970972 -0.39591588020800722 0 -0.48496112833222899 -0.38358702294648611 0 -0.5 -0.39395894378316548 0 -0.47591021458970972 -0.39591588020800722 0 -0.48496112833222899 -0.38358702294648611 0 -0.49601755043525658 -0.37136641777270429 0 -0.46791674830395008 -0.37310685002206723 0 -0.48496112833222899 -0.38358702294648611 0 -0.47591021458970972 -0.39591588020800722 0 -0.46791674830395008 -0.37310685002206723 0 -0.47591021458970972 -0.39591588020800722 0 -0.44913976701284902 -0.39374463356522421 0 -0.46791674830395008 -0.37310685002206723 0 -0.47591021458970972 -0.39591588020800722 0 -0.44913976701284902 -0.39374463356522421 0 -0.45846358785305519 -0.41264198485901771 0 -0.44913976701284902 -0.39374463356522421 0 -0.45846358785305519 -0.41264198485901771 0 -0.43808339067803759 -0.40509706934297568 0 -0.44913976701284902 -0.39374463356522421 0 -0.43049320212552022 -0.3917009552439546 0 -0.43808339067803759 -0.40509706934297568 0 -0.44913976701284902 -0.39374463356522421 0 -0.45846358785305519 -0.41264198485901771 0 -0.44913976701284902 -0.39374463356522421 0 -0.43049320212552022 -0.3917009552439546 0 -0.43981594617264352 -0.37484728227143038 0 -0.44913976701284902 -0.39374463356522421 0 -0.43981594617264352 -0.37484728227143038 0 -0.44913976701284902 -0.39374463356522421 0 -0.46791674830395008 -0.37310685002206723 0 -0.43981594617264352 -0.37484728227143038 0 -0.47591562671170878 -0.43484397156934512 0 -0.45468057226742697 -0.43239194474585302 0 -0.45846358785305519 -0.41264198485901771 0 -0.43808339067803759 -0.40509706934297568 0 -0.45846358785305519 -0.41264198485901771 0 -0.43814845905252969 -0.42094374160725839 0 -0.45468057226742697 -0.43239194474585302 0 -0.45846358785305519 -0.41264198485901771 0 -0.43814845905252969 -0.42094374160725839 0 -0.4375237486193394 -0.44288077331538978 0 -0.45468057226742697 -0.43239194474585302 0 -0.43814845905252969 -0.42094374160725839 0 -0.4375237486193394 -0.44288077331538978 0 -0.43814845905252969 -0.42094374160725839 0 -0.40914920555733209 -0.43584403975397068 0 -0.43814845905252969 -0.42094374160725839 0 -0.41994998746064771 -0.40867837349177261 0 -0.40914920555733209 -0.43584403975397068 0 -0.43808339067803759 -0.40509706934297568 0 -0.43814845905252969 -0.42094374160725839 0 -0.41994998746064771 -0.40867837349177261 0 -0.41994998746064771 -0.40867837349177261 0 -0.40914920555733209 -0.43584403975397068 0 -0.39757998716618009 -0.41098979106061828 0 -0.42197019677101522 -0.3759525645202253 0 -0.43981594617264352 -0.37484728227143038 0 -0.42197019677101522 -0.3759525645202253 0 -0.43049320212552022 -0.3917009552439546 0 -0.43981594617264352 -0.37484728227143038 0 -0.43808339067803759 -0.40509706934297568 0 -0.41994998746064771 -0.40867837349177261 0 -0.43049320212552022 -0.3917009552439546 0 -0.41994998746064771 -0.40867837349177261 0 -0.43049320212552022 -0.3917009552439546 0 -0.41097559623883928 -0.39272568380870593 0 -0.41994998746064771 -0.40867837349177261 0 -0.41097559623883928 -0.39272568380870593 0 -0.39757998716618009 -0.41098979106061828 0 -0.42197019677101522 -0.3759525645202253 0 -0.43049320212552022 -0.3917009552439546 0 -0.41097559623883928 -0.39272568380870593 0 -0.42197019677101522 -0.3759525645202253 0 -0.40412444736938691 -0.3770578467690206 0 -0.42197019677101522 -0.3759525645202253 0 -0.41097559623883928 -0.39272568380870593 0 -0.40412444736938691 -0.3770578467690206 0 -0.40412444736938691 -0.3770578467690206 0 -0.39173575654028592 -0.39197457176664441 0 -0.38771503938706481 -0.37552736051368879 0 -0.41097559623883928 -0.39272568380870593 0 -0.40412444736938691 -0.3770578467690206 0 -0.39173575654028592 -0.39197457176664441 0 -0.41097559623883928 -0.39272568380870593 0 -0.39173575654028592 -0.39197457176664441 0 -0.39757998716618009 -0.41098979106061828 0 -0.39173575654028592 -0.39197457176664441 0 -0.37940075384634131 -0.40151396220611058 0 -0.39757998716618009 -0.41098979106061828 0 -0.39173575654028592 -0.39197457176664441 0 -0.37940075384634131 -0.40151396220611058 0 -0.3700505658508601 -0.37568717651397893 0 -0.39173575654028592 -0.39197457176664441 0 -0.38771503938706481 -0.37552736051368879 0 -0.3700505658508601 -0.37568717651397893 0 -0.39173575654028592 -0.39197457176664441 0 -0.3700505658508601 -0.37568717651397893 0 -0.40914920555733209 -0.43584403975397068 0 -0.39111072328872643 -0.42895821874839501 0 -0.39757998716618009 -0.41098979106061828 0 -0.40914920555733209 -0.43584403975397068 0 -0.39111072328872643 -0.42895821874839501 0 -0.38148716114152592 -0.44514799216385048 0 -0.39111072328872643 -0.42895821874839501 0 -0.39757998716618009 -0.41098979106061828 0 -0.37785700489956442 -0.41751623481388561 0 -0.37940075384634131 -0.40151396220611058 0 -0.39757998716618009 -0.41098979106061828 0 -0.37785700489956442 -0.41751623481388561 0 -0.39111072328872643 -0.42895821874839501 0 -0.37785700489956442 -0.41751623481388561 0 -0.38148716114152592 -0.44514799216385048 0 -0.40914920555733209 -0.43584403975397068 0 -0.38148716114152592 -0.44514799216385048 0 -0.40880877088152701 -0.45821652930294149 0 -0.38148716114152592 -0.44514799216385048 0 -0.38598305583002801 -0.47018257414951709 0 -0.40880877088152701 -0.45821652930294149 0 -0.38148716114152592 -0.44514799216385048 0 -0.38598305583002801 -0.47018257414951709 0 -0.36100807999382573 -0.47003272482440478 0 -0.38598305583002801 -0.47018257414951709 0 -0.38214356951855022 -0.5 0 -0.36100807999382573 -0.47003272482440478 0 -0.38214356951855022 -0.5 0 -0.40395482844573638 -0.48063744696649019 0 -0.4114718172957017 -0.5 0 -0.38598305583002801 -0.47018257414951709 0 -0.38214356951855022 -0.5 0 -0.40395482844573638 -0.48063744696649019 0 -0.38598305583002801 -0.47018257414951709 0 -0.40395482844573638 -0.48063744696649019 0 -0.40880877088152701 -0.45821652930294149 0 -0.40395482844573638 -0.48063744696649019 0 -0.43136692870287552 -0.47478813137999248 0 -0.40880877088152701 -0.45821652930294149 0 -0.40395482844573638 -0.48063744696649019 0 -0.4114718172957017 -0.5 0 -0.43136692870287552 -0.47478813137999248 0 -0.44080006507285319 -0.5 0 -0.4114718172957017 -0.5 0 -0.43136692870287552 -0.47478813137999248 0 -0.4375237486193394 -0.44288077331538978 0 -0.43136692870287552 -0.47478813137999248 0 -0.40880877088152701 -0.45821652930294149 0 -0.4375237486193394 -0.44288077331538978 0 -0.40914920555733209 -0.43584403975397068 0 -0.40880877088152701 -0.45821652930294149 0 -0.44089724879962422 -0.25705080147496268 0 -0.44275804325354368 -0.26970608473048879 0 -0.45490572843724941 -0.26030525125846621 0 -0.44089724879962422 -0.25705080147496268 0 -0.45490572843724941 -0.26030525125846621 0 -0.45112804841280352 -0.24736566691844331 0 -0.44089724879962422 -0.25705080147496268 0 -0.44275804325354368 -0.26970608473048879 0 -0.42930937207602687 -0.26287466722696667 0 -0.44275804325354368 -0.26970608473048879 0 -0.44632664015692608 -0.27952630442555682 0 -0.43587789440108909 -0.28072573382360072 0 -0.44275804325354368 -0.26970608473048879 0 -0.44632664015692608 -0.27952630442555682 0 -0.45827706379948668 -0.27515777307610451 0 -0.44275804325354368 -0.26970608473048879 0 -0.45827706379948668 -0.27515777307610451 0 -0.45490572843724941 -0.26030525125846621 0 -0.45827706379948668 -0.27515777307610451 0 -0.45490572843724941 -0.26030525125846621 0 -0.47623228234947779 -0.26217155337377168 0 -0.45490572843724941 -0.26030525125846621 0 -0.47623228234947779 -0.26217155337377168 0 -0.46349610418455361 -0.24941977676296981 0 -0.45490572843724941 -0.26030525125846621 0 -0.46349610418455361 -0.24941977676296981 0 -0.45112804841280352 -0.24736566691844331 0 -0.47623228234947779 -0.26217155337377168 0 -0.47467447318562589 -0.247274770813766 0 -0.46349610418455361 -0.24941977676296981 0 -0.47623228234947779 -0.26217155337377168 0 -0.48488985168481169 -0.24768668174123201 0 -0.47467447318562589 -0.247274770813766 0 -0.47623228234947779 -0.26217155337377168 0 -0.5 -0.25452868202286227 0 -0.48488985168481169 -0.24768668174123201 0 -0.47623228234947779 -0.26217155337377168 0 -0.47709112818064692 -0.28151757205965527 0 -0.5 -0.28241473437492293 0 -0.47623228234947779 -0.26217155337377168 0 -0.5 -0.25452868202286227 0 -0.5 -0.28241473437492293 0 -0.45827706379948668 -0.27515777307610451 0 -0.47623228234947779 -0.26217155337377168 0 -0.47709112818064692 -0.28151757205965527 0 -0.4829029141870998 -0.29676852632896622 0 -0.47709112818064692 -0.28151757205965527 0 -0.46557029305156072 -0.29503346393230762 0 -0.4829029141870998 -0.29676852632896622 0 -0.47709112818064692 -0.28151757205965527 0 -0.5 -0.28241473437492293 0 -0.4829029141870998 -0.29676852632896622 0 -0.5 -0.28241473437492293 0 -0.5 -0.31030078672698369 0 -0.4829029141870998 -0.29676852632896622 0 -0.5 -0.31030078672698369 0 -0.47185314970329112 -0.31457607455096132 0 -0.4829029141870998 -0.29676852632896622 0 -0.46557029305156072 -0.29503346393230762 0 -0.47185314970329112 -0.31457607455096132 0 -0.46557029305156072 -0.29503346393230762 0 -0.44839355917358492 -0.29251562607203352 0 -0.4504039741813276 -0.30925486527687368 0 -0.46557029305156072 -0.29503346393230762 0 -0.4504039741813276 -0.30925486527687368 0 -0.47185314970329112 -0.31457607455096132 0 -0.45827706379948668 -0.27515777307610451 0 -0.46557029305156072 -0.29503346393230762 0 -0.44839355917358492 -0.29251562607203352 0 -0.45827706379948668 -0.27515777307610451 0 -0.47709112818064692 -0.28151757205965527 0 -0.46557029305156072 -0.29503346393230762 0 -0.44632664015692608 -0.27952630442555682 0 -0.45827706379948668 -0.27515777307610451 0 -0.44839355917358492 -0.29251562607203352 0 -0.44632664015692608 -0.27952630442555682 0 -0.44839355917358492 -0.29251562607203352 0 -0.43587789440108909 -0.28072573382360072 0 -0.44839355917358492 -0.29251562607203352 0 -0.43374136536374608 -0.29240298732209941 0 -0.43587789440108909 -0.28072573382360072 0 -0.44839355917358492 -0.29251562607203352 0 -0.4362530080263905 -0.30378992048876419 0 -0.43374136536374608 -0.29240298732209941 0 -0.44839355917358492 -0.29251562607203352 0 -0.4504039741813276 -0.30925486527687368 0 -0.4362530080263905 -0.30378992048876419 0 -0.4504039741813276 -0.30925486527687368 0 -0.43499904213230578 -0.31472484870087392 0 -0.4362530080263905 -0.30378992048876419 0 -0.4504039741813276 -0.30925486527687368 0 -0.44293090509888922 -0.32935455185386092 0 -0.43499904213230578 -0.31472484870087392 0 -0.44293090509888922 -0.32935455185386092 0 -0.4493670836064505 -0.35334393253149837 0 -0.42675533544910738 -0.34837627288761341 0 -0.44293090509888922 -0.32935455185386092 0 -0.47185314970329112 -0.31457607455096132 0 -0.46941648300766209 -0.34103470562251947 0 -0.44293090509888922 -0.32935455185386092 0 -0.46941648300766209 -0.34103470562251947 0 -0.44293090509888922 -0.32935455185386092 0 -0.46941648300766209 -0.34103470562251947 0 -0.4493670836064505 -0.35334393253149837 0 -0.4504039741813276 -0.30925486527687368 0 -0.44293090509888922 -0.32935455185386092 0 -0.47185314970329112 -0.31457607455096132 0 -0.47185314970329112 -0.31457607455096132 0 -0.48531740817773827 -0.32602460149487722 0 -0.46941648300766209 -0.34103470562251947 0 -0.5 -0.31030078672698369 0 -0.48531740817773827 -0.32602460149487722 0 -0.5 -0.33818683907904429 0 -0.5 -0.31030078672698369 0 -0.47185314970329112 -0.31457607455096132 0 -0.48531740817773827 -0.32602460149487722 0 -0.48531740817773827 -0.32602460149487722 0 -0.5 -0.33818683907904429 0 -0.46941648300766209 -0.34103470562251947 0 -0.46941648300766209 -0.34103470562251947 0 -0.49590206091643507 -0.35271485939117808 0 -0.46941648300766209 -0.34103470562251947 0 -0.49590206091643507 -0.35271485939117808 0 -0.48585056853266068 -0.36085914484791481 0 -0.46941648300766209 -0.34103470562251947 0 -0.48585056853266068 -0.36085914484791481 0 -0.46791674830395008 -0.37310685002206723 0 -0.5 -0.33818683907904429 0 -0.49590206091643507 -0.35271485939117808 0 -0.5 -0.366072891431105 0 -0.5 -0.33818683907904429 0 -0.46941648300766209 -0.34103470562251947 0 -0.49590206091643507 -0.35271485939117808 0 -0.49601755043525658 -0.37136641777270429 0 -0.5 -0.366072891431105 0 -0.48585056853266068 -0.36085914484791481 0 -0.49590206091643507 -0.35271485939117808 0 -0.5 -0.366072891431105 0 -0.48585056853266068 -0.36085914484791481 0 -0.49601755043525658 -0.37136641777270429 0 -0.48585056853266068 -0.36085914484791481 0 -0.46791674830395008 -0.37310685002206723 0 -0.49601755043525658 -0.37136641777270429 0 -0.46791674830395008 -0.37310685002206723 0 -0.46941648300766209 -0.34103470562251947 0 -0.46791674830395008 -0.37310685002206723 0 -0.4493670836064505 -0.35334393253149837 0 -0.46791674830395008 -0.37310685002206723 0 -0.43981594617264352 -0.37484728227143038 0 -0.4493670836064505 -0.35334393253149837 0 -0.43981594617264352 -0.37484728227143038 0 -0.42675533544910738 -0.34837627288761341 0 -0.46791674830395008 -0.37310685002206723 0 -0.4493670836064505 -0.35334393253149837 0 -0.43981594617264352 -0.37484728227143038 0 -0.43981594617264352 -0.37484728227143038 0 -0.42675533544910738 -0.34837627288761341 0 -0.42197019677101522 -0.3759525645202253 0 -0.43981594617264352 -0.37484728227143038 0 -0.42675533544910738 -0.34837627288761341 0 -0.42675533544910738 -0.34837627288761341 0 -0.40880356087189718 -0.35848009356924238 0 -0.41122730041532479 -0.3414617195740669 0 -0.42197019677101522 -0.3759525645202253 0 -0.40412444736938691 -0.3770578467690206 0 -0.40880356087189718 -0.35848009356924238 0 -0.42197019677101522 -0.3759525645202253 0 -0.42675533544910738 -0.34837627288761341 0 -0.40880356087189718 -0.35848009356924238 0 -0.40412444736938691 -0.3770578467690206 0 -0.40880356087189718 -0.35848009356924238 0 -0.38895447214971901 -0.36075625151809543 0 -0.40412444736938691 -0.3770578467690206 0 -0.38771503938706481 -0.37552736051368879 0 -0.38895447214971901 -0.36075625151809543 0 -0.38895447214971901 -0.36075625151809543 0 -0.36960067856534079 -0.34609429840314959 0 -0.3700505658508601 -0.37568717651397893 0 -0.38771503938706481 -0.37552736051368879 0 -0.38895447214971901 -0.36075625151809543 0 -0.3700505658508601 -0.37568717651397893 0 -0.38895447214971901 -0.36075625151809543 0 -0.38427803503890978 -0.34396007953610869 0 -0.36960067856534079 -0.34609429840314959 0 -0.40880356087189718 -0.35848009356924238 0 -0.39866789512015238 -0.34540551796723179 0 -0.41122730041532479 -0.3414617195740669 0 -0.38895447214971901 -0.36075625151809543 0 -0.38427803503890978 -0.34396007953610869 0 -0.39866789512015238 -0.34540551796723179 0 -0.40880356087189718 -0.35848009356924238 0 -0.38895447214971901 -0.36075625151809543 0 -0.39866789512015238 -0.34540551796723179 0 -0.39866789512015238 -0.34540551796723179 0 -0.40561046232651082 -0.33165416311064128 0 -0.39199108706432129 -0.33462573616719599 0 -0.39866789512015238 -0.34540551796723179 0 -0.40561046232651082 -0.33165416311064128 0 -0.41122730041532479 -0.3414617195740669 0 -0.40561046232651082 -0.33165416311064128 0 -0.39199108706432129 -0.33462573616719599 0 -0.40074829049973631 -0.32545110608782041 0 -0.39199108706432129 -0.33462573616719599 0 -0.39276311365421052 -0.32503374838063848 0 -0.40074829049973631 -0.32545110608782041 0 -0.38427803503890978 -0.34396007953610869 0 -0.39866789512015238 -0.34540551796723179 0 -0.39199108706432129 -0.33462573616719599 0 -0.38427803503890978 -0.34396007953610869 0 -0.39199108706432129 -0.33462573616719599 0 -0.37301588793020618 -0.33225907559828421 0 -0.39199108706432129 -0.33462573616719599 0 -0.38395127781278582 -0.32459941200168702 0 -0.37301588793020618 -0.33225907559828421 0 -0.38427803503890978 -0.34396007953610869 0 -0.37301588793020618 -0.33225907559828421 0 -0.36960067856534079 -0.34609429840314959 0 -0.38395127781278582 -0.32459941200168702 0 -0.38393317961517842 -0.31323077203149879 0 -0.37434461390118162 -0.31727813229109109 0 -0.38395127781278582 -0.32459941200168702 0 -0.37434461390118162 -0.31727813229109109 0 -0.37301588793020618 -0.33225907559828421 0 -0.38395127781278582 -0.32459941200168702 0 -0.39305925431001493 -0.31536956198754301 0 -0.39276311365421052 -0.32503374838063848 0 -0.39199108706432129 -0.33462573616719599 0 -0.38395127781278582 -0.32459941200168702 0 -0.39276311365421052 -0.32503374838063848 0 -0.38395127781278582 -0.32459941200168702 0 -0.38393317961517842 -0.31323077203149879 0 -0.39305925431001493 -0.31536956198754301 0 -0.39305925431001493 -0.31536956198754301 0 -0.39276311365421052 -0.32503374838063848 0 -0.40167824433009769 -0.31855304970004988 0 -0.39276311365421052 -0.32503374838063848 0 -0.40074829049973631 -0.32545110608782041 0 -0.40167824433009769 -0.31855304970004988 0 -0.40561046232651082 -0.33165416311064128 0 -0.40074829049973631 -0.32545110608782041 0 -0.4065859777808758 -0.32275065963189709 0 -0.40074829049973631 -0.32545110608782041 0 -0.40167824433009769 -0.31855304970004988 0 -0.4065859777808758 -0.32275065963189709 0 -0.39305925431001493 -0.31536956198754301 0 -0.40167824433009769 -0.31855304970004988 0 -0.40341455526489273 -0.31221228737452461 0 -0.40167824433009769 -0.31855304970004988 0 -0.4093322818917185 -0.31648051858151099 0 -0.4065859777808758 -0.32275065963189709 0 -0.40167824433009769 -0.31855304970004988 0 -0.4093322818917185 -0.31648051858151099 0 -0.40341455526489273 -0.31221228737452461 0 -0.4093322818917185 -0.31648051858151099 0 -0.40933142140659179 -0.31038753062009272 0 -0.40341455526489273 -0.31221228737452461 0 -0.4093322818917185 -0.31648051858151099 0 -0.41644532719011651 -0.31767439808520243 0 -0.41369472472557223 -0.32190526350379611 0 -0.4093322818917185 -0.31648051858151099 0 -0.41644532719011651 -0.31767439808520243 0 -0.41365457323656879 -0.31177800180983922 0 -0.4093322818917185 -0.31648051858151099 0 -0.41365457323656879 -0.31177800180983922 0 -0.40933142140659179 -0.31038753062009272 0 -0.41644532719011651 -0.31767439808520243 0 -0.41880478155796957 -0.30841871062130849 0 -0.41365457323656879 -0.31177800180983922 0 -0.41644532719011651 -0.31767439808520243 0 -0.41369472472557223 -0.32190526350379611 0 -0.42495657311592139 -0.32932762158261819 0 -0.40561046232651082 -0.33165416311064128 0 -0.41369472472557223 -0.32190526350379611 0 -0.4065859777808758 -0.32275065963189709 0 -0.4093322818917185 -0.31648051858151099 0 -0.41369472472557223 -0.32190526350379611 0 -0.4065859777808758 -0.32275065963189709 0 -0.42675533544910738 -0.34837627288761341 0 -0.41369472472557223 -0.32190526350379611 0 -0.41122730041532479 -0.3414617195740669 0 -0.40561046232651082 -0.33165416311064128 0 -0.41369472472557223 -0.32190526350379611 0 -0.41122730041532479 -0.3414617195740669 0 -0.42675533544910738 -0.34837627288761341 0 -0.41369472472557223 -0.32190526350379611 0 -0.42495657311592139 -0.32932762158261819 0 -0.42675533544910738 -0.34837627288761341 0 -0.41369472472557223 -0.32190526350379611 0 -0.44293090509888922 -0.32935455185386092 0 -0.42675533544910738 -0.34837627288761341 0 -0.42495657311592139 -0.32932762158261819 0 -0.44293090509888922 -0.32935455185386092 0 -0.41644532719011651 -0.31767439808520243 0 -0.43499904213230578 -0.31472484870087392 0 -0.44293090509888922 -0.32935455185386092 0 -0.41644532719011651 -0.31767439808520243 0 -0.42495657311592139 -0.32932762158261819 0 -0.41644532719011651 -0.31767439808520243 0 -0.43499904213230578 -0.31472484870087392 0 -0.42614174445728609 -0.30912936645492911 0 -0.44293090509888922 -0.32935455185386092 0 -0.41644532719011651 -0.31767439808520243 0 -0.42224377269488339 -0.29965118640383542 0 -0.42614174445728609 -0.30912936645492911 0 -0.4362530080263905 -0.30378992048876419 0 -0.42224377269488339 -0.29965118640383542 0 -0.42614174445728609 -0.30912936645492911 0 -0.41880478155796957 -0.30841871062130849 0 -0.43499904213230578 -0.31472484870087392 0 -0.42614174445728609 -0.30912936645492911 0 -0.4362530080263905 -0.30378992048876419 0 -0.42224377269488339 -0.29965118640383542 0 -0.4362530080263905 -0.30378992048876419 0 -0.43374136536374608 -0.29240298732209941 0 -0.43374136536374608 -0.29240298732209941 0 -0.42460904051013271 -0.28631751669340533 0 -0.43587789440108909 -0.28072573382360072 0 -0.42224377269488339 -0.29965118640383542 0 -0.43374136536374608 -0.29240298732209941 0 -0.42460904051013271 -0.28631751669340533 0 -0.42224377269488339 -0.29965118640383542 0 -0.42460904051013271 -0.28631751669340533 0 -0.41407785646329232 -0.29201547724741722 0 -0.42460904051013271 -0.28631751669340533 0 -0.41407785646329232 -0.29201547724741722 0 -0.41593604540316342 -0.28395377205972377 0 -0.42460904051013271 -0.28631751669340533 0 -0.41593604540316342 -0.28395377205972377 0 -0.42421291886923629 -0.27374380636890838 0 -0.41407785646329232 -0.29201547724741722 0 -0.41593604540316342 -0.28395377205972377 0 -0.40688875837238653 -0.28554940963578462 0 -0.41593604540316342 -0.28395377205972377 0 -0.40688875837238653 -0.28554940963578462 0 -0.41064291825155269 -0.27679000491597899 0 -0.41407785646329232 -0.29201547724741722 0 -0.41106406589629418 -0.29955965088766179 0 -0.40487175175885137 -0.29408321857289438 0 -0.41407785646329232 -0.29201547724741722 0 -0.40688875837238653 -0.28554940963578462 0 -0.40487175175885137 -0.29408321857289438 0 -0.41106406589629418 -0.29955965088766179 0 -0.40348826330436027 -0.30071334088172369 0 -0.40487175175885137 -0.29408321857289438 0 -0.41106406589629418 -0.29955965088766179 0 -0.40638624107026883 -0.30597815323542171 0 -0.40348826330436027 -0.30071334088172369 0 -0.41106406589629418 -0.29955965088766179 0 -0.41386945556951049 -0.30548869209916713 0 -0.40638624107026883 -0.30597815323542171 0 -0.42224377269488339 -0.29965118640383542 0 -0.41880478155796957 -0.30841871062130849 0 -0.41386945556951049 -0.30548869209916713 0 -0.42224377269488339 -0.29965118640383542 0 -0.41407785646329232 -0.29201547724741722 0 -0.41106406589629418 -0.29955965088766179 0 -0.42224377269488339 -0.29965118640383542 0 -0.41106406589629418 -0.29955965088766179 0 -0.41386945556951049 -0.30548869209916713 0 -0.41644532719011651 -0.31767439808520243 0 -0.42614174445728609 -0.30912936645492911 0 -0.41880478155796957 -0.30841871062130849 0 -0.41880478155796957 -0.30841871062130849 0 -0.41365457323656879 -0.31177800180983922 0 -0.41386945556951049 -0.30548869209916713 0 -0.41365457323656879 -0.31177800180983922 0 -0.41386945556951049 -0.30548869209916713 0 -0.40933142140659179 -0.31038753062009272 0 -0.41386945556951049 -0.30548869209916713 0 -0.40638624107026883 -0.30597815323542171 0 -0.40933142140659179 -0.31038753062009272 0 -0.40638624107026883 -0.30597815323542171 0 -0.40933142140659179 -0.31038753062009272 0 -0.40341455526489273 -0.31221228737452461 0 -0.40638624107026883 -0.30597815323542171 0 -0.40341455526489273 -0.31221228737452461 0 -0.39859054112565362 -0.30604764771511861 0 -0.39859054112565362 -0.30604764771511861 0 -0.40348826330436027 -0.30071334088172369 0 -0.39607367137888039 -0.29759722684554202 0 -0.40348826330436027 -0.30071334088172369 0 -0.39607367137888039 -0.29759722684554202 0 -0.40487175175885137 -0.29408321857289438 0 -0.40638624107026883 -0.30597815323542171 0 -0.39859054112565362 -0.30604764771511861 0 -0.40348826330436027 -0.30071334088172369 0 -0.39607367137888039 -0.29759722684554202 0 -0.38965986588217222 -0.30461303745292601 0 -0.38638261358231812 -0.29370303126548758 0 -0.39859054112565362 -0.30604764771511861 0 -0.39607367137888039 -0.29759722684554202 0 -0.38965986588217222 -0.30461303745292601 0 -0.39305925431001493 -0.31536956198754301 0 -0.40341455526489273 -0.31221228737452461 0 -0.39859054112565362 -0.30604764771511861 0 -0.39305925431001493 -0.31536956198754301 0 -0.39859054112565362 -0.30604764771511861 0 -0.38965986588217222 -0.30461303745292601 0 -0.38393317961517842 -0.31323077203149879 0 -0.39305925431001493 -0.31536956198754301 0 -0.38965986588217222 -0.30461303745292601 0 -0.38393317961517842 -0.31323077203149879 0 -0.38965986588217222 -0.30461303745292601 0 -0.37865088616973719 -0.30429371642424691 0 -0.38965986588217222 -0.30461303745292601 0 -0.37865088616973719 -0.30429371642424691 0 -0.38638261358231812 -0.29370303126548758 0 -0.37865088616973719 -0.30429371642424691 0 -0.38638261358231812 -0.29370303126548758 0 -0.37084215550068811 -0.2936643091586027 0 -0.38393317961517842 -0.31323077203149879 0 -0.37865088616973719 -0.30429371642424691 0 -0.37434461390118162 -0.31727813229109109 0 -0.38055029601460388 -0.28523350221379851 0 -0.38465990815863499 -0.27722737063849773 0 -0.37181605379377342 -0.28248267616848 0 -0.38055029601460388 -0.28523350221379851 0 -0.38638261358231812 -0.29370303126548758 0 -0.37084215550068811 -0.2936643091586027 0 -0.38055029601460388 -0.28523350221379851 0 -0.38638261358231812 -0.29370303126548758 0 -0.39065688132252269 -0.28304166058092473 0 -0.38055029601460388 -0.28523350221379851 0 -0.39065688132252269 -0.28304166058092473 0 -0.38465990815863499 -0.27722737063849773 0 -0.39065688132252269 -0.28304166058092473 0 -0.39763789513789449 -0.28906420593923682 0 -0.40057092482636442 -0.27997037541206349 0 -0.38638261358231812 -0.29370303126548758 0 -0.39065688132252269 -0.28304166058092473 0 -0.39763789513789449 -0.28906420593923682 0 -0.39607367137888039 -0.29759722684554202 0 -0.38638261358231812 -0.29370303126548758 0 -0.39763789513789449 -0.28906420593923682 0 -0.40688875837238653 -0.28554940963578462 0 -0.39763789513789449 -0.28906420593923682 0 -0.40487175175885137 -0.29408321857289438 0 -0.39607367137888039 -0.29759722684554202 0 -0.39763789513789449 -0.28906420593923682 0 -0.40487175175885137 -0.29408321857289438 0 -0.40688875837238653 -0.28554940963578462 0 -0.39763789513789449 -0.28906420593923682 0 -0.40057092482636442 -0.27997037541206349 0 -0.40057092482636442 -0.27997037541206349 0 -0.40347391251510972 -0.27127842446971612 0 -0.41064291825155269 -0.27679000491597899 0 -0.40057092482636442 -0.27997037541206349 0 -0.40347391251510972 -0.27127842446971612 0 -0.39472360235750609 -0.27371483477162423 0 -0.40688875837238653 -0.28554940963578462 0 -0.40057092482636442 -0.27997037541206349 0 -0.41064291825155269 -0.27679000491597899 0 -0.40347391251510972 -0.27127842446971612 0 -0.39472360235750609 -0.27371483477162423 0 -0.39465012969057722 -0.26255535047140632 0 -0.39065688132252269 -0.28304166058092473 0 -0.40057092482636442 -0.27997037541206349 0 -0.39472360235750609 -0.27371483477162423 0 -0.39472360235750609 -0.27371483477162423 0 -0.38465990815863499 -0.27722737063849773 0 -0.3763364770003384 -0.2678718652245804 0 -0.39065688132252269 -0.28304166058092473 0 -0.39472360235750609 -0.27371483477162423 0 -0.38465990815863499 -0.27722737063849773 0 -0.39132132435189371 -0.25434396645439222 0 -0.37267884393622319 -0.25399263996048671 0 -0.40031549770242703 -0.24235612467253881 0 -0.39472360235750609 -0.27371483477162423 0 -0.3763364770003384 -0.2678718652245804 0 -0.37267884393622319 -0.25399263996048671 0 -0.39132132435189371 -0.25434396645439222 0 -0.39465012969057722 -0.26255535047140632 0 -0.37267884393622319 -0.25399263996048671 0 -0.39472360235750609 -0.27371483477162423 0 -0.39465012969057722 -0.26255535047140632 0 -0.37267884393622319 -0.25399263996048671 0 -0.39472360235750609 -0.27371483477162423 0 -0.37267884393622319 -0.25399263996048671 0 -0.39132132435189371 -0.25434396645439222 0 -0.39465012969057722 -0.26255535047140632 0 -0.40179810659226339 -0.25460435118111058 0 -0.39132132435189371 -0.25434396645439222 0 -0.40179810659226339 -0.25460435118111058 0 -0.40031549770242703 -0.24235612467253881 0 -0.40382477595816058 -0.26250786341487597 0 -0.40179810659226339 -0.25460435118111058 0 -0.41096463543963208 -0.25767938704457533 0 -0.39465012969057722 -0.26255535047140632 0 -0.40382477595816058 -0.26250786341487597 0 -0.40179810659226339 -0.25460435118111058 0 -0.40347391251510972 -0.27127842446971612 0 -0.39465012969057722 -0.26255535047140632 0 -0.40382477595816058 -0.26250786341487597 0 -0.40179810659226339 -0.25460435118111058 0 -0.41096463543963208 -0.25767938704457533 0 -0.4101058448757644 -0.24689735345145331 0 -0.41096463543963208 -0.25767938704457533 0 -0.41961156339831912 -0.25396053582215627 0 -0.4101058448757644 -0.24689735345145331 0 -0.41096463543963208 -0.25767938704457533 0 -0.41961156339831912 -0.25396053582215627 0 -0.4192977091550405 -0.26295056138262368 0 -0.40382477595816058 -0.26250786341487597 0 -0.41096463543963208 -0.25767938704457533 0 -0.41177061662248521 -0.2675387121928946 0 -0.41096463543963208 -0.25767938704457533 0 -0.4192977091550405 -0.26295056138262368 0 -0.41177061662248521 -0.2675387121928946 0 -0.40347391251510972 -0.27127842446971612 0 -0.41177061662248521 -0.2675387121928946 0 -0.41064291825155269 -0.27679000491597899 0 -0.40347391251510972 -0.27127842446971612 0 -0.40382477595816058 -0.26250786341487597 0 -0.41177061662248521 -0.2675387121928946 0 -0.41593604540316342 -0.28395377205972377 0 -0.41064291825155269 -0.27679000491597899 0 -0.42421291886923629 -0.27374380636890838 0 -0.41177061662248521 -0.2675387121928946 0 -0.41064291825155269 -0.27679000491597899 0 -0.42421291886923629 -0.27374380636890838 0 -0.4192977091550405 -0.26295056138262368 0 -0.41177061662248521 -0.2675387121928946 0 -0.42421291886923629 -0.27374380636890838 0 -0.42421291886923629 -0.27374380636890838 0 -0.43290051617691938 -0.27212908966678018 0 -0.42930937207602687 -0.26287466722696667 0 -0.4192977091550405 -0.26295056138262368 0 -0.42421291886923629 -0.27374380636890838 0 -0.42930937207602687 -0.26287466722696667 0 -0.42460904051013271 -0.28631751669340533 0 -0.42421291886923629 -0.27374380636890838 0 -0.43587789440108909 -0.28072573382360072 0 -0.44275804325354368 -0.26970608473048879 0 -0.43587789440108909 -0.28072573382360072 0 -0.43290051617691938 -0.27212908966678018 0 -0.42421291886923629 -0.27374380636890838 0 -0.43587789440108909 -0.28072573382360072 0 -0.43290051617691938 -0.27212908966678018 0 -0.44275804325354368 -0.26970608473048879 0 -0.43290051617691938 -0.27212908966678018 0 -0.42930937207602687 -0.26287466722696667 0 -0.44089724879962422 -0.25705080147496268 0 -0.42802411084152769 -0.25038384518556139 0 -0.42930937207602687 -0.26287466722696667 0 -0.44089724879962422 -0.25705080147496268 0 -0.42802411084152769 -0.25038384518556139 0 -0.44019851167852708 -0.2438185884147287 0 -0.41961156339831912 -0.25396053582215627 0 -0.42802411084152769 -0.25038384518556139 0 -0.42930937207602687 -0.26287466722696667 0 -0.41961156339831912 -0.25396053582215627 0 -0.4192977091550405 -0.26295056138262368 0 -0.42930937207602687 -0.26287466722696667 0 -0.32628340082826812 -0.25260276837628831 0 -0.31645027008623899 -0.26176387338280982 0 -0.31563751989968292 -0.24570898294167209 0 -0.31645027008623899 -0.26176387338280982 0 -0.31563751989968292 -0.24570898294167209 0 -0.32595847305432679 -0.26391943489373898 0 -0.32628340082826812 -0.25260276837628831 0 -0.31645027008623899 -0.26176387338280982 0 -0.32595847305432679 -0.26391943489373898 0 -0.31645027008623899 -0.26176387338280982 0 -0.32595847305432679 -0.26391943489373898 0 -0.31645027008623899 -0.26176387338280982 0 -0.31685226900211749 -0.26970487254673869 0 -0.31645027008623899 -0.26176387338280982 0 -0.31685226900211749 -0.26970487254673869 0 -0.31108141034944919 -0.2680418812645316 0 -0.32595847305432679 -0.26391943489373898 0 -0.31685226900211749 -0.26970487254673869 0 -0.31723857961128682 -0.27733596831140478 0 -0.32595847305432679 -0.26391943489373898 0 -0.31723857961128682 -0.27733596831140478 0 -0.3410026293997469 -0.26733002725188648 0 -0.31645027008623899 -0.26176387338280982 0 -0.31685226900211749 -0.26970487254673869 0 -0.31300343014497573 -0.27215015239295831 0 -0.31685226900211749 -0.26970487254673869 0 -0.31723857961128682 -0.27733596831140478 0 -0.31300343014497573 -0.27215015239295831 0 -0.31685226900211749 -0.26970487254673869 0 -0.31108141034944919 -0.2680418812645316 0 -0.31300343014497573 -0.27215015239295831 0 -0.31685226900211749 -0.26970487254673869 0 -0.31685226900211749 -0.26970487254673869 0 -0.31723857961128682 -0.27733596831140478 0 -0.32595847305432679 -0.26391943489373898 0 -0.31685226900211749 -0.26970487254673869 0 -0.3410026293997469 -0.26733002725188648 0 -0.34700023545015313 -0.28235666654509961 0 -0.33199275426143782 -0.28919714175623418 0 -0.31723857961128682 -0.27733596831140478 0 -0.3410026293997469 -0.26733002725188648 0 -0.31723857961128682 -0.27733596831140478 0 -0.3410026293997469 -0.26733002725188648 0 -0.33199275426143782 -0.28919714175623418 0 -0.32595847305432679 -0.26391943489373898 0 -0.32628340082826812 -0.25260276837628831 0 -0.34286232596016342 -0.25317992296082581 0 -0.32595847305432679 -0.26391943489373898 0 -0.34286232596016342 -0.25317992296082581 0 -0.32595847305432679 -0.26391943489373898 0 -0.33976456564627799 -0.26096617885222301 0 -0.34286232596016342 -0.25317992296082581 0 -0.3410026293997469 -0.26733002725188648 0 -0.33976456564627799 -0.26096617885222301 0 -0.3492348341708767 -0.25943533030244331 0 -0.32595847305432679 -0.26391943489373898 0 -0.3410026293997469 -0.26733002725188648 0 -0.32595847305432679 -0.26391943489373898 0 -0.3410026293997469 -0.26733002725188648 0 -0.33976456564627799 -0.26096617885222301 0 -0.3410026293997469 -0.26733002725188648 0 -0.35684073666798533 -0.2606613336061871 0 -0.3492348341708767 -0.25943533030244331 0 -0.3667027141827669 -0.24864613568214161 0 -0.34286232596016342 -0.25317992296082581 0 -0.3492348341708767 -0.25943533030244331 0 -0.35976617886600037 -0.24244041102791311 0 -0.3492348341708767 -0.25943533030244331 0 -0.35976617886600037 -0.24244041102791311 0 -0.3667027141827669 -0.24864613568214161 0 -0.3492348341708767 -0.25943533030244331 0 -0.35684073666798533 -0.2606613336061871 0 -0.3667027141827669 -0.24864613568214161 0 -0.3410026293997469 -0.26733002725188648 0 -0.3492348341708767 -0.25943533030244331 0 -0.35684073666798533 -0.2606613336061871 0 -0.33976456564627799 -0.26096617885222301 0 -0.34286232596016342 -0.25317992296082581 0 -0.3492348341708767 -0.25943533030244331 0 -0.35684073666798533 -0.2606613336061871 0 -0.37267884393622319 -0.25399263996048671 0 -0.35684073666798533 -0.2606613336061871 0 -0.36717183159593458 -0.26370113443411208 0 -0.37267884393622319 -0.25399263996048671 0 -0.35684073666798533 -0.2606613336061871 0 -0.37267884393622319 -0.25399263996048671 0 -0.3667027141827669 -0.24864613568214161 0 -0.35684073666798533 -0.2606613336061871 0 -0.36717183159593458 -0.26370113443411208 0 -0.36283126877919081 -0.27227869894519258 0 -0.3763364770003384 -0.2678718652245804 0 -0.36717183159593458 -0.26370113443411208 0 -0.37267884393622319 -0.25399263996048671 0 -0.37267884393622319 -0.25399263996048671 0 -0.3667027141827669 -0.24864613568214161 0 -0.38465990815863499 -0.27722737063849773 0 -0.3763364770003384 -0.2678718652245804 0 -0.36283126877919081 -0.27227869894519258 0 -0.38465990815863499 -0.27722737063849773 0 -0.36283126877919081 -0.27227869894519258 0 -0.38465990815863499 -0.27722737063849773 0 -0.36283126877919081 -0.27227869894519258 0 -0.37181605379377342 -0.28248267616848 0 -0.3763364770003384 -0.2678718652245804 0 -0.36717183159593458 -0.26370113443411208 0 -0.36283126877919081 -0.27227869894519258 0 -0.36283126877919081 -0.27227869894519258 0 -0.35859478343791729 -0.28677423480953962 0 -0.37181605379377342 -0.28248267616848 0 -0.3410026293997469 -0.26733002725188648 0 -0.35684073666798533 -0.2606613336061871 0 -0.36283126877919081 -0.27227869894519258 0 -0.36283126877919081 -0.27227869894519258 0 -0.34700023545015313 -0.28235666654509961 0 -0.35859478343791729 -0.28677423480953962 0 -0.3410026293997469 -0.26733002725188648 0 -0.36283126877919081 -0.27227869894519258 0 -0.34700023545015313 -0.28235666654509961 0 -0.3410026293997469 -0.26733002725188648 0 -0.36283126877919081 -0.27227869894519258 0 -0.34700023545015313 -0.28235666654509961 0 -0.34579863747029838 -0.29506416239054489 0 -0.35859478343791729 -0.28677423480953962 0 -0.34579863747029838 -0.29506416239054489 0 -0.35859478343791729 -0.28677423480953962 0 -0.35739285036673291 -0.29824522874425818 0 -0.35859478343791729 -0.28677423480953962 0 -0.37084215550068811 -0.2936643091586027 0 -0.37181605379377342 -0.28248267616848 0 -0.35859478343791729 -0.28677423480953962 0 -0.37084215550068811 -0.2936643091586027 0 -0.35739285036673291 -0.29824522874425818 0 -0.38055029601460388 -0.28523350221379851 0 -0.37084215550068811 -0.2936643091586027 0 -0.37181605379377342 -0.28248267616848 0 -0.37865088616973719 -0.30429371642424691 0 -0.36560321712029842 -0.30743150207405578 0 -0.37434461390118162 -0.31727813229109109 0 -0.37865088616973719 -0.30429371642424691 0 -0.37084215550068811 -0.2936643091586027 0 -0.36560321712029842 -0.30743150207405578 0 -0.37084215550068811 -0.2936643091586027 0 -0.36560321712029842 -0.30743150207405578 0 -0.35739285036673291 -0.29824522874425818 0 -0.36560321712029842 -0.30743150207405578 0 -0.34977040325730802 -0.30797265499930138 0 -0.35850562539621628 -0.31953658373703192 0 -0.36560321712029842 -0.30743150207405578 0 -0.35739285036673291 -0.29824522874425818 0 -0.34977040325730802 -0.30797265499930138 0 -0.34579863747029838 -0.29506416239054489 0 -0.35739285036673291 -0.29824522874425818 0 -0.34977040325730802 -0.30797265499930138 0 -0.33474284266895987 -0.30417842480911828 0 -0.33199275426143782 -0.28919714175623418 0 -0.31869895160296169 -0.30618383905631108 0 -0.34977040325730802 -0.30797265499930138 0 -0.33474284266895987 -0.30417842480911828 0 -0.33566619392375568 -0.3194873255052561 0 -0.33474284266895987 -0.30417842480911828 0 -0.31869895160296169 -0.30618383905631108 0 -0.33566619392375568 -0.3194873255052561 0 -0.34579863747029838 -0.29506416239054489 0 -0.34977040325730802 -0.30797265499930138 0 -0.33474284266895987 -0.30417842480911828 0 -0.34579863747029838 -0.29506416239054489 0 -0.33474284266895987 -0.30417842480911828 0 -0.33199275426143782 -0.28919714175623418 0 -0.34700023545015313 -0.28235666654509961 0 -0.34579863747029838 -0.29506416239054489 0 -0.33199275426143782 -0.28919714175623418 0 -0.31723857961128682 -0.27733596831140478 0 -0.33199275426143782 -0.28919714175623418 0 -0.31869895160296169 -0.30618383905631108 0 -0.31723857961128682 -0.27733596831140478 0 -0.31869895160296169 -0.30618383905631108 0 -0.31723857961128682 -0.27733596831140478 0 -0.31869895160296169 -0.30618383905631108 0 -0.30647498093322117 -0.29659940423286429 0 -0.31869895160296169 -0.30618383905631108 0 -0.30647498093322117 -0.29659940423286429 0 -0.31869895160296169 -0.30618383905631108 0 -0.33566619392375568 -0.3194873255052561 0 -0.31869895160296169 -0.30618383905631108 0 -0.31998538172573082 -0.33159569994902849 0 -0.30994891971529448 -0.31425219018734618 0 -0.31869895160296169 -0.30618383905631108 0 -0.31998538172573082 -0.33159569994902849 0 -0.31869895160296169 -0.30618383905631108 0 -0.31998538172573082 -0.33159569994902849 0 -0.33566619392375568 -0.3194873255052561 0 -0.32668018447200842 -0.34311238600864807 0 -0.3049949937825826 -0.32682499075598259 0 -0.32668018447200842 -0.34311238600864807 0 -0.3089979817087195 -0.3440131576122456 0 -0.3049949937825826 -0.32682499075598259 0 -0.31998538172573082 -0.33159569994902849 0 -0.32668018447200842 -0.34311238600864807 0 -0.3049949937825826 -0.32682499075598259 0 -0.31998538172573082 -0.33159569994902849 0 -0.32668018447200842 -0.34311238600864807 0 -0.33542209881372181 -0.33423900807229601 0 -0.32668018447200842 -0.34311238600864807 0 -0.33542209881372181 -0.33423900807229601 0 -0.34328936708741709 -0.34392727805314738 0 -0.31998538172573082 -0.33159569994902849 0 -0.33542209881372181 -0.33423900807229601 0 -0.33566619392375568 -0.3194873255052561 0 -0.33542209881372181 -0.33423900807229601 0 -0.33566619392375568 -0.3194873255052561 0 -0.35263343624454818 -0.33279081195420279 0 -0.33566619392375568 -0.3194873255052561 0 -0.35263343624454818 -0.33279081195420279 0 -0.34977040325730802 -0.30797265499930138 0 -0.33566619392375568 -0.3194873255052561 0 -0.35850562539621628 -0.31953658373703192 0 -0.33566619392375568 -0.3194873255052561 0 -0.35850562539621628 -0.31953658373703192 0 -0.35263343624454818 -0.33279081195420279 0 -0.36560321712029842 -0.30743150207405578 0 -0.35850562539621628 -0.31953658373703192 0 -0.37434461390118162 -0.31727813229109109 0 -0.35850562539621628 -0.31953658373703192 0 -0.37434461390118162 -0.31727813229109109 0 -0.37301588793020618 -0.33225907559828421 0 -0.37301588793020618 -0.33225907559828421 0 -0.35263343624454818 -0.33279081195420279 0 -0.36960067856534079 -0.34609429840314959 0 -0.35850562539621628 -0.31953658373703192 0 -0.37301588793020618 -0.33225907559828421 0 -0.35263343624454818 -0.33279081195420279 0 -0.35263343624454818 -0.33279081195420279 0 -0.36960067856534079 -0.34609429840314959 0 -0.35263343624454818 -0.33279081195420279 0 -0.36960067856534079 -0.34609429840314959 0 -0.34328936708741709 -0.34392727805314738 0 -0.33542209881372181 -0.33423900807229601 0 -0.35263343624454818 -0.33279081195420279 0 -0.34328936708741709 -0.34392727805314738 0 -0.36960067856534079 -0.34609429840314959 0 -0.34836537516143429 -0.35939978126131361 0 -0.34328936708741709 -0.34392727805314738 0 -0.36960067856534079 -0.34609429840314959 0 -0.34836537516143429 -0.35939978126131361 0 -0.3700505658508601 -0.37568717651397893 0 -0.34836537516143429 -0.35939978126131361 0 -0.3700505658508601 -0.37568717651397893 0 -0.34541120596548691 -0.3873781498672238 0 -0.34836537516143429 -0.35939978126131361 0 -0.3700505658508601 -0.37568717651397893 0 -0.34836537516143429 -0.35939978126131361 0 -0.33450443373339728 -0.37252420064237562 0 -0.33027075430019881 -0.35968791991359411 0 -0.34836537516143429 -0.35939978126131361 0 -0.33450443373339728 -0.37252420064237562 0 -0.34541120596548691 -0.3873781498672238 0 -0.32668018447200842 -0.34311238600864807 0 -0.34836537516143429 -0.35939978126131361 0 -0.33027075430019881 -0.35968791991359411 0 -0.32668018447200842 -0.34311238600864807 0 -0.34836537516143429 -0.35939978126131361 0 -0.34328936708741709 -0.34392727805314738 0 -0.32668018447200842 -0.34311238600864807 0 -0.34836537516143429 -0.35939978126131361 0 -0.32668018447200842 -0.34311238600864807 0 -0.33027075430019881 -0.35968791991359411 0 -0.31896371026152381 -0.35432878514481458 0 -0.32668018447200842 -0.34311238600864807 0 -0.31896371026152381 -0.35432878514481458 0 -0.3089979817087195 -0.3440131576122456 0 -0.31896371026152381 -0.35432878514481458 0 -0.31952179731979857 -0.36806546661532552 0 -0.30319742204761391 -0.35926618669363358 0 -0.33450443373339728 -0.37252420064237562 0 -0.33027075430019881 -0.35968791991359411 0 -0.31952179731979857 -0.36806546661532552 0 -0.33027075430019881 -0.35968791991359411 0 -0.31896371026152381 -0.35432878514481458 0 -0.31952179731979857 -0.36806546661532552 0 -0.31952179731979857 -0.36806546661532552 0 -0.30319742204761391 -0.35926618669363358 0 -0.30153468060458161 -0.37787358808813037 0 -0.31896371026152381 -0.35432878514481458 0 -0.3089979817087195 -0.3440131576122456 0 -0.30319742204761391 -0.35926618669363358 0 -0.3089979817087195 -0.3440131576122456 0 -0.30319742204761391 -0.35926618669363358 0 -0.28531662771828231 -0.34378083563081202 0 -0.28531662771828231 -0.34378083563081202 0 -0.28171480769727469 -0.3712470056776167 0 -0.30319742204761391 -0.35926618669363358 0 -0.28531662771828231 -0.34378083563081202 0 -0.28171480769727469 -0.3712470056776167 0 -0.30319742204761391 -0.35926618669363358 0 -0.28171480769727469 -0.3712470056776167 0 -0.30153468060458161 -0.37787358808813037 0 -0.28171480769727469 -0.3712470056776167 0 -0.2622845686526673 -0.35417431075927641 0 -0.24922429016927239 -0.37580598189176517 0 -0.2622845686526673 -0.35417431075927641 0 -0.25459600793004761 -0.33654435794460918 0 -0.23886999516532409 -0.34467389927062048 0 -0.28531662771828231 -0.34378083563081202 0 -0.28171480769727469 -0.3712470056776167 0 -0.2622845686526673 -0.35417431075927641 0 -0.28531662771828231 -0.34378083563081202 0 -0.2622845686526673 -0.35417431075927641 0 -0.27492545413764752 -0.33348965357880161 0 -0.27492545413764752 -0.33348965357880161 0 -0.25459600793004761 -0.33654435794460918 0 -0.25889531970927232 -0.32228389633745091 0 -0.25459600793004761 -0.33654435794460918 0 -0.25889531970927232 -0.32228389633745091 0 -0.24093606497741599 -0.32704975708403627 0 -0.2622845686526673 -0.35417431075927641 0 -0.27492545413764752 -0.33348965357880161 0 -0.25459600793004761 -0.33654435794460918 0 -0.25889531970927232 -0.32228389633745091 0 -0.26334961178395699 -0.31120402658925428 0 -0.24614089371338041 -0.30727191192772751 0 -0.25889531970927232 -0.32228389633745091 0 -0.27426797713485351 -0.31887963508458672 0 -0.26334961178395699 -0.31120402658925428 0 -0.27426797713485351 -0.31887963508458672 0 -0.28330980309315879 -0.31053759550331478 0 -0.26334961178395699 -0.31120402658925428 0 -0.27492545413764752 -0.33348965357880161 0 -0.25889531970927232 -0.32228389633745091 0 -0.27426797713485351 -0.31887963508458672 0 -0.27492545413764752 -0.33348965357880161 0 -0.27426797713485351 -0.31887963508458672 0 -0.286292224709775 -0.31627930601065879 0 -0.3049949937825826 -0.32682499075598259 0 -0.28330980309315879 -0.31053759550331478 0 -0.27426797713485351 -0.31887963508458672 0 -0.286292224709775 -0.31627930601065879 0 -0.28330980309315879 -0.31053759550331478 0 -0.27492545413764752 -0.33348965357880161 0 -0.28891844773928982 -0.31631466558400723 0 -0.286292224709775 -0.31627930601065879 0 -0.28891844773928982 -0.31631466558400723 0 -0.3049949937825826 -0.32682499075598259 0 -0.28330980309315879 -0.31053759550331478 0 -0.3049949937825826 -0.32682499075598259 0 -0.29959029053197472 -0.31005701694254612 0 -0.28330980309315879 -0.31053759550331478 0 -0.286292224709775 -0.31627930601065879 0 -0.28330980309315879 -0.31053759550331478 0 -0.28891844773928982 -0.31631466558400723 0 -0.286292224709775 -0.31627930601065879 0 -0.28330980309315879 -0.31053759550331478 0 -0.28531662771828231 -0.34378083563081202 0 -0.27492545413764752 -0.33348965357880161 0 -0.28891844773928982 -0.31631466558400723 0 -0.28531662771828231 -0.34378083563081202 0 -0.28891844773928982 -0.31631466558400723 0 -0.28531662771828231 -0.34378083563081202 0 -0.28891844773928982 -0.31631466558400723 0 -0.3049949937825826 -0.32682499075598259 0 -0.3089979817087195 -0.3440131576122456 0 -0.28531662771828231 -0.34378083563081202 0 -0.3049949937825826 -0.32682499075598259 0 -0.30994891971529448 -0.31425219018734618 0 -0.3049949937825826 -0.32682499075598259 0 -0.29959029053197472 -0.31005701694254612 0 -0.31998538172573082 -0.33159569994902849 0 -0.30994891971529448 -0.31425219018734618 0 -0.3049949937825826 -0.32682499075598259 0 -0.31869895160296169 -0.30618383905631108 0 -0.30994891971529448 -0.31425219018734618 0 -0.30647498093322117 -0.29659940423286429 0 -0.30994891971529448 -0.31425219018734618 0 -0.29959029053197472 -0.31005701694254612 0 -0.30647498093322117 -0.29659940423286429 0 -0.29959029053197472 -0.31005701694254612 0 -0.30647498093322117 -0.29659940423286429 0 -0.29203425994339749 -0.30028976494480347 0 -0.31723857961128682 -0.27733596831140478 0 -0.30647498093322117 -0.29659940423286429 0 -0.29425101026347739 -0.28701496940942173 0 -0.31723857961128682 -0.27733596831140478 0 -0.29425101026347739 -0.28701496940942173 0 -0.30647498093322117 -0.29659940423286429 0 -0.29425101026347739 -0.28701496940942173 0 -0.29203425994339749 -0.30028976494480347 0 -0.30647498093322117 -0.29659940423286429 0 -0.29425101026347739 -0.28701496940942173 0 -0.29425101026347739 -0.28701496940942173 0 -0.29203425994339749 -0.30028976494480347 0 -0.27524762337188602 -0.29501641574795362 0 -0.29425101026347739 -0.28701496940942173 0 -0.27524762337188602 -0.29501641574795362 0 -0.29959029053197472 -0.31005701694254612 0 -0.29203425994339749 -0.30028976494480347 0 -0.28330980309315879 -0.31053759550331478 0 -0.29203425994339749 -0.30028976494480347 0 -0.28330980309315879 -0.31053759550331478 0 -0.27524762337188602 -0.29501641574795362 0 -0.28330980309315879 -0.31053759550331478 0 -0.26717194341618938 -0.29841671066281711 0 -0.28330980309315879 -0.31053759550331478 0 -0.26717194341618938 -0.29841671066281711 0 -0.27524762337188602 -0.29501641574795362 0 -0.28330980309315879 -0.31053759550331478 0 -0.26717194341618938 -0.29841671066281711 0 -0.26334961178395699 -0.31120402658925428 0 -0.28330980309315879 -0.31053759550331478 0 -0.27524762337188602 -0.29501641574795362 0 -0.26717194341618938 -0.29841671066281711 0 -0.26334961178395699 -0.31120402658925428 0 -0.24614089371338041 -0.30727191192772751 0 -0.26717194341618938 -0.29841671066281711 0 -0.24614089371338041 -0.30727191192772751 0 -0.26717194341618938 -0.29841671066281711 0 -0.24990836405956079 -0.28545031601662058 0 -0.24614089371338041 -0.30727191192772751 0 -0.26717194341618938 -0.29841671066281711 0 -0.24990836405956079 -0.28545031601662058 0 -0.26717194341618938 -0.29841671066281711 0 -0.26526467205053172 -0.27579739715684809 0 -0.24990836405956079 -0.28545031601662058 0 -0.27524762337188602 -0.29501641574795362 0 -0.26526467205053172 -0.27579739715684809 0 -0.29425101026347739 -0.28701496940942173 0 -0.27524762337188602 -0.29501641574795362 0 -0.27341218860905492 -0.27067589814196058 0 -0.26717194341618938 -0.29841671066281711 0 -0.27524762337188602 -0.29501641574795362 0 -0.26526467205053172 -0.27579739715684809 0 -0.26717194341618938 -0.29841671066281711 0 -0.27524762337188602 -0.29501641574795362 0 -0.27524762337188602 -0.29501641574795362 0 -0.27341218860905492 -0.27067589814196058 0 -0.26526467205053172 -0.27579739715684809 0 -0.27341218860905492 -0.27067589814196058 0 -0.28550626458708628 -0.26307360635616728 0 -0.27341218860905492 -0.27067589814196058 0 -0.26526467205053172 -0.27579739715684809 0 -0.27341218860905492 -0.27067589814196058 0 -0.26526467205053172 -0.27579739715684809 0 -0.25517829925135688 -0.25637927318691661 0 -0.26526467205053172 -0.27579739715684809 0 -0.25466902243528022 -0.2689724559053594 0 -0.24990836405956079 -0.28545031601662058 0 -0.26526467205053172 -0.27579739715684809 0 -0.25517829925135688 -0.25637927318691661 0 -0.26526467205053172 -0.27579739715684809 0 -0.25466902243528022 -0.2689724559053594 0 -0.25517829925135688 -0.25637927318691661 0 -0.26526467205053172 -0.27579739715684809 0 -0.24990836405956079 -0.28545031601662058 0 -0.27341218860905492 -0.27067589814196058 0 -0.25517829925135688 -0.25637927318691661 0 -0.25517829925135688 -0.25637927318691661 0 -0.25269575174149039 -0.25159991233365048 0 -0.26282360736482052 -0.2514009672561755 0 -0.25517829925135688 -0.25637927318691661 0 -0.25269575174149039 -0.25159991233365048 0 -0.25269575174149039 -0.25159991233365048 0 -0.25119883513679508 -0.25325909927054341 0 -0.24762550760567781 -0.25045736440467059 0 -0.25517829925135688 -0.25637927318691661 0 -0.25269575174149039 -0.25159991233365048 0 -0.25119883513679508 -0.25325909927054341 0 -0.25269575174149039 -0.25159991233365048 0 -0.25119883513679508 -0.25325909927054341 0 -0.25517829925135688 -0.25637927318691661 0 -0.25119883513679508 -0.25325909927054341 0 -0.2487339104364929 -0.25599122933733548 0 -0.25517829925135688 -0.25637927318691661 0 -0.25119883513679508 -0.25325909927054341 0 -0.25466902243528022 -0.2689724559053594 0 -0.25517829925135688 -0.25637927318691661 0 -0.2487339104364929 -0.25599122933733548 0 -0.25517829925135688 -0.25637927318691661 0 -0.26282360736482052 -0.2514009672561755 0 -0.26847386604889117 -0.25800079079281801 0 -0.27341218860905492 -0.27067589814196058 0 -0.25517829925135688 -0.25637927318691661 0 -0.26847386604889117 -0.25800079079281801 0 -0.26847386604889117 -0.25800079079281801 0 -0.2768519950386642 -0.26003366717732268 0 -0.27388533292542427 -0.24980247904975311 0 -0.26282360736482052 -0.2514009672561755 0 -0.26847386604889117 -0.25800079079281801 0 -0.27388533292542427 -0.24980247904975311 0 -0.27341218860905492 -0.27067589814196058 0 -0.26847386604889117 -0.25800079079281801 0 -0.2768519950386642 -0.26003366717732268 0 -0.27341218860905492 -0.27067589814196058 0 -0.2768519950386642 -0.26003366717732268 0 -0.28550626458708628 -0.26307360635616728 0 -0.2768519950386642 -0.26003366717732268 0 -0.2825465089125922 -0.2551922232419932 0 -0.27388533292542427 -0.24980247904975311 0 -0.2825465089125922 -0.2551922232419932 0 -0.2860831937266573 -0.246154073158073 0 -0.27388533292542427 -0.24980247904975311 0 -0.2825465089125922 -0.2551922232419932 0 -0.290928570921762 -0.25597796487862501 0 -0.2860831937266573 -0.246154073158073 0 -0.290928570921762 -0.25597796487862501 0 -0.29641449012901572 -0.24805927158138369 0 -0.2860831937266573 -0.246154073158073 0 -0.290928570921762 -0.25597796487862501 0 -0.29339205540586788 -0.26527393044529918 0 -0.30284260298452342 -0.26495143301292001 0 -0.290928570921762 -0.25597796487862501 0 -0.29339205540586788 -0.26527393044529918 0 -0.28550626458708628 -0.26307360635616728 0 -0.2825465089125922 -0.2551922232419932 0 -0.290928570921762 -0.25597796487862501 0 -0.28550626458708628 -0.26307360635616728 0 -0.2768519950386642 -0.26003366717732268 0 -0.2825465089125922 -0.2551922232419932 0 -0.28550626458708628 -0.26307360635616728 0 -0.29425101026347739 -0.28701496940942173 0 -0.27341218860905492 -0.27067589814196058 0 -0.29075600053446971 -0.27210760345564639 0 -0.29425101026347739 -0.28701496940942173 0 -0.27341218860905492 -0.27067589814196058 0 -0.27341218860905492 -0.27067589814196058 0 -0.28550626458708628 -0.26307360635616728 0 -0.29075600053446971 -0.27210760345564639 0 -0.29425101026347739 -0.28701496940942173 0 -0.29075600053446971 -0.27210760345564639 0 -0.29936561337957418 -0.27665274786302779 0 -0.29339205540586788 -0.26527393044529918 0 -0.28550626458708628 -0.26307360635616728 0 -0.29075600053446971 -0.27210760345564639 0 -0.29075600053446971 -0.27210760345564639 0 -0.29860887096175792 -0.26995446851800042 0 -0.29936561337957418 -0.27665274786302779 0 -0.29339205540586788 -0.26527393044529918 0 -0.29075600053446971 -0.27210760345564639 0 -0.29860887096175792 -0.26995446851800042 0 -0.31723857961128682 -0.27733596831140478 0 -0.29936561337957418 -0.27665274786302779 0 -0.30625847952938878 -0.2716390749872315 0 -0.31723857961128682 -0.27733596831140478 0 -0.29425101026347739 -0.28701496940942173 0 -0.29936561337957418 -0.27665274786302779 0 -0.29339205540586788 -0.26527393044529918 0 -0.29860887096175792 -0.26995446851800042 0 -0.30284260298452342 -0.26495143301292001 0 -0.29860887096175792 -0.26995446851800042 0 -0.29936561337957418 -0.27665274786302779 0 -0.30625847952938878 -0.2716390749872315 0 -0.29860887096175792 -0.26995446851800042 0 -0.30625847952938878 -0.2716390749872315 0 -0.30284260298452342 -0.26495143301292001 0 -0.31300343014497573 -0.27215015239295831 0 -0.31723857961128682 -0.27733596831140478 0 -0.30625847952938878 -0.2716390749872315 0 -0.30625847952938878 -0.2716390749872315 0 -0.31108141034944919 -0.2680418812645316 0 -0.30284260298452342 -0.26495143301292001 0 -0.31300343014497573 -0.27215015239295831 0 -0.30625847952938878 -0.2716390749872315 0 -0.31108141034944919 -0.2680418812645316 0 -0.31645027008623899 -0.26176387338280982 0 -0.290928570921762 -0.25597796487862501 0 -0.30491357898784421 -0.25253902949978357 0 -0.31645027008623899 -0.26176387338280982 0 -0.290928570921762 -0.25597796487862501 0 -0.30284260298452342 -0.26495143301292001 0 -0.31645027008623899 -0.26176387338280982 0 -0.290928570921762 -0.25597796487862501 0 -0.31645027008623899 -0.26176387338280982 0 -0.30491357898784421 -0.25253902949978357 0 -0.31563751989968292 -0.24570898294167209 0 -0.31645027008623899 -0.26176387338280982 0 -0.31108141034944919 -0.2680418812645316 0 -0.30284260298452342 -0.26495143301292001 0 -0.290928570921762 -0.25597796487862501 0 -0.30491357898784421 -0.25253902949978357 0 -0.29641449012901572 -0.24805927158138369 0 -0.32997231576893937 -0.46306934966935343 0 -0.35502396002322578 -0.44715278597867592 0 -0.34091809762774139 -0.43174831854780182 0 -0.32997231576893937 -0.46306934966935343 0 -0.34091809762774139 -0.43174831854780182 0 -0.32178488407859618 -0.43326178689978961 0 -0.32997231576893937 -0.46306934966935343 0 -0.32178488407859618 -0.43326178689978961 0 -0.30215443376871881 -0.45863084773921181 0 -0.32997231576893937 -0.46306934966935343 0 -0.31264033234036698 -0.48012905256428229 0 -0.30215443376871881 -0.45863084773921181 0 -0.32997231576893937 -0.46306934966935343 0 -0.30215443376871881 -0.45863084773921181 0 -0.31264033234036698 -0.48012905256428229 0 -0.3234870739642472 -0.5 0 -0.34243265365854447 -0.48089211610121962 0 -0.3234870739642472 -0.5 0 -0.34243265365854447 -0.48089211610121962 0 -0.35281532174139868 -0.5 0 -0.32997231576893937 -0.46306934966935343 0 -0.31264033234036698 -0.48012905256428229 0 -0.34243265365854447 -0.48089211610121962 0 -0.32997231576893937 -0.46306934966935343 0 -0.34243265365854447 -0.48089211610121962 0 -0.36100807999382573 -0.47003272482440478 0 -0.34243265365854447 -0.48089211610121962 0 -0.35281532174139868 -0.5 0 -0.36100807999382573 -0.47003272482440478 0 -0.38214356951855022 -0.5 0 -0.35281532174139868 -0.5 0 -0.36100807999382573 -0.47003272482440478 0 -0.38148716114152592 -0.44514799216385048 0 -0.36100807999382573 -0.47003272482440478 0 -0.35502396002322578 -0.44715278597867592 0 -0.32997231576893937 -0.46306934966935343 0 -0.36100807999382573 -0.47003272482440478 0 -0.35502396002322578 -0.44715278597867592 0 -0.38148716114152592 -0.44514799216385048 0 -0.35502396002322578 -0.44715278597867592 0 -0.36221242899248562 -0.4266366993545721 0 -0.37785700489956442 -0.41751623481388561 0 -0.38148716114152592 -0.44514799216385048 0 -0.36221242899248562 -0.4266366993545721 0 -0.37785700489956442 -0.41751623481388561 0 -0.36221242899248562 -0.4266366993545721 0 -0.36399750558324129 -0.39908657588302332 0 -0.36221242899248562 -0.4266366993545721 0 -0.3482155645266134 -0.41113950314270892 0 -0.36399750558324129 -0.39908657588302332 0 -0.36221242899248562 -0.4266366993545721 0 -0.3482155645266134 -0.41113950314270892 0 -0.34091809762774139 -0.43174831854780182 0 -0.35502396002322578 -0.44715278597867592 0 -0.36221242899248562 -0.4266366993545721 0 -0.34091809762774139 -0.43174831854780182 0 -0.3700505658508601 -0.37568717651397893 0 -0.36399750558324129 -0.39908657588302332 0 -0.34541120596548691 -0.3873781498672238 0 -0.37940075384634131 -0.40151396220611058 0 -0.37785700489956442 -0.41751623481388561 0 -0.36399750558324129 -0.39908657588302332 0 -0.37940075384634131 -0.40151396220611058 0 -0.3700505658508601 -0.37568717651397893 0 -0.36399750558324129 -0.39908657588302332 0 -0.3482155645266134 -0.41113950314270892 0 -0.36399750558324129 -0.39908657588302332 0 -0.34541120596548691 -0.3873781498672238 0 -0.33450443373339728 -0.37252420064237562 0 -0.34541120596548691 -0.3873781498672238 0 -0.3231822621932457 -0.38571964368018941 0 -0.3482155645266134 -0.41113950314270892 0 -0.34541120596548691 -0.3873781498672238 0 -0.32829943237658799 -0.40922978624171141 0 -0.34541120596548691 -0.3873781498672238 0 -0.3231822621932457 -0.38571964368018941 0 -0.32829943237658799 -0.40922978624171141 0 -0.3231822621932457 -0.38571964368018941 0 -0.32829943237658799 -0.40922978624171141 0 -0.30693663629621087 -0.39806164968925428 0 -0.31952179731979857 -0.36806546661532552 0 -0.3231822621932457 -0.38571964368018941 0 -0.30153468060458161 -0.37787358808813037 0 -0.33450443373339728 -0.37252420064237562 0 -0.31952179731979857 -0.36806546661532552 0 -0.3231822621932457 -0.38571964368018941 0 -0.34091809762774139 -0.43174831854780182 0 -0.32829943237658799 -0.40922978624171141 0 -0.32178488407859618 -0.43326178689978961 0 -0.3482155645266134 -0.41113950314270892 0 -0.34091809762774139 -0.43174831854780182 0 -0.32829943237658799 -0.40922978624171141 0 -0.32829943237658799 -0.40922978624171141 0 -0.31225170157975302 -0.4169885714175709 0 -0.30693663629621087 -0.39806164968925428 0 -0.32829943237658799 -0.40922978624171141 0 -0.32178488407859618 -0.43326178689978961 0 -0.31225170157975302 -0.4169885714175709 0 -0.32178488407859618 -0.43326178689978961 0 -0.30391782078884372 -0.43180801414888142 0 -0.31225170157975302 -0.4169885714175709 0 -0.30391782078884372 -0.43180801414888142 0 -0.31225170157975302 -0.4169885714175709 0 -0.2960699414536393 -0.41677188172919222 0 -0.2960699414536393 -0.41677188172919222 0 -0.30693663629621087 -0.39806164968925428 0 -0.31225170157975302 -0.4169885714175709 0 -0.2960699414536393 -0.41677188172919222 0 -0.30693663629621087 -0.39806164968925428 0 -0.2960699414536393 -0.41677188172919222 0 -0.27811298767626708 -0.39871317572442122 0 -0.27451116765525962 -0.42617934577122601 0 -0.2960699414536393 -0.41677188172919222 0 -0.28520324661106777 -0.43548211376912999 0 -0.2960699414536393 -0.41677188172919222 0 -0.28520324661106777 -0.43548211376912999 0 -0.27451116765525962 -0.42617934577122601 0 -0.30391782078884372 -0.43180801414888142 0 -0.2960699414536393 -0.41677188172919222 0 -0.28520324661106777 -0.43548211376912999 0 -0.3231822621932457 -0.38571964368018941 0 -0.30153468060458161 -0.37787358808813037 0 -0.30693663629621087 -0.39806164968925428 0 -0.30153468060458161 -0.37787358808813037 0 -0.30693663629621087 -0.39806164968925428 0 -0.27811298767626708 -0.39871317572442122 0 -0.2960699414536393 -0.41677188172919222 0 -0.30693663629621087 -0.39806164968925428 0 -0.27811298767626708 -0.39871317572442122 0 -0.28171480769727469 -0.3712470056776167 0 -0.30153468060458161 -0.37787358808813037 0 -0.27811298767626708 -0.39871317572442122 0 -0.26128407239529589 -0.39203546784524651 0 -0.24409024760528589 -0.4072675957923485 0 -0.24922429016927239 -0.37580598189176517 0 -0.28171480769727469 -0.3712470056776167 0 -0.26128407239529589 -0.39203546784524651 0 -0.24922429016927239 -0.37580598189176517 0 -0.28171480769727469 -0.3712470056776167 0 -0.27811298767626708 -0.39871317572442122 0 -0.28171480769727469 -0.3712470056776167 0 -0.27811298767626708 -0.39871317572442122 0 -0.26128407239529589 -0.39203546784524651 0 -0.27811298767626708 -0.39871317572442122 0 -0.26128407239529589 -0.39203546784524651 0 -0.2635153562194541 -0.40965586710085788 0 -0.26128407239529589 -0.39203546784524651 0 -0.2635153562194541 -0.40965586710085788 0 -0.24409024760528589 -0.4072675957923485 0 -0.27811298767626708 -0.39871317572442122 0 -0.27451116765525962 -0.42617934577122601 0 -0.2635153562194541 -0.40965586710085788 0 -0.27811298767626708 -0.39871317572442122 0 -0.27451116765525962 -0.42617934577122601 0 -0.27451116765525962 -0.42617934577122601 0 -0.2635153562194541 -0.40965586710085788 0 -0.25558614800825258 -0.42170654545269232 0 -0.2635153562194541 -0.40965586710085788 0 -0.25558614800825258 -0.42170654545269232 0 -0.24409024760528589 -0.4072675957923485 0 -0.27451116765525962 -0.42617934577122601 0 -0.25558614800825258 -0.42170654545269232 0 -0.25815508370529261 -0.4380037148427835 0 -0.25558614800825258 -0.42170654545269232 0 -0.25815508370529261 -0.4380037148427835 0 -0.23765888485597059 -0.42742620375624529 0 -0.25815508370529261 -0.4380037148427835 0 -0.27090934763425201 -0.45364551581803048 0 -0.2411665356807233 -0.448899880321322 0 -0.27090934763425201 -0.45364551581803048 0 -0.2411665356807233 -0.448899880321322 0 -0.25367966949639809 -0.46350511138093953 0 -0.27090934763425201 -0.45364551581803048 0 -0.2411665356807233 -0.448899880321322 0 -0.25367966949639809 -0.46350511138093953 0 -0.26981721505570949 -0.46197372181970098 0 -0.25966629619131598 -0.47945153362199061 0 -0.25367966949639809 -0.46350511138093953 0 -0.26981721505570949 -0.46197372181970098 0 -0.27090934763425201 -0.45364551581803048 0 -0.26981721505570949 -0.46197372181970098 0 -0.27090934763425201 -0.45364551581803048 0 -0.26981721505570949 -0.46197372181970098 0 -0.27090934763425201 -0.45364551581803048 0 -0.27433655176849853 -0.4541923458090692 0 -0.26981721505570949 -0.46197372181970098 0 -0.27433655176849853 -0.4541923458090692 0 -0.2754170856884226 -0.46286603194150039 0 -0.26981721505570949 -0.46197372181970098 0 -0.27433655176849853 -0.4541923458090692 0 -0.27090934763425201 -0.45364551581803048 0 -0.27433655176849853 -0.4541923458090692 0 -0.27433655176849853 -0.4541923458090692 0 -0.2754170856884226 -0.46286603194150039 0 -0.28157738758924389 -0.46360082106166489 0 -0.26981721505570949 -0.46197372181970098 0 -0.2754170856884226 -0.46286603194150039 0 -0.27593718834023812 -0.47169723907556571 0 -0.2754170856884226 -0.46286603194150039 0 -0.28157738758924389 -0.46360082106166489 0 -0.27593718834023812 -0.47169723907556571 0 -0.28520324661106777 -0.43548211376912999 0 -0.27090934763425201 -0.45364551581803048 0 -0.27433655176849853 -0.4541923458090692 0 -0.28520324661106777 -0.43548211376912999 0 -0.27451116765525962 -0.42617934577122601 0 -0.27090934763425201 -0.45364551581803048 0 -0.27451116765525962 -0.42617934577122601 0 -0.27090934763425201 -0.45364551581803048 0 -0.28520324661106777 -0.43548211376912999 0 -0.27433655176849853 -0.4541923458090692 0 -0.27451116765525962 -0.42617934577122601 0 -0.25815508370529261 -0.4380037148427835 0 -0.27090934763425201 -0.45364551581803048 0 -0.28520324661106777 -0.43548211376912999 0 -0.27433655176849853 -0.4541923458090692 0 -0.30215443376871881 -0.45863084773921181 0 -0.28157738758924389 -0.46360082106166489 0 -0.30215443376871881 -0.45863084773921181 0 -0.29027779962521222 -0.47648683156098431 0 -0.27433655176849853 -0.4541923458090692 0 -0.28157738758924389 -0.46360082106166489 0 -0.30215443376871881 -0.45863084773921181 0 -0.27433655176849853 -0.4541923458090692 0 -0.30215443376871881 -0.45863084773921181 0 -0.32178488407859618 -0.43326178689978961 0 -0.30391782078884372 -0.43180801414888142 0 -0.30215443376871881 -0.45863084773921181 0 -0.30391782078884372 -0.43180801414888142 0 -0.28520324661106777 -0.43548211376912999 0 -0.30215443376871881 -0.45863084773921181 0 -0.31264033234036698 -0.48012905256428229 0 -0.3234870739642472 -0.5 0 -0.29415882618709571 -0.5 0 -0.31264033234036698 -0.48012905256428229 0 -0.29027779962521222 -0.47648683156098431 0 -0.29415882618709571 -0.5 0 -0.31264033234036698 -0.48012905256428229 0 -0.30215443376871881 -0.45863084773921181 0 -0.29027779962521222 -0.47648683156098431 0 -0.28157738758924389 -0.46360082106166489 0 -0.29027779962521222 -0.47648683156098431 0 -0.27593718834023812 -0.47169723907556571 0 -0.29027779962521222 -0.47648683156098431 0 -0.27593718834023812 -0.47169723907556571 0 -0.27951395087865138 -0.48361064528528219 0 -0.29415882618709571 -0.5 0 -0.27402995873308139 -0.49117652930477368 0 -0.27951395087865138 -0.48361064528528219 0 -0.29027779962521222 -0.47648683156098431 0 -0.29415882618709571 -0.5 0 -0.27951395087865138 -0.48361064528528219 0 -0.2673238967328273 -0.48098686090985249 0 -0.26483057840994417 -0.500000000000004 0 -0.27402995873308139 -0.49117652930477368 0 -0.2673238967328273 -0.48098686090985249 0 -0.26483057840994417 -0.500000000000004 0 -0.29415882618709571 -0.5 0 -0.27402995873308139 -0.49117652930477368 0 -0.26483057840994417 -0.500000000000004 0 -0.27402995873308139 -0.49117652930477368 0 -0.27951395087865138 -0.48361064528528219 0 -0.2673238967328273 -0.48098686090985249 0 -0.26981721505570949 -0.46197372181970098 0 -0.27593718834023812 -0.47169723907556571 0 -0.2673238967328273 -0.48098686090985249 0 -0.26981721505570949 -0.46197372181970098 0 -0.2673238967328273 -0.48098686090985249 0 -0.27593718834023812 -0.47169723907556571 0 -0.27951395087865138 -0.48361064528528219 0 -0.2673238967328273 -0.48098686090985249 0 -0.25367966949639809 -0.46350511138093953 0 -0.25966629619131598 -0.47945153362199061 0 -0.24549912898787521 -0.47388175500933732 0 -0.26981721505570949 -0.46197372181970098 0 -0.25966629619131598 -0.47945153362199061 0 -0.26981721505570949 -0.46197372181970098 0 -0.2673238967328273 -0.48098686090985249 0 -0.25966629619131598 -0.47945153362199061 0 -0.2673238967328273 -0.48098686090985249 0 -0.25966629619131598 -0.47945153362199061 0 -0.25874875719859142 -0.49060531350754011 0 -0.25966629619131598 -0.47945153362199061 0 -0.2474675571613304 -0.48419252639321192 0 -0.24549912898787521 -0.47388175500933732 0 -0.26483057840994417 -0.500000000000004 0 -0.2495153773269228 -0.49692934542428041 0 -0.23737572855815259 -0.5 0 -0.2673238967328273 -0.48098686090985249 0 -0.26483057840994417 -0.500000000000004 0 -0.25874875719859142 -0.49060531350754011 0 -0.25966629619131598 -0.47945153362199061 0 -0.2495153773269228 -0.49692934542428041 0 -0.25966629619131598 -0.47945153362199061 0 -0.25874875719859142 -0.49060531350754011 0 -0.2495153773269228 -0.49692934542428041 0 -0.25966629619131598 -0.47945153362199061 0 -0.2495153773269228 -0.49692934542428041 0 -0.2474675571613304 -0.48419252639321192 0 -0.26483057840994417 -0.500000000000004 0 -0.25874875719859142 -0.49060531350754011 0 -0.2495153773269228 -0.49692934542428041 0 -0.2495153773269228 -0.49692934542428041 0 -0.23737572855815259 -0.5 0 -0.23932850475900441 -0.48984268022500949 0 -0.23932850475900441 -0.48984268022500949 0 -0.2474675571613304 -0.48419252639321192 0 -0.2363440729606428 -0.47924427547888782 0 -0.2495153773269228 -0.49692934542428041 0 -0.23932850475900441 -0.48984268022500949 0 -0.2474675571613304 -0.48419252639321192 0 -0.2474675571613304 -0.48419252639321192 0 -0.24549912898787521 -0.47388175500933732 0 -0.2363440729606428 -0.47924427547888782 0 -0.24549912898787521 -0.47388175500933732 0 -0.2363440729606428 -0.47924427547888782 0 -0.23331773501642211 -0.46481869580582208 0 -0.2363440729606428 -0.47924427547888782 0 -0.23331773501642211 -0.46481869580582208 0 -0.2154241807235758 -0.47506765461846467 0 -0.2363440729606428 -0.47924427547888782 0 -0.2259397877879735 -0.48884725382866728 0 -0.2154241807235758 -0.47506765461846467 0 -0.23737572855815259 -0.5 0 -0.2259397877879735 -0.48884725382866728 0 -0.209920878706361 -0.5 0 -0.23737572855815259 -0.5 0 -0.23932850475900441 -0.48984268022500949 0 -0.2259397877879735 -0.48884725382866728 0 -0.23932850475900441 -0.48984268022500949 0 -0.2363440729606428 -0.47924427547888782 0 -0.2259397877879735 -0.48884725382866728 0 -0.25815508370529261 -0.4380037148427835 0 -0.2411665356807233 -0.448899880321322 0 -0.23765888485597059 -0.42742620375624529 0 -0.25367966949639809 -0.46350511138093953 0 -0.24549912898787521 -0.47388175500933732 0 -0.23331773501642211 -0.46481869580582208 0 -0.25367966949639809 -0.46350511138093953 0 -0.2411665356807233 -0.448899880321322 0 -0.23331773501642211 -0.46481869580582208 0 -0.23331773501642211 -0.46481869580582208 0 -0.2149440683774782 -0.45264158034797891 0 -0.2154241807235758 -0.47506765461846467 0 -0.2411665356807233 -0.448899880321322 0 -0.23331773501642211 -0.46481869580582208 0 -0.2149440683774782 -0.45264158034797891 0 -0.2411665356807233 -0.448899880321322 0 -0.2149440683774782 -0.45264158034797891 0 -0.21740732258848919 -0.43498315142313287 0 -0.2149440683774782 -0.45264158034797891 0 -0.19445666616392751 -0.43528239866859209 0 -0.21740732258848919 -0.43498315142313287 0 -0.2149440683774782 -0.45264158034797891 0 -0.1981233273553494 -0.46096025336195678 0 -0.2154241807235758 -0.47506765461846467 0 -0.19510381771089511 -0.479521448793225 0 -0.1801473074243361 -0.45585734697393548 0 -0.1981233273553494 -0.46096025336195678 0 -0.19510381771089511 -0.479521448793225 0 -0.1801473074243361 -0.45585734697393548 0 -0.2149440683774782 -0.45264158034797891 0 -0.1981233273553494 -0.46096025336195678 0 -0.19445666616392751 -0.43528239866859209 0 -0.1981233273553494 -0.46096025336195678 0 -0.1801473074243361 -0.45585734697393548 0 -0.19445666616392751 -0.43528239866859209 0 -0.209920878706361 -0.5 0 -0.2154241807235758 -0.47506765461846467 0 -0.19510381771089511 -0.479521448793225 0 -0.2259397877879735 -0.48884725382866728 0 -0.209920878706361 -0.5 0 -0.2154241807235758 -0.47506765461846467 0 -0.1981233273553494 -0.46096025336195678 0 -0.2154241807235758 -0.47506765461846467 0 -0.19510381771089511 -0.479521448793225 0 -0.209920878706361 -0.5 0 -0.19510381771089511 -0.479521448793225 0 -0.18246602885456939 -0.5 0 -0.18246602885456939 -0.5 0 -0.1638786975327414 -0.48800683682818508 0 -0.17321497001250999 -0.47669386873596398 0 -0.19510381771089511 -0.479521448793225 0 -0.18246602885456939 -0.5 0 -0.17321497001250999 -0.47669386873596398 0 -0.18246602885456939 -0.5 0 -0.1638786975327414 -0.48800683682818508 0 -0.15501117900277789 -0.5 0 -0.1638786975327414 -0.48800683682818508 0 -0.15501117900277789 -0.5 0 -0.15043365443577711 -0.48745083951776041 0 -0.1582676553580728 -0.47588947588720087 0 -0.17321497001250999 -0.47669386873596398 0 -0.15947382758515841 -0.45922163678201489 0 -0.1638786975327414 -0.48800683682818508 0 -0.1582676553580728 -0.47588947588720087 0 -0.15043365443577711 -0.48745083951776041 0 -0.1638786975327414 -0.48800683682818508 0 -0.1582676553580728 -0.47588947588720087 0 -0.17321497001250999 -0.47669386873596398 0 -0.19510381771089511 -0.479521448793225 0 -0.17321497001250999 -0.47669386873596398 0 -0.1801473074243361 -0.45585734697393548 0 -0.1801473074243361 -0.45585734697393548 0 -0.1651907971377771 -0.43219324515464602 0 -0.19445666616392751 -0.43528239866859209 0 -0.1801473074243361 -0.45585734697393548 0 -0.1651907971377771 -0.43219324515464602 0 -0.15947382758515841 -0.45922163678201489 0 -0.14743365020616919 -0.43604990398405208 0 -0.1651907971377771 -0.43219324515464602 0 -0.1801473074243361 -0.45585734697393548 0 -0.15947382758515841 -0.45922163678201489 0 -0.1651907971377771 -0.43219324515464602 0 -0.17321497001250999 -0.47669386873596398 0 -0.1801473074243361 -0.45585734697393548 0 -0.15947382758515841 -0.45922163678201489 0 -0.15947382758515841 -0.45922163678201489 0 -0.14061799583268769 -0.45289439685081351 0 -0.1582676553580728 -0.47588947588720087 0 -0.15947382758515841 -0.45922163678201489 0 -0.1455258251342321 -0.47017261818428702 0 -0.15947382758515841 -0.45922163678201489 0 -0.14061799583268769 -0.45289439685081351 0 -0.1455258251342321 -0.47017261818428702 0 -0.14061799583268769 -0.45289439685081351 0 -0.1455258251342321 -0.47017261818428702 0 -0.15947382758515841 -0.45922163678201489 0 -0.14061799583268769 -0.45289439685081351 0 -0.14743365020616919 -0.43604990398405208 0 -0.14061799583268769 -0.45289439685081351 0 -0.13278086887716059 -0.42530345881360609 0 -0.14061799583268769 -0.45289439685081351 0 -0.1127148018259756 -0.44353123506378472 0 -0.14061799583268769 -0.45289439685081351 0 -0.13278086887716059 -0.42530345881360609 0 -0.14743365020616919 -0.43604990398405208 0 -0.14061799583268769 -0.45289439685081351 0 -0.13278086887716059 -0.42530345881360609 0 -0.1127148018259756 -0.44353123506378472 0 -0.14061799583268769 -0.45289439685081351 0 -0.1291295231048622 -0.46440973338590102 0 -0.1127148018259756 -0.44353123506378472 0 -0.14061799583268769 -0.45289439685081351 0 -0.1291295231048622 -0.46440973338590102 0 -0.1455258251342321 -0.47017261818428702 0 -0.1291295231048622 -0.46440973338590102 0 -0.13335474137799769 -0.48053779362099419 0 -0.1455258251342321 -0.47017261818428702 0 -0.1291295231048622 -0.46440973338590102 0 -0.13335474137799769 -0.48053779362099419 0 -0.11343425135341779 -0.47491262320962602 0 -0.13335474137799769 -0.48053779362099419 0 -0.12755632915098619 -0.5 0 -0.15043365443577711 -0.48745083951776041 0 -0.12755632915098619 -0.5 0 -0.15501117900277789 -0.5 0 -0.15043365443577711 -0.48745083951776041 0 -0.15043365443577711 -0.48745083951776041 0 -0.1455258251342321 -0.47017261818428702 0 -0.13335474137799769 -0.48053779362099419 0 -0.15043365443577711 -0.48745083951776041 0 -0.1455258251342321 -0.47017261818428702 0 -0.1582676553580728 -0.47588947588720087 0 -0.15043365443577711 -0.48745083951776041 0 -0.1455258251342321 -0.47017261818428702 0 -0.13527777656465911 -0.38486504151606721 0 -0.15023428685121809 -0.40852914333535661 0 -0.13527777656465911 -0.38486504151606721 0 -0.15023428685121809 -0.40852914333535661 0 -0.16387779304272709 -0.39771358717235539 0 -0.14594740558628291 -0.37522106183479048 0 -0.13527777656465911 -0.38486504151606721 0 -0.15928849257248379 -0.38091895000727782 0 -0.13527777656465911 -0.38486504151606721 0 -0.16387779304272709 -0.39771358717235539 0 -0.15928849257248379 -0.38091895000727782 0 -0.13527777656465911 -0.38486504151606721 0 -0.124943741921634 -0.39771252077639868 0 -0.1194599375018689 -0.37951042699842802 0 -0.14594740558628291 -0.37522106183479048 0 -0.13527777656465911 -0.38486504151606721 0 -0.13443032264279581 -0.36929102695984528 0 -0.13527777656465911 -0.38486504151606721 0 -0.15023428685121809 -0.40852914333535661 0 -0.124943741921634 -0.39771252077639868 0 -0.13278086887716059 -0.42530345881360609 0 -0.15023428685121809 -0.40852914333535661 0 -0.124943741921634 -0.39771252077639868 0 -0.13278086887716059 -0.42530345881360609 0 -0.1177375441685647 -0.40980664599240252 0 -0.124943741921634 -0.39771252077639868 0 -0.13278086887716059 -0.42530345881360609 0 -0.124943741921634 -0.39771252077639868 0 -0.14743365020616919 -0.43604990398405208 0 -0.15023428685121809 -0.40852914333535661 0 -0.1651907971377771 -0.43219324515464602 0 -0.13278086887716059 -0.42530345881360609 0 -0.14743365020616919 -0.43604990398405208 0 -0.15023428685121809 -0.40852914333535661 0 -0.1651907971377771 -0.43219324515464602 0 -0.1857796638937709 -0.40560184576295699 0 -0.16387779304272709 -0.39771358717235539 0 -0.15023428685121809 -0.40852914333535661 0 -0.1651907971377771 -0.43219324515464602 0 -0.16387779304272709 -0.39771358717235539 0 -0.15023428685121809 -0.40852914333535661 0 -0.1651907971377771 -0.43219324515464602 0 -0.1651907971377771 -0.43219324515464602 0 -0.1857796638937709 -0.40560184576295699 0 -0.19445666616392751 -0.43528239866859209 0 -0.1857796638937709 -0.40560184576295699 0 -0.16387779304272709 -0.39771358717235539 0 -0.18175591363843191 -0.37157544359643102 0 -0.16387779304272709 -0.39771358717235539 0 -0.15928849257248379 -0.38091895000727782 0 -0.18175591363843191 -0.37157544359643102 0 -0.1857796638937709 -0.40560184576295699 0 -0.20229753679496901 -0.38749847162423001 0 -0.18175591363843191 -0.37157544359643102 0 -0.1857796638937709 -0.40560184576295699 0 -0.20229753679496901 -0.38749847162423001 0 -0.20995315884788279 -0.4113963529464652 0 -0.20229753679496901 -0.38749847162423001 0 -0.20995315884788279 -0.4113963529464652 0 -0.22490527106449501 -0.38487862102992382 0 -0.20229753679496901 -0.38749847162423001 0 -0.22490527106449501 -0.38487862102992382 0 -0.2127964961295872 -0.36268593422553841 0 -0.1857796638937709 -0.40560184576295699 0 -0.19445666616392751 -0.43528239866859209 0 -0.20995315884788279 -0.4113963529464652 0 -0.19445666616392751 -0.43528239866859209 0 -0.20995315884788279 -0.4113963529464652 0 -0.21740732258848919 -0.43498315142313287 0 -0.20995315884788279 -0.4113963529464652 0 -0.24409024760528589 -0.4072675957923485 0 -0.23765888485597059 -0.42742620375624529 0 -0.2411665356807233 -0.448899880321322 0 -0.21740732258848919 -0.43498315142313287 0 -0.23765888485597059 -0.42742620375624529 0 -0.20995315884788279 -0.4113963529464652 0 -0.21740732258848919 -0.43498315142313287 0 -0.23765888485597059 -0.42742620375624529 0 -0.25558614800825258 -0.42170654545269232 0 -0.24409024760528589 -0.4072675957923485 0 -0.23765888485597059 -0.42742620375624529 0 -0.24409024760528589 -0.4072675957923485 0 -0.22490527106449501 -0.38487862102992382 0 -0.24922429016927239 -0.37580598189176517 0 -0.20995315884788279 -0.4113963529464652 0 -0.24409024760528589 -0.4072675957923485 0 -0.22490527106449501 -0.38487862102992382 0 -0.2622845686526673 -0.35417431075927641 0 -0.24922429016927239 -0.37580598189176517 0 -0.23292130663963459 -0.36394030941927852 0 -0.22490527106449501 -0.38487862102992382 0 -0.24922429016927239 -0.37580598189176517 0 -0.23292130663963459 -0.36394030941927852 0 -0.22490527106449501 -0.38487862102992382 0 -0.23292130663963459 -0.36394030941927852 0 -0.2127964961295872 -0.36268593422553841 0 -0.23292130663963459 -0.36394030941927852 0 -0.23886999516532409 -0.34467389927062048 0 -0.22197819465344251 -0.33789886875851821 0 -0.23292130663963459 -0.36394030941927852 0 -0.22197819465344251 -0.33789886875851821 0 -0.2127964961295872 -0.36268593422553841 0 -0.2622845686526673 -0.35417431075927641 0 -0.23292130663963459 -0.36394030941927852 0 -0.23886999516532409 -0.34467389927062048 0 -0.25459600793004761 -0.33654435794460918 0 -0.23886999516532409 -0.34467389927062048 0 -0.24093606497741599 -0.32704975708403627 0 -0.24093606497741599 -0.32704975708403627 0 -0.2251098440105713 -0.31612711319263781 0 -0.24614089371338041 -0.30727191192772751 0 -0.25889531970927232 -0.32228389633745091 0 -0.24093606497741599 -0.32704975708403627 0 -0.24614089371338041 -0.30727191192772751 0 -0.24093606497741599 -0.32704975708403627 0 -0.2251098440105713 -0.31612711319263781 0 -0.22197819465344251 -0.33789886875851821 0 -0.23886999516532409 -0.34467389927062048 0 -0.24093606497741599 -0.32704975708403627 0 -0.22197819465344251 -0.33789886875851821 0 -0.22197819465344251 -0.33789886875851821 0 -0.2052520657661778 -0.34180481749348712 0 -0.2040787943077623 -0.32498231445754799 0 -0.2251098440105713 -0.31612711319263781 0 -0.2040787943077623 -0.32498231445754799 0 -0.21260047889386419 -0.30890191574657838 0 -0.2040787943077623 -0.32498231445754799 0 -0.19394653631101569 -0.32062771561155701 0 -0.21260047889386419 -0.30890191574657838 0 -0.2251098440105713 -0.31612711319263781 0 -0.22197819465344251 -0.33789886875851821 0 -0.2040787943077623 -0.32498231445754799 0 -0.2251098440105713 -0.31612711319263781 0 -0.2040787943077623 -0.32498231445754799 0 -0.19394653631101569 -0.32062771561155701 0 -0.21260047889386419 -0.30890191574657838 0 -0.19394653631101569 -0.32062771561155701 0 -0.21260047889386419 -0.30890191574657838 0 -0.19789154261675329 -0.30994117219649098 0 -0.2040787943077623 -0.32498231445754799 0 -0.19394653631101569 -0.32062771561155701 0 -0.19538266807842039 -0.33371890786836028 0 -0.19394653631101569 -0.32062771561155701 0 -0.19789154261675329 -0.30994117219649098 0 -0.1876440410512967 -0.30940253615876268 0 -0.2052520657661778 -0.34180481749348712 0 -0.2040787943077623 -0.32498231445754799 0 -0.19538266807842039 -0.33371890786836028 0 -0.19538266807842039 -0.33371890786836028 0 -0.18986246842759771 -0.34869926947066943 0 -0.18377347557954821 -0.33248042230853991 0 -0.2052520657661778 -0.34180481749348712 0 -0.19538266807842039 -0.33371890786836028 0 -0.18986246842759771 -0.34869926947066943 0 -0.19394653631101569 -0.32062771561155701 0 -0.19538266807842039 -0.33371890786836028 0 -0.18377347557954821 -0.33248042230853991 0 -0.18986246842759771 -0.34869926947066943 0 -0.2127964961295872 -0.36268593422553841 0 -0.2052520657661778 -0.34180481749348712 0 -0.18986246842759771 -0.34869926947066943 0 -0.2127964961295872 -0.36268593422553841 0 -0.20229753679496901 -0.38749847162423001 0 -0.2127964961295872 -0.36268593422553841 0 -0.18175591363843191 -0.37157544359643102 0 -0.18986246842759771 -0.34869926947066943 0 -0.2127964961295872 -0.36268593422553841 0 -0.18175591363843191 -0.37157544359643102 0 -0.22197819465344251 -0.33789886875851821 0 -0.2052520657661778 -0.34180481749348712 0 -0.2127964961295872 -0.36268593422553841 0 -0.23085447953332891 -0.25591185281513312 0 -0.20960420732335069 -0.255178517142923 0 -0.23171409415613031 -0.2394522709450935 0 -0.23085447953332891 -0.25591185281513312 0 -0.23336570621734151 -0.27302539383518032 0 -0.20960420732335069 -0.255178517142923 0 -0.23336570621734151 -0.27302539383518032 0 -0.20960420732335069 -0.255178517142923 0 -0.23085447953332891 -0.25591185281513312 0 -0.2487339104364929 -0.25599122933733548 0 -0.23336570621734151 -0.27302539383518032 0 -0.23085447953332891 -0.25591185281513312 0 -0.2487339104364929 -0.25599122933733548 0 -0.23171409415613031 -0.2394522709450935 0 -0.2487339104364929 -0.25599122933733548 0 -0.23336570621734151 -0.27302539383518032 0 -0.25119883513679508 -0.25325909927054341 0 -0.2487339104364929 -0.25599122933733548 0 -0.25119883513679508 -0.25325909927054341 0 -0.2487339104364929 -0.25599122933733548 0 -0.24762550760567781 -0.25045736440467059 0 -0.25119883513679508 -0.25325909927054341 0 -0.24762550760567781 -0.25045736440467059 0 -0.23336570621734151 -0.27302539383518032 0 -0.24990836405956079 -0.28545031601662058 0 -0.25466902243528022 -0.2689724559053594 0 -0.2487339104364929 -0.25599122933733548 0 -0.23336570621734151 -0.27302539383518032 0 -0.25466902243528022 -0.2689724559053594 0 -0.23336570621734151 -0.27302539383518032 0 -0.24990836405956079 -0.28545031601662058 0 -0.23336570621734151 -0.27302539383518032 0 -0.21465243899560391 -0.29376723638240237 0 -0.21354243648762469 -0.27431332651139451 0 -0.23336570621734151 -0.27302539383518032 0 -0.21354243648762469 -0.27431332651139451 0 -0.20960420732335069 -0.255178517142923 0 -0.23336570621734151 -0.27302539383518032 0 -0.23125442147671271 -0.29717611588159981 0 -0.21465243899560391 -0.29376723638240237 0 -0.23125442147671271 -0.29717611588159981 0 -0.21851272468163249 -0.29770855100209159 0 -0.21465243899560391 -0.29376723638240237 0 -0.23336570621734151 -0.27302539383518032 0 -0.21465243899560391 -0.29376723638240237 0 -0.23336570621734151 -0.27302539383518032 0 -0.24990836405956079 -0.28545031601662058 0 -0.23125442147671271 -0.29717611588159981 0 -0.24990836405956079 -0.28545031601662058 0 -0.23125442147671271 -0.29717611588159981 0 -0.24990836405956079 -0.28545031601662058 0 -0.24614089371338041 -0.30727191192772751 0 -0.23125442147671271 -0.29717611588159981 0 -0.2251098440105713 -0.31612711319263781 0 -0.24614089371338041 -0.30727191192772751 0 -0.2251098440105713 -0.31612711319263781 0 -0.24614089371338041 -0.30727191192772751 0 -0.23125442147671271 -0.29717611588159981 0 -0.2251098440105713 -0.31612711319263781 0 -0.23125442147671271 -0.29717611588159981 0 -0.21260047889386419 -0.30890191574657838 0 -0.23125442147671271 -0.29717611588159981 0 -0.21260047889386419 -0.30890191574657838 0 -0.23125442147671271 -0.29717611588159981 0 -0.21260047889386419 -0.30890191574657838 0 -0.21851272468163249 -0.29770855100209159 0 -0.21851272468163249 -0.29770855100209159 0 -0.20444736508831479 -0.30507857147208173 0 -0.21465243899560391 -0.29376723638240237 0 -0.21260047889386419 -0.30890191574657838 0 -0.21851272468163249 -0.29770855100209159 0 -0.20444736508831479 -0.30507857147208173 0 -0.20444736508831479 -0.30507857147208173 0 -0.21465243899560391 -0.29376723638240237 0 -0.21260047889386419 -0.30890191574657838 0 -0.20444736508831479 -0.30507857147208173 0 -0.19789154261675329 -0.30994117219649098 0 -0.20444736508831479 -0.30507857147208173 0 -0.19789154261675329 -0.30994117219649098 0 -0.1929612299376405 -0.29917091756724051 0 -0.19789154261675329 -0.30994117219649098 0 -0.1876440410512967 -0.30940253615876268 0 -0.1929612299376405 -0.29917091756724051 0 -0.20444736508831479 -0.30507857147208173 0 -0.1929612299376405 -0.29917091756724051 0 -0.19957616382887541 -0.29042460843077611 0 -0.1929612299376405 -0.29917091756724051 0 -0.19957616382887541 -0.29042460843077611 0 -0.1847404372514623 -0.28220818068427372 0 -0.19957616382887541 -0.29042460843077611 0 -0.1965473934142011 -0.27528215868507461 0 -0.1847404372514623 -0.28220818068427372 0 -0.21465243899560391 -0.29376723638240237 0 -0.1965473934142011 -0.27528215868507461 0 -0.19957616382887541 -0.29042460843077611 0 -0.21465243899560391 -0.29376723638240237 0 -0.1965473934142011 -0.27528215868507461 0 -0.20444736508831479 -0.30507857147208173 0 -0.19957616382887541 -0.29042460843077611 0 -0.21465243899560391 -0.29376723638240237 0 -0.21851272468163249 -0.29770855100209159 0 -0.21465243899560391 -0.29376723638240237 0 -0.21354243648762469 -0.27431332651139451 0 -0.1965473934142011 -0.27528215868507461 0 -0.20960420732335069 -0.255178517142923 0 -0.21465243899560391 -0.29376723638240237 0 -0.21354243648762469 -0.27431332651139451 0 -0.1965473934142011 -0.27528215868507461 0 -0.1965473934142011 -0.27528215868507461 0 -0.20960420732335069 -0.255178517142923 0 -0.17844234783279819 -0.25679708098774662 0 -0.16253313810204001 -0.25603905961840367 0 -0.14827665060334749 -0.25853720966090349 0 -0.15858084240211121 -0.24125751270151211 0 -0.16253313810204001 -0.25603905961840367 0 -0.17844234783279819 -0.25679708098774662 0 -0.16212153732928211 -0.27427510501154839 0 -0.16253313810204001 -0.25603905961840367 0 -0.16212153732928211 -0.27427510501154839 0 -0.14827665060334749 -0.25853720966090349 0 -0.16253313810204001 -0.25603905961840367 0 -0.17844234783279819 -0.25679708098774662 0 -0.16033730225139539 -0.23831200329041871 0 -0.17844234783279819 -0.25679708098774662 0 -0.16212153732928211 -0.27427510501154839 0 -0.1847404372514623 -0.28220818068427372 0 -0.1965473934142011 -0.27528215868507461 0 -0.17844234783279819 -0.25679708098774662 0 -0.1965473934142011 -0.27528215868507461 0 -0.17844234783279819 -0.25679708098774662 0 -0.1847404372514623 -0.28220818068427372 0 -0.16212153732928211 -0.27427510501154839 0 -0.17545546643514481 -0.29681976839625462 0 -0.1544654769341117 -0.29266958893042683 0 -0.16212153732928211 -0.27427510501154839 0 -0.17545546643514481 -0.29681976839625462 0 -0.1847404372514623 -0.28220818068427372 0 -0.1929612299376405 -0.29917091756724051 0 -0.17545546643514481 -0.29681976839625462 0 -0.1847404372514623 -0.28220818068427372 0 -0.1876440410512967 -0.30940253615876268 0 -0.17545546643514481 -0.29681976839625462 0 -0.17628569639226321 -0.31830913060111998 0 -0.1876440410512967 -0.30940253615876268 0 -0.1929612299376405 -0.29917091756724051 0 -0.17545546643514481 -0.29681976839625462 0 -0.17545546643514481 -0.29681976839625462 0 -0.15913973639392751 -0.30800271357521269 0 -0.17628569639226321 -0.31830913060111998 0 -0.17545546643514481 -0.29681976839625462 0 -0.15913973639392751 -0.30800271357521269 0 -0.1544654769341117 -0.29266958893042683 0 -0.15913973639392751 -0.30800271357521269 0 -0.140942126549716 -0.30161211523563519 0 -0.14399441302361879 -0.32072593996093179 0 -0.15913973639392751 -0.30800271357521269 0 -0.140942126549716 -0.30161211523563519 0 -0.1544654769341117 -0.29266958893042683 0 -0.140942126549716 -0.30161211523563519 0 -0.14399441302361879 -0.32072593996093179 0 -0.1210603853216294 -0.30673927520606298 0 -0.140942126549716 -0.30161211523563519 0 -0.13466851796248819 -0.28263824243348318 0 -0.1210603853216294 -0.30673927520606298 0 -0.13466851796248819 -0.28263824243348318 0 -0.1210603853216294 -0.30673927520606298 0 -0.140942126549716 -0.30161211523563519 0 -0.13466851796248819 -0.28263824243348318 0 -0.1544654769341117 -0.29266958893042683 0 -0.16212153732928211 -0.27427510501154839 0 -0.13466851796248819 -0.28263824243348318 0 -0.1544654769341117 -0.29266958893042683 0 -0.16212153732928211 -0.27427510501154839 0 -0.13466851796248819 -0.28263824243348318 0 -0.14827665060334749 -0.25853720966090349 0 -0.13466851796248819 -0.28263824243348318 0 -0.14827665060334749 -0.25853720966090349 0 -0.13466851796248819 -0.28263824243348318 0 -0.13021074862825591 -0.26107326069517672 0 -0.14827665060334749 -0.25853720966090349 0 -0.13466851796248819 -0.28263824243348318 0 -0.13021074862825591 -0.26107326069517672 0 -0.1121543464466388 -0.26628946001923232 0 -0.13021074862825591 -0.26107326069517672 0 -0.14827665060334749 -0.25853720966090349 0 -0.14116867703999711 -0.2438785846685893 0 -0.13021074862825591 -0.26107326069517672 0 -0.1219903272737249 -0.24546297996505551 0 -0.14116867703999711 -0.2438785846685893 0 -0.18986246842759771 -0.34869926947066943 0 -0.1586232150576222 -0.35510102264045768 0 -0.16692844072560811 -0.33471260471580061 0 -0.15928849257248379 -0.38091895000727782 0 -0.1586232150576222 -0.35510102264045768 0 -0.18175591363843191 -0.37157544359643102 0 -0.1586232150576222 -0.35510102264045768 0 -0.18175591363843191 -0.37157544359643102 0 -0.18986246842759771 -0.34869926947066943 0 -0.1586232150576222 -0.35510102264045768 0 -0.18175591363843191 -0.37157544359643102 0 -0.18986246842759771 -0.34869926947066943 0 -0.18377347557954821 -0.33248042230853991 0 -0.16692844072560811 -0.33471260471580061 0 -0.18377347557954821 -0.33248042230853991 0 -0.17628569639226321 -0.31830913060111998 0 -0.16692844072560811 -0.33471260471580061 0 -0.18986246842759771 -0.34869926947066943 0 -0.16692844072560811 -0.33471260471580061 0 -0.19394653631101569 -0.32062771561155701 0 -0.18377347557954821 -0.33248042230853991 0 -0.17628569639226321 -0.31830913060111998 0 -0.19394653631101569 -0.32062771561155701 0 -0.1876440410512967 -0.30940253615876268 0 -0.17628569639226321 -0.31830913060111998 0 -0.15913973639392751 -0.30800271357521269 0 -0.16692844072560811 -0.33471260471580061 0 -0.14399441302361879 -0.32072593996093179 0 -0.15913973639392751 -0.30800271357521269 0 -0.17628569639226321 -0.31830913060111998 0 -0.16692844072560811 -0.33471260471580061 0 -0.1586232150576222 -0.35510102264045768 0 -0.16692844072560811 -0.33471260471580061 0 -0.15107110366377111 -0.33561619941238913 0 -0.16692844072560811 -0.33471260471580061 0 -0.15107110366377111 -0.33561619941238913 0 -0.14399441302361879 -0.32072593996093179 0 -0.15107110366377111 -0.33561619941238913 0 -0.14399441302361879 -0.32072593996093179 0 -0.13549051647681259 -0.33862660168448439 0 -0.1586232150576222 -0.35510102264045768 0 -0.15107110366377111 -0.33561619941238913 0 -0.13549051647681259 -0.33862660168448439 0 -0.16692844072560811 -0.33471260471580061 0 -0.14399441302361879 -0.32072593996093179 0 -0.1281521193437504 -0.32090678316845339 0 -0.13549051647681259 -0.33862660168448439 0 -0.1123578178960032 -0.32215218072851082 0 -0.14399441302361879 -0.32072593996093179 0 -0.1210603853216294 -0.30673927520606298 0 -0.14399441302361879 -0.32072593996093179 0 -0.1281521193437504 -0.32090678316845339 0 -0.1210603853216294 -0.30673927520606298 0 -0.14399441302361879 -0.32072593996093179 0 -0.1281521193437504 -0.32090678316845339 0 -0.13549051647681259 -0.33862660168448439 0 -0.13549051647681259 -0.33862660168448439 0 -0.12678459615453741 -0.34556593303709798 0 -0.1197249454969713 -0.33503953186604329 0 -0.13549051647681259 -0.33862660168448439 0 -0.12678459615453741 -0.34556593303709798 0 -0.13585976079271889 -0.35334199669161159 0 -0.12678459615453741 -0.34556593303709798 0 -0.13585976079271889 -0.35334199669161159 0 -0.1245691112969648 -0.35551226941341441 0 -0.13585976079271889 -0.35334199669161159 0 -0.12940287393438951 -0.36025654986491601 0 -0.1245691112969648 -0.35551226941341441 0 -0.12940287393438951 -0.36025654986491601 0 -0.1245691112969648 -0.35551226941341441 0 -0.1232182428645415 -0.35903563660212467 0 -0.13585976079271889 -0.35334199669161159 0 -0.1411330199356999 -0.36332025432128839 0 -0.12940287393438951 -0.36025654986491601 0 -0.1586232150576222 -0.35510102264045768 0 -0.13585976079271889 -0.35334199669161159 0 -0.1411330199356999 -0.36332025432128839 0 -0.1586232150576222 -0.35510102264045768 0 -0.13549051647681259 -0.33862660168448439 0 -0.13585976079271889 -0.35334199669161159 0 -0.1586232150576222 -0.35510102264045768 0 -0.13549051647681259 -0.33862660168448439 0 -0.14594740558628291 -0.37522106183479048 0 -0.1586232150576222 -0.35510102264045768 0 -0.1411330199356999 -0.36332025432128839 0 -0.14594740558628291 -0.37522106183479048 0 -0.15928849257248379 -0.38091895000727782 0 -0.1586232150576222 -0.35510102264045768 0 -0.13527777656465911 -0.38486504151606721 0 -0.13443032264279581 -0.36929102695984528 0 -0.1200029604245014 -0.36069731806412592 0 -0.13527777656465911 -0.38486504151606721 0 -0.1200029604245014 -0.36069731806412592 0 -0.14594740558628291 -0.37522106183479048 0 -0.1411330199356999 -0.36332025432128839 0 -0.13443032264279581 -0.36929102695984528 0 -0.1411330199356999 -0.36332025432128839 0 -0.13443032264279581 -0.36929102695984528 0 -0.12940287393438951 -0.36025654986491601 0 -0.13443032264279581 -0.36929102695984528 0 -0.12940287393438951 -0.36025654986491601 0 -0.1200029604245014 -0.36069731806412592 0 -0.1180923049611159 -0.36286694447576068 0 -0.10277709915406009 -0.38025797894291907 0 -0.1180923049611159 -0.36286694447576068 0 -0.1194599375018689 -0.37951042699842802 0 -0.10277709915406009 -0.38025797894291907 0 -0.1180923049611159 -0.36286694447576068 0 -0.1200029604245014 -0.36069731806412592 0 -0.1194599375018689 -0.37951042699842802 0 -0.12940287393438951 -0.36025654986491601 0 -0.1200029604245014 -0.36069731806412592 0 -0.1232182428645415 -0.35903563660212467 0 -0.1200029604245014 -0.36069731806412592 0 -0.1232182428645415 -0.35903563660212467 0 -0.1180923049611159 -0.36286694447576068 0 -0.1200029604245014 -0.36069731806412592 0 -0.1180923049611159 -0.36286694447576068 0 -0.1041599929403737 -0.3732804488429029 0 -0.10901474596194451 -0.35891644607884721 0 -0.1180923049611159 -0.36286694447576068 0 -0.1200029604245014 -0.36069731806412592 0 -0.10901474596194451 -0.35891644607884721 0 -0.1180923049611159 -0.36286694447576068 0 -0.1041599929403737 -0.3732804488429029 0 -0.1180923049611159 -0.36286694447576068 0 -0.1041599929403737 -0.3732804488429029 0 -0.10277709915406009 -0.38025797894291907 0 -0.1041599929403737 -0.3732804488429029 0 -0.09549734623083031 -0.35710532529827532 0 -0.090227680919633346 -0.38369395321004762 0 -0.1041599929403737 -0.3732804488429029 0 -0.09549734623083031 -0.35710532529827532 0 -0.10901474596194451 -0.35891644607884721 0 -0.09549734623083031 -0.35710532529827532 0 -0.1008818974153128 -0.33044408564071309 0 -0.09549734623083031 -0.35710532529827532 0 -0.1008818974153128 -0.33044408564071309 0 -0.089300123439276582 -0.34382168677296648 0 -0.09549734623083031 -0.35710532529827532 0 -0.10901474596194451 -0.35891644607884721 0 -0.1073211252529009 -0.34063219371317083 0 -0.1200029604245014 -0.36069731806412592 0 -0.1073211252529009 -0.34063219371317083 0 -0.1200029604245014 -0.36069731806412592 0 -0.118278646709219 -0.34530926552993618 0 -0.1073211252529009 -0.34063219371317083 0 -0.1200029604245014 -0.36069731806412592 0 -0.10901474596194451 -0.35891644607884721 0 -0.1073211252529009 -0.34063219371317083 0 -0.1200029604245014 -0.36069731806412592 0 -0.1245691112969648 -0.35551226941341441 0 -0.118278646709219 -0.34530926552993618 0 -0.1200029604245014 -0.36069731806412592 0 -0.1245691112969648 -0.35551226941341441 0 -0.1232182428645415 -0.35903563660212467 0 -0.1200029604245014 -0.36069731806412592 0 -0.1245691112969648 -0.35551226941341441 0 -0.12678459615453741 -0.34556593303709798 0 -0.1245691112969648 -0.35551226941341441 0 -0.118278646709219 -0.34530926552993618 0 -0.13549051647681259 -0.33862660168448439 0 -0.1123578178960032 -0.32215218072851082 0 -0.12678459615453741 -0.34556593303709798 0 -0.118278646709219 -0.34530926552993618 0 -0.1197249454969713 -0.33503953186604329 0 -0.13549051647681259 -0.33862660168448439 0 -0.1197249454969713 -0.33503953186604329 0 -0.1123578178960032 -0.32215218072851082 0 -0.1197249454969713 -0.33503953186604329 0 -0.1121139097291533 -0.33273899789775302 0 -0.1123578178960032 -0.32215218072851082 0 -0.118278646709219 -0.34530926552993618 0 -0.1197249454969713 -0.33503953186604329 0 -0.1121139097291533 -0.33273899789775302 0 -0.118278646709219 -0.34530926552993618 0 -0.1121139097291533 -0.33273899789775302 0 -0.1073211252529009 -0.34063219371317083 0 -0.1281521193437504 -0.32090678316845339 0 -0.1123578178960032 -0.32215218072851082 0 -0.1210603853216294 -0.30673927520606298 0 -0.1123578178960032 -0.32215218072851082 0 -0.113623878154461 -0.31270372253582901 0 -0.1210603853216294 -0.30673927520606298 0 -0.1123578178960032 -0.32215218072851082 0 -0.113623878154461 -0.31270372253582901 0 -0.1076655334105879 -0.3142205900361516 0 -0.1123578178960032 -0.32215218072851082 0 -0.1210603853216294 -0.30673927520606298 0 -0.113623878154461 -0.31270372253582901 0 -0.1076655334105879 -0.3142205900361516 0 -0.10752280118903421 -0.3106993940103821 0 -0.1123578178960032 -0.32215218072851082 0 -0.094639290081301897 -0.32056706936221452 0 -0.097157636402853131 -0.3113270628698846 0 -0.1121139097291533 -0.33273899789775302 0 -0.1123578178960032 -0.32215218072851082 0 -0.094639290081301897 -0.32056706936221452 0 -0.1121139097291533 -0.33273899789775302 0 -0.094639290081301897 -0.32056706936221452 0 -0.1008818974153128 -0.33044408564071309 0 -0.1123578178960032 -0.32215218072851082 0 -0.1076655334105879 -0.3142205900361516 0 -0.097157636402853131 -0.3113270628698846 0 -0.1123578178960032 -0.32215218072851082 0 -0.097157636402853131 -0.3113270628698846 0 -0.094639290081301897 -0.32056706936221452 0 -0.1008818974153128 -0.33044408564071309 0 -0.087617304519443523 -0.33057390264108111 0 -0.094639290081301897 -0.32056706936221452 0 -0.1008818974153128 -0.33044408564071309 0 -0.09549734623083031 -0.35710532529827532 0 -0.1073211252529009 -0.34063219371317083 0 -0.1008818974153128 -0.33044408564071309 0 -0.1073211252529009 -0.34063219371317083 0 -0.1008818974153128 -0.33044408564071309 0 -0.1121139097291533 -0.33273899789775302 0 -0.1073211252529009 -0.34063219371317083 0 -0.1008818974153128 -0.33044408564071309 0 -0.087617304519443523 -0.33057390264108111 0 -0.078876794068871603 -0.31835876422904602 0 -0.070772415237664865 -0.33954386302176348 0 -0.087617304519443523 -0.33057390264108111 0 -0.070772415237664865 -0.33954386302176348 0 -0.089300123439276582 -0.34382168677296648 0 -0.1008818974153128 -0.33044408564071309 0 -0.087617304519443523 -0.33057390264108111 0 -0.089300123439276582 -0.34382168677296648 0 -0.094639290081301897 -0.32056706936221452 0 -0.078876794068871603 -0.31835876422904602 0 -0.081957454909703104 -0.30050194501125821 0 -0.094639290081301897 -0.32056706936221452 0 -0.087617304519443523 -0.33057390264108111 0 -0.078876794068871603 -0.31835876422904602 0 -0.066235676392809667 -0.31580545310241981 0 -0.070772415237664865 -0.33954386302176348 0 -0.051563734922948648 -0.31774979674277282 0 -0.078876794068871603 -0.31835876422904602 0 -0.066235676392809667 -0.31580545310241981 0 -0.070772415237664865 -0.33954386302176348 0 -0.078876794068871603 -0.31835876422904602 0 -0.066235676392809667 -0.31580545310241981 0 -0.072183628221719517 -0.30582831626264773 0 -0.070772415237664865 -0.33954386302176348 0 -0.073536445800352443 -0.3567159973390277 0 -0.058587458183425319 -0.35807803301502128 0 -0.070772415237664865 -0.33954386302176348 0 -0.073536445800352443 -0.3567159973390277 0 -0.089981095552381235 -0.36133792930075409 0 -0.073536445800352443 -0.3567159973390277 0 -0.072169626095210701 -0.36741160040038212 0 -0.058587458183425319 -0.35807803301502128 0 -0.062795052240621291 -0.37262984191653659 0 -0.072169626095210701 -0.36741160040038212 0 -0.058587458183425319 -0.35807803301502128 0 -0.062795052240621291 -0.37262984191653659 0 -0.072169626095210701 -0.36741160040038212 0 -0.07025940285624635 -0.38224742947670509 0 -0.072169626095210701 -0.36741160040038212 0 -0.08019834471942805 -0.37321705423371282 0 -0.07025940285624635 -0.38224742947670509 0 -0.072169626095210701 -0.36741160040038212 0 -0.080556223117867115 -0.36538209126907412 0 -0.08019834471942805 -0.37321705423371282 0 -0.073536445800352443 -0.3567159973390277 0 -0.072169626095210701 -0.36741160040038212 0 -0.080556223117867115 -0.36538209126907412 0 -0.09549734623083031 -0.35710532529827532 0 -0.090227680919633346 -0.38369395321004762 0 -0.09549734623083031 -0.35710532529827532 0 -0.087292138108027661 -0.36814727066237241 0 -0.090227680919633346 -0.38369395321004762 0 -0.073536445800352443 -0.3567159973390277 0 -0.080556223117867115 -0.36538209126907412 0 -0.089981095552381235 -0.36133792930075409 0 -0.080556223117867115 -0.36538209126907412 0 -0.08019834471942805 -0.37321705423371282 0 -0.087292138108027661 -0.36814727066237241 0 -0.080556223117867115 -0.36538209126907412 0 -0.087292138108027661 -0.36814727066237241 0 -0.089981095552381235 -0.36133792930075409 0 -0.09549734623083031 -0.35710532529827532 0 -0.087292138108027661 -0.36814727066237241 0 -0.089981095552381235 -0.36133792930075409 0 -0.09549734623083031 -0.35710532529827532 0 -0.089981095552381235 -0.36133792930075409 0 -0.089300123439276582 -0.34382168677296648 0 -0.070772415237664865 -0.33954386302176348 0 -0.089981095552381235 -0.36133792930075409 0 -0.070772415237664865 -0.33954386302176348 0 -0.089981095552381235 -0.36133792930075409 0 -0.089300123439276582 -0.34382168677296648 0 -0.1121543464466388 -0.26628946001923232 0 -0.086532859575994533 -0.26599339749890089 0 -0.10016586521477271 -0.24581573249483521 0 -0.1121543464466388 -0.26628946001923232 0 -0.1219903272737249 -0.24546297996505551 0 -0.10016586521477271 -0.24581573249483521 0 -0.13021074862825591 -0.26107326069517672 0 -0.1121543464466388 -0.26628946001923232 0 -0.1219903272737249 -0.24546297996505551 0 -0.13466851796248819 -0.28263824243348318 0 -0.1121543464466388 -0.26628946001923232 0 -0.1159259083142979 -0.28605941302962601 0 -0.1121543464466388 -0.26628946001923232 0 -0.098577034313684669 -0.27756865175518192 0 -0.086532859575994533 -0.26599339749890089 0 -0.1121543464466388 -0.26628946001923232 0 -0.098577034313684669 -0.27756865175518192 0 -0.1159259083142979 -0.28605941302962601 0 -0.098577034313684669 -0.27756865175518192 0 -0.101044550288079 -0.28969566531943491 0 -0.1159259083142979 -0.28605941302962601 0 -0.098577034313684669 -0.27756865175518192 0 -0.101044550288079 -0.28969566531943491 0 -0.088605625389108308 -0.28674134111985111 0 -0.101044550288079 -0.28969566531943491 0 -0.096858291180299316 -0.29932163317979871 0 -0.088605625389108308 -0.28674134111985111 0 -0.101044550288079 -0.28969566531943491 0 -0.1082414807063196 -0.29664983659922461 0 -0.1159259083142979 -0.28605941302962601 0 -0.101044550288079 -0.28969566531943491 0 -0.1082414807063196 -0.29664983659922461 0 -0.096858291180299316 -0.29932163317979871 0 -0.13466851796248819 -0.28263824243348318 0 -0.1159259083142979 -0.28605941302962601 0 -0.1210603853216294 -0.30673927520606298 0 -0.1082414807063196 -0.29664983659922461 0 -0.1159259083142979 -0.28605941302962601 0 -0.1155222264350184 -0.30336174498273 0 -0.1159259083142979 -0.28605941302962601 0 -0.1155222264350184 -0.30336174498273 0 -0.1210603853216294 -0.30673927520606298 0 -0.1082414807063196 -0.29664983659922461 0 -0.11012042880803009 -0.30310880934526041 0 -0.1155222264350184 -0.30336174498273 0 -0.11012042880803009 -0.30310880934526041 0 -0.1155222264350184 -0.30336174498273 0 -0.11141787466032529 -0.30728710694624262 0 -0.1155222264350184 -0.30336174498273 0 -0.1210603853216294 -0.30673927520606298 0 -0.11540609114285851 -0.30752296241771621 0 -0.1155222264350184 -0.30336174498273 0 -0.1210603853216294 -0.30673927520606298 0 -0.113623878154461 -0.31270372253582901 0 -0.1210603853216294 -0.30673927520606298 0 -0.11540609114285851 -0.30752296241771621 0 -0.113623878154461 -0.31270372253582901 0 -0.11540609114285851 -0.30752296241771621 0 -0.11141787466032529 -0.30728710694624262 0 -0.1155222264350184 -0.30336174498273 0 -0.11540609114285851 -0.30752296241771621 0 -0.11141787466032529 -0.30728710694624262 0 -0.113623878154461 -0.31270372253582901 0 -0.11141787466032529 -0.30728710694624262 0 -0.10752280118903421 -0.3106993940103821 0 -0.10752280118903421 -0.3106993940103821 0 -0.1053001334304569 -0.30513654885284441 0 -0.097157636402853131 -0.3113270628698846 0 -0.1076655334105879 -0.3142205900361516 0 -0.10752280118903421 -0.3106993940103821 0 -0.097157636402853131 -0.3113270628698846 0 -0.11141787466032529 -0.30728710694624262 0 -0.10752280118903421 -0.3106993940103821 0 -0.1053001334304569 -0.30513654885284441 0 -0.11012042880803009 -0.30310880934526041 0 -0.11141787466032529 -0.30728710694624262 0 -0.1053001334304569 -0.30513654885284441 0 -0.1082414807063196 -0.29664983659922461 0 -0.11012042880803009 -0.30310880934526041 0 -0.1053001334304569 -0.30513654885284441 0 -0.1082414807063196 -0.29664983659922461 0 -0.1053001334304569 -0.30513654885284441 0 -0.096858291180299316 -0.29932163317979871 0 -0.1053001334304569 -0.30513654885284441 0 -0.096858291180299316 -0.29932163317979871 0 -0.097157636402853131 -0.3113270628698846 0 -0.094639290081301897 -0.32056706936221452 0 -0.097157636402853131 -0.3113270628698846 0 -0.081957454909703104 -0.30050194501125821 0 -0.094639290081301897 -0.32056706936221452 0 -0.081957454909703104 -0.30050194501125821 0 -0.097157636402853131 -0.3113270628698846 0 -0.081957454909703104 -0.30050194501125821 0 -0.096858291180299316 -0.29932163317979871 0 -0.097157636402853131 -0.3113270628698846 0 -0.081957454909703104 -0.30050194501125821 0 -0.078876794068871603 -0.31835876422904602 0 -0.081957454909703104 -0.30050194501125821 0 -0.072183628221719517 -0.30582831626264773 0 -0.066235676392809667 -0.31580545310241981 0 -0.072183628221719517 -0.30582831626264773 0 -0.062231794430082837 -0.30196042962287012 0 -0.072183628221719517 -0.30582831626264773 0 -0.073841413765750416 -0.29472194153114539 0 -0.062231794430082837 -0.30196042962287012 0 -0.081957454909703104 -0.30050194501125821 0 -0.072183628221719517 -0.30582831626264773 0 -0.073841413765750416 -0.29472194153114539 0 -0.081957454909703104 -0.30050194501125821 0 -0.073841413765750416 -0.29472194153114539 0 -0.081957454909703104 -0.30050194501125821 0 -0.072899853937241854 -0.28617106250298407 0 -0.072899853937241854 -0.28617106250298407 0 -0.052413281063612253 -0.28382795562697599 0 -0.062231794430082837 -0.30196042962287012 0 -0.073841413765750416 -0.29472194153114539 0 -0.072899853937241854 -0.28617106250298407 0 -0.062231794430082837 -0.30196042962287012 0 -0.072899853937241854 -0.28617106250298407 0 -0.062231794430082837 -0.30196042962287012 0 -0.081957454909703104 -0.30050194501125821 0 -0.073841413765750416 -0.29472194153114539 0 -0.072899853937241854 -0.28617106250298407 0 -0.081957454909703104 -0.30050194501125821 0 -0.072899853937241854 -0.28617106250298407 0 -0.088605625389108308 -0.28674134111985111 0 -0.096858291180299316 -0.29932163317979871 0 -0.081957454909703104 -0.30050194501125821 0 -0.088605625389108308 -0.28674134111985111 0 -0.072899853937241854 -0.28617106250298407 0 -0.086532859575994533 -0.26599339749890089 0 -0.098577034313684669 -0.27756865175518192 0 -0.088605625389108308 -0.28674134111985111 0 -0.086532859575994533 -0.26599339749890089 0 -0.072899853937241854 -0.28617106250298407 0 -0.088605625389108308 -0.28674134111985111 0 -0.086532859575994533 -0.26599339749890089 0 -0.072899853937241854 -0.28617106250298407 0 -0.086532859575994533 -0.26599339749890089 0 -0.058152192337501102 -0.26283739983658899 0 -0.072899853937241854 -0.28617106250298407 0 -0.058152192337501102 -0.26283739983658899 0 -0.086532859575994533 -0.26599339749890089 0 -0.058152192337501102 -0.26283739983658899 0 -0.076131730960256647 -0.24343215185636799 0 -0.086532859575994533 -0.26599339749890089 0 -0.10016586521477271 -0.24581573249483521 0 -0.086532859575994533 -0.26599339749890089 0 -0.076131730960256647 -0.24343215185636799 0 -0.10016586521477271 -0.24581573249483521 0 -0.039725892714616587 -0.25750095860227518 0 -0.023438451481424202 -0.25331853491053757 0 -0.043404530737749837 -0.2395037371702004 0 -0.039725892714616587 -0.25750095860227518 0 -0.058152192337501102 -0.26283739983658899 0 -0.034525906339599843 -0.27356970804651198 0 -0.039725892714616587 -0.25750095860227518 0 -0.034525906339599843 -0.27356970804651198 0 -0.024568679520112151 -0.26536898738583331 0 -0.039725892714616587 -0.25750095860227518 0 -0.058152192337501102 -0.26283739983658899 0 -0.043404530737749837 -0.2395037371702004 0 -0.058152192337501102 -0.26283739983658899 0 -0.043404530737749837 -0.2395037371702004 0 -0.058152192337501102 -0.26283739983658899 0 -0.034525906339599843 -0.27356970804651198 0 -0.052413281063612253 -0.28382795562697599 0 -0.072899853937241854 -0.28617106250298407 0 -0.058152192337501102 -0.26283739983658899 0 -0.052413281063612253 -0.28382795562697599 0 -0.034525906339599843 -0.27356970804651198 0 -0.032924479158916033 -0.29660179652324931 0 -0.052413281063612253 -0.28382795562697599 0 -0.032924479158916033 -0.29660179652324931 0 -0.052413281063612253 -0.28382795562697599 0 -0.062231794430082837 -0.30196042962287012 0 -0.062231794430082837 -0.30196042962287012 0 -0.051563734922948648 -0.31774979674277282 0 -0.032924479158916033 -0.29660179652324931 0 -0.062231794430082837 -0.30196042962287012 0 -0.051563734922948648 -0.31774979674277282 0 -0.066235676392809667 -0.31580545310241981 0 -0.062231794430082837 -0.30196042962287012 0 -0.051563734922948648 -0.31774979674277282 0 -0.032924479158916033 -0.29660179652324931 0 -0.051563734922948648 -0.31774979674277282 0 -0.032852867956736767 -0.315452972035625 0 -0.032924479158916033 -0.29660179652324931 0 -0.051563734922948648 -0.31774979674277282 0 -0.006997839033917503 -0.2973705540437831 0 -0.032852867956736767 -0.315452972035625 0 -0.016333173299447841 -0.32453436151040338 0 -0.032924479158916033 -0.29660179652324931 0 -0.006997839033917503 -0.2973705540437831 0 -0.032852867956736767 -0.315452972035625 0 -0.006997839033917503 -0.2973705540437831 0 -0.016333173299447841 -0.32453436151040338 0 -0.0026532156142901431 -0.31404969460252902 0 -0.006997839033917503 -0.2973705540437831 0 -0.016333173299447841 -0.32453436151040338 0 -0.006997839033917503 -0.2973705540437831 0 -0.01013099524948355 -0.27702673994670929 0 0.0023374952316131039 -0.27020674657716282 0 -0.006997839033917503 -0.2973705540437831 0 -0.02329408679206231 -0.28211233650265632 0 -0.01013099524948355 -0.27702673994670929 0 -0.006997839033917503 -0.2973705540437831 0 0.0023374952316131039 -0.27020674657716282 0 -0.034525906339599843 -0.27356970804651198 0 -0.032924479158916033 -0.29660179652324931 0 -0.02329408679206231 -0.28211233650265632 0 -0.032924479158916033 -0.29660179652324931 0 -0.006997839033917503 -0.2973705540437831 0 -0.02329408679206231 -0.28211233650265632 0 -0.034525906339599843 -0.27356970804651198 0 -0.02329408679206231 -0.28211233650265632 0 -0.019747380721990639 -0.27461389881889642 0 -0.034525906339599843 -0.27356970804651198 0 -0.019747380721990639 -0.27461389881889642 0 -0.024568679520112151 -0.26536898738583331 0 -0.01675669348439747 -0.26719162637255672 0 -0.019747380721990639 -0.27461389881889642 0 -0.024568679520112151 -0.26536898738583331 0 -0.01675669348439747 -0.26719162637255672 0 -0.019747380721990639 -0.27461389881889642 0 -0.011454405594020131 -0.27443430157066379 0 -0.02329408679206231 -0.28211233650265632 0 -0.019747380721990639 -0.27461389881889642 0 -0.01013099524948355 -0.27702673994670929 0 -0.019747380721990639 -0.27461389881889642 0 -0.011454405594020131 -0.27443430157066379 0 -0.01013099524948355 -0.27702673994670929 0 -0.01013099524948355 -0.27702673994670929 0 0.0023374952316131039 -0.27020674657716282 0 -0.011454405594020131 -0.27443430157066379 0 -0.01013099524948355 -0.27702673994670929 0 0.0023374952316131039 -0.27020674657716282 0 -0.01675669348439747 -0.26719162637255672 0 -0.011454405594020131 -0.27443430157066379 0 -0.01036071328849749 -0.26006212037918158 0 -0.01675669348439747 -0.26719162637255672 0 -0.01036071328849749 -0.26006212037918158 0 -0.017425848435188102 -0.25873878367912262 0 -0.011454405594020131 -0.27443430157066379 0 -0.01036071328849749 -0.26006212037918158 0 0.00081356834396824167 -0.25216419879611068 0 -0.011454405594020131 -0.27443430157066379 0 0.00081356834396824167 -0.25216419879611068 0 -0.011454405594020131 -0.27443430157066379 0 0.0023374952316131039 -0.27020674657716282 0 0.00081356834396824167 -0.25216419879611068 0 -0.01036071328849749 -0.26006212037918158 0 -0.0064168006330008664 -0.25169307443059441 0 0.00081356834396824167 -0.25216419879611068 0 -0.0064168006330008664 -0.25169307443059441 0 -0.0046792976361779929 -0.2475980378634336 0 0.00081356834396824167 -0.25216419879611068 0 -0.01036071328849749 -0.26006212037918158 0 -0.0064168006330008664 -0.25169307443059441 0 -0.012004704401509201 -0.24775264934750341 0 -0.01036071328849749 -0.26006212037918158 0 -0.017425848435188102 -0.25873878367912262 0 -0.012004704401509201 -0.24775264934750341 0 -0.017425848435188102 -0.25873878367912262 0 -0.023438451481424202 -0.25331853491053757 0 -0.012004704401509201 -0.24775264934750341 0 -0.039725892714616587 -0.25750095860227518 0 -0.024568679520112151 -0.26536898738583331 0 -0.023438451481424202 -0.25331853491053757 0 -0.01675669348439747 -0.26719162637255672 0 -0.017425848435188102 -0.25873878367912262 0 -0.024568679520112151 -0.26536898738583331 0 -0.017425848435188102 -0.25873878367912262 0 -0.024568679520112151 -0.26536898738583331 0 -0.023438451481424202 -0.25331853491053757 0 -0.070772415237664865 -0.33954386302176348 0 -0.058587458183425319 -0.35807803301502128 0 -0.037249746729638961 -0.33893535672048158 0 -0.040769816664683843 -0.36005776281560431 0 -0.058587458183425319 -0.35807803301502128 0 -0.037249746729638961 -0.33893535672048158 0 -0.040769816664683843 -0.36005776281560431 0 -0.037249746729638961 -0.33893535672048158 0 -0.0229357585363286 -0.3601209166981898 0 -0.035644061583467397 -0.37146696901009069 0 -0.040769816664683843 -0.36005776281560431 0 -0.0229357585363286 -0.3601209166981898 0 -0.035644061583467397 -0.37146696901009069 0 -0.040769816664683843 -0.36005776281560431 0 -0.049427178019627219 -0.37192847643623211 0 -0.040769816664683843 -0.36005776281560431 0 -0.049427178019627219 -0.37192847643623211 0 -0.058587458183425319 -0.35807803301502128 0 -0.062795052240621291 -0.37262984191653659 0 -0.049427178019627219 -0.37192847643623211 0 -0.058587458183425319 -0.35807803301502128 0 -0.070772415237664865 -0.33954386302176348 0 -0.051563734922948648 -0.31774979674277282 0 -0.070772415237664865 -0.33954386302176348 0 -0.051563734922948648 -0.31774979674277282 0 -0.037249746729638961 -0.33893535672048158 0 -0.051563734922948648 -0.31774979674277282 0 -0.032852867956736767 -0.315452972035625 0 -0.037249746729638961 -0.33893535672048158 0 -0.051563734922948648 -0.31774979674277282 0 -0.037249746729638961 -0.33893535672048158 0 -0.037249746729638961 -0.33893535672048158 0 -0.016333173299447841 -0.32453436151040338 0 -0.01492157374125554 -0.34304985700610441 0 -0.032852867956736767 -0.315452972035625 0 -0.037249746729638961 -0.33893535672048158 0 -0.016333173299447841 -0.32453436151040338 0 -0.016333173299447841 -0.32453436151040338 0 -0.00080927065402618982 -0.32345324707213119 0 -0.0012659684323979539 -0.33308060515601762 0 -0.016333173299447841 -0.32453436151040338 0 -0.00080927065402618982 -0.32345324707213119 0 -0.0026532156142901431 -0.31404969460252902 0 -0.016333173299447841 -0.32453436151040338 0 -0.01492157374125554 -0.34304985700610441 0 -0.0012659684323979539 -0.33308060515601762 0 -0.01492157374125554 -0.34304985700610441 0 -0.0012659684323979539 -0.33308060515601762 0 -0.0028639800660775418 -0.34487494837923161 0 -0.01492157374125554 -0.34304985700610441 0 -0.0028639800660775418 -0.34487494837923161 0 -0.005044399714458447 -0.35694206374877219 0 -0.01492157374125554 -0.34304985700610441 0 -0.005044399714458447 -0.35694206374877219 0 -0.0229357585363286 -0.3601209166981898 0 -0.037249746729638961 -0.33893535672048158 0 -0.0229357585363286 -0.3601209166981898 0 -0.037249746729638961 -0.33893535672048158 0 -0.01492157374125554 -0.34304985700610441 0 -0.0229357585363286 -0.3601209166981898 0 -0.0229357585363286 -0.3601209166981898 0 -0.0086217703430182466 -0.38130647667589812 0 -0.02487237191899452 -0.38166870543829517 0 -0.0229357585363286 -0.3601209166981898 0 -0.0086217703430182466 -0.38130647667589812 0 -0.035644061583467397 -0.37146696901009069 0 -0.0229357585363286 -0.3601209166981898 0 -0.02487237191899452 -0.38166870543829517 0 -0.005044399714458447 -0.35694206374877219 0 -0.0229357585363286 -0.3601209166981898 0 -0.0086217703430182466 -0.38130647667589812 0 -0.005044399714458447 -0.35694206374877219 0 -0.0086217703430182466 -0.38130647667589812 0 0.0071494440540374234 -0.37041485116327771 0 -0.0086217703430182466 -0.38130647667589812 0 -0.01087145432781304 -0.40418730156386729 0 0.0056922178502882143 -0.40249203665360889 0 -0.0086217703430182466 -0.38130647667589812 0 -0.01087145432781304 -0.40418730156386729 0 -0.026264282478071339 -0.39838830659707819 0 -0.0086217703430182466 -0.38130647667589812 0 0.0056922178502882143 -0.40249203665360889 0 -0.0086217703430182466 -0.38130647667589812 0 -0.026264282478071339 -0.39838830659707819 0 -0.02487237191899452 -0.38166870543829517 0 -0.026264282478071339 -0.39838830659707819 0 -0.02487237191899452 -0.38166870543829517 0 -0.040215182777702821 -0.3835589836621322 0 -0.035644061583467397 -0.37146696901009069 0 -0.02487237191899452 -0.38166870543829517 0 -0.040215182777702821 -0.3835589836621322 0 -0.035644061583467397 -0.37146696901009069 0 -0.049427178019627219 -0.37192847643623211 0 -0.040215182777702821 -0.3835589836621322 0 -0.040215182777702821 -0.3835589836621322 0 -0.046606759329180278 -0.39753973518506752 0 -0.026264282478071339 -0.39838830659707819 0 -0.046606759329180278 -0.39753973518506752 0 -0.03859164562544716 -0.40965539609986817 0 -0.026264282478071339 -0.39838830659707819 0 -0.040215182777702821 -0.3835589836621322 0 -0.046606759329180278 -0.39753973518506752 0 -0.046606759329180278 -0.39753973518506752 0 -0.052998335880660122 -0.41152048670800162 0 -0.03859164562544716 -0.40965539609986817 0 -0.046606759329180278 -0.39753973518506752 0 -0.059352475013428788 -0.39468168259710912 0 -0.055284868600910871 -0.38449354165674737 0 -0.052998335880660122 -0.41152048670800162 0 -0.07161300840014595 -0.39760721995902359 0 -0.059352475013428788 -0.39468168259710912 0 -0.052998335880660122 -0.41152048670800162 0 -0.07161300840014595 -0.39760721995902359 0 -0.046606759329180278 -0.39753973518506752 0 -0.059352475013428788 -0.39468168259710912 0 -0.052998335880660122 -0.41152048670800162 0 -0.046606759329180278 -0.39753973518506752 0 -0.052998335880660122 -0.41152048670800162 0 -0.059352475013428788 -0.39468168259710912 0 -0.055284868600910871 -0.38449354165674737 0 -0.07025940285624635 -0.38224742947670509 0 -0.062795052240621291 -0.37262984191653659 0 -0.049427178019627219 -0.37192847643623211 0 -0.055284868600910871 -0.38449354165674737 0 -0.049427178019627219 -0.37192847643623211 0 -0.040215182777702821 -0.3835589836621322 0 -0.055284868600910871 -0.38449354165674737 0 -0.040215182777702821 -0.3835589836621322 0 -0.046606759329180278 -0.39753973518506752 0 -0.055284868600910871 -0.38449354165674737 0 -0.049642101212483768 -0.42514921403055123 0 -0.061603918336651853 -0.43034409134738921 0 -0.052998335880660122 -0.41152048670800162 0 -0.061603918336651853 -0.43034409134738921 0 -0.052998335880660122 -0.41152048670800162 0 -0.064241749797098027 -0.42401642380574711 0 -0.049642101212483768 -0.42514921403055123 0 -0.047665050855157931 -0.43473168462412393 0 -0.061603918336651853 -0.43034409134738921 0 -0.047665050855157931 -0.43473168462412393 0 -0.061603918336651853 -0.43034409134738921 0 -0.056570911321806402 -0.44294642385638888 0 -0.052998335880660122 -0.41152048670800162 0 -0.066176228912488894 -0.41099421227017119 0 -0.064241749797098027 -0.42401642380574711 0 -0.061603918336651853 -0.43034409134738921 0 -0.052998335880660122 -0.41152048670800162 0 -0.052998335880660122 -0.41152048670800162 0 -0.036301099777464853 -0.42400059344268959 0 -0.03859164562544716 -0.40965539609986817 0 -0.036301099777464853 -0.42400059344268959 0 -0.020152639010129789 -0.41780953858683528 0 -0.052998335880660122 -0.41152048670800162 0 -0.03859164562544716 -0.40965539609986817 0 -0.036301099777464853 -0.42400059344268959 0 -0.049642101212483768 -0.42514921403055123 0 -0.052998335880660122 -0.41152048670800162 0 -0.036301099777464853 -0.42400059344268959 0 -0.047665050855157931 -0.43473168462412393 0 -0.036301099777464853 -0.42400059344268959 0 -0.03382585962622818 -0.44147720870123092 0 -0.049642101212483768 -0.42514921403055123 0 -0.047665050855157931 -0.43473168462412393 0 -0.036301099777464853 -0.42400059344268959 0 -0.036301099777464853 -0.42400059344268959 0 -0.019603863674267599 -0.43648070017737478 0 -0.036301099777464853 -0.42400059344268959 0 -0.019603863674267599 -0.43648070017737478 0 -0.03382585962622818 -0.44147720870123092 0 -0.019603863674267599 -0.43648070017737478 0 -0.020152639010129789 -0.41780953858683528 0 -0.036301099777464853 -0.42400059344268959 0 -0.019603863674267599 -0.43648070017737478 0 -0.020152639010129789 -0.41780953858683528 0 -0.01087145432781304 -0.40418730156386729 0 -0.026264282478071339 -0.39838830659707819 0 -0.020152639010129789 -0.41780953858683528 0 -0.026264282478071339 -0.39838830659707819 0 -0.03859164562544716 -0.40965539609986817 0 -0.020152639010129789 -0.41780953858683528 0 -0.01087145432781304 -0.40418730156386729 0 -0.020152639010129789 -0.41780953858683528 0 -0.0050107976581378628 -0.42094014930591922 0 -0.01087145432781304 -0.40418730156386729 0 -0.0050107976581378628 -0.42094014930591922 0 0.0056922178502882143 -0.40249203665360889 0 -0.0050107976581378628 -0.42094014930591922 0 -0.015713813166553219 -0.43938826195823583 0 0.0030629123088906892 -0.4367870233209421 0 -0.019603863674267599 -0.43648070017737478 0 -0.0050107976581378628 -0.42094014930591922 0 -0.015713813166553219 -0.43938826195823583 0 -0.0050107976581378628 -0.42094014930591922 0 -0.015713813166553219 -0.43938826195823583 0 -0.019603863674267599 -0.43648070017737478 0 -0.020152639010129789 -0.41780953858683528 0 -0.0050107976581378628 -0.42094014930591922 0 -0.0019904984581769741 -0.44964555431822473 0 -0.015713813166553219 -0.43938826195823583 0 0.0030629123088906892 -0.4367870233209421 0 -0.0019904984581769741 -0.44964555431822473 0 -0.015713813166553219 -0.43938826195823583 0 -0.019334957005395541 -0.44562979916021478 0 -0.0019904984581769741 -0.44964555431822473 0 -0.015713813166553219 -0.43938826195823583 0 -0.0019904984581769741 -0.44964555431822473 0 -0.003274393485622269 -0.46542614792238601 0 -0.019334957005395541 -0.44562979916021478 0 -0.003274393485622269 -0.46542614792238601 0 -0.019334957005395541 -0.44562979916021478 0 -0.018535943374607931 -0.47281489958010708 0 -0.026468973813353811 -0.45792625389610209 0 -0.019334957005395541 -0.44562979916021478 0 -0.018535943374607931 -0.47281489958010708 0 -0.019334957005395541 -0.44562979916021478 0 -0.018535943374607931 -0.47281489958010708 0 -0.026468973813353811 -0.45792625389610209 0 -0.018535943374607931 -0.47281489958010708 0 -0.032533619582113871 -0.4707345447828386 0 -0.026468973813353811 -0.45792625389610209 0 -0.019334957005395541 -0.44562979916021478 0 -0.03518831002153721 -0.45195628625772249 0 -0.019334957005395541 -0.44562979916021478 0 -0.03382585962622818 -0.44147720870123092 0 -0.03518831002153721 -0.45195628625772249 0 -0.019603863674267599 -0.43648070017737478 0 -0.019334957005395541 -0.44562979916021478 0 -0.03382585962622818 -0.44147720870123092 0 -0.019603863674267599 -0.43648070017737478 0 -0.015713813166553219 -0.43938826195823583 0 -0.019334957005395541 -0.44562979916021478 0 -0.019603863674267599 -0.43648070017737478 0 -0.019334957005395541 -0.44562979916021478 0 -0.019603863674267599 -0.43648070017737478 0 -0.015713813166553219 -0.43938826195823583 0 -0.015713813166553219 -0.43938826195823583 0 -0.019334957005395541 -0.44562979916021478 0 -0.026468973813353811 -0.45792625389610209 0 -0.019334957005395541 -0.44562979916021478 0 -0.0056314431322174582 -0.48603990800993291 0 -0.018535943374607931 -0.47281489958010708 0 -0.01773692974381947 -0.49999999999999972 0 -0.0056314431322174582 -0.48603990800993291 0 -0.01773692974381947 -0.49999999999999972 0 0.0083052160037855316 -0.5 0 -0.003274393485622269 -0.46542614792238601 0 -0.0056314431322174582 -0.48603990800993291 0 -0.018535943374607931 -0.47281489958010708 0 -0.018535943374607931 -0.47281489958010708 0 -0.031874718828127667 -0.48564661953809468 0 -0.032533619582113871 -0.4707345447828386 0 -0.018535943374607931 -0.47281489958010708 0 -0.01773692974381947 -0.49999999999999972 0 -0.018535943374607931 -0.47281489958010708 0 -0.01773692974381947 -0.49999999999999972 0 -0.031874718828127667 -0.48564661953809468 0 -0.01773692974381947 -0.49999999999999972 0 -0.045191779595611048 -0.5 0 -0.031874718828127667 -0.48564661953809468 0 -0.045191779595611048 -0.5 0 -0.031874718828127667 -0.48564661953809468 0 -0.045222341189541423 -0.47623215488467552 0 -0.031874718828127667 -0.48564661953809468 0 -0.032533619582113871 -0.4707345447828386 0 -0.045222341189541423 -0.47623215488467552 0 -0.032533619582113871 -0.4707345447828386 0 -0.045222341189541423 -0.47623215488467552 0 -0.040566120704938501 -0.46105279601521337 0 -0.045222341189541423 -0.47623215488467552 0 -0.057261425261016068 -0.46062577185986792 0 -0.063153598800475344 -0.48160433843929301 0 -0.045191779595611048 -0.5 0 -0.045222341189541423 -0.47623215488467552 0 -0.063153598800475344 -0.48160433843929301 0 -0.045191779595611048 -0.5 0 -0.0726466294474028 -0.5 0 -0.063153598800475344 -0.48160433843929301 0 -0.047665050855157931 -0.43473168462412393 0 -0.04528326133714404 -0.44843085772557362 0 -0.03382585962622818 -0.44147720870123092 0 -0.04528326133714404 -0.44843085772557362 0 -0.03382585962622818 -0.44147720870123092 0 -0.03518831002153721 -0.45195628625772249 0 -0.026468973813353811 -0.45792625389610209 0 -0.03518831002153721 -0.45195628625772249 0 -0.040566120704938501 -0.46105279601521337 0 -0.026468973813353811 -0.45792625389610209 0 -0.032533619582113871 -0.4707345447828386 0 -0.040566120704938501 -0.46105279601521337 0 -0.04528326133714404 -0.44843085772557362 0 -0.03518831002153721 -0.45195628625772249 0 -0.040566120704938501 -0.46105279601521337 0 -0.045222341189541423 -0.47623215488467552 0 -0.040566120704938501 -0.46105279601521337 0 -0.057261425261016068 -0.46062577185986792 0 -0.04528326133714404 -0.44843085772557362 0 -0.040566120704938501 -0.46105279601521337 0 -0.057261425261016068 -0.46062577185986792 0 -0.057261425261016068 -0.46062577185986792 0 -0.056570911321806402 -0.44294642385638888 0 -0.070209500792645985 -0.44916769598677558 0 -0.04528326133714404 -0.44843085772557362 0 -0.057261425261016068 -0.46062577185986792 0 -0.056570911321806402 -0.44294642385638888 0 -0.047665050855157931 -0.43473168462412393 0 -0.04528326133714404 -0.44843085772557362 0 -0.056570911321806402 -0.44294642385638888 0 -0.061603918336651853 -0.43034409134738921 0 -0.070209500792645985 -0.44916769598677558 0 -0.070209500792645985 -0.44916769598677558 0 -0.073329307409447222 -0.43151843157112157 0 -0.084811607819263363 -0.43416807327675688 0 -0.061603918336651853 -0.43034409134738921 0 -0.056570911321806402 -0.44294642385638888 0 -0.070209500792645985 -0.44916769598677558 0 -0.057261425261016068 -0.46062577185986792 0 -0.070209500792645985 -0.44916769598677558 0 -0.078815083248640103 -0.46799130062616212 0 -0.070209500792645985 -0.44916769598677558 0 -0.078815083248640103 -0.46799130062616212 0 -0.070209500792645985 -0.44916769598677558 0 -0.092718252511251611 -0.45820009415004259 0 -0.078815083248640103 -0.46799130062616212 0 -0.092718252511251611 -0.45820009415004259 0 -0.078815083248640103 -0.46799130062616212 0 -0.095451303052103989 -0.47884303935924161 0 -0.070209500792645985 -0.44916769598677558 0 -0.092718252511251611 -0.45820009415004259 0 -0.084811607819263363 -0.43416807327675688 0 -0.0726466294474028 -0.5 0 -0.063153598800475344 -0.48160433843929301 0 -0.08203361876956336 -0.48568773568493939 0 -0.078815083248640103 -0.46799130062616212 0 -0.063153598800475344 -0.48160433843929301 0 -0.08203361876956336 -0.48568773568493939 0 -0.057261425261016068 -0.46062577185986792 0 -0.078815083248640103 -0.46799130062616212 0 -0.063153598800475344 -0.48160433843929301 0 -0.078815083248640103 -0.46799130062616212 0 -0.08203361876956336 -0.48568773568493939 0 -0.095451303052103989 -0.47884303935924161 0 -0.0726466294474028 -0.5 0 -0.08203361876956336 -0.48568773568493939 0 -0.10010147929919461 -0.5 0 -0.08203361876956336 -0.48568773568493939 0 -0.10010147929919461 -0.5 0 -0.095451303052103989 -0.47884303935924161 0 -0.10010147929919461 -0.5 0 -0.095451303052103989 -0.47884303935924161 0 -0.11343425135341779 -0.47491262320962602 0 -0.092718252511251611 -0.45820009415004259 0 -0.095451303052103989 -0.47884303935924161 0 -0.11343425135341779 -0.47491262320962602 0 -0.12755632915098619 -0.5 0 -0.10010147929919461 -0.5 0 -0.11343425135341779 -0.47491262320962602 0 -0.13335474137799769 -0.48053779362099419 0 -0.12755632915098619 -0.5 0 -0.11343425135341779 -0.47491262320962602 0 -0.1291295231048622 -0.46440973338590102 0 -0.11343425135341779 -0.47491262320962602 0 -0.1127148018259756 -0.44353123506378472 0 -0.092718252511251611 -0.45820009415004259 0 -0.11343425135341779 -0.47491262320962602 0 -0.1127148018259756 -0.44353123506378472 0 -0.092718252511251611 -0.45820009415004259 0 -0.1127148018259756 -0.44353123506378472 0 -0.084811607819263363 -0.43416807327675688 0 -0.1127148018259756 -0.44353123506378472 0 -0.084811607819263363 -0.43416807327675688 0 -0.13278086887716059 -0.42530345881360609 0 -0.1127148018259756 -0.44353123506378472 0 -0.1145746811451856 -0.42206944804496649 0 -0.1127148018259756 -0.44353123506378472 0 -0.098284801200510988 -0.42231522340087591 0 -0.084811607819263363 -0.43416807327675688 0 -0.1127148018259756 -0.44353123506378472 0 -0.1145746811451856 -0.42206944804496649 0 -0.098284801200510988 -0.42231522340087591 0 -0.1145746811451856 -0.42206944804496649 0 -0.098284801200510988 -0.42231522340087591 0 -0.10493065956126971 -0.40988135790256047 0 -0.094422333903294409 -0.41109893382258011 0 -0.10493065956126971 -0.40988135790256047 0 -0.097499988849145375 -0.39955653404475938 0 -0.098284801200510988 -0.42231522340087591 0 -0.094422333903294409 -0.41109893382258011 0 -0.10493065956126971 -0.40988135790256047 0 -0.1145746811451856 -0.42206944804496649 0 -0.10493065956126971 -0.40988135790256047 0 -0.1177375441685647 -0.40980664599240252 0 -0.13278086887716059 -0.42530345881360609 0 -0.1145746811451856 -0.42206944804496649 0 -0.1177375441685647 -0.40980664599240252 0 -0.10493065956126971 -0.40988135790256047 0 -0.1177375441685647 -0.40980664599240252 0 -0.1114577693375739 -0.39406644442448052 0 -0.1177375441685647 -0.40980664599240252 0 -0.1114577693375739 -0.39406644442448052 0 -0.124943741921634 -0.39771252077639868 0 -0.13527777656465911 -0.38486504151606721 0 -0.1200029604245014 -0.36069731806412592 0 -0.1194599375018689 -0.37951042699842802 0 -0.1114577693375739 -0.39406644442448052 0 -0.1194599375018689 -0.37951042699842802 0 -0.10277709915406009 -0.38025797894291907 0 -0.1114577693375739 -0.39406644442448052 0 -0.124943741921634 -0.39771252077639868 0 -0.1194599375018689 -0.37951042699842802 0 -0.10277709915406009 -0.38025797894291907 0 -0.087461893347004882 -0.39764901341007802 0 -0.1041599929403737 -0.3732804488429029 0 -0.10277709915406009 -0.38025797894291907 0 -0.090227680919633346 -0.38369395321004762 0 -0.1041599929403737 -0.3732804488429029 0 -0.090227680919633346 -0.38369395321004762 0 -0.10493065956126971 -0.40988135790256047 0 -0.1114577693375739 -0.39406644442448052 0 -0.097499988849145375 -0.39955653404475938 0 -0.1114577693375739 -0.39406644442448052 0 -0.10277709915406009 -0.38025797894291907 0 -0.097499988849145375 -0.39955653404475938 0 -0.10277709915406009 -0.38025797894291907 0 -0.097499988849145375 -0.39955653404475938 0 -0.087461893347004882 -0.39764901341007802 0 -0.087461893347004882 -0.39764901341007802 0 -0.07161300840014595 -0.39760721995902359 0 -0.075851821572051142 -0.41083271860791232 0 -0.087461893347004882 -0.39764901341007802 0 -0.090227680919633346 -0.38369395321004762 0 -0.07161300840014595 -0.39760721995902359 0 -0.087461893347004882 -0.39764901341007802 0 -0.085849266381957612 -0.40578568543801252 0 -0.090227680919633346 -0.38369395321004762 0 -0.07161300840014595 -0.39760721995902359 0 -0.094422333903294409 -0.41109893382258011 0 -0.097499988849145375 -0.39955653404475938 0 -0.085849266381957612 -0.40578568543801252 0 -0.097499988849145375 -0.39955653404475938 0 -0.087461893347004882 -0.39764901341007802 0 -0.085849266381957612 -0.40578568543801252 0 -0.087461893347004882 -0.39764901341007802 0 -0.090227680919633346 -0.38369395321004762 0 -0.087461893347004882 -0.39764901341007802 0 -0.085849266381957612 -0.40578568543801252 0 -0.075851821572051142 -0.41083271860791232 0 -0.087461893347004882 -0.39764901341007802 0 -0.075851821572051142 -0.41083271860791232 0 -0.08019834471942805 -0.37321705423371282 0 -0.090227680919633346 -0.38369395321004762 0 -0.07025940285624635 -0.38224742947670509 0 -0.10277709915406009 -0.38025797894291907 0 -0.087461893347004882 -0.39764901341007802 0 -0.090227680919633346 -0.38369395321004762 0 -0.08019834471942805 -0.37321705423371282 0 -0.087292138108027661 -0.36814727066237241 0 -0.090227680919633346 -0.38369395321004762 0 -0.090227680919633346 -0.38369395321004762 0 -0.07025940285624635 -0.38224742947670509 0 -0.07161300840014595 -0.39760721995902359 0 -0.062795052240621291 -0.37262984191653659 0 -0.055284868600910871 -0.38449354165674737 0 -0.07025940285624635 -0.38224742947670509 0 -0.059352475013428788 -0.39468168259710912 0 -0.07025940285624635 -0.38224742947670509 0 -0.07161300840014595 -0.39760721995902359 0 -0.052998335880660122 -0.41152048670800162 0 -0.07161300840014595 -0.39760721995902359 0 -0.066176228912488894 -0.41099421227017119 0 -0.07161300840014595 -0.39760721995902359 0 -0.066176228912488894 -0.41099421227017119 0 -0.075851821572051142 -0.41083271860791232 0 -0.075851821572051142 -0.41083271860791232 0 -0.064241749797098027 -0.42401642380574711 0 -0.076007377431889872 -0.42284594693286798 0 -0.066176228912488894 -0.41099421227017119 0 -0.075851821572051142 -0.41083271860791232 0 -0.064241749797098027 -0.42401642380574711 0 -0.075851821572051142 -0.41083271860791232 0 -0.064241749797098027 -0.42401642380574711 0 -0.061603918336651853 -0.43034409134738921 0 -0.064241749797098027 -0.42401642380574711 0 -0.073329307409447222 -0.43151843157112157 0 -0.061603918336651853 -0.43034409134738921 0 -0.070209500792645985 -0.44916769598677558 0 -0.073329307409447222 -0.43151843157112157 0 -0.073329307409447222 -0.43151843157112157 0 -0.076007377431889872 -0.42284594693286798 0 -0.084811607819263363 -0.43416807327675688 0 -0.064241749797098027 -0.42401642380574711 0 -0.073329307409447222 -0.43151843157112157 0 -0.076007377431889872 -0.42284594693286798 0 -0.076007377431889872 -0.42284594693286798 0 -0.084811607819263363 -0.43416807327675688 0 -0.085546953523588334 -0.41795586832669201 0 -0.098284801200510988 -0.42231522340087591 0 -0.084811607819263363 -0.43416807327675688 0 -0.085546953523588334 -0.41795586832669201 0 -0.098284801200510988 -0.42231522340087591 0 -0.094422333903294409 -0.41109893382258011 0 -0.085546953523588334 -0.41795586832669201 0 -0.094422333903294409 -0.41109893382258011 0 -0.085849266381957612 -0.40578568543801252 0 -0.085546953523588334 -0.41795586832669201 0 -0.085849266381957612 -0.40578568543801252 0 -0.075851821572051142 -0.41083271860791232 0 -0.085546953523588334 -0.41795586832669201 0 -0.075851821572051142 -0.41083271860791232 0 -0.076007377431889872 -0.42284594693286798 0 -0.085546953523588334 -0.41795586832669201 0 -0.089691486482846416 -0.075330451865542436 0 -0.070227293314789746 -0.090683515356104791 0 -0.086199855266126085 -0.094635450485650488 0 -0.089691486482846416 -0.075330451865542436 0 -0.094008974765471418 -0.061207901886776439 0 -0.07983815457362789 -0.056375378332326503 0 -0.089691486482846416 -0.075330451865542436 0 -0.068071880103476062 -0.072705135836908408 0 -0.07983815457362789 -0.056375378332326503 0 -0.089691486482846416 -0.075330451865542436 0 -0.068071880103476062 -0.072705135836908408 0 -0.070227293314789746 -0.090683515356104791 0 -0.068071880103476062 -0.072705135836908408 0 -0.070227293314789746 -0.090683515356104791 0 -0.054436150188048468 -0.08744919880250325 0 -0.070227293314789746 -0.090683515356104791 0 -0.064725447728430238 -0.1061906176547701 0 -0.086199855266126085 -0.094635450485650488 0 -0.070227293314789746 -0.090683515356104791 0 -0.064725447728430238 -0.1061906176547701 0 -0.054436150188048468 -0.08744919880250325 0 -0.064725447728430238 -0.1061906176547701 0 -0.086199855266126085 -0.094635450485650488 0 -0.064725447728430238 -0.1061906176547701 0 -0.079589066610784742 -0.11908843168384051 0 -0.087194284316384194 -0.1087766227091701 0 -0.064725447728430238 -0.1061906176547701 0 -0.068114561765865916 -0.12055956465383851 0 -0.056737103121772152 -0.12545841240358341 0 -0.064725447728430238 -0.1061906176547701 0 -0.068114561765865916 -0.12055956465383851 0 -0.079589066610784742 -0.11908843168384051 0 -0.068114561765865916 -0.12055956465383851 0 -0.079589066610784742 -0.11908843168384051 0 -0.071406629602476526 -0.13150079687316019 0 -0.079589066610784742 -0.11908843168384051 0 -0.089564812027750296 -0.121583143905377 0 -0.085705102549524598 -0.1311004380687549 0 -0.079589066610784742 -0.11908843168384051 0 -0.089564812027750296 -0.121583143905377 0 -0.087194284316384194 -0.1087766227091701 0 -0.089564812027750296 -0.121583143905377 0 -0.087194284316384194 -0.1087766227091701 0 -0.097837857448855203 -0.11568476453180079 0 -0.064725447728430238 -0.1061906176547701 0 -0.087194284316384194 -0.1087766227091701 0 -0.086199855266126085 -0.094635450485650488 0 -0.087194284316384194 -0.1087766227091701 0 -0.086199855266126085 -0.094635450485650488 0 -0.10061235133158811 -0.1023015919305716 0 -0.10061235133158811 -0.1023015919305716 0 -0.1137353345481418 -0.099341601158474346 0 -0.10767426280382179 -0.083080283316530612 0 -0.087194284316384194 -0.1087766227091701 0 -0.10061235133158811 -0.1023015919305716 0 -0.097837857448855203 -0.11568476453180079 0 -0.10061235133158811 -0.1023015919305716 0 -0.11076383205668409 -0.1128125461041713 0 -0.1137353345481418 -0.099341601158474346 0 -0.097837857448855203 -0.11568476453180079 0 -0.097386944136910333 -0.12912386754792449 0 -0.1091895371108631 -0.12573130120780129 0 -0.089564812027750296 -0.121583143905377 0 -0.097837857448855203 -0.11568476453180079 0 -0.097386944136910333 -0.12912386754792449 0 -0.10061235133158811 -0.1023015919305716 0 -0.097837857448855203 -0.11568476453180079 0 -0.11076383205668409 -0.1128125461041713 0 -0.097837857448855203 -0.11568476453180079 0 -0.11076383205668409 -0.1128125461041713 0 -0.1091895371108631 -0.12573130120780129 0 -0.1201972262912631 -0.11906123189691289 0 -0.1091895371108631 -0.12573130120780129 0 -0.1197988190449184 -0.12913088303662629 0 -0.11076383205668409 -0.1128125461041713 0 -0.1201972262912631 -0.11906123189691289 0 -0.1091895371108631 -0.12573130120780129 0 -0.11076383205668409 -0.1128125461041713 0 -0.1201972262912631 -0.11906123189691289 0 -0.1233424503725126 -0.1063990623677324 0 -0.1201972262912631 -0.11906123189691289 0 -0.1197988190449184 -0.12913088303662629 0 -0.1276738523625448 -0.1240266464128925 0 -0.11076383205668409 -0.1128125461041713 0 -0.1137353345481418 -0.099341601158474346 0 -0.1233424503725126 -0.1063990623677324 0 -0.1137353345481418 -0.099341601158474346 0 -0.1233424503725126 -0.1063990623677324 0 -0.12888117190581949 -0.092219582399353558 0 -0.1137353345481418 -0.099341601158474346 0 -0.10767426280382179 -0.083080283316530612 0 -0.12888117190581949 -0.092219582399353558 0 -0.10767426280382179 -0.083080283316530612 0 -0.12888117190581949 -0.092219582399353558 0 -0.10767426280382179 -0.083080283316530612 0 -0.12714994041281161 -0.072600613034185982 0 -0.12888117190581949 -0.092219582399353558 0 -0.086199855266126085 -0.094635450485650488 0 -0.10767426280382179 -0.083080283316530612 0 -0.086199855266126085 -0.094635450485650488 0 -0.10061235133158811 -0.1023015919305716 0 -0.10767426280382179 -0.083080283316530612 0 -0.089691486482846416 -0.075330451865542436 0 -0.086199855266126085 -0.094635450485650488 0 -0.10767426280382179 -0.083080283316530612 0 -0.089691486482846416 -0.075330451865542436 0 -0.10767426280382179 -0.083080283316530612 0 -0.089691486482846416 -0.075330451865542436 0 -0.10582535211429531 -0.068060171118445797 0 -0.094008974765471418 -0.061207901886776439 0 -0.089691486482846416 -0.075330451865542436 0 -0.10767426280382179 -0.083080283316530612 0 -0.10582535211429531 -0.068060171118445797 0 -0.10582535211429531 -0.068060171118445797 0 -0.117028395260453 -0.059193947726432702 0 -0.12714994041281161 -0.072600613034185982 0 -0.10767426280382179 -0.083080283316530612 0 -0.12714994041281161 -0.072600613034185982 0 -0.10767426280382179 -0.083080283316530612 0 -0.10582535211429531 -0.068060171118445797 0 -0.12714994041281161 -0.072600613034185982 0 -0.117028395260453 -0.059193947726432702 0 -0.12311096086219479 -0.045959984051332642 0 -0.1111700472597125 -0.046753275341907867 0 -0.117028395260453 -0.059193947726432702 0 -0.1111700472597125 -0.046753275341907867 0 -0.1021950971992914 -0.055692721694643232 0 -0.117028395260453 -0.059193947726432702 0 -0.12311096086219479 -0.045959984051332642 0 -0.13245010167480351 -0.054478488271250861 0 -0.12311096086219479 -0.045959984051332642 0 -0.124998947925631 -0.031422428654513362 0 -0.1128046913302249 -0.031401346326275822 0 -0.12311096086219479 -0.045959984051332642 0 -0.1128046913302249 -0.031401346326275822 0 -0.1111700472597125 -0.046753275341907867 0 -0.1128046913302249 -0.031401346326275822 0 -0.1111700472597125 -0.046753275341907867 0 -0.1007110916463982 -0.041518376910854943 0 -0.1128046913302249 -0.031401346326275822 0 -0.1007110916463982 -0.041518376910854943 0 -0.097749827789188448 -0.027083713700775461 0 -0.1007110916463982 -0.041518376910854943 0 -0.097749827789188448 -0.027083713700775461 0 -0.088516643340614737 -0.036854446103456631 0 -0.1007110916463982 -0.041518376910854943 0 -0.092494783457296018 -0.050580786422924233 0 -0.088516643340614737 -0.036854446103456631 0 -0.1007110916463982 -0.041518376910854943 0 -0.1021950971992914 -0.055692721694643232 0 -0.092494783457296018 -0.050580786422924233 0 -0.094008974765471418 -0.061207901886776439 0 -0.1021950971992914 -0.055692721694643232 0 -0.092494783457296018 -0.050580786422924233 0 -0.10582535211429531 -0.068060171118445797 0 -0.094008974765471418 -0.061207901886776439 0 -0.1021950971992914 -0.055692721694643232 0 -0.10582535211429531 -0.068060171118445797 0 -0.117028395260453 -0.059193947726432702 0 -0.1021950971992914 -0.055692721694643232 0 -0.1111700472597125 -0.046753275341907867 0 -0.1007110916463982 -0.041518376910854943 0 -0.1021950971992914 -0.055692721694643232 0 -0.1204188467870682 -0.012140823928004051 0 -0.10604235921950531 -0.013697304079405479 0 -0.106160311095697 0.00314100778111923 0 -0.1204188467870682 -0.012140823928004051 0 -0.106160311095697 0.00314100778111923 0 -0.1244915024809136 0.0055457178453759536 0 -0.1204188467870682 -0.012140823928004051 0 -0.106160311095697 0.00314100778111923 0 -0.124998947925631 -0.031422428654513362 0 -0.1128046913302249 -0.031401346326275822 0 -0.1204188467870682 -0.012140823928004051 0 -0.1128046913302249 -0.031401346326275822 0 -0.1204188467870682 -0.012140823928004051 0 -0.10604235921950531 -0.013697304079405479 0 -0.1128046913302249 -0.031401346326275822 0 -0.097749827789188448 -0.027083713700775461 0 -0.10604235921950531 -0.013697304079405479 0 -0.097749827789188448 -0.027083713700775461 0 -0.10604235921950531 -0.013697304079405479 0 -0.091595412723933151 -0.01432321317510081 0 -0.10604235921950531 -0.013697304079405479 0 -0.091595412723933151 -0.01432321317510081 0 -0.106160311095697 0.00314100778111923 0 -0.091595412723933151 -0.01432321317510081 0 -0.106160311095697 0.00314100778111923 0 -0.088794869956502889 0.0020774473534828988 0 -0.091595412723933151 -0.01432321317510081 0 -0.080224229282609097 -0.01091123529333232 0 -0.088794869956502889 0.0020774473534828988 0 -0.080224229282609097 -0.01091123529333232 0 -0.072614617322450503 -0.0017986499446109509 0 -0.088794869956502889 0.0020774473534828988 0 -0.091595412723933151 -0.01432321317510081 0 -0.080224229282609097 -0.01091123529333232 0 -0.084000890484083671 -0.024262537520248869 0 -0.080224229282609097 -0.01091123529333232 0 -0.084000890484083671 -0.024262537520248869 0 -0.071369615877105039 -0.02150521725469148 0 -0.097749827789188448 -0.027083713700775461 0 -0.091595412723933151 -0.01432321317510081 0 -0.084000890484083671 -0.024262537520248869 0 -0.097749827789188448 -0.027083713700775461 0 -0.084000890484083671 -0.024262537520248869 0 -0.088516643340614737 -0.036854446103456631 0 -0.071369615877105039 -0.02150521725469148 0 -0.074549613891051594 -0.0348973995941365 0 -0.058829587502155528 -0.033873253869068858 0 -0.071369615877105039 -0.02150521725469148 0 -0.069753342921935954 -0.0131218095650351 0 -0.054804909205579178 -0.018272135767505651 0 -0.084000890484083671 -0.024262537520248869 0 -0.071369615877105039 -0.02150521725469148 0 -0.074549613891051594 -0.0348973995941365 0 -0.072614617322450503 -0.0017986499446109509 0 -0.054804909205579178 -0.018272135767505651 0 -0.063170980267319959 -0.0039133618197983722 0 -0.072614617322450503 -0.0017986499446109509 0 -0.054804909205579178 -0.018272135767505651 0 -0.069753342921935954 -0.0131218095650351 0 -0.072614617322450503 -0.0017986499446109509 0 -0.054804909205579178 -0.018272135767505651 0 -0.080224229282609097 -0.01091123529333232 0 -0.071369615877105039 -0.02150521725469148 0 -0.069753342921935954 -0.0131218095650351 0 -0.080224229282609097 -0.01091123529333232 0 -0.069753342921935954 -0.0131218095650351 0 -0.072614617322450503 -0.0017986499446109509 0 -0.07983815457362789 -0.056375378332326503 0 -0.092494783457296018 -0.050580786422924233 0 -0.088516643340614737 -0.036854446103456631 0 -0.094008974765471418 -0.061207901886776439 0 -0.07983815457362789 -0.056375378332326503 0 -0.092494783457296018 -0.050580786422924233 0 -0.07983815457362789 -0.056375378332326503 0 -0.088516643340614737 -0.036854446103456631 0 -0.074549613891051594 -0.0348973995941365 0 -0.084000890484083671 -0.024262537520248869 0 -0.088516643340614737 -0.036854446103456631 0 -0.074549613891051594 -0.0348973995941365 0 -0.065741968397773534 -0.04534836190633465 0 -0.074549613891051594 -0.0348973995941365 0 -0.058829587502155528 -0.033873253869068858 0 -0.07983815457362789 -0.056375378332326503 0 -0.065741968397773534 -0.04534836190633465 0 -0.074549613891051594 -0.0348973995941365 0 -0.07983815457362789 -0.056375378332326503 0 -0.065741968397773534 -0.04534836190633465 0 -0.062182296854511591 -0.057948904048235252 0 -0.068071880103476062 -0.072705135836908408 0 -0.07983815457362789 -0.056375378332326503 0 -0.062182296854511591 -0.057948904048235252 0 -0.062182296854511591 -0.057948904048235252 0 -0.049516216552716041 -0.048470787101344483 0 -0.050103546254171738 -0.067389112122371572 0 -0.065741968397773534 -0.04534836190633465 0 -0.062182296854511591 -0.057948904048235252 0 -0.049516216552716041 -0.048470787101344483 0 -0.049516216552716041 -0.048470787101344483 0 -0.058829587502155528 -0.033873253869068858 0 -0.036995201088707803 -0.034745621590400413 0 -0.065741968397773534 -0.04534836190633465 0 -0.049516216552716041 -0.048470787101344483 0 -0.058829587502155528 -0.033873253869068858 0 -0.049516216552716041 -0.048470787101344483 0 -0.032638020016858477 -0.059988291056061509 0 -0.050103546254171738 -0.067389112122371572 0 -0.049516216552716041 -0.048470787101344483 0 -0.036995201088707803 -0.034745621590400413 0 -0.032638020016858477 -0.059988291056061509 0 -0.063170980267319959 -0.0039133618197983722 0 -0.048166481511877079 -0.0026666811730515108 0 -0.054804909205579178 -0.018272135767505651 0 -0.058829587502155528 -0.033873253869068858 0 -0.036995201088707803 -0.034745621590400413 0 -0.054804909205579178 -0.018272135767505651 0 -0.071369615877105039 -0.02150521725469148 0 -0.058829587502155528 -0.033873253869068858 0 -0.054804909205579178 -0.018272135767505651 0 -0.036995201088707803 -0.034745621590400413 0 -0.054804909205579178 -0.018272135767505651 0 -0.031623919045595528 -0.012385244062267931 0 -0.036995201088707803 -0.034745621590400413 0 -0.054804909205579178 -0.018272135767505651 0 -0.048166481511877079 -0.0026666811730515108 0 -0.031623919045595528 -0.012385244062267931 0 -0.036644324012998372 0.0044976539374149303 0 -0.048166481511877079 -0.0026666811730515108 0 -0.054804909205579178 -0.018272135767505651 0 -0.031623919045595528 -0.012385244062267931 0 -0.031623919045595528 -0.012385244062267931 0 -0.0093952140255203868 -0.014450824162356841 0 -0.015373309173201819 0.01024062691627557 0 -0.031623919045595528 -0.012385244062267931 0 -0.01834510090295989 -0.028221508847178878 0 -0.0093952140255203868 -0.014450824162356841 0 -0.036995201088707803 -0.034745621590400413 0 -0.031623919045595528 -0.012385244062267931 0 -0.01834510090295989 -0.028221508847178878 0 -0.01834510090295989 -0.028221508847178878 0 -0.0093952140255203868 -0.014450824162356841 0 -2.4069715675965691e-05 -0.033792571748980357 0 -0.0093952140255203868 -0.014450824162356841 0 -0.015373309173201819 0.01024062691627557 0 0.010138315020404831 -0.0065203858659953822 0 -0.036995201088707803 -0.034745621590400413 0 -0.032638020016858477 -0.059988291056061509 0 -0.019185492971836329 -0.051219107413295252 0 -0.032638020016858477 -0.059988291056061509 0 -0.019185492971836329 -0.051219107413295252 0 -0.018594417957043901 -0.062534382667128574 0 -0.036995201088707803 -0.034745621590400413 0 -0.019185492971836329 -0.051219107413295252 0 -0.016541820807057041 -0.039426891895513537 0 -0.036995201088707803 -0.034745621590400413 0 -0.019185492971836329 -0.051219107413295252 0 -0.036995201088707803 -0.034745621590400413 0 -0.01834510090295989 -0.028221508847178878 0 -0.016541820807057041 -0.039426891895513537 0 -0.01834510090295989 -0.028221508847178878 0 -0.016541820807057041 -0.039426891895513537 0 -2.4069715675965691e-05 -0.033792571748980357 0 -0.019185492971836329 -0.051219107413295252 0 -0.016541820807057041 -0.039426891895513537 0 -0.0081592393561052134 -0.04915564987771278 0 -0.016541820807057041 -0.039426891895513537 0 -2.4069715675965691e-05 -0.033792571748980357 0 -0.0081592393561052134 -0.04915564987771278 0 -0.019185492971836329 -0.051219107413295252 0 -0.0013757848549648751 -0.067692593236190063 0 -0.018594417957043901 -0.062534382667128574 0 -0.0081592393561052134 -0.04915564987771278 0 -0.0013757848549648751 -0.067692593236190063 0 0.0070644438628115914 -0.054481625123765552 0 -0.019185492971836329 -0.051219107413295252 0 -0.0013757848549648751 -0.067692593236190063 0 -0.019185492971836329 -0.051219107413295252 0 -0.0081592393561052134 -0.04915564987771278 0 -0.0013757848549648751 -0.067692593236190063 0 -0.0013757848549648751 -0.067692593236190063 0 -0.018594417957043901 -0.062534382667128574 0 -0.021178373984515931 -0.071237538962967459 0 -0.0013757848549648751 -0.067692593236190063 0 -0.01014869802922432 -0.076633684567472257 0 -0.021178373984515931 -0.071237538962967459 0 -0.0013757848549648751 -0.067692593236190063 0 -0.01014869802922432 -0.076633684567472257 0 0.007896088688868378 -0.083773630776622796 0 -0.010301908977343311 -0.087750951261992075 0 -0.0043362349447292926 -0.1065748114106063 0 0.007896088688868378 -0.083773630776622796 0 -0.01014869802922432 -0.076633684567472257 0 -0.010301908977343311 -0.087750951261992075 0 0.007896088688868378 -0.083773630776622796 0 -0.01014869802922432 -0.076633684567472257 0 -0.010301908977343311 -0.087750951261992075 0 -0.02096759413451969 -0.081223718392554822 0 -0.010301908977343311 -0.087750951261992075 0 -0.02096759413451969 -0.081223718392554822 0 -0.028810731628356279 -0.089850875397796154 0 -0.02096759413451969 -0.081223718392554822 0 -0.028810731628356279 -0.089850875397796154 0 -0.035447584401168721 -0.078731769147890096 0 -0.032638020016858477 -0.059988291056061509 0 -0.021178373984515931 -0.071237538962967459 0 -0.035447584401168721 -0.078731769147890096 0 -0.01014869802922432 -0.076633684567472257 0 -0.02096759413451969 -0.081223718392554822 0 -0.021178373984515931 -0.071237538962967459 0 -0.02096759413451969 -0.081223718392554822 0 -0.021178373984515931 -0.071237538962967459 0 -0.035447584401168721 -0.078731769147890096 0 -0.032638020016858477 -0.059988291056061509 0 -0.018594417957043901 -0.062534382667128574 0 -0.021178373984515931 -0.071237538962967459 0 -0.035447584401168721 -0.078731769147890096 0 -0.054436150188048468 -0.08744919880250325 0 -0.050103546254171738 -0.067389112122371572 0 -0.032638020016858477 -0.059988291056061509 0 -0.035447584401168721 -0.078731769147890096 0 -0.050103546254171738 -0.067389112122371572 0 -0.035447584401168721 -0.078731769147890096 0 -0.040341208003695062 -0.092032329931274803 0 -0.054436150188048468 -0.08744919880250325 0 -0.028810731628356279 -0.089850875397796154 0 -0.035447584401168721 -0.078731769147890096 0 -0.040341208003695062 -0.092032329931274803 0 -0.068071880103476062 -0.072705135836908408 0 -0.054436150188048468 -0.08744919880250325 0 -0.050103546254171738 -0.067389112122371572 0 -0.068071880103476062 -0.072705135836908408 0 -0.062182296854511591 -0.057948904048235252 0 -0.050103546254171738 -0.067389112122371572 0 -0.064725447728430238 -0.1061906176547701 0 -0.043251040190734377 -0.1177457848238896 0 -0.056737103121772152 -0.12545841240358341 0 -0.064725447728430238 -0.1061906176547701 0 -0.043251040190734377 -0.1177457848238896 0 -0.043251040190734377 -0.1177457848238896 0 -0.056737103121772152 -0.12545841240358341 0 -0.046323937205031668 -0.12638129980890209 0 -0.064725447728430238 -0.1061906176547701 0 -0.054436150188048468 -0.08744919880250325 0 -0.048005114883140798 -0.1038771226981532 0 -0.040341208003695062 -0.092032329931274803 0 -0.054436150188048468 -0.08744919880250325 0 -0.048005114883140798 -0.1038771226981532 0 -0.064725447728430238 -0.1061906176547701 0 -0.048005114883140798 -0.1038771226981532 0 -0.043251040190734377 -0.1177457848238896 0 -0.048005114883140798 -0.1038771226981532 0 -0.035006458917761017 -0.1002526836100313 0 -0.035837729945887152 -0.1095731433548556 0 -0.040341208003695062 -0.092032329931274803 0 -0.048005114883140798 -0.1038771226981532 0 -0.035006458917761017 -0.1002526836100313 0 -0.028810731628356279 -0.089850875397796154 0 -0.040341208003695062 -0.092032329931274803 0 -0.035006458917761017 -0.1002526836100313 0 -0.032386699209196783 -0.1192604099686384 0 -0.024854374115379049 -0.1207953515062548 0 -0.042905792665892117 -0.13260544905123919 0 -0.035837729945887152 -0.1095731433548556 0 -0.043251040190734377 -0.1177457848238896 0 -0.032386699209196783 -0.1192604099686384 0 -0.048005114883140798 -0.1038771226981532 0 -0.035837729945887152 -0.1095731433548556 0 -0.043251040190734377 -0.1177457848238896 0 -0.043251040190734377 -0.1177457848238896 0 -0.032386699209196783 -0.1192604099686384 0 -0.046323937205031668 -0.12638129980890209 0 -0.032386699209196783 -0.1192604099686384 0 -0.020711099572432629 -0.1125229993844928 0 -0.018327255931127589 -0.1014239090574291 0 -0.024854374115379049 -0.1207953515062548 0 -0.0072760690340270256 -0.1086123270056488 0 -0.024854374115379049 -0.1207953515062548 0 -0.020711099572432629 -0.1125229993844928 0 -0.0072760690340270256 -0.1086123270056488 0 -0.024854374115379049 -0.1207953515062548 0 -0.01577733253002692 -0.12252994540882441 0 -0.0072760690340270256 -0.1086123270056488 0 -0.035837729945887152 -0.1095731433548556 0 -0.032386699209196783 -0.1192604099686384 0 -0.018327255931127589 -0.1014239090574291 0 -0.032386699209196783 -0.1192604099686384 0 -0.018327255931127589 -0.1014239090574291 0 -0.032386699209196783 -0.1192604099686384 0 -0.024854374115379049 -0.1207953515062548 0 -0.020711099572432629 -0.1125229993844928 0 -0.024854374115379049 -0.1207953515062548 0 -0.01577733253002692 -0.12252994540882441 0 -0.0254991561275144 -0.12877717991720081 0 -0.035006458917761017 -0.1002526836100313 0 -0.035837729945887152 -0.1095731433548556 0 -0.018327255931127589 -0.1014239090574291 0 -0.028810731628356279 -0.089850875397796154 0 -0.018327255931127589 -0.1014239090574291 0 -0.0043362349447292926 -0.1065748114106063 0 -0.028810731628356279 -0.089850875397796154 0 -0.035006458917761017 -0.1002526836100313 0 -0.018327255931127589 -0.1014239090574291 0 -0.028810731628356279 -0.089850875397796154 0 -0.0043362349447292926 -0.1065748114106063 0 -0.010301908977343311 -0.087750951261992075 0 -0.028810731628356279 -0.089850875397796154 0 -0.0043362349447292926 -0.1065748114106063 0 -0.018327255931127589 -0.1014239090574291 0 -0.0072760690340270256 -0.1086123270056488 0 -0.0043362349447292926 -0.1065748114106063 0 -0.020711099572432629 -0.1125229993844928 0 -0.018327255931127589 -0.1014239090574291 0 -0.0072760690340270256 -0.1086123270056488 0 -0.0072760690340270256 -0.1086123270056488 0 -0.0043362349447292926 -0.1065748114106063 0 -0.01577733253002692 -0.12252994540882441 0 -0.0072760690340270256 -0.1086123270056488 0 -0.01577733253002692 -0.12252994540882441 0 -0.0072760690340270256 -0.1086123270056488 0 -0.0032364025572814 -0.1202862102981552 0 -0.0072760690340270256 -0.1086123270056488 0 -0.0043362349447292926 -0.1065748114106063 0 -0.0032364025572814 -0.1202862102981552 0 -0.012182178351408149 -0.1342811760982851 0 -0.0046733630300064728 -0.1440091897061109 0 0.005651203492742317 -0.13167830108118461 0 -0.0032364025572814 -0.1202862102981552 0 -0.012182178351408149 -0.1342811760982851 0 0.005651203492742317 -0.13167830108118461 0 -0.012182178351408149 -0.1342811760982851 0 -0.0249328417212679 -0.1418492929075755 0 -0.0046733630300064728 -0.1440091897061109 0 -0.01577733253002692 -0.12252994540882441 0 -0.0032364025572814 -0.1202862102981552 0 -0.012182178351408149 -0.1342811760982851 0 -0.01577733253002692 -0.12252994540882441 0 -0.024278596026026861 -0.13644756381199999 0 -0.0254991561275144 -0.12877717991720081 0 -0.01577733253002692 -0.12252994540882441 0 -0.024278596026026861 -0.13644756381199999 0 -0.01577733253002692 -0.12252994540882441 0 -0.012182178351408149 -0.1342811760982851 0 -0.024278596026026861 -0.13644756381199999 0 -0.012182178351408149 -0.1342811760982851 0 -0.024278596026026861 -0.13644756381199999 0 -0.0249328417212679 -0.1418492929075755 0 -0.024278596026026861 -0.13644756381199999 0 -0.028674398089008849 -0.1339813076672326 0 -0.0254991561275144 -0.12877717991720081 0 -0.024278596026026861 -0.13644756381199999 0 -0.029578463965530301 -0.13913660553669879 0 -0.0249328417212679 -0.1418492929075755 0 -0.029578463965530301 -0.13913660553669879 0 -0.028674398089008849 -0.1339813076672326 0 -0.032963617053569469 -0.1351292031333205 0 -0.024278596026026861 -0.13644756381199999 0 -0.029578463965530301 -0.13913660553669879 0 -0.028674398089008849 -0.1339813076672326 0 -0.028674398089008849 -0.1339813076672326 0 -0.031277397377276271 -0.13062478343902401 0 -0.032963617053569469 -0.1351292031333205 0 -0.024854374115379049 -0.1207953515062548 0 -0.0254991561275144 -0.12877717991720081 0 -0.031277397377276271 -0.13062478343902401 0 -0.028674398089008849 -0.1339813076672326 0 -0.0254991561275144 -0.12877717991720081 0 -0.031277397377276271 -0.13062478343902401 0 -0.025025671864332029 -0.14844735235612119 0 -0.02976179031663815 -0.15304215245272301 0 -0.015815045648326611 -0.15242110368828571 0 -0.025025671864332029 -0.14844735235612119 0 -0.02976179031663815 -0.15304215245272301 0 -0.030726824152013811 -0.1461454929437189 0 -0.029578463965530301 -0.13913660553669879 0 -0.030726824152013811 -0.1461454929437189 0 -0.0249328417212679 -0.1418492929075755 0 -0.025025671864332029 -0.14844735235612119 0 -0.030726824152013811 -0.1461454929437189 0 -0.0249328417212679 -0.1418492929075755 0 -0.025025671864332029 -0.14844735235612119 0 -0.0249328417212679 -0.1418492929075755 0 -0.015815045648326611 -0.15242110368828571 0 -0.0249328417212679 -0.1418492929075755 0 -0.0046733630300064728 -0.1440091897061109 0 -0.0249328417212679 -0.1418492929075755 0 -0.015815045648326611 -0.15242110368828571 0 -0.0046733630300064728 -0.1440091897061109 0 -0.015815045648326611 -0.15242110368828571 0 -0.0046733630300064728 -0.1440091897061109 0 0.00083845406150376278 -0.16950274917103489 0 -0.015815045648326611 -0.15242110368828571 0 -0.01816246628078657 -0.17201620618662719 0 0.00083845406150376278 -0.16950274917103489 0 -0.013909207538247511 -0.1928364118374235 0 0.00083845406150376278 -0.16950274917103489 0 -0.01816246628078657 -0.17201620618662719 0 -0.013909207538247511 -0.1928364118374235 0 0.00083845406150376278 -0.16950274917103489 0 -0.013909207538247511 -0.1928364118374235 0 0.010017581166572229 -0.192143398998987 0 0.00083845406150376278 -0.16950274917103489 0 -0.01816246628078657 -0.17201620618662719 0 -0.028740097203723919 -0.16340724807100601 0 -0.033186435075138597 -0.18191351816538581 0 -0.01816246628078657 -0.17201620618662719 0 -0.033186435075138597 -0.18191351816538581 0 -0.013909207538247511 -0.1928364118374235 0 -0.015815045648326611 -0.15242110368828571 0 -0.01816246628078657 -0.17201620618662719 0 -0.028740097203723919 -0.16340724807100601 0 -0.02976179031663815 -0.15304215245272301 0 -0.015815045648326611 -0.15242110368828571 0 -0.028740097203723919 -0.16340724807100601 0 -0.028740097203723919 -0.16340724807100601 0 -0.043744817620569323 -0.16519882532877561 0 -0.037954273137328069 -0.15208360703626619 0 -0.028740097203723919 -0.16340724807100601 0 -0.043744817620569323 -0.16519882532877561 0 -0.033186435075138597 -0.18191351816538581 0 -0.043744817620569323 -0.16519882532877561 0 -0.033186435075138597 -0.18191351816538581 0 -0.048895569158647602 -0.17980215592235149 0 -0.033186435075138597 -0.18191351816538581 0 -0.048895569158647602 -0.17980215592235149 0 -0.04930225490069351 -0.19743950911495931 0 -0.048895569158647602 -0.17980215592235149 0 -0.056309750930761113 -0.1670244728031188 0 -0.063332469977197686 -0.17861159587184711 0 -0.048895569158647602 -0.17980215592235149 0 -0.057871701771673389 -0.1881356543617064 0 -0.063332469977197686 -0.17861159587184711 0 -0.043744817620569323 -0.16519882532877561 0 -0.056309750930761113 -0.1670244728031188 0 -0.046815034019412602 -0.15083093520241531 0 -0.056309750930761113 -0.1670244728031188 0 -0.060505585765335171 -0.1549334117910571 0 -0.046815034019412602 -0.15083093520241531 0 -0.043744817620569323 -0.16519882532877561 0 -0.048895569158647602 -0.17980215592235149 0 -0.056309750930761113 -0.1670244728031188 0 -0.060505585765335171 -0.1549334117910571 0 -0.046446142487265973 -0.13709691087984779 0 -0.046815034019412602 -0.15083093520241531 0 -0.060505585765335171 -0.1549334117910571 0 -0.059370734581527758 -0.1373462182284918 0 -0.046446142487265973 -0.13709691087984779 0 -0.060505585765335171 -0.1549334117910571 0 -0.046446142487265973 -0.13709691087984779 0 -0.059370734581527758 -0.1373462182284918 0 -0.056737103121772152 -0.12545841240358341 0 -0.052219479348899388 -0.13157071033020629 0 -0.056737103121772152 -0.12545841240358341 0 -0.052219479348899388 -0.13157071033020629 0 -0.046323937205031668 -0.12638129980890209 0 -0.052219479348899388 -0.13157071033020629 0 -0.046446142487265973 -0.13709691087984779 0 -0.046323937205031668 -0.12638129980890209 0 -0.059370734581527758 -0.1373462182284918 0 -0.052219479348899388 -0.13157071033020629 0 -0.046446142487265973 -0.13709691087984779 0 -0.024854374115379049 -0.1207953515062548 0 -0.042905792665892117 -0.13260544905123919 0 -0.024854374115379049 -0.1207953515062548 0 -0.042905792665892117 -0.13260544905123919 0 -0.031277397377276271 -0.13062478343902401 0 -0.046446142487265973 -0.13709691087984779 0 -0.040701121476797282 -0.1386805620052535 0 -0.042905792665892117 -0.13260544905123919 0 -0.046446142487265973 -0.13709691087984779 0 -0.042905792665892117 -0.13260544905123919 0 -0.040701121476797282 -0.1386805620052535 0 -0.042905792665892117 -0.13260544905123919 0 -0.0370804133734986 -0.1356471962947515 0 -0.032386699209196783 -0.1192604099686384 0 -0.046323937205031668 -0.12638129980890209 0 -0.042905792665892117 -0.13260544905123919 0 -0.046446142487265973 -0.13709691087984779 0 -0.046323937205031668 -0.12638129980890209 0 -0.042905792665892117 -0.13260544905123919 0 -0.032386699209196783 -0.1192604099686384 0 -0.042905792665892117 -0.13260544905123919 0 -0.042905792665892117 -0.13260544905123919 0 -0.031277397377276271 -0.13062478343902401 0 -0.0370804133734986 -0.1356471962947515 0 -0.040701121476797282 -0.1386805620052535 0 -0.0370804133734986 -0.1356471962947515 0 -0.036433172349525547 -0.14283962771100359 0 -0.0370804133734986 -0.1356471962947515 0 -0.032963617053569469 -0.1351292031333205 0 -0.036433172349525547 -0.14283962771100359 0 -0.031277397377276271 -0.13062478343902401 0 -0.0370804133734986 -0.1356471962947515 0 -0.032963617053569469 -0.1351292031333205 0 -0.029578463965530301 -0.13913660553669879 0 -0.032963617053569469 -0.1351292031333205 0 -0.036433172349525547 -0.14283962771100359 0 -0.029578463965530301 -0.13913660553669879 0 -0.030726824152013811 -0.1461454929437189 0 -0.036433172349525547 -0.14283962771100359 0 -0.030726824152013811 -0.1461454929437189 0 -0.036433172349525547 -0.14283962771100359 0 -0.037954273137328069 -0.15208360703626619 0 -0.02976179031663815 -0.15304215245272301 0 -0.028740097203723919 -0.16340724807100601 0 -0.037954273137328069 -0.15208360703626619 0 -0.02976179031663815 -0.15304215245272301 0 -0.030726824152013811 -0.1461454929437189 0 -0.037954273137328069 -0.15208360703626619 0 -0.036433172349525547 -0.14283962771100359 0 -0.037954273137328069 -0.15208360703626619 0 -0.046815034019412602 -0.15083093520241531 0 -0.043744817620569323 -0.16519882532877561 0 -0.037954273137328069 -0.15208360703626619 0 -0.046815034019412602 -0.15083093520241531 0 -0.046446142487265973 -0.13709691087984779 0 -0.040701121476797282 -0.1386805620052535 0 -0.046815034019412602 -0.15083093520241531 0 -0.040701121476797282 -0.1386805620052535 0 -0.036433172349525547 -0.14283962771100359 0 -0.046815034019412602 -0.15083093520241531 0 -0.023438451481424202 -0.25331853491053757 0 -0.023884531073436702 -0.23769207978480231 0 -0.043404530737749837 -0.2395037371702004 0 -0.023884531073436702 -0.23769207978480231 0 -0.012004704401509201 -0.24775264934750341 0 -0.01191809960850158 -0.23171540299195839 0 -0.023438451481424202 -0.25331853491053757 0 -0.023884531073436702 -0.23769207978480231 0 -0.012004704401509201 -0.24775264934750341 0 -0.012004704401509201 -0.24775264934750341 0 -0.002011564974510906 -0.24006976274168809 0 -0.01191809960850158 -0.23171540299195839 0 -0.012004704401509201 -0.24775264934750341 0 -0.0046792976361779929 -0.2475980378634336 0 -0.002011564974510906 -0.24006976274168809 0 -0.0046792976361779929 -0.2475980378634336 0 -0.002011564974510906 -0.24006976274168809 0 0.00081356834396824167 -0.25216419879611068 0 -0.0064168006330008664 -0.25169307443059441 0 -0.012004704401509201 -0.24775264934750341 0 -0.0046792976361779929 -0.2475980378634336 0 -0.002011564974510906 -0.24006976274168809 0 -0.01191809960850158 -0.23171540299195839 0 0.0011147558864071331 -0.22817804114213031 0 -0.01191809960850158 -0.23171540299195839 0 -0.007348021490666809 -0.21888339270897031 0 0.0011147558864071331 -0.22817804114213031 0 -0.023884531073436702 -0.23769207978480231 0 -0.01191809960850158 -0.23171540299195839 0 -0.02865686913799867 -0.2161700745038119 0 -0.01191809960850158 -0.23171540299195839 0 -0.007348021490666809 -0.21888339270897031 0 -0.02865686913799867 -0.2161700745038119 0 -0.007348021490666809 -0.21888339270897031 0 -0.02865686913799867 -0.2161700745038119 0 -0.013909207538247511 -0.1928364118374235 0 -0.02865686913799867 -0.2161700745038119 0 -0.013909207538247511 -0.1928364118374235 0 -0.007348021490666809 -0.21888339270897031 0 -0.013909207538247511 -0.1928364118374235 0 0.001912996936125549 -0.20615992725240201 0 -0.013909207538247511 -0.1928364118374235 0 0.010017581166572229 -0.192143398998987 0 0.001912996936125549 -0.20615992725240201 0 -0.02865686913799867 -0.2161700745038119 0 -0.013909207538247511 -0.1928364118374235 0 -0.032678357832909323 -0.19985941731065759 0 -0.033186435075138597 -0.18191351816538581 0 -0.013909207538247511 -0.1928364118374235 0 -0.032678357832909323 -0.19985941731065759 0 -0.033186435075138597 -0.18191351816538581 0 -0.032678357832909323 -0.19985941731065759 0 -0.04930225490069351 -0.19743950911495931 0 -0.04930225490069351 -0.19743950911495931 0 -0.057871701771673389 -0.1881356543617064 0 -0.065919626308666837 -0.1966260070013626 0 -0.04930225490069351 -0.19743950911495931 0 -0.061699246845013808 -0.21014546251073929 0 -0.065919626308666837 -0.1966260070013626 0 -0.048895569158647602 -0.17980215592235149 0 -0.04930225490069351 -0.19743950911495931 0 -0.057871701771673389 -0.1881356543617064 0 -0.04930225490069351 -0.19743950911495931 0 -0.061699246845013808 -0.21014546251073929 0 -0.046380394595506073 -0.21975206208933731 0 -0.02865686913799867 -0.2161700745038119 0 -0.032678357832909323 -0.19985941731065759 0 -0.046380394595506073 -0.21975206208933731 0 -0.032678357832909323 -0.19985941731065759 0 -0.04930225490069351 -0.19743950911495931 0 -0.046380394595506073 -0.21975206208933731 0 -0.058152192337501102 -0.26283739983658899 0 -0.061150418148394031 -0.23018280482189979 0 -0.043404530737749837 -0.2395037371702004 0 -0.02865686913799867 -0.2161700745038119 0 -0.043404530737749837 -0.2395037371702004 0 -0.02865686913799867 -0.2161700745038119 0 -0.046380394595506073 -0.21975206208933731 0 -0.043404530737749837 -0.2395037371702004 0 -0.023884531073436702 -0.23769207978480231 0 -0.02865686913799867 -0.2161700745038119 0 -0.043404530737749837 -0.2395037371702004 0 -0.061699246845013808 -0.21014546251073929 0 -0.046380394595506073 -0.21975206208933731 0 -0.061150418148394031 -0.23018280482189979 0 -0.046380394595506073 -0.21975206208933731 0 -0.061150418148394031 -0.23018280482189979 0 -0.043404530737749837 -0.2395037371702004 0 -0.058152192337501102 -0.26283739983658899 0 -0.061150418148394031 -0.23018280482189979 0 -0.076131730960256647 -0.24343215185636799 0 -0.076131730960256647 -0.24343215185636799 0 -0.085655314570425689 -0.2268543669311173 0 -0.10016586521477271 -0.24581573249483521 0 -0.061699246845013808 -0.21014546251073929 0 -0.061150418148394031 -0.23018280482189979 0 -0.073007039862125117 -0.2238453542350167 0 -0.061150418148394031 -0.23018280482189979 0 -0.076131730960256647 -0.24343215185636799 0 -0.073007039862125117 -0.2238453542350167 0 -0.073007039862125117 -0.2238453542350167 0 -0.085655314570425689 -0.2268543669311173 0 -0.080398488786535452 -0.2086119850549594 0 -0.076131730960256647 -0.24343215185636799 0 -0.073007039862125117 -0.2238453542350167 0 -0.085655314570425689 -0.2268543669311173 0 -0.080398488786535452 -0.2086119850549594 0 -0.09510498020002435 -0.19617407540196191 0 -0.099649510340295927 -0.21879854423042769 0 -0.085655314570425689 -0.2268543669311173 0 -0.080398488786535452 -0.2086119850549594 0 -0.099649510340295927 -0.21879854423042769 0 -0.061699246845013808 -0.21014546251073929 0 -0.080398488786535452 -0.2086119850549594 0 -0.065919626308666837 -0.1966260070013626 0 -0.061699246845013808 -0.21014546251073929 0 -0.073007039862125117 -0.2238453542350167 0 -0.080398488786535452 -0.2086119850549594 0 -0.080398488786535452 -0.2086119850549594 0 -0.065919626308666837 -0.1966260070013626 0 -0.076924129482655035 -0.19312923613988461 0 -0.065919626308666837 -0.1966260070013626 0 -0.076924129482655035 -0.19312923613988461 0 -0.067766326940844071 -0.18722379036689649 0 -0.057871701771673389 -0.1881356543617064 0 -0.065919626308666837 -0.1966260070013626 0 -0.067766326940844071 -0.18722379036689649 0 -0.080398488786535452 -0.2086119850549594 0 -0.076924129482655035 -0.19312923613988461 0 -0.09510498020002435 -0.19617407540196191 0 -0.09510498020002435 -0.19617407540196191 0 -0.075455466158027701 -0.179504622045563 0 -0.076924129482655035 -0.19312923613988461 0 -0.09510498020002435 -0.19617407540196191 0 -0.075455466158027701 -0.179504622045563 0 -0.09510498020002435 -0.19617407540196191 0 -0.1129594531124309 -0.19714830954757639 0 -0.10485203112313531 -0.18515146013611569 0 -0.09510498020002435 -0.19617407540196191 0 -0.1129594531124309 -0.19714830954757639 0 -0.114754494242021 -0.21284352875836091 0 -0.09510498020002435 -0.19617407540196191 0 -0.091320585745368915 -0.1814216301370731 0 -0.10485203112313531 -0.18515146013611569 0 -0.1129594531124309 -0.19714830954757639 0 -0.10485203112313531 -0.18515146013611569 0 -0.11958806408898651 -0.18193550961883631 0 -0.1232801314931022 -0.19225539896641111 0 -0.1129594531124309 -0.19714830954757639 0 -0.11958806408898651 -0.18193550961883631 0 -0.1232801314931022 -0.19225539896641111 0 -0.1129594531124309 -0.19714830954757639 0 -0.12042457936085781 -0.203973133358924 0 -0.1232801314931022 -0.19225539896641111 0 -0.12042457936085781 -0.203973133358924 0 -0.12876764093637319 -0.19949208870544621 0 -0.1129594531124309 -0.19714830954757639 0 -0.12042457936085781 -0.203973133358924 0 -0.114754494242021 -0.21284352875836091 0 -0.12042457936085781 -0.203973133358924 0 -0.114754494242021 -0.21284352875836091 0 -0.1308769084462314 -0.21329269747764809 0 -0.09510498020002435 -0.19617407540196191 0 -0.114754494242021 -0.21284352875836091 0 -0.099649510340295927 -0.21879854423042769 0 -0.09510498020002435 -0.19617407540196191 0 -0.114754494242021 -0.21284352875836091 0 -0.099649510340295927 -0.21879854423042769 0 -0.1137988708535508 -0.2256380674907694 0 -0.10016586521477271 -0.24581573249483521 0 -0.085655314570425689 -0.2268543669311173 0 -0.099649510340295927 -0.21879854423042769 0 -0.10016586521477271 -0.24581573249483521 0 -0.1137988708535508 -0.2256380674907694 0 -0.1219903272737249 -0.24546297996505551 0 -0.13440400828401769 -0.2295129821147599 0 -0.114754494242021 -0.21284352875836091 0 -0.099649510340295927 -0.21879854423042769 0 -0.1137988708535508 -0.2256380674907694 0 -0.114754494242021 -0.21284352875836091 0 -0.1137988708535508 -0.2256380674907694 0 -0.13440400828401769 -0.2295129821147599 0 -0.114754494242021 -0.21284352875836091 0 -0.13440400828401769 -0.2295129821147599 0 -0.1137988708535508 -0.2256380674907694 0 -0.1219903272737249 -0.24546297996505551 0 -0.10016586521477271 -0.24581573249483521 0 -0.1137988708535508 -0.2256380674907694 0 -0.10016586521477271 -0.24581573249483521 0 -0.080409392746031996 -0.14317635965521161 0 -0.087804044240822471 -0.15291156308723569 0 -0.073466881401992798 -0.15917615842534649 0 -0.080409392746031996 -0.14317635965521161 0 -0.087804044240822471 -0.15291156308723569 0 -0.095743453185247865 -0.14162640502202081 0 -0.080409392746031996 -0.14317635965521161 0 -0.085705102549524598 -0.1311004380687549 0 -0.095743453185247865 -0.14162640502202081 0 -0.085705102549524598 -0.1311004380687549 0 -0.095743453185247865 -0.14162640502202081 0 -0.097386944136910333 -0.12912386754792449 0 -0.089564812027750296 -0.121583143905377 0 -0.085705102549524598 -0.1311004380687549 0 -0.097386944136910333 -0.12912386754792449 0 -0.079589066610784742 -0.11908843168384051 0 -0.085705102549524598 -0.1311004380687549 0 -0.071406629602476526 -0.13150079687316019 0 -0.080409392746031996 -0.14317635965521161 0 -0.085705102549524598 -0.1311004380687549 0 -0.071406629602476526 -0.13150079687316019 0 -0.080409392746031996 -0.14317635965521161 0 -0.071406629602476526 -0.13150079687316019 0 -0.069031844819472846 -0.1452265889946534 0 -0.059370734581527758 -0.1373462182284918 0 -0.056737103121772152 -0.12545841240358341 0 -0.071406629602476526 -0.13150079687316019 0 -0.068114561765865916 -0.12055956465383851 0 -0.056737103121772152 -0.12545841240358341 0 -0.071406629602476526 -0.13150079687316019 0 -0.059370734581527758 -0.1373462182284918 0 -0.071406629602476526 -0.13150079687316019 0 -0.069031844819472846 -0.1452265889946534 0 -0.060505585765335171 -0.1549334117910571 0 -0.059370734581527758 -0.1373462182284918 0 -0.069031844819472846 -0.1452265889946534 0 -0.080409392746031996 -0.14317635965521161 0 -0.069031844819472846 -0.1452265889946534 0 -0.073466881401992798 -0.15917615842534649 0 -0.060505585765335171 -0.1549334117910571 0 -0.069031844819472846 -0.1452265889946534 0 -0.073466881401992798 -0.15917615842534649 0 -0.060505585765335171 -0.1549334117910571 0 -0.074565029043404354 -0.17276991270226641 0 -0.060505585765335171 -0.1549334117910571 0 -0.073466881401992798 -0.15917615842534649 0 -0.074565029043404354 -0.17276991270226641 0 -0.056309750930761113 -0.1670244728031188 0 -0.060505585765335171 -0.1549334117910571 0 -0.074565029043404354 -0.17276991270226641 0 -0.073466881401992798 -0.15917615842534649 0 -0.074565029043404354 -0.17276991270226641 0 -0.080060230636481045 -0.16851087755181771 0 -0.056309750930761113 -0.1670244728031188 0 -0.063332469977197686 -0.17861159587184711 0 -0.074565029043404354 -0.17276991270226641 0 -0.067766326940844071 -0.18722379036689649 0 -0.063332469977197686 -0.17861159587184711 0 -0.075455466158027701 -0.179504622045563 0 -0.057871701771673389 -0.1881356543617064 0 -0.067766326940844071 -0.18722379036689649 0 -0.063332469977197686 -0.17861159587184711 0 -0.063332469977197686 -0.17861159587184711 0 -0.074565029043404354 -0.17276991270226641 0 -0.075455466158027701 -0.179504622045563 0 -0.074565029043404354 -0.17276991270226641 0 -0.075455466158027701 -0.179504622045563 0 -0.084282185704769225 -0.17391928036656179 0 -0.076924129482655035 -0.19312923613988461 0 -0.067766326940844071 -0.18722379036689649 0 -0.075455466158027701 -0.179504622045563 0 -0.09510498020002435 -0.19617407540196191 0 -0.075455466158027701 -0.179504622045563 0 -0.091320585745368915 -0.1814216301370731 0 -0.075455466158027701 -0.179504622045563 0 -0.084282185704769225 -0.17391928036656179 0 -0.091320585745368915 -0.1814216301370731 0 -0.084282185704769225 -0.17391928036656179 0 -0.091320585745368915 -0.1814216301370731 0 -0.096908265540887967 -0.17235871273516309 0 -0.087804044240822471 -0.15291156308723569 0 -0.073466881401992798 -0.15917615842534649 0 -0.086587149703551886 -0.1650920457278463 0 -0.084282185704769225 -0.17391928036656179 0 -0.080060230636481045 -0.16851087755181771 0 -0.086587149703551886 -0.1650920457278463 0 -0.074565029043404354 -0.17276991270226641 0 -0.084282185704769225 -0.17391928036656179 0 -0.080060230636481045 -0.16851087755181771 0 -0.073466881401992798 -0.15917615842534649 0 -0.080060230636481045 -0.16851087755181771 0 -0.086587149703551886 -0.1650920457278463 0 -0.086587149703551886 -0.1650920457278463 0 -0.09551474195523596 -0.1614160577143251 0 -0.096908265540887967 -0.17235871273516309 0 -0.084282185704769225 -0.17391928036656179 0 -0.086587149703551886 -0.1650920457278463 0 -0.096908265540887967 -0.17235871273516309 0 -0.087804044240822471 -0.15291156308723569 0 -0.086587149703551886 -0.1650920457278463 0 -0.09551474195523596 -0.1614160577143251 0 -0.09551474195523596 -0.1614160577143251 0 -0.1038801672146384 -0.16328831670470029 0 -0.1007916686518968 -0.15320539779804651 0 -0.09551474195523596 -0.1614160577143251 0 -0.1038801672146384 -0.16328831670470029 0 -0.096908265540887967 -0.17235871273516309 0 -0.1038801672146384 -0.16328831670470029 0 -0.11197568209021951 -0.15833236503509179 0 -0.1110056489861872 -0.17068054520360801 0 -0.1038801672146384 -0.16328831670470029 0 -0.096908265540887967 -0.17235871273516309 0 -0.1110056489861872 -0.17068054520360801 0 -0.1038801672146384 -0.16328831670470029 0 -0.11197568209021951 -0.15833236503509179 0 -0.1007916686518968 -0.15320539779804651 0 -0.091320585745368915 -0.1814216301370731 0 -0.096908265540887967 -0.17235871273516309 0 -0.10485203112313531 -0.18515146013611569 0 -0.096908265540887967 -0.17235871273516309 0 -0.10485203112313531 -0.18515146013611569 0 -0.1110056489861872 -0.17068054520360801 0 -0.10485203112313531 -0.18515146013611569 0 -0.11958806408898651 -0.18193550961883631 0 -0.1110056489861872 -0.17068054520360801 0 -0.11958806408898651 -0.18193550961883631 0 -0.1110056489861872 -0.17068054520360801 0 -0.12187811040149441 -0.17005850650991991 0 -0.11958806408898651 -0.18193550961883631 0 -0.12187811040149441 -0.17005850650991991 0 -0.13189744114688831 -0.17347451555549989 0 -0.1232801314931022 -0.19225539896641111 0 -0.11958806408898651 -0.18193550961883631 0 -0.13166803198962071 -0.18608297167052509 0 -0.11197568209021951 -0.15833236503509179 0 -0.1110056489861872 -0.17068054520360801 0 -0.1203557399688628 -0.16121950627852191 0 -0.11197568209021951 -0.15833236503509179 0 -0.1203557399688628 -0.16121950627852191 0 -0.1174762033326 -0.151951836315914 0 -0.12187811040149441 -0.17005850650991991 0 -0.1203557399688628 -0.16121950627852191 0 -0.12784714157263519 -0.16323695010467251 0 -0.1110056489861872 -0.17068054520360801 0 -0.12187811040149441 -0.17005850650991991 0 -0.1203557399688628 -0.16121950627852191 0 -0.1203557399688628 -0.16121950627852191 0 -0.12506906793060191 -0.15471360094737849 0 -0.12784714157263519 -0.16323695010467251 0 -0.1203557399688628 -0.16121950627852191 0 -0.1174762033326 -0.151951836315914 0 -0.12506906793060191 -0.15471360094737849 0 -0.1174762033326 -0.151951836315914 0 -0.12276833502831461 -0.1470174296489212 0 -0.12506906793060191 -0.15471360094737849 0 -0.12276833502831461 -0.1470174296489212 0 -0.1213546599497731 -0.1386103569312376 0 -0.1280071949948059 -0.1418389796677495 0 -0.12276833502831461 -0.1470174296489212 0 -0.1162475308685452 -0.14431127826685489 0 -0.1213546599497731 -0.1386103569312376 0 -0.1174762033326 -0.151951836315914 0 -0.12276833502831461 -0.1470174296489212 0 -0.1162475308685452 -0.14431127826685489 0 -0.1174762033326 -0.151951836315914 0 -0.1162475308685452 -0.14431127826685489 0 -0.1084408641090563 -0.1461168377187157 0 -0.1162475308685452 -0.14431127826685489 0 -0.1084408641090563 -0.1461168377187157 0 -0.1132357280179017 -0.13661172392268059 0 -0.11197568209021951 -0.15833236503509179 0 -0.1174762033326 -0.151951836315914 0 -0.1084408641090563 -0.1461168377187157 0 -0.11197568209021951 -0.15833236503509179 0 -0.1084408641090563 -0.1461168377187157 0 -0.1007916686518968 -0.15320539779804651 0 -0.1084408641090563 -0.1461168377187157 0 -0.095743453185247865 -0.14162640502202081 0 -0.1043829570242541 -0.13576968637484799 0 -0.1084408641090563 -0.1461168377187157 0 -0.095743453185247865 -0.14162640502202081 0 -0.1007916686518968 -0.15320539779804651 0 -0.087804044240822471 -0.15291156308723569 0 -0.095743453185247865 -0.14162640502202081 0 -0.1007916686518968 -0.15320539779804651 0 -0.087804044240822471 -0.15291156308723569 0 -0.09551474195523596 -0.1614160577143251 0 -0.1007916686518968 -0.15320539779804651 0 -0.095743453185247865 -0.14162640502202081 0 -0.097386944136910333 -0.12912386754792449 0 -0.1043829570242541 -0.13576968637484799 0 -0.1084408641090563 -0.1461168377187157 0 -0.1043829570242541 -0.13576968637484799 0 -0.1132357280179017 -0.13661172392268059 0 -0.097386944136910333 -0.12912386754792449 0 -0.1043829570242541 -0.13576968637484799 0 -0.1091895371108631 -0.12573130120780129 0 -0.1043829570242541 -0.13576968637484799 0 -0.1091895371108631 -0.12573130120780129 0 -0.1132357280179017 -0.13661172392268059 0 -0.1091895371108631 -0.12573130120780129 0 -0.1132357280179017 -0.13661172392268059 0 -0.1197988190449184 -0.12913088303662629 0 -0.1162475308685452 -0.14431127826685489 0 -0.1132357280179017 -0.13661172392268059 0 -0.1213546599497731 -0.1386103569312376 0 -0.1132357280179017 -0.13661172392268059 0 -0.1213546599497731 -0.1386103569312376 0 -0.1197988190449184 -0.12913088303662629 0 -0.1213546599497731 -0.1386103569312376 0 -0.1197988190449184 -0.12913088303662629 0 -0.12825584653857511 -0.1318448854036737 0 -0.12825584653857511 -0.1318448854036737 0 -0.13579530254347391 -0.12676279613266281 0 -0.1276738523625448 -0.1240266464128925 0 -0.12825584653857511 -0.1318448854036737 0 -0.13404444063209181 -0.13641960938065439 0 -0.13579530254347391 -0.12676279613266281 0 -0.1197988190449184 -0.12913088303662629 0 -0.12825584653857511 -0.1318448854036737 0 -0.1276738523625448 -0.1240266464128925 0 -0.1213546599497731 -0.1386103569312376 0 -0.12825584653857511 -0.1318448854036737 0 -0.1280071949948059 -0.1418389796677495 0 -0.12825584653857511 -0.1318448854036737 0 -0.13404444063209181 -0.13641960938065439 0 -0.1280071949948059 -0.1418389796677495 0 -0.13404444063209181 -0.13641960938065439 0 -0.14027554912093609 -0.13962281949095159 0 -0.13492190088039291 -0.14447568968261459 0 -0.13404444063209181 -0.13641960938065439 0 -0.14027554912093609 -0.13962281949095159 0 -0.13991513580125781 -0.1326780984192894 0 -0.13404444063209181 -0.13641960938065439 0 -0.13579530254347391 -0.12676279613266281 0 -0.13991513580125781 -0.1326780984192894 0 -0.13579530254347391 -0.12676279613266281 0 -0.13991513580125781 -0.1326780984192894 0 -0.14572187354655541 -0.12787201355223651 0 -0.13991513580125781 -0.1326780984192894 0 -0.14572187354655541 -0.12787201355223651 0 -0.14868284699866149 -0.13749275399867589 0 -0.14027554912093609 -0.13962281949095159 0 -0.13991513580125781 -0.1326780984192894 0 -0.14868284699866149 -0.13749275399867589 0 -0.14868284699866149 -0.13749275399867589 0 -0.1546646124441621 -0.14615582022270701 0 -0.15953139269405109 -0.13815374560739591 0 -0.14868284699866149 -0.13749275399867589 0 -0.155441827350077 -0.13008710151723341 0 -0.15953139269405109 -0.13815374560739591 0 -0.14572187354655541 -0.12787201355223651 0 -0.14868284699866149 -0.13749275399867589 0 -0.155441827350077 -0.13008710151723341 0 -0.14572187354655541 -0.12787201355223651 0 -0.155441827350077 -0.13008710151723341 0 -0.15195703468416091 -0.1217248849962058 0 -0.150107795639426 -0.1537147243319171 0 -0.1546646124441621 -0.14615582022270701 0 -0.14502130627555351 -0.146422794398781 0 -0.150107795639426 -0.1537147243319171 0 -0.1546646124441621 -0.14615582022270701 0 -0.15689520796974199 -0.15364271950227179 0 -0.14868284699866149 -0.13749275399867589 0 -0.1546646124441621 -0.14615582022270701 0 -0.14502130627555351 -0.146422794398781 0 -0.14027554912093609 -0.13962281949095159 0 -0.14868284699866149 -0.13749275399867589 0 -0.14502130627555351 -0.146422794398781 0 -0.14502130627555351 -0.146422794398781 0 -0.14379754897442951 -0.15284006965921329 0 -0.13790024871324441 -0.15118748721221389 0 -0.150107795639426 -0.1537147243319171 0 -0.14502130627555351 -0.146422794398781 0 -0.14379754897442951 -0.15284006965921329 0 -0.150107795639426 -0.1537147243319171 0 -0.14379754897442951 -0.15284006965921329 0 -0.14663842007901229 -0.1592472787672948 0 -0.13790024871324441 -0.15118748721221389 0 -0.12979644162736631 -0.14922371965442141 0 -0.13258079957417021 -0.1564228228210669 0 -0.14379754897442951 -0.15284006965921329 0 -0.13790024871324441 -0.15118748721221389 0 -0.13944478667586191 -0.15768092002084699 0 -0.13790024871324441 -0.15118748721221389 0 -0.13258079957417021 -0.1564228228210669 0 -0.13944478667586191 -0.15768092002084699 0 -0.14027554912093609 -0.13962281949095159 0 -0.14502130627555351 -0.146422794398781 0 -0.13492190088039291 -0.14447568968261459 0 -0.13790024871324441 -0.15118748721221389 0 -0.13492190088039291 -0.14447568968261459 0 -0.12979644162736631 -0.14922371965442141 0 -0.14502130627555351 -0.146422794398781 0 -0.13790024871324441 -0.15118748721221389 0 -0.13492190088039291 -0.14447568968261459 0 -0.13404444063209181 -0.13641960938065439 0 -0.13492190088039291 -0.14447568968261459 0 -0.1280071949948059 -0.1418389796677495 0 -0.13492190088039291 -0.14447568968261459 0 -0.1280071949948059 -0.1418389796677495 0 -0.12979644162736631 -0.14922371965442141 0 -0.12276833502831461 -0.1470174296489212 0 -0.1280071949948059 -0.1418389796677495 0 -0.12979644162736631 -0.14922371965442141 0 -0.12979644162736631 -0.14922371965442141 0 -0.12506906793060191 -0.15471360094737849 0 -0.13258079957417021 -0.1564228228210669 0 -0.12276833502831461 -0.1470174296489212 0 -0.12979644162736631 -0.14922371965442141 0 -0.12506906793060191 -0.15471360094737849 0 -0.12506906793060191 -0.15471360094737849 0 -0.13258079957417021 -0.1564228228210669 0 -0.12784714157263519 -0.16323695010467251 0 -0.13258079957417021 -0.1564228228210669 0 -0.12784714157263519 -0.16323695010467251 0 -0.13530169041379381 -0.16353274851564789 0 -0.12187811040149441 -0.17005850650991991 0 -0.12784714157263519 -0.16323695010467251 0 -0.13189744114688831 -0.17347451555549989 0 -0.12784714157263519 -0.16323695010467251 0 -0.13530169041379381 -0.16353274851564789 0 -0.13189744114688831 -0.17347451555549989 0 -0.14021175737776781 -0.1684456222223277 0 -0.13530169041379381 -0.16353274851564789 0 -0.13189744114688831 -0.17347451555549989 0 -0.14021175737776781 -0.1684456222223277 0 -0.13530169041379381 -0.16353274851564789 0 -0.1411882176773552 -0.16286531381564839 0 -0.13944478667586191 -0.15768092002084699 0 -0.13530169041379381 -0.16353274851564789 0 -0.1411882176773552 -0.16286531381564839 0 -0.13258079957417021 -0.1564228228210669 0 -0.13944478667586191 -0.15768092002084699 0 -0.13530169041379381 -0.16353274851564789 0 -0.11958806408898651 -0.18193550961883631 0 -0.13166803198962071 -0.18608297167052509 0 -0.13189744114688831 -0.17347451555549989 0 -0.13189744114688831 -0.17347451555549989 0 -0.13661084023809769 -0.18003626722559929 0 -0.14228502785700109 -0.17499530231383681 0 -0.14021175737776781 -0.1684456222223277 0 -0.13189744114688831 -0.17347451555549989 0 -0.14228502785700109 -0.17499530231383681 0 -0.13166803198962071 -0.18608297167052509 0 -0.13661084023809769 -0.18003626722559929 0 -0.14449373544096381 -0.1875918709856946 0 -0.13166803198962071 -0.18608297167052509 0 -0.13189744114688831 -0.17347451555549989 0 -0.13661084023809769 -0.18003626722559929 0 -0.14228502785700109 -0.17499530231383681 0 -0.15029287591310261 -0.17742654576884251 0 -0.14449373544096381 -0.1875918709856946 0 -0.13661084023809769 -0.18003626722559929 0 -0.14228502785700109 -0.17499530231383681 0 -0.14449373544096381 -0.1875918709856946 0 -0.14228502785700109 -0.17499530231383681 0 -0.15029287591310261 -0.17742654576884251 0 -0.1483590944057129 -0.1709951752659303 0 -0.15029287591310261 -0.17742654576884251 0 -0.1483590944057129 -0.1709951752659303 0 -0.1551695516071652 -0.17093157472277579 0 -0.1554957974531975 -0.1762377763798248 0 -0.15029287591310261 -0.17742654576884251 0 -0.1551695516071652 -0.17093157472277579 0 -0.1554957974531975 -0.1762377763798248 0 -0.15029287591310261 -0.17742654576884251 0 -0.15784651762817811 -0.1810291936932707 0 -0.15029287591310261 -0.17742654576884251 0 -0.1523576576470124 -0.18469747435092329 0 -0.14449373544096381 -0.1875918709856946 0 -0.15029287591310261 -0.17742654576884251 0 -0.1523576576470124 -0.18469747435092329 0 -0.15784651762817811 -0.1810291936932707 0 -0.14663842007901229 -0.1592472787672948 0 -0.1411882176773552 -0.16286531381564839 0 -0.14588422903330039 -0.1648020881257217 0 -0.13944478667586191 -0.15768092002084699 0 -0.14663842007901229 -0.1592472787672948 0 -0.1411882176773552 -0.16286531381564839 0 -0.14379754897442951 -0.15284006965921329 0 -0.13944478667586191 -0.15768092002084699 0 -0.14663842007901229 -0.1592472787672948 0 -0.14021175737776781 -0.1684456222223277 0 -0.1411882176773552 -0.16286531381564839 0 -0.14588422903330039 -0.1648020881257217 0 -0.14021175737776781 -0.1684456222223277 0 -0.14228502785700109 -0.17499530231383681 0 -0.1483590944057129 -0.1709951752659303 0 -0.14021175737776781 -0.1684456222223277 0 -0.1483590944057129 -0.1709951752659303 0 -0.14588422903330039 -0.1648020881257217 0 -0.1483590944057129 -0.1709951752659303 0 -0.14588422903330039 -0.1648020881257217 0 -0.15362204832210599 -0.16261794089692319 0 -0.1483590944057129 -0.1709951752659303 0 -0.1551695516071652 -0.17093157472277579 0 -0.15362204832210599 -0.16261794089692319 0 -0.150107795639426 -0.1537147243319171 0 -0.15362204832210599 -0.16261794089692319 0 -0.15689520796974199 -0.15364271950227179 0 -0.150107795639426 -0.1537147243319171 0 -0.14663842007901229 -0.1592472787672948 0 -0.15362204832210599 -0.16261794089692319 0 -0.14663842007901229 -0.1592472787672948 0 -0.14588422903330039 -0.1648020881257217 0 -0.15362204832210599 -0.16261794089692319 0 -0.15362204832210599 -0.16261794089692319 0 -0.16239892022068431 -0.15964861969259081 0 -0.16211680626694569 -0.167593338241637 0 -0.15362204832210599 -0.16261794089692319 0 -0.16239892022068431 -0.15964861969259081 0 -0.15689520796974199 -0.15364271950227179 0 -0.1551695516071652 -0.17093157472277579 0 -0.15362204832210599 -0.16261794089692319 0 -0.16211680626694569 -0.167593338241637 0 -0.1551695516071652 -0.17093157472277579 0 -0.16211680626694569 -0.167593338241637 0 -0.16015186106699231 -0.17558786858673939 0 -0.16211680626694569 -0.167593338241637 0 -0.16638929032320129 -0.17531629887757649 0 -0.17451890159478201 -0.16235990739131709 0 -0.16239892022068431 -0.15964861969259081 0 -0.17451890159478201 -0.16235990739131709 0 -0.16751976061605989 -0.14942148036365319 0 -0.16239892022068431 -0.15964861969259081 0 -0.16211680626694569 -0.167593338241637 0 -0.17451890159478201 -0.16235990739131709 0 -0.17451890159478201 -0.16235990739131709 0 -0.1686492378595735 -0.18931858237662691 0 -0.16638929032320129 -0.17531629887757649 0 -0.17451890159478201 -0.16235990739131709 0 -0.1686492378595735 -0.18931858237662691 0 -0.1587842521090235 -0.18665239117775939 0 -0.1638932031232663 -0.18241902960535189 0 -0.16502051712285931 -0.1891623718124672 0 -0.1523576576470124 -0.18469747435092329 0 -0.1587842521090235 -0.18665239117775939 0 -0.15784651762817811 -0.1810291936932707 0 -0.1587842521090235 -0.18665239117775939 0 -0.15784651762817811 -0.1810291936932707 0 -0.1638932031232663 -0.18241902960535189 0 -0.16211680626694569 -0.167593338241637 0 -0.16015186106699231 -0.17558786858673939 0 -0.16638929032320129 -0.17531629887757649 0 -0.1638932031232663 -0.18241902960535189 0 -0.16015186106699231 -0.17558786858673939 0 -0.16638929032320129 -0.17531629887757649 0 -0.15784651762817811 -0.1810291936932707 0 -0.1638932031232663 -0.18241902960535189 0 -0.16015186106699231 -0.17558786858673939 0 -0.1554957974531975 -0.1762377763798248 0 -0.15784651762817811 -0.1810291936932707 0 -0.16015186106699231 -0.17558786858673939 0 -0.1554957974531975 -0.1762377763798248 0 -0.1551695516071652 -0.17093157472277579 0 -0.16015186106699231 -0.17558786858673939 0 -0.1638932031232663 -0.18241902960535189 0 -0.16638929032320129 -0.17531629887757649 0 -0.1686492378595735 -0.18931858237662691 0 -0.1638932031232663 -0.18241902960535189 0 -0.16502051712285931 -0.1891623718124672 0 -0.1686492378595735 -0.18931858237662691 0 -0.1812700270816345 -0.1799859418351345 0 -0.17451890159478201 -0.16235990739131709 0 -0.1686492378595735 -0.18931858237662691 0 -0.17705981591604689 -0.18634213045468809 0 -0.1812700270816345 -0.1799859418351345 0 -0.18065464531504899 -0.18983539576836039 0 -0.17705981591604689 -0.18634213045468809 0 -0.1812700270816345 -0.1799859418351345 0 -0.1686492378595735 -0.18931858237662691 0 -0.1812700270816345 -0.1799859418351345 0 -0.18065464531504899 -0.18983539576836039 0 -0.19208899609858421 -0.18111018748309279 0 -0.1812700270816345 -0.1799859418351345 0 -0.1852353759052188 -0.1554662220941779 0 -0.19152381624534431 -0.16558095096173911 0 -0.1812700270816345 -0.1799859418351345 0 -0.17451890159478201 -0.16235990739131709 0 -0.1852353759052188 -0.1554662220941779 0 -0.1812700270816345 -0.1799859418351345 0 -0.1852353759052188 -0.1554662220941779 0 -0.17451890159478201 -0.16235990739131709 0 -0.18038856532999109 -0.13540123240600749 0 -0.16751976061605989 -0.14942148036365319 0 -0.1852353759052188 -0.1554662220941779 0 -0.18920072472880309 -0.13094650235322111 0 -0.17451890159478201 -0.16235990739131709 0 -0.18038856532999109 -0.13540123240600749 0 -0.17451890159478201 -0.16235990739131709 0 -0.1852353759052188 -0.1554662220941779 0 -0.18038856532999109 -0.13540123240600749 0 -0.18038856532999109 -0.13540123240600749 0 -0.16841593116258469 -0.13912812449116579 0 -0.16751976061605989 -0.14942148036365319 0 -0.1852353759052188 -0.1554662220941779 0 -0.18038856532999109 -0.13540123240600749 0 -0.18920072472880309 -0.13094650235322111 0 -0.18038856532999109 -0.13540123240600749 0 -0.17229966278526729 -0.1290585873138084 0 -0.17675241918492551 -0.1198771620881125 0 -0.18038856532999109 -0.13540123240600749 0 -0.17229966278526729 -0.1290585873138084 0 -0.16841593116258469 -0.13912812449116579 0 -0.17229966278526729 -0.1290585873138084 0 -0.16841593116258469 -0.13912812449116579 0 -0.16463497594403509 -0.1310364857754204 0 -0.16841593116258469 -0.13912812449116579 0 -0.16463497594403509 -0.1310364857754204 0 -0.15953139269405109 -0.13815374560739591 0 -0.17229966278526729 -0.1290585873138084 0 -0.16463497594403509 -0.1310364857754204 0 -0.16339333125142819 -0.12077558700734541 0 -0.155441827350077 -0.13008710151723341 0 -0.16463497594403509 -0.1310364857754204 0 -0.16339333125142819 -0.12077558700734541 0 -0.155441827350077 -0.13008710151723341 0 -0.16463497594403509 -0.1310364857754204 0 -0.15953139269405109 -0.13815374560739591 0 -0.1546646124441621 -0.14615582022270701 0 -0.15953139269405109 -0.13815374560739591 0 -0.16250103741857519 -0.14634827869856651 0 -0.16841593116258469 -0.13912812449116579 0 -0.15953139269405109 -0.13815374560739591 0 -0.16250103741857519 -0.14634827869856651 0 -0.16250103741857519 -0.14634827869856651 0 -0.15689520796974199 -0.15364271950227179 0 -0.16751976061605989 -0.14942148036365319 0 -0.16239892022068431 -0.15964861969259081 0 -0.15689520796974199 -0.15364271950227179 0 -0.16751976061605989 -0.14942148036365319 0 -0.1546646124441621 -0.14615582022270701 0 -0.16250103741857519 -0.14634827869856651 0 -0.15689520796974199 -0.15364271950227179 0 -0.16841593116258469 -0.13912812449116579 0 -0.16250103741857519 -0.14634827869856651 0 -0.16751976061605989 -0.14942148036365319 0 -0.14827665060334749 -0.25853720966090349 0 -0.14116867703999711 -0.2438785846685893 0 -0.15858084240211121 -0.24125751270151211 0 -0.14116867703999711 -0.2438785846685893 0 -0.14943946917177259 -0.22780212593390251 0 -0.15858084240211121 -0.24125751270151211 0 -0.14827665060334749 -0.25853720966090349 0 -0.15858084240211121 -0.24125751270151211 0 -0.1219903272737249 -0.24546297996505551 0 -0.14116867703999711 -0.2438785846685893 0 -0.13440400828401769 -0.2295129821147599 0 -0.13440400828401769 -0.2295129821147599 0 -0.1412845416197247 -0.21892570459052579 0 -0.1308769084462314 -0.21329269747764809 0 -0.13440400828401769 -0.2295129821147599 0 -0.1412845416197247 -0.21892570459052579 0 -0.14943946917177259 -0.22780212593390251 0 -0.14116867703999711 -0.2438785846685893 0 -0.13440400828401769 -0.2295129821147599 0 -0.14943946917177259 -0.22780212593390251 0 -0.14943946917177259 -0.22780212593390251 0 -0.14810011640859619 -0.20898379131683439 0 -0.16208120953536781 -0.21948476375841081 0 -0.14810011640859619 -0.20898379131683439 0 -0.15225431946398721 -0.19911784094001209 0 -0.165365223697473 -0.20440167306751941 0 -0.1412845416197247 -0.21892570459052579 0 -0.14943946917177259 -0.22780212593390251 0 -0.14810011640859619 -0.20898379131683439 0 -0.14810011640859619 -0.20898379131683439 0 -0.16208120953536781 -0.21948476375841081 0 -0.114754494242021 -0.21284352875836091 0 -0.13440400828401769 -0.2295129821147599 0 -0.1308769084462314 -0.21329269747764809 0 -0.1412845416197247 -0.21892570459052579 0 -0.14810011640859619 -0.20898379131683439 0 -0.1308769084462314 -0.21329269747764809 0 -0.14810011640859619 -0.20898379131683439 0 -0.1308769084462314 -0.21329269747764809 0 -0.13991869752742159 -0.1995508645320761 0 -0.12042457936085781 -0.203973133358924 0 -0.1308769084462314 -0.21329269747764809 0 -0.12876764093637319 -0.19949208870544621 0 -0.1308769084462314 -0.21329269747764809 0 -0.13991869752742159 -0.1995508645320761 0 -0.12876764093637319 -0.19949208870544621 0 -0.1232801314931022 -0.19225539896641111 0 -0.13166803198962071 -0.18608297167052509 0 -0.12876764093637319 -0.19949208870544621 0 -0.13166803198962071 -0.18608297167052509 0 -0.13991869752742159 -0.1995508645320761 0 -0.12876764093637319 -0.19949208870544621 0 -0.13166803198962071 -0.18608297167052509 0 -0.13991869752742159 -0.1995508645320761 0 -0.14449373544096381 -0.1875918709856946 0 -0.14810011640859619 -0.20898379131683439 0 -0.13991869752742159 -0.1995508645320761 0 -0.15225431946398721 -0.19911784094001209 0 -0.13991869752742159 -0.1995508645320761 0 -0.14449373544096381 -0.1875918709856946 0 -0.15225431946398721 -0.19911784094001209 0 -0.15225431946398721 -0.19911784094001209 0 -0.15445246992718789 -0.1912535270113479 0 -0.16098778438058259 -0.1950677923310912 0 -0.14449373544096381 -0.1875918709856946 0 -0.15225431946398721 -0.19911784094001209 0 -0.15445246992718789 -0.1912535270113479 0 -0.1523576576470124 -0.18469747435092329 0 -0.14449373544096381 -0.1875918709856946 0 -0.15445246992718789 -0.1912535270113479 0 -0.1523576576470124 -0.18469747435092329 0 -0.1587842521090235 -0.18665239117775939 0 -0.15445246992718789 -0.1912535270113479 0 -0.16098778438058259 -0.1950677923310912 0 -0.15981125588491341 -0.1905340205831664 0 -0.16502051712285931 -0.1891623718124672 0 -0.1587842521090235 -0.18665239117775939 0 -0.15981125588491341 -0.1905340205831664 0 -0.16502051712285931 -0.1891623718124672 0 -0.1587842521090235 -0.18665239117775939 0 -0.15445246992718789 -0.1912535270113479 0 -0.15981125588491341 -0.1905340205831664 0 -0.15445246992718789 -0.1912535270113479 0 -0.16098778438058259 -0.1950677923310912 0 -0.15981125588491341 -0.1905340205831664 0 -0.15225431946398721 -0.19911784094001209 0 -0.16098778438058259 -0.1950677923310912 0 -0.165365223697473 -0.20440167306751941 0 -0.1686492378595735 -0.18931858237662691 0 -0.165365223697473 -0.20440167306751941 0 -0.1686492378595735 -0.18931858237662691 0 -0.17840363501728859 -0.2027800057395642 0 -0.165365223697473 -0.20440167306751941 0 -0.16098778438058259 -0.1950677923310912 0 -0.1686492378595735 -0.18931858237662691 0 -0.165365223697473 -0.20440167306751941 0 -0.16098778438058259 -0.1950677923310912 0 -0.16502051712285931 -0.1891623718124672 0 -0.1686492378595735 -0.18931858237662691 0 -0.16502051712285931 -0.1891623718124672 0 -0.1686492378595735 -0.18931858237662691 0 -0.17705981591604689 -0.18634213045468809 0 -0.1686492378595735 -0.18931858237662691 0 -0.18065464531504899 -0.18983539576836039 0 -0.1686492378595735 -0.18931858237662691 0 -0.18065464531504899 -0.18983539576836039 0 -0.18065464531504899 -0.18983539576836039 0 -0.17840363501728859 -0.2027800057395642 0 -0.1976744615954085 -0.20637435416060579 0 -0.1686492378595735 -0.18931858237662691 0 -0.18065464531504899 -0.18983539576836039 0 -0.17840363501728859 -0.2027800057395642 0 -0.17705981591604689 -0.18634213045468809 0 -0.18065464531504899 -0.18983539576836039 0 -0.17840363501728859 -0.2027800057395642 0 -0.17979154949461759 -0.21509567058138029 0 -0.1976744615954085 -0.20637435416060579 0 -0.17840363501728859 -0.2027800057395642 0 -0.17979154949461759 -0.21509567058138029 0 -0.165365223697473 -0.20440167306751941 0 -0.14810011640859619 -0.20898379131683439 0 -0.165365223697473 -0.20440167306751941 0 -0.16208120953536781 -0.21948476375841081 0 -0.17979154949461759 -0.21509567058138029 0 -0.165365223697473 -0.20440167306751941 0 -0.16208120953536781 -0.21948476375841081 0 -0.165365223697473 -0.20440167306751941 0 -0.16208120953536781 -0.21948476375841081 0 -0.14943946917177259 -0.22780212593390251 0 -0.16208120953536781 -0.21948476375841081 0 -0.15858084240211121 -0.24125751270151211 0 -0.16208120953536781 -0.21948476375841081 0 -0.15858084240211121 -0.24125751270151211 0 -0.16208120953536781 -0.21948476375841081 0 -0.16188478324420691 -0.2344361768883238 0 -0.15858084240211121 -0.24125751270151211 0 -0.16208120953536781 -0.21948476375841081 0 -0.1714331920846866 -0.2392004218945423 0 -0.16188478324420691 -0.2344361768883238 0 -0.17979154949461759 -0.21509567058138029 0 -0.16208120953536781 -0.21948476375841081 0 -0.18584270842935849 -0.23733164045066771 0 -0.16208120953536781 -0.21948476375841081 0 -0.18584270842935849 -0.23733164045066771 0 -0.16208120953536781 -0.21948476375841081 0 -0.18584270842935849 -0.23733164045066771 0 -0.1714331920846866 -0.2392004218945423 0 -0.17844234783279819 -0.25679708098774662 0 -0.18584270842935849 -0.23733164045066771 0 -0.1714331920846866 -0.2392004218945423 0 -0.17844234783279819 -0.25679708098774662 0 -0.16033730225139539 -0.23831200329041871 0 -0.17844234783279819 -0.25679708098774662 0 -0.1714331920846866 -0.2392004218945423 0 -0.16033730225139539 -0.23831200329041871 0 -0.16253313810204001 -0.25603905961840367 0 -0.16033730225139539 -0.23831200329041871 0 -0.15858084240211121 -0.24125751270151211 0 -0.1714331920846866 -0.2392004218945423 0 -0.16033730225139539 -0.23831200329041871 0 -0.16188478324420691 -0.2344361768883238 0 -0.16033730225139539 -0.23831200329041871 0 -0.16188478324420691 -0.2344361768883238 0 -0.15858084240211121 -0.24125751270151211 0 -0.16188478324420691 -0.2344361768883238 0 -0.15858084240211121 -0.24125751270151211 0 -0.20960420732335069 -0.255178517142923 0 -0.18584270842935849 -0.23733164045066771 0 -0.21469427787576939 -0.22291331255284971 0 -0.20960420732335069 -0.255178517142923 0 -0.21469427787576939 -0.22291331255284971 0 -0.23171409415613031 -0.2394522709450935 0 -0.20960420732335069 -0.255178517142923 0 -0.17844234783279819 -0.25679708098774662 0 -0.18584270842935849 -0.23733164045066771 0 -0.20960420732335069 -0.255178517142923 0 -0.18584270842935849 -0.23733164045066771 0 -0.18584270842935849 -0.23733164045066771 0 -0.21469427787576939 -0.22291331255284971 0 -0.1976744615954085 -0.20637435416060579 0 -0.17979154949461759 -0.21509567058138029 0 -0.18584270842935849 -0.23733164045066771 0 -0.1976744615954085 -0.20637435416060579 0 -0.21469427787576939 -0.22291331255284971 0 -0.1976744615954085 -0.20637435416060579 0 -0.21469427787576939 -0.22291331255284971 0 -0.2168270789566919 -0.20525164433246171 0 -0.1976744615954085 -0.20637435416060579 0 -0.18065464531504899 -0.18983539576836039 0 -0.1976744615954085 -0.20637435416060579 0 -0.18065464531504899 -0.18983539576836039 0 -0.1976744615954085 -0.20637435416060579 0 -0.20593331119668509 -0.19092360148742271 0 -0.18065464531504899 -0.18983539576836039 0 -0.20593331119668509 -0.19092360148742271 0 -0.2168270789566919 -0.20525164433246171 0 -0.1976744615954085 -0.20637435416060579 0 -0.20593331119668509 -0.19092360148742271 0 -0.20593331119668509 -0.19092360148742271 0 -0.23121197707832111 -0.19201180720648661 0 -0.2168270789566919 -0.20525164433246171 0 -0.20593331119668509 -0.19092360148742271 0 -0.23121197707832111 -0.19201180720648661 0 -0.23121197707832111 -0.19201180720648661 0 -0.2564906429599571 -0.19310001292555051 0 -0.23121197707832111 -0.19201180720648661 0 -0.2484003008298015 -0.20721753419524491 0 -0.2564906429599571 -0.19310001292555051 0 -0.23121197707832111 -0.19201180720648661 0 -0.23678763469606201 -0.18090529133063291 0 -0.2564906429599571 -0.19310001292555051 0 -0.23121197707832111 -0.19201180720648661 0 -0.2346213670372754 -0.2140351462549436 0 -0.2484003008298015 -0.20721753419524491 0 -0.2346213670372754 -0.2140351462549436 0 -0.2484003008298015 -0.20721753419524491 0 -0.25314620720294417 -0.2264425066734054 0 -0.21469427787576939 -0.22291331255284971 0 -0.2168270789566919 -0.20525164433246171 0 -0.2346213670372754 -0.2140351462549436 0 -0.2168270789566919 -0.20525164433246171 0 -0.23121197707832111 -0.19201180720648661 0 -0.2346213670372754 -0.2140351462549436 0 -0.21469427787576939 -0.22291331255284971 0 -0.2346213670372754 -0.2140351462549436 0 -0.23862383145191179 -0.22858175503698869 0 -0.21469427787576939 -0.22291331255284971 0 -0.23862383145191179 -0.22858175503698869 0 -0.23171409415613031 -0.2394522709450935 0 -0.21469427787576939 -0.22291331255284971 0 -0.23171409415613031 -0.2394522709450935 0 -0.2346213670372754 -0.2140351462549436 0 -0.23862383145191179 -0.22858175503698869 0 -0.25314620720294417 -0.2264425066734054 0 -0.23862383145191179 -0.22858175503698869 0 -0.24616391387882999 -0.23902492230560779 0 -0.25314620720294417 -0.2264425066734054 0 -0.24762550760567781 -0.25045736440467059 0 -0.24616391387882999 -0.23902492230560779 0 -0.23171409415613031 -0.2394522709450935 0 -0.2487339104364929 -0.25599122933733548 0 -0.24762550760567781 -0.25045736440467059 0 -0.23171409415613031 -0.2394522709450935 0 -0.23862383145191179 -0.22858175503698869 0 -0.24616391387882999 -0.23902492230560779 0 -0.23171409415613031 -0.2394522709450935 0 -0.2487339104364929 -0.25599122933733548 0 -0.23171409415613031 -0.2394522709450935 0 -0.25269575174149039 -0.25159991233365048 0 -0.24762550760567781 -0.25045736440467059 0 -0.24616391387882999 -0.23902492230560779 0 -0.25269575174149039 -0.25159991233365048 0 -0.24616391387882999 -0.23902492230560779 0 -0.20614969189187271 -0.1451937918002944 0 -0.19887684413903511 -0.156903691985187 0 -0.21261652674280909 -0.1602553496980369 0 -0.20614969189187271 -0.1451937918002944 0 -0.21261652674280909 -0.1602553496980369 0 -0.21978067940595569 -0.14817067234612319 0 -0.20614969189187271 -0.1451937918002944 0 -0.21332466474717229 -0.13560689240654181 0 -0.21978067940595569 -0.14817067234612319 0 -0.21332466474717229 -0.13560689240654181 0 -0.21978067940595569 -0.14817067234612319 0 -0.2220953047991471 -0.12597855200769881 0 -0.21332466474717229 -0.13560689240654181 0 -0.2111781397161184 -0.1251497952131618 0 -0.2220953047991471 -0.12597855200769881 0 -0.21332466474717229 -0.13560689240654181 0 -0.2111781397161184 -0.1251497952131618 0 -0.20490273689439731 -0.13174677490880771 0 -0.2111781397161184 -0.1251497952131618 0 -0.20490273689439731 -0.13174677490880771 0 -0.20546208301055699 -0.1189158951459474 0 -0.20614969189187271 -0.1451937918002944 0 -0.21332466474717229 -0.13560689240654181 0 -0.20490273689439731 -0.13174677490880771 0 -0.20614969189187271 -0.1451937918002944 0 -0.20490273689439731 -0.13174677490880771 0 -0.19732884014429131 -0.1359403518355462 0 -0.20490273689439731 -0.13174677490880771 0 -0.19872717848487351 -0.12661368113135779 0 -0.20546208301055699 -0.1189158951459474 0 -0.20490273689439731 -0.13174677490880771 0 -0.19732884014429131 -0.1359403518355462 0 -0.19872717848487351 -0.12661368113135779 0 -0.19732884014429131 -0.1359403518355462 0 -0.19872717848487351 -0.12661368113135779 0 -0.18920072472880309 -0.13094650235322111 0 -0.19732884014429131 -0.1359403518355462 0 -0.18920072472880309 -0.13094650235322111 0 -0.19453392742356479 -0.14456705354855859 0 -0.1852353759052188 -0.1554662220941779 0 -0.18920072472880309 -0.13094650235322111 0 -0.19453392742356479 -0.14456705354855859 0 -0.20614969189187271 -0.1451937918002944 0 -0.19732884014429131 -0.1359403518355462 0 -0.19453392742356479 -0.14456705354855859 0 -0.20614969189187271 -0.1451937918002944 0 -0.19453392742356479 -0.14456705354855859 0 -0.19887684413903511 -0.156903691985187 0 -0.1852353759052188 -0.1554662220941779 0 -0.19453392742356479 -0.14456705354855859 0 -0.19887684413903511 -0.156903691985187 0 -0.1852353759052188 -0.1554662220941779 0 -0.19152381624534431 -0.16558095096173911 0 -0.19887684413903511 -0.156903691985187 0 -0.19152381624534431 -0.16558095096173911 0 -0.2027606493445907 -0.17143383030843931 0 -0.1917903431115337 -0.1740122494757477 0 -0.19152381624534431 -0.16558095096173911 0 -0.2027606493445907 -0.17143383030843931 0 -0.19887684413903511 -0.156903691985187 0 -0.20593331119668509 -0.19092360148742271 0 -0.2027606493445907 -0.17143383030843931 0 -0.19208899609858421 -0.18111018748309279 0 -0.18065464531504899 -0.18983539576836039 0 -0.20593331119668509 -0.19092360148742271 0 -0.19208899609858421 -0.18111018748309279 0 -0.1812700270816345 -0.1799859418351345 0 -0.19152381624534431 -0.16558095096173911 0 -0.1917903431115337 -0.1740122494757477 0 -0.1812700270816345 -0.1799859418351345 0 -0.19208899609858421 -0.18111018748309279 0 -0.1917903431115337 -0.1740122494757477 0 -0.2027606493445907 -0.17143383030843931 0 -0.19208899609858421 -0.18111018748309279 0 -0.1917903431115337 -0.1740122494757477 0 -0.20593331119668509 -0.19092360148742271 0 -0.2027606493445907 -0.17143383030843931 0 -0.22569822579653781 -0.17084274063908211 0 -0.2027606493445907 -0.17143383030843931 0 -0.21261652674280909 -0.1602553496980369 0 -0.22569822579653781 -0.17084274063908211 0 -0.2027606493445907 -0.17143383030843931 0 -0.19887684413903511 -0.156903691985187 0 -0.21261652674280909 -0.1602553496980369 0 -0.22569822579653781 -0.17084274063908211 0 -0.2345605546935341 -0.15084299166430659 0 -0.21978067940595569 -0.14817067234612319 0 -0.21261652674280909 -0.1602553496980369 0 -0.22569822579653781 -0.17084274063908211 0 -0.21978067940595569 -0.14817067234612319 0 -0.20593331119668509 -0.19092360148742271 0 -0.23121197707832111 -0.19201180720648661 0 -0.22569822579653781 -0.17084274063908211 0 -0.23121197707832111 -0.19201180720648661 0 -0.22569822579653781 -0.17084274063908211 0 -0.23678763469606201 -0.18090529133063291 0 -0.22569822579653781 -0.17084274063908211 0 -0.23678763469606201 -0.18090529133063291 0 -0.24702580458792109 -0.17570743132091429 0 -0.23678763469606201 -0.18090529133063291 0 -0.24702580458792109 -0.17570743132091429 0 -0.2564906429599571 -0.19310001292555051 0 -0.22569822579653781 -0.17084274063908211 0 -0.24702580458792109 -0.17570743132091429 0 -0.2345605546935341 -0.15084299166430659 0 -0.24702580458792109 -0.17570743132091429 0 -0.24789821650136509 -0.1682906694868597 0 -0.2345605546935341 -0.15084299166430659 0 -0.24789821650136509 -0.1682906694868597 0 -0.24777284349987741 -0.15753389399183279 0 -0.2345605546935341 -0.15084299166430659 0 -0.24702580458792109 -0.17570743132091429 0 -0.2345605546935341 -0.15084299166430659 0 -0.2345605546935341 -0.15084299166430659 0 -0.23725080571436499 -0.1351263191757901 0 -0.25230565058340032 -0.149697637175533 0 -0.24777284349987741 -0.15753389399183279 0 -0.2345605546935341 -0.15084299166430659 0 -0.25230565058340032 -0.149697637175533 0 -0.2345605546935341 -0.15084299166430659 0 -0.21978067940595569 -0.14817067234612319 0 -0.2220953047991471 -0.12597855200769881 0 -0.2345605546935341 -0.15084299166430659 0 -0.2220953047991471 -0.12597855200769881 0 -0.23725080571436499 -0.1351263191757901 0 -0.2345605546935341 -0.15084299166430659 0 -0.2220953047991471 -0.12597855200769881 0 -0.2220953047991471 -0.12597855200769881 0 -0.23725080571436499 -0.1351263191757901 0 -0.23031045180984019 -0.1168648293755999 0 -0.23725080571436499 -0.1351263191757901 0 -0.23031045180984019 -0.1168648293755999 0 -0.25099084871491728 -0.13261554640011131 0 -0.23725080571436499 -0.1351263191757901 0 -0.25230565058340032 -0.149697637175533 0 -0.25099084871491728 -0.13261554640011131 0 -0.24371341946673361 -0.116790512637145 0 -0.25429658875674599 -0.1200292438712027 0 -0.25099084871491728 -0.13261554640011131 0 -0.24371341946673361 -0.116790512637145 0 -0.23031045180984019 -0.1168648293755999 0 -0.25099084871491728 -0.13261554640011131 0 -0.23031045180984019 -0.1168648293755999 0 -0.25099084871491728 -0.13261554640011131 0 -0.24371341946673361 -0.116790512637145 0 -0.23758211821046979 -0.10694391114179801 0 -0.23031045180984019 -0.1168648293755999 0 -0.24371341946673361 -0.116790512637145 0 -0.23758211821046979 -0.10694391114179801 0 -0.2511867062043811 -0.10990071867950239 0 -0.24371341946673361 -0.116790512637145 0 -0.25429658875674599 -0.1200292438712027 0 -0.2511867062043811 -0.10990071867950239 0 -0.24622546164593931 -0.09570408315107537 0 -0.23758211821046979 -0.10694391114179801 0 -0.2511867062043811 -0.10990071867950239 0 -0.24622546164593931 -0.09570408315107537 0 -0.23758211821046979 -0.10694391114179801 0 -0.2312769792699767 -0.098356878764045558 0 -0.23031045180984019 -0.1168648293755999 0 -0.209630054904762 -0.10111411235109 0 -0.23758211821046979 -0.10694391114179801 0 -0.2312769792699767 -0.098356878764045558 0 -0.22324882724365189 -0.1056371159786364 0 -0.22324882724365189 -0.1056371159786364 0 -0.23031045180984019 -0.1168648293755999 0 -0.209630054904762 -0.10111411235109 0 -0.2209858681462249 -0.094624652363806266 0 -0.22324882724365189 -0.1056371159786364 0 -0.21547316956211529 -0.098023036855001022 0 -0.2312769792699767 -0.098356878764045558 0 -0.2209858681462249 -0.094624652363806266 0 -0.22324882724365189 -0.1056371159786364 0 -0.2220953047991471 -0.12597855200769881 0 -0.23031045180984019 -0.1168648293755999 0 -0.209630054904762 -0.10111411235109 0 -0.23758211821046979 -0.10694391114179801 0 -0.22324882724365189 -0.1056371159786364 0 -0.23031045180984019 -0.1168648293755999 0 -0.24820069134493791 -0.071758599432263814 0 -0.23136210541923979 -0.086390249761490873 0 -0.2304624389245126 -0.070645205187385873 0 -0.24820069134493791 -0.071758599432263814 0 -0.2304624389245126 -0.070645205187385873 0 -0.23933979598394151 -0.061449835600907152 0 -0.24820069134493791 -0.071758599432263814 0 -0.23933979598394151 -0.061449835600907152 0 -0.25292534808952333 -0.056008170503173027 0 -0.24820069134493791 -0.071758599432263814 0 -0.23933979598394151 -0.061449835600907152 0 -0.24820069134493791 -0.071758599432263814 0 -0.23136210541923979 -0.086390249761490873 0 -0.24622546164593931 -0.09570408315107537 0 -0.24820069134493791 -0.071758599432263814 0 -0.23136210541923979 -0.086390249761490873 0 -0.24622546164593931 -0.09570408315107537 0 -0.2312769792699767 -0.098356878764045558 0 -0.23136210541923979 -0.086390249761490873 0 -0.23136210541923979 -0.086390249761490873 0 -0.2304624389245126 -0.070645205187385873 0 -0.21839064037050859 -0.079942241330723737 0 -0.2312769792699767 -0.098356878764045558 0 -0.2209858681462249 -0.094624652363806266 0 -0.23136210541923979 -0.086390249761490873 0 -0.2209858681462249 -0.094624652363806266 0 -0.23136210541923979 -0.086390249761490873 0 -0.21839064037050859 -0.079942241330723737 0 -0.2304624389245126 -0.070645205187385873 0 -0.21794200338574329 -0.066082889352680446 0 -0.21839064037050859 -0.079942241330723737 0 -0.2304624389245126 -0.070645205187385873 0 -0.21794200338574329 -0.066082889352680446 0 -0.22753939704270479 -0.058247415646249218 0 -0.2304624389245126 -0.070645205187385873 0 -0.22753939704270479 -0.058247415646249218 0 -0.23933979598394151 -0.061449835600907152 0 -0.20429753363903261 -0.065034180053731308 0 -0.20982300007637331 -0.070592112692933806 0 -0.20883169355737 -0.058561016130759112 0 -0.20429753363903261 -0.065034180053731308 0 -0.20982300007637331 -0.070592112692933806 0 -0.20122969078987291 -0.07427253135765198 0 -0.21794200338574329 -0.066082889352680446 0 -0.20982300007637331 -0.070592112692933806 0 -0.20883169355737 -0.058561016130759112 0 -0.21794200338574329 -0.066082889352680446 0 -0.20982300007637331 -0.070592112692933806 0 -0.21839064037050859 -0.079942241330723737 0 -0.20982300007637331 -0.070592112692933806 0 -0.2082464387157125 -0.079659817932056287 0 -0.21839064037050859 -0.079942241330723737 0 -0.20982300007637331 -0.070592112692933806 0 -0.2082464387157125 -0.079659817932056287 0 -0.20122969078987291 -0.07427253135765198 0 -0.2082464387157125 -0.079659817932056287 0 -0.20317810809860251 -0.083213684989453043 0 -0.21000341085702981 -0.087515247699677043 0 -0.2082464387157125 -0.079659817932056287 0 -0.20317810809860251 -0.083213684989453043 0 -0.20122969078987291 -0.07427253135765198 0 -0.2082464387157125 -0.079659817932056287 0 -0.21839064037050859 -0.079942241330723737 0 -0.21000341085702981 -0.087515247699677043 0 -0.2209858681462249 -0.094624652363806266 0 -0.21839064037050859 -0.079942241330723737 0 -0.21000341085702981 -0.087515247699677043 0 -0.2209858681462249 -0.094624652363806266 0 -0.21000341085702981 -0.087515247699677043 0 -0.21020236141627621 -0.094622301485415089 0 -0.21000341085702981 -0.087515247699677043 0 -0.20547434376568571 -0.092269931645114225 0 -0.21020236141627621 -0.094622301485415089 0 -0.21000341085702981 -0.087515247699677043 0 -0.20354611548619861 -0.088274104151170707 0 -0.20547434376568571 -0.092269931645114225 0 -0.20317810809860251 -0.083213684989453043 0 -0.21000341085702981 -0.087515247699677043 0 -0.20354611548619861 -0.088274104151170707 0 -0.1921278928004094 -0.081483882435388205 0 -0.1971314223759717 -0.081907062871308028 0 -0.19316607355238741 -0.1064267826122645 0 -0.19893703486817491 -0.093014187045606531 0 -0.1971314223759717 -0.081907062871308028 0 -0.19710990999216521 -0.099710421360817911 0 -0.2006981702072369 -0.08660225976438457 0 -0.19893703486817491 -0.093014187045606531 0 -0.1971314223759717 -0.081907062871308028 0 -0.20354611548619861 -0.088274104151170707 0 -0.20547434376568571 -0.092269931645114225 0 -0.19893703486817491 -0.093014187045606531 0 -0.20317810809860251 -0.083213684989453043 0 -0.20354611548619861 -0.088274104151170707 0 -0.2006981702072369 -0.08660225976438457 0 -0.20354611548619861 -0.088274104151170707 0 -0.2006981702072369 -0.08660225976438457 0 -0.19893703486817491 -0.093014187045606531 0 -0.20317810809860251 -0.083213684989453043 0 -0.1971314223759717 -0.081907062871308028 0 -0.20122969078987291 -0.07427253135765198 0 -0.1921278928004094 -0.081483882435388205 0 -0.1971314223759717 -0.081907062871308028 0 -0.20122969078987291 -0.07427253135765198 0 -0.20317810809860251 -0.083213684989453043 0 -0.2006981702072369 -0.08660225976438457 0 -0.1971314223759717 -0.081907062871308028 0 -0.1921278928004094 -0.081483882435388205 0 -0.20122969078987291 -0.07427253135765198 0 -0.19799755653561921 -0.054525207450078522 0 -0.1921278928004094 -0.081483882435388205 0 -0.1820277313596855 -0.070136432127444789 0 -0.19799755653561921 -0.054525207450078522 0 -0.1921278928004094 -0.081483882435388205 0 -0.19799755653561921 -0.054525207450078522 0 -0.20429753363903261 -0.065034180053731308 0 -0.20122969078987291 -0.07427253135765198 0 -0.19799755653561921 -0.054525207450078522 0 -0.2220953047991471 -0.12597855200769881 0 -0.209630054904762 -0.10111411235109 0 -0.2220953047991471 -0.12597855200769881 0 -0.21010590912931831 -0.11350086159681309 0 -0.209630054904762 -0.10111411235109 0 -0.21010590912931831 -0.11350086159681309 0 -0.20386660139692381 -0.1112095622696406 0 -0.20635379266048051 -0.1064711864078214 0 -0.21010590912931831 -0.11350086159681309 0 -0.20386660139692381 -0.1112095622696406 0 -0.20546208301055699 -0.1189158951459474 0 -0.2111781397161184 -0.1251497952131618 0 -0.21010590912931831 -0.11350086159681309 0 -0.20546208301055699 -0.1189158951459474 0 -0.2111781397161184 -0.1251497952131618 0 -0.2220953047991471 -0.12597855200769881 0 -0.21010590912931831 -0.11350086159681309 0 -0.22324882724365189 -0.1056371159786364 0 -0.21144813245181959 -0.1000409022928658 0 -0.209630054904762 -0.10111411235109 0 -0.22324882724365189 -0.1056371159786364 0 -0.21547316956211529 -0.098023036855001022 0 -0.21144813245181959 -0.1000409022928658 0 -0.2209858681462249 -0.094624652363806266 0 -0.21547316956211529 -0.098023036855001022 0 -0.21020236141627621 -0.094622301485415089 0 -0.21547316956211529 -0.098023036855001022 0 -0.21144813245181959 -0.1000409022928658 0 -0.21162809753891321 -0.097813011229044886 0 -0.21547316956211529 -0.098023036855001022 0 -0.21162809753891321 -0.097813011229044886 0 -0.21020236141627621 -0.094622301485415089 0 -0.21020236141627621 -0.094622301485415089 0 -0.20830393204998809 -0.097564681847502596 0 -0.20448010703578731 -0.097191780881941942 0 -0.21162809753891321 -0.097813011229044886 0 -0.21020236141627621 -0.094622301485415089 0 -0.20830393204998809 -0.097564681847502596 0 -0.20830393204998809 -0.097564681847502596 0 -0.209630054904762 -0.10111411235109 0 -0.20448010703578731 -0.097191780881941942 0 -0.209630054904762 -0.10111411235109 0 -0.20448010703578731 -0.097191780881941942 0 -0.21144813245181959 -0.1000409022928658 0 -0.21162809753891321 -0.097813011229044886 0 -0.20830393204998809 -0.097564681847502596 0 -0.21144813245181959 -0.1000409022928658 0 -0.20830393204998809 -0.097564681847502596 0 -0.209630054904762 -0.10111411235109 0 -0.20448010703578731 -0.097191780881941942 0 -0.20500674696250759 -0.1018958015693915 0 -0.2012775893766536 -0.1018568640762046 0 -0.209630054904762 -0.10111411235109 0 -0.20448010703578731 -0.097191780881941942 0 -0.20500674696250759 -0.1018958015693915 0 -0.20547434376568571 -0.092269931645114225 0 -0.21020236141627621 -0.094622301485415089 0 -0.20448010703578731 -0.097191780881941942 0 -0.21010590912931831 -0.11350086159681309 0 -0.209630054904762 -0.10111411235109 0 -0.20635379266048051 -0.1064711864078214 0 -0.20500674696250759 -0.1018958015693915 0 -0.20635379266048051 -0.1064711864078214 0 -0.2022867214001442 -0.1056490705069011 0 -0.209630054904762 -0.10111411235109 0 -0.20500674696250759 -0.1018958015693915 0 -0.20635379266048051 -0.1064711864078214 0 -0.20386660139692381 -0.1112095622696406 0 -0.20635379266048051 -0.1064711864078214 0 -0.2022867214001442 -0.1056490705069011 0 -0.1971314223759717 -0.081907062871308028 0 -0.19710990999216521 -0.099710421360817911 0 -0.19316607355238741 -0.1064267826122645 0 -0.1921278928004094 -0.081483882435388205 0 -0.19316607355238741 -0.1064267826122645 0 -0.18625822906520029 -0.1084425574206978 0 -0.1921278928004094 -0.081483882435388205 0 -0.18625822906520029 -0.1084425574206978 0 -0.18420177082455061 -0.096020715271388529 0 -0.2022867214001442 -0.1056490705069011 0 -0.1985605183278765 -0.1045934006818543 0 -0.19921053691064911 -0.1086531246869733 0 -0.1921278928004094 -0.081483882435388205 0 -0.18625822906520029 -0.1084425574206978 0 -0.1971314223759717 -0.081907062871308028 0 -0.19316607355238741 -0.1064267826122645 0 -0.20386660139692381 -0.1112095622696406 0 -0.2022867214001442 -0.1056490705069011 0 -0.19921053691064911 -0.1086531246869733 0 -0.20500674696250759 -0.1018958015693915 0 -0.2022867214001442 -0.1056490705069011 0 -0.2012775893766536 -0.1018568640762046 0 -0.2022867214001442 -0.1056490705069011 0 -0.2012775893766536 -0.1018568640762046 0 -0.1985605183278765 -0.1045934006818543 0 -0.2012775893766536 -0.1018568640762046 0 -0.1985605183278765 -0.1045934006818543 0 -0.19710990999216521 -0.099710421360817911 0 -0.1985605183278765 -0.1045934006818543 0 -0.19710990999216521 -0.099710421360817911 0 -0.19316607355238741 -0.1064267826122645 0 -0.1985605183278765 -0.1045934006818543 0 -0.19921053691064911 -0.1086531246869733 0 -0.19316607355238741 -0.1064267826122645 0 -0.20547434376568571 -0.092269931645114225 0 -0.19893703486817491 -0.093014187045606531 0 -0.20448010703578731 -0.097191780881941942 0 -0.19893703486817491 -0.093014187045606531 0 -0.20448010703578731 -0.097191780881941942 0 -0.19710990999216521 -0.099710421360817911 0 -0.20448010703578731 -0.097191780881941942 0 -0.2012775893766536 -0.1018568640762046 0 -0.19710990999216521 -0.099710421360817911 0 -0.18920072472880309 -0.13094650235322111 0 -0.19316607355238741 -0.1064267826122645 0 -0.19817276987591359 -0.11538680736420601 0 -0.18920072472880309 -0.13094650235322111 0 -0.19316607355238741 -0.1064267826122645 0 -0.18920072472880309 -0.13094650235322111 0 -0.19316607355238741 -0.1064267826122645 0 -0.18625822906520029 -0.1084425574206978 0 -0.19921053691064911 -0.1086531246869733 0 -0.19316607355238741 -0.1064267826122645 0 -0.19817276987591359 -0.11538680736420601 0 -0.20386660139692381 -0.1112095622696406 0 -0.20546208301055699 -0.1189158951459474 0 -0.19817276987591359 -0.11538680736420601 0 -0.20386660139692381 -0.1112095622696406 0 -0.19921053691064911 -0.1086531246869733 0 -0.19817276987591359 -0.11538680736420601 0 -0.19872717848487351 -0.12661368113135779 0 -0.20546208301055699 -0.1189158951459474 0 -0.19817276987591359 -0.11538680736420601 0 -0.19872717848487351 -0.12661368113135779 0 -0.18920072472880309 -0.13094650235322111 0 -0.19817276987591359 -0.11538680736420601 0 -0.18038856532999109 -0.13540123240600749 0 -0.17675241918492551 -0.1198771620881125 0 -0.18625822906520029 -0.1084425574206978 0 -0.18038856532999109 -0.13540123240600749 0 -0.18920072472880309 -0.13094650235322111 0 -0.18625822906520029 -0.1084425574206978 0 -0.18038856532999109 -0.13540123240600749 0 -0.18625822906520029 -0.1084425574206978 0 -0.1773394525317174 -0.10977236652922 0 -0.17675241918492551 -0.1198771620881125 0 -0.18625822906520029 -0.1084425574206978 0 -0.1773394525317174 -0.10977236652922 0 -0.17675241918492551 -0.1198771620881125 0 -0.1690709595529398 -0.10953971555103401 0 -0.17229966278526729 -0.1290585873138084 0 -0.17675241918492551 -0.1198771620881125 0 -0.16339333125142819 -0.12077558700734541 0 -0.1690709595529398 -0.10953971555103401 0 -0.16339333125142819 -0.12077558700734541 0 -0.15326205024065659 -0.1131874694253269 0 -0.17675241918492551 -0.1198771620881125 0 -0.1690709595529398 -0.10953971555103401 0 -0.16339333125142819 -0.12077558700734541 0 -0.155441827350077 -0.13008710151723341 0 -0.16339333125142819 -0.12077558700734541 0 -0.15195703468416091 -0.1217248849962058 0 -0.1690709595529398 -0.10953971555103401 0 -0.1660579061837513 -0.085747656804810737 0 -0.15008808100781709 -0.1013588814821767 0 -0.1690709595529398 -0.10953971555103401 0 -0.15008808100781709 -0.1013588814821767 0 -0.1690709595529398 -0.10953971555103401 0 -0.17727620232380389 -0.1012300310570356 0 -0.1660579061837513 -0.085747656804810737 0 -0.1690709595529398 -0.10953971555103401 0 -0.15326205024065659 -0.1131874694253269 0 -0.15008808100781709 -0.1013588814821767 0 -0.1773394525317174 -0.10977236652922 0 -0.1690709595529398 -0.10953971555103401 0 -0.17727620232380389 -0.1012300310570356 0 -0.17727620232380389 -0.1012300310570356 0 -0.18625822906520029 -0.1084425574206978 0 -0.18420177082455061 -0.096020715271388529 0 -0.1773394525317174 -0.10977236652922 0 -0.17727620232380389 -0.1012300310570356 0 -0.18625822906520029 -0.1084425574206978 0 -0.17727620232380389 -0.1012300310570356 0 -0.18420177082455061 -0.096020715271388529 0 -0.1790981537735192 -0.091564726578455824 0 -0.1921278928004094 -0.081483882435388205 0 -0.18420177082455061 -0.096020715271388529 0 -0.18437697511259379 -0.089113421771850332 0 -0.18437697511259379 -0.089113421771850332 0 -0.18114438252828269 -0.083249884255411397 0 -0.1790981537735192 -0.091564726578455824 0 -0.18114438252828269 -0.083249884255411397 0 -0.1820277313596855 -0.070136432127444789 0 -0.1660579061837513 -0.085747656804810737 0 -0.18420177082455061 -0.096020715271388529 0 -0.18437697511259379 -0.089113421771850332 0 -0.1790981537735192 -0.091564726578455824 0 -0.1921278928004094 -0.081483882435388205 0 -0.18114438252828269 -0.083249884255411397 0 -0.1820277313596855 -0.070136432127444789 0 -0.1921278928004094 -0.081483882435388205 0 -0.18437697511259379 -0.089113421771850332 0 -0.18114438252828269 -0.083249884255411397 0 -0.18114438252828269 -0.083249884255411397 0 -0.1790981537735192 -0.091564726578455824 0 -0.1660579061837513 -0.085747656804810737 0 -0.17727620232380389 -0.1012300310570356 0 -0.1790981537735192 -0.091564726578455824 0 -0.1660579061837513 -0.085747656804810737 0 -0.1820277313596855 -0.070136432127444789 0 -0.1650053308805092 -0.068209369335642006 0 -0.18195826941872489 -0.054091430773052042 0 -0.1820277313596855 -0.070136432127444789 0 -0.1660579061837513 -0.085747656804810737 0 -0.1820277313596855 -0.070136432127444789 0 -0.1650053308805092 -0.068209369335642006 0 -0.1660579061837513 -0.085747656804810737 0 -0.1650053308805092 -0.068209369335642006 0 -0.1660579061837513 -0.085747656804810737 0 -0.14730071151474991 -0.080456794939518128 0 -0.1660579061837513 -0.085747656804810737 0 -0.15008808100781709 -0.1013588814821767 0 -0.1660579061837513 -0.085747656804810737 0 -0.14730071151474991 -0.080456794939518128 0 -0.15008808100781709 -0.1013588814821767 0 -0.14730071151474991 -0.080456794939518128 0 -0.12888117190581949 -0.092219582399353558 0 -0.15008808100781709 -0.1013588814821767 0 -0.1650053308805092 -0.068209369335642006 0 -0.14730071151474991 -0.080456794939518128 0 -0.14662561802180141 -0.062120942751841053 0 -0.14730071151474991 -0.080456794939518128 0 -0.12714994041281161 -0.072600613034185982 0 -0.14662561802180141 -0.062120942751841053 0 -0.12714994041281161 -0.072600613034185982 0 -0.14662561802180141 -0.062120942751841053 0 -0.12714994041281161 -0.072600613034185982 0 -0.13245010167480351 -0.054478488271250861 0 -0.14662561802180141 -0.062120942751841053 0 -0.14730071151474991 -0.080456794939518128 0 -0.12714994041281161 -0.072600613034185982 0 -0.12888117190581949 -0.092219582399353558 0 -0.12888117190581949 -0.092219582399353558 0 -0.1332929294725865 -0.1051333848060978 0 -0.15008808100781709 -0.1013588814821767 0 -0.1233424503725126 -0.1063990623677324 0 -0.12888117190581949 -0.092219582399353558 0 -0.1332929294725865 -0.1051333848060978 0 -0.12888117190581949 -0.092219582399353558 0 -0.15008808100781709 -0.1013588814821767 0 -0.1233424503725126 -0.1063990623677324 0 -0.1332929294725865 -0.1051333848060978 0 -0.13239622879724711 -0.1152880217846014 0 -0.1201972262912631 -0.11906123189691289 0 -0.1233424503725126 -0.1063990623677324 0 -0.13239622879724711 -0.1152880217846014 0 -0.13579530254347391 -0.12676279613266281 0 -0.13239622879724711 -0.1152880217846014 0 -0.1276738523625448 -0.1240266464128925 0 -0.1201972262912631 -0.11906123189691289 0 -0.13239622879724711 -0.1152880217846014 0 -0.1276738523625448 -0.1240266464128925 0 -0.13579530254347391 -0.12676279613266281 0 -0.13239622879724711 -0.1152880217846014 0 -0.14364197535178211 -0.1188995537320644 0 -0.13239622879724711 -0.1152880217846014 0 -0.14364197535178211 -0.1188995537320644 0 -0.14271936229859861 -0.1085621365013533 0 -0.1332929294725865 -0.1051333848060978 0 -0.13239622879724711 -0.1152880217846014 0 -0.14271936229859861 -0.1085621365013533 0 -0.14364197535178211 -0.1188995537320644 0 -0.15326205024065659 -0.1131874694253269 0 -0.14271936229859861 -0.1085621365013533 0 -0.13579530254347391 -0.12676279613266281 0 -0.14572187354655541 -0.12787201355223651 0 -0.14364197535178211 -0.1188995537320644 0 -0.14572187354655541 -0.12787201355223651 0 -0.14364197535178211 -0.1188995537320644 0 -0.15195703468416091 -0.1217248849962058 0 -0.16339333125142819 -0.12077558700734541 0 -0.15195703468416091 -0.1217248849962058 0 -0.15326205024065659 -0.1131874694253269 0 -0.14364197535178211 -0.1188995537320644 0 -0.15195703468416091 -0.1217248849962058 0 -0.15326205024065659 -0.1131874694253269 0 -0.1332929294725865 -0.1051333848060978 0 -0.15008808100781709 -0.1013588814821767 0 -0.14271936229859861 -0.1085621365013533 0 -0.15326205024065659 -0.1131874694253269 0 -0.15008808100781709 -0.1013588814821767 0 -0.14271936229859861 -0.1085621365013533 0 -0.15008808100781709 -0.1013588814821767 0 -0.14271936229859861 -0.1085621365013533 0 -0.14179497530609089 -0.032597402024968428 0 -0.15736702061365701 -0.037755701308044377 0 -0.1615882267179311 -0.01482429116993138 0 -0.14179497530609089 -0.032597402024968428 0 -0.1615882267179311 -0.01482429116993138 0 -0.14047016804945769 -0.0074758196315650666 0 -0.14179497530609089 -0.032597402024968428 0 -0.1615882267179311 -0.01482429116993138 0 -0.14047016804945769 -0.0074758196315650666 0 -0.1615882267179311 -0.01482429116993138 0 -0.15807057612040709 0.0056900254344090127 0 -0.1204188467870682 -0.012140823928004051 0 -0.14047016804945769 -0.0074758196315650666 0 -0.1244915024809136 0.0055457178453759536 0 -0.124998947925631 -0.031422428654513362 0 -0.1204188467870682 -0.012140823928004051 0 -0.13467738247843941 -0.027422655637127279 0 -0.1204188467870682 -0.012140823928004051 0 -0.14047016804945769 -0.0074758196315650666 0 -0.13467738247843941 -0.027422655637127279 0 -0.14047016804945769 -0.0074758196315650666 0 -0.13467738247843941 -0.027422655637127279 0 -0.14179497530609089 -0.032597402024968428 0 -0.1204188467870682 -0.012140823928004051 0 -0.13467738247843941 -0.027422655637127279 0 -0.124998947925631 -0.031422428654513362 0 -0.13467738247843941 -0.027422655637127279 0 -0.13398285817022759 -0.040187333329826998 0 -0.12311096086219479 -0.045959984051332642 0 -0.124998947925631 -0.031422428654513362 0 -0.13398285817022759 -0.040187333329826998 0 -0.13467738247843941 -0.027422655637127279 0 -0.13398285817022759 -0.040187333329826998 0 -0.14179497530609089 -0.032597402024968428 0 -0.117028395260453 -0.059193947726432702 0 -0.12714994041281161 -0.072600613034185982 0 -0.13245010167480351 -0.054478488271250861 0 -0.12311096086219479 -0.045959984051332642 0 -0.13398285817022759 -0.040187333329826998 0 -0.13245010167480351 -0.054478488271250861 0 -0.13398285817022759 -0.040187333329826998 0 -0.13245010167480351 -0.054478488271250861 0 -0.1468028373213329 -0.046808108733885842 0 -0.14662561802180141 -0.062120942751841053 0 -0.1468028373213329 -0.046808108733885842 0 -0.1661012956307911 -0.051641272469496118 0 -0.13245010167480351 -0.054478488271250861 0 -0.14662561802180141 -0.062120942751841053 0 -0.1468028373213329 -0.046808108733885842 0 -0.13398285817022759 -0.040187333329826998 0 -0.14179497530609089 -0.032597402024968428 0 -0.1468028373213329 -0.046808108733885842 0 -0.14179497530609089 -0.032597402024968428 0 -0.1468028373213329 -0.046808108733885842 0 -0.15736702061365701 -0.037755701308044377 0 -0.1468028373213329 -0.046808108733885842 0 -0.15736702061365701 -0.037755701308044377 0 -0.1661012956307911 -0.051641272469496118 0 -0.15736702061365701 -0.037755701308044377 0 -0.1661012956307911 -0.051641272469496118 0 -0.17021026954020349 -0.028265658006284521 0 -0.1650053308805092 -0.068209369335642006 0 -0.1661012956307911 -0.051641272469496118 0 -0.18195826941872489 -0.054091430773052042 0 -0.1650053308805092 -0.068209369335642006 0 -0.14662561802180141 -0.062120942751841053 0 -0.1661012956307911 -0.051641272469496118 0 -0.14662561802180141 -0.062120942751841053 0 -0.1661012956307911 -0.051641272469496118 0 -0.1820277313596855 -0.070136432127444789 0 -0.18195826941872489 -0.054091430773052042 0 -0.19799755653561921 -0.054525207450078522 0 -0.1661012956307911 -0.051641272469496118 0 -0.18195826941872489 -0.054091430773052042 0 -0.18442154061279439 -0.038792281385498457 0 -0.1661012956307911 -0.051641272469496118 0 -0.18442154061279439 -0.038792281385498457 0 -0.17021026954020349 -0.028265658006284521 0 -0.18522513037270821 -0.01774018073827344 0 -0.17021026954020349 -0.028265658006284521 0 -0.1615882267179311 -0.01482429116993138 0 -0.18442154061279439 -0.038792281385498457 0 -0.18522513037270821 -0.01774018073827344 0 -0.17021026954020349 -0.028265658006284521 0 -0.15736702061365701 -0.037755701308044377 0 -0.17021026954020349 -0.028265658006284521 0 -0.1615882267179311 -0.01482429116993138 0 -0.1615882267179311 -0.01482429116993138 0 -0.1813814781297714 0.0029488196851056702 0 -0.1615882267179311 -0.01482429116993138 0 -0.15807057612040709 0.0056900254344090127 0 -0.1813814781297714 0.0029488196851056702 0 -0.18522513037270821 -0.01774018073827344 0 -0.1615882267179311 -0.01482429116993138 0 -0.1813814781297714 0.0029488196851056702 0 -0.18522513037270821 -0.01774018073827344 0 -0.20983365931182629 -0.00016337988532852399 0 -0.1813814781297714 0.0029488196851056702 0 -0.18522513037270821 -0.01774018073827344 0 -0.2039156079237224 -0.02734429366770345 0 -0.20983365931182629 -0.00016337988532852399 0 -0.18442154061279439 -0.038792281385498457 0 -0.18522513037270821 -0.01774018073827344 0 -0.2039156079237224 -0.02734429366770345 0 -0.2039156079237224 -0.02734429366770345 0 -0.21877255854936101 -0.03718353963603678 0 -0.22048047267100371 -0.020681541039583841 0 -0.2039156079237224 -0.02734429366770345 0 -0.20983365931182629 -0.00016337988532852399 0 -0.22048047267100371 -0.020681541039583841 0 -0.2039156079237224 -0.02734429366770345 0 -0.20983365931182629 -0.00016337988532852399 0 -0.18195826941872489 -0.054091430773052042 0 -0.18442154061279439 -0.038792281385498457 0 -0.19799755653561921 -0.054525207450078522 0 -0.1820277313596855 -0.070136432127444789 0 -0.19799755653561921 -0.054525207450078522 0 -0.19799755653561921 -0.054525207450078522 0 -0.20571797052501309 -0.046978154425833772 0 -0.2039156079237224 -0.02734429366770345 0 -0.19799755653561921 -0.054525207450078522 0 -0.20571797052501309 -0.046978154425833772 0 -0.2039156079237224 -0.02734429366770345 0 -0.19799755653561921 -0.054525207450078522 0 -0.18442154061279439 -0.038792281385498457 0 -0.2039156079237224 -0.02734429366770345 0 -0.19799755653561921 -0.054525207450078522 0 -0.2039156079237224 -0.02734429366770345 0 -0.20571797052501309 -0.046978154425833772 0 -0.21877255854936101 -0.03718353963603678 0 -0.20571797052501309 -0.046978154425833772 0 -0.21616494266951611 -0.051244215705043623 0 -0.21877255854936101 -0.03718353963603678 0 -0.20571797052501309 -0.046978154425833772 0 -0.21616494266951611 -0.051244215705043623 0 -0.20883169355737 -0.058561016130759112 0 -0.19799755653561921 -0.054525207450078522 0 -0.20571797052501309 -0.046978154425833772 0 -0.20883169355737 -0.058561016130759112 0 -0.21794200338574329 -0.066082889352680446 0 -0.21616494266951611 -0.051244215705043623 0 -0.20883169355737 -0.058561016130759112 0 -0.20429753363903261 -0.065034180053731308 0 -0.19799755653561921 -0.054525207450078522 0 -0.20883169355737 -0.058561016130759112 0 -0.22753939704270479 -0.058247415646249218 0 -0.23593039401199251 -0.050457606348503888 0 -0.23933979598394151 -0.061449835600907152 0 -0.21794200338574329 -0.066082889352680446 0 -0.21616494266951611 -0.051244215705043623 0 -0.22753939704270479 -0.058247415646249218 0 -0.21616494266951611 -0.051244215705043623 0 -0.22753939704270479 -0.058247415646249218 0 -0.22541197724152179 -0.047515748856520372 0 -0.22753939704270479 -0.058247415646249218 0 -0.22541197724152179 -0.047515748856520372 0 -0.23593039401199251 -0.050457606348503888 0 -0.22541197724152179 -0.047515748856520372 0 -0.23225556514178411 -0.041013661856274232 0 -0.23593039401199251 -0.050457606348503888 0 -0.22541197724152179 -0.047515748856520372 0 -0.23225556514178411 -0.041013661856274232 0 -0.21877255854936101 -0.03718353963603678 0 -0.21616494266951611 -0.051244215705043623 0 -0.22541197724152179 -0.047515748856520372 0 -0.21877255854936101 -0.03718353963603678 0 -0.23225556514178411 -0.041013661856274232 0 -0.21877255854936101 -0.03718353963603678 0 -0.23385445470186919 -0.029826302784945719 0 -0.23225556514178411 -0.041013661856274232 0 -0.24460663983929651 -0.040437603352779183 0 -0.23385445470186919 -0.029826302784945719 0 -0.24460663983929651 -0.040437603352779183 0 -0.24495487400832069 -0.051219376438574382 0 -0.25197219211684968 -0.047743666387508647 0 -0.23225556514178411 -0.041013661856274232 0 -0.24460663983929651 -0.040437603352779183 0 -0.23593039401199251 -0.050457606348503888 0 -0.23593039401199251 -0.050457606348503888 0 -0.24495487400832069 -0.051219376438574382 0 -0.23933979598394151 -0.061449835600907152 0 -0.24460663983929651 -0.040437603352779183 0 -0.23593039401199251 -0.050457606348503888 0 -0.24495487400832069 -0.051219376438574382 0 -0.24495487400832069 -0.051219376438574382 0 -0.25197219211684968 -0.047743666387508647 0 -0.25292534808952333 -0.056008170503173027 0 -0.24495487400832069 -0.051219376438574382 0 -0.23933979598394151 -0.061449835600907152 0 -0.25292534808952333 -0.056008170503173027 0 -0.20983365931182629 -0.00016337988532852399 0 -0.2338673030947003 -0.01001220017773707 0 -0.22048047267100371 -0.020681541039583841 0 -0.20983365931182629 -0.00016337988532852399 0 -0.2338673030947003 -0.01001220017773707 0 -0.2336961667985625 0.0057026258542819371 0 -0.21877255854936101 -0.03718353963603678 0 -0.22048047267100371 -0.020681541039583841 0 -0.23385445470186919 -0.029826302784945719 0 -0.2338673030947003 -0.01001220017773707 0 -0.22048047267100371 -0.020681541039583841 0 -0.23385445470186919 -0.029826302784945719 0 -0.2338673030947003 -0.01001220017773707 0 -0.23385445470186919 -0.029826302784945719 0 -0.2452028573243191 -0.021741072655389031 0 -0.24460663983929651 -0.040437603352779183 0 -0.23385445470186919 -0.029826302784945719 0 -0.2452028573243191 -0.021741072655389031 0 -0.24460663983929651 -0.040437603352779183 0 -0.2452028573243191 -0.021741072655389031 0 -0.25739182078853162 -0.027680631251521141 0 -0.2338673030947003 -0.01001220017773707 0 -0.2452028573243191 -0.021741072655389031 0 -0.2470035725250225 -0.0060353005064712022 0 -0.2452028573243191 -0.021741072655389031 0 -0.2470035725250225 -0.0060353005064712022 0 -0.25449335299649478 -0.016454397858879869 0 -0.2338673030947003 -0.01001220017773707 0 -0.2470035725250225 -0.0060353005064712022 0 -0.2336961667985625 0.0057026258542819371 0 -0.2470035725250225 -0.0060353005064712022 0 -0.26371132860610658 -0.00097302060264807077 0 -0.25449335299649478 -0.016454397858879869 0 -0.26371132860610658 -0.00097302060264807077 0 -0.25449335299649478 -0.016454397858879869 0 -0.26835745915618692 -0.015955177987403701 0 -0.2452028573243191 -0.021741072655389031 0 -0.25739182078853162 -0.027680631251521141 0 -0.25449335299649478 -0.016454397858879869 0 -0.25739182078853162 -0.027680631251521141 0 -0.25449335299649478 -0.016454397858879869 0 -0.26835745915618692 -0.015955177987403701 0 -0.25739182078853162 -0.027680631251521141 0 -0.27527462408226028 -0.02815994211153703 0 -0.26835745915618692 -0.015955177987403701 0 -0.27527462408226028 -0.02815994211153703 0 -0.26835745915618692 -0.015955177987403701 0 -0.28880650995713142 -0.0093632575293901513 0 -0.26371132860610658 -0.00097302060264807077 0 -0.26835745915618692 -0.015955177987403701 0 -0.28880650995713142 -0.0093632575293901513 0 -0.27527462408226028 -0.02815994211153703 0 -0.28880650995713142 -0.0093632575293901513 0 -0.27527462408226028 -0.02815994211153703 0 -0.28880650995713142 -0.0093632575293901513 0 -0.29266869884286312 -0.033118755242374308 0 -0.28880650995713142 -0.0093632575293901513 0 -0.31110686428091561 -0.02428815148970383 0 -0.29266869884286312 -0.033118755242374308 0 -0.28880650995713142 -0.0093632575293901513 0 -0.31110686428091561 -0.02428815148970383 0 -0.30946553104838698 -0.0057553152784617489 0 -0.28880650995713142 -0.0093632575293901513 0 -0.30946553104838698 -0.0057553152784617489 0 -0.30233839583200239 0.0094334270527566683 0 -0.30693479468754242 -0.057942985456309083 0 -0.30977080476242957 -0.044748758581651948 0 -0.3199773278045584 -0.06220884341642717 0 -0.29875954814613109 -0.049433695278149441 0 -0.30693479468754242 -0.057942985456309083 0 -0.29661718551017291 -0.060116577543737143 0 -0.29875954814613109 -0.049433695278149441 0 -0.30693479468754242 -0.057942985456309083 0 -0.30977080476242957 -0.044748758581651948 0 -0.31110686428091561 -0.02428815148970383 0 -0.30977080476242957 -0.044748758581651948 0 -0.29266869884286312 -0.033118755242374308 0 -0.29875954814613109 -0.049433695278149441 0 -0.30977080476242957 -0.044748758581651948 0 -0.29266869884286312 -0.033118755242374308 0 -0.29266869884286312 -0.033118755242374308 0 -0.28780625692764761 -0.051241399566674707 0 -0.27043469509390072 -0.052438677337319238 0 -0.29875954814613109 -0.049433695278149441 0 -0.29266869884286312 -0.033118755242374308 0 -0.28780625692764761 -0.051241399566674707 0 -0.29266869884286312 -0.033118755242374308 0 -0.27043469509390072 -0.052438677337319238 0 -0.29875954814613109 -0.049433695278149441 0 -0.28780625692764761 -0.051241399566674707 0 -0.29661718551017291 -0.060116577543737143 0 -0.28780625692764761 -0.051241399566674707 0 -0.29661718551017291 -0.060116577543737143 0 -0.28284325550621359 -0.061909884711176977 0 -0.28780625692764761 -0.051241399566674707 0 -0.28284325550621359 -0.061909884711176977 0 -0.27043469509390072 -0.052438677337319238 0 -0.28284325550621359 -0.061909884711176977 0 -0.27043469509390072 -0.052438677337319238 0 -0.27479363361131792 -0.065330686469484145 0 -0.27043469509390072 -0.052438677337319238 0 -0.27479363361131792 -0.065330686469484145 0 -0.26572071738030828 -0.069467449837460865 0 -0.27527462408226028 -0.02815994211153703 0 -0.26174273820738919 -0.046956626693683917 0 -0.27527462408226028 -0.02815994211153703 0 -0.27043469509390072 -0.052438677337319238 0 -0.26174273820738919 -0.046956626693683917 0 -0.27527462408226028 -0.02815994211153703 0 -0.29266869884286312 -0.033118755242374308 0 -0.27043469509390072 -0.052438677337319238 0 -0.25739182078853162 -0.027680631251521141 0 -0.27527462408226028 -0.02815994211153703 0 -0.25819760300686551 -0.038195693959405988 0 -0.27527462408226028 -0.02815994211153703 0 -0.25819760300686551 -0.038195693959405988 0 -0.26174273820738919 -0.046956626693683917 0 -0.25819760300686551 -0.038195693959405988 0 -0.26174273820738919 -0.046956626693683917 0 -0.25197219211684968 -0.047743666387508647 0 -0.24460663983929651 -0.040437603352779183 0 -0.25819760300686551 -0.038195693959405988 0 -0.25197219211684968 -0.047743666387508647 0 -0.24460663983929651 -0.040437603352779183 0 -0.25739182078853162 -0.027680631251521141 0 -0.25819760300686551 -0.038195693959405988 0 -0.24820069134493791 -0.071758599432263814 0 -0.27043469509390072 -0.052438677337319238 0 -0.25292534808952333 -0.056008170503173027 0 -0.27043469509390072 -0.052438677337319238 0 -0.26174273820738919 -0.046956626693683917 0 -0.25292534808952333 -0.056008170503173027 0 -0.24820069134493791 -0.071758599432263814 0 -0.27043469509390072 -0.052438677337319238 0 -0.26174273820738919 -0.046956626693683917 0 -0.25197219211684968 -0.047743666387508647 0 -0.25292534808952333 -0.056008170503173027 0 -0.24820069134493791 -0.071758599432263814 0 -0.27043469509390072 -0.052438677337319238 0 -0.26572071738030828 -0.069467449837460865 0 -0.24820069134493791 -0.071758599432263814 0 -0.26348296593916748 -0.089537994536207172 0 -0.26572071738030828 -0.069467449837460865 0 -0.24820069134493791 -0.071758599432263814 0 -0.26348296593916748 -0.089537994536207172 0 -0.24622546164593931 -0.09570408315107537 0 -0.24820069134493791 -0.071758599432263814 0 -0.26348296593916748 -0.089537994536207172 0 -0.26348296593916748 -0.089537994536207172 0 -0.28017586646484882 -0.077506733991979521 0 -0.26572071738030828 -0.069467449837460865 0 -0.26348296593916748 -0.089537994536207172 0 -0.27697172840792023 -0.093401367341209227 0 -0.28017586646484882 -0.077506733991979521 0 -0.27697172840792023 -0.093401367341209227 0 -0.28017586646484882 -0.077506733991979521 0 -0.28546400364374891 -0.090612237278987262 0 -0.28017586646484882 -0.077506733991979521 0 -0.27479363361131792 -0.065330686469484145 0 -0.26572071738030828 -0.069467449837460865 0 -0.28284325550621359 -0.061909884711176977 0 -0.28017586646484882 -0.077506733991979521 0 -0.27479363361131792 -0.065330686469484145 0 -0.25429658875674599 -0.1200292438712027 0 -0.26263515632698881 -0.1163568740319771 0 -0.26549034326965498 -0.12539708381555451 0 -0.25429658875674599 -0.1200292438712027 0 -0.2511867062043811 -0.10990071867950239 0 -0.26263515632698881 -0.1163568740319771 0 -0.2511867062043811 -0.10990071867950239 0 -0.26263515632698881 -0.1163568740319771 0 -0.26199640729122359 -0.1057980390305094 0 -0.26263515632698881 -0.1163568740319771 0 -0.26199640729122359 -0.1057980390305094 0 -0.26828697941194751 -0.11328414089987671 0 -0.24622546164593931 -0.09570408315107537 0 -0.2511867062043811 -0.10990071867950239 0 -0.26199640729122359 -0.1057980390305094 0 -0.24622546164593931 -0.09570408315107537 0 -0.26348296593916748 -0.089537994536207172 0 -0.26199640729122359 -0.1057980390305094 0 -0.26348296593916748 -0.089537994536207172 0 -0.27697172840792023 -0.093401367341209227 0 -0.27876524053339719 -0.10731738964015031 0 -0.26348296593916748 -0.089537994536207172 0 -0.27876524053339719 -0.10731738964015031 0 -0.27453085526858312 -0.1094255813776201 0 -0.26348296593916748 -0.089537994536207172 0 -0.27876524053339719 -0.10731738964015031 0 -0.26348296593916748 -0.089537994536207172 0 -0.26199640729122359 -0.1057980390305094 0 -0.27453085526858312 -0.1094255813776201 0 -0.27697172840792023 -0.093401367341209227 0 -0.27876524053339719 -0.10731738964015031 0 -0.2828866877179273 -0.097104755644778079 0 -0.27876524053339719 -0.10731738964015031 0 -0.27453085526858312 -0.1094255813776201 0 -0.26199640729122359 -0.1057980390305094 0 -0.26828697941194751 -0.11328414089987671 0 -0.27453085526858312 -0.1094255813776201 0 -0.26263515632698881 -0.1163568740319771 0 -0.26828697941194751 -0.11328414089987671 0 -0.27141251469604738 -0.1198994020644521 0 -0.26828697941194751 -0.11328414089987671 0 -0.27448469799819541 -0.1142916356888921 0 -0.27141251469604738 -0.1198994020644521 0 -0.26828697941194751 -0.11328414089987671 0 -0.27453085526858312 -0.1094255813776201 0 -0.27448469799819541 -0.1142916356888921 0 -0.27876524053339719 -0.10731738964015031 0 -0.27448469799819541 -0.1142916356888921 0 -0.27942790008100188 -0.1215316644623613 0 -0.27876524053339719 -0.10731738964015031 0 -0.27453085526858312 -0.1094255813776201 0 -0.27448469799819541 -0.1142916356888921 0 -0.27942790008100188 -0.1215316644623613 0 -0.27141251469604738 -0.1198994020644521 0 -0.27534094156094541 -0.12771572251152061 0 -0.27448469799819541 -0.1142916356888921 0 -0.27942790008100188 -0.1215316644623613 0 -0.27141251469604738 -0.1198994020644521 0 -0.27141251469604738 -0.1198994020644521 0 -0.26549034326965498 -0.12539708381555451 0 -0.27534094156094541 -0.12771572251152061 0 -0.26263515632698881 -0.1163568740319771 0 -0.27141251469604738 -0.1198994020644521 0 -0.26549034326965498 -0.12539708381555451 0 -0.27876524053339719 -0.10731738964015031 0 -0.29135841790735578 -0.12196828959389119 0 -0.29506679535266322 -0.1100055459796706 0 -0.27876524053339719 -0.10731738964015031 0 -0.29135841790735578 -0.12196828959389119 0 -0.27876524053339719 -0.10731738964015031 0 -0.27942790008100188 -0.1215316644623613 0 -0.29135841790735578 -0.12196828959389119 0 -0.27876524053339719 -0.10731738964015031 0 -0.29506679535266322 -0.1100055459796706 0 -0.30540111081052279 -0.094056073504085624 0 -0.27876524053339719 -0.10731738964015031 0 -0.29034577828664321 -0.09708802831876559 0 -0.30540111081052279 -0.094056073504085624 0 -0.27876524053339719 -0.10731738964015031 0 -0.30540111081052279 -0.094056073504085624 0 -0.27876524053339719 -0.10731738964015031 0 -0.2828866877179273 -0.097104755644778079 0 -0.29034577828664321 -0.09708802831876559 0 -0.2828866877179273 -0.097104755644778079 0 -0.29034577828664321 -0.09708802831876559 0 -0.28546400364374891 -0.090612237278987262 0 -0.29506679535266322 -0.1100055459796706 0 -0.30540111081052279 -0.094056073504085624 0 -0.30474241215937681 -0.11668043118055541 0 -0.30540111081052279 -0.094056073504085624 0 -0.31882520474866932 -0.1196414616810043 0 -0.29034577828664321 -0.09708802831876559 0 -0.30540111081052279 -0.094056073504085624 0 -0.29729374126309732 -0.092359200577734363 0 -0.30474241215937681 -0.11668043118055541 0 -0.31882520474866932 -0.1196414616810043 0 -0.29867992170383117 -0.12902213993743211 0 -0.30540111081052279 -0.094056073504085624 0 -0.30474241215937681 -0.11668043118055541 0 -0.31882520474866932 -0.1196414616810043 0 -0.29135841790735578 -0.12196828959389119 0 -0.29506679535266322 -0.1100055459796706 0 -0.30474241215937681 -0.11668043118055541 0 -0.29135841790735578 -0.12196828959389119 0 -0.30474241215937681 -0.11668043118055541 0 -0.29867992170383117 -0.12902213993743211 0 -0.28017586646484882 -0.077506733991979521 0 -0.29005394368178278 -0.068124935949490997 0 -0.29703043872012069 -0.075775979318403741 0 -0.29661718551017291 -0.060116577543737143 0 -0.29005394368178278 -0.068124935949490997 0 -0.29703043872012069 -0.075775979318403741 0 -0.29661718551017291 -0.060116577543737143 0 -0.28284325550621359 -0.061909884711176977 0 -0.29005394368178278 -0.068124935949490997 0 -0.28284325550621359 -0.061909884711176977 0 -0.28017586646484882 -0.077506733991979521 0 -0.29005394368178278 -0.068124935949490997 0 -0.28017586646484882 -0.077506733991979521 0 -0.29108494093927961 -0.084652782698077411 0 -0.29703043872012069 -0.075775979318403741 0 -0.28017586646484882 -0.077506733991979521 0 -0.28546400364374891 -0.090612237278987262 0 -0.29108494093927961 -0.084652782698077411 0 -0.27697172840792023 -0.093401367341209227 0 -0.2828866877179273 -0.097104755644778079 0 -0.28546400364374891 -0.090612237278987262 0 -0.29317024462579222 -0.090328656832522558 0 -0.29108494093927961 -0.084652782698077411 0 -0.30166275899619188 -0.086931035289048136 0 -0.29034577828664321 -0.09708802831876559 0 -0.28546400364374891 -0.090612237278987262 0 -0.29317024462579222 -0.090328656832522558 0 -0.28546400364374891 -0.090612237278987262 0 -0.29317024462579222 -0.090328656832522558 0 -0.29108494093927961 -0.084652782698077411 0 -0.29034577828664321 -0.09708802831876559 0 -0.29317024462579222 -0.090328656832522558 0 -0.29729374126309732 -0.092359200577734363 0 -0.29108494093927961 -0.084652782698077411 0 -0.30166275899619188 -0.086931035289048136 0 -0.29703043872012069 -0.075775979318403741 0 -0.30166275899619188 -0.086931035289048136 0 -0.3056767243012859 -0.078384736934239238 0 -0.29703043872012069 -0.075775979318403741 0 -0.30540111081052279 -0.094056073504085624 0 -0.29729374126309732 -0.092359200577734363 0 -0.30166275899619188 -0.086931035289048136 0 -0.29317024462579222 -0.090328656832522558 0 -0.29729374126309732 -0.092359200577734363 0 -0.30166275899619188 -0.086931035289048136 0 -0.30540111081052279 -0.094056073504085624 0 -0.30166275899619188 -0.086931035289048136 0 -0.30540111081052279 -0.094056073504085624 0 -0.30166275899619188 -0.086931035289048136 0 -0.31285478439472092 -0.079517429148437527 0 -0.30166275899619188 -0.086931035289048136 0 -0.3056767243012859 -0.078384736934239238 0 -0.31285478439472092 -0.079517429148437527 0 -0.3056767243012859 -0.078384736934239238 0 -0.307551674341419 -0.070239395072957719 0 -0.31285478439472092 -0.079517429148437527 0 -0.29661718551017291 -0.060116577543737143 0 -0.29703043872012069 -0.075775979318403741 0 -0.307551674341419 -0.070239395072957719 0 -0.3056767243012859 -0.078384736934239238 0 -0.29703043872012069 -0.075775979318403741 0 -0.307551674341419 -0.070239395072957719 0 -0.30693479468754242 -0.057942985456309083 0 -0.29661718551017291 -0.060116577543737143 0 -0.307551674341419 -0.070239395072957719 0 -0.30693479468754242 -0.057942985456309083 0 -0.307551674341419 -0.070239395072957719 0 -0.3199773278045584 -0.06220884341642717 0 -0.31285478439472092 -0.079517429148437527 0 -0.32820173230788829 -0.082704229294403658 0 -0.3199773278045584 -0.06220884341642717 0 -0.307551674341419 -0.070239395072957719 0 -0.31285478439472092 -0.079517429148437527 0 -0.3199773278045584 -0.06220884341642717 0 -0.30540111081052279 -0.094056073504085624 0 -0.31285478439472092 -0.079517429148437527 0 -0.32820173230788829 -0.082704229294403658 0 -0.30540111081052279 -0.094056073504085624 0 -0.32820173230788829 -0.082704229294403658 0 -0.32312096936807599 -0.1010732094577467 0 -0.30540111081052279 -0.094056073504085624 0 -0.32820173230788829 -0.082704229294403658 0 -0.32820173230788829 -0.082704229294403658 0 -0.34062446445367139 -0.099657549093108297 0 -0.35211846757588677 -0.086381091481758251 0 -0.32820173230788829 -0.082704229294403658 0 -0.35100235380525319 -0.071352385084720679 0 -0.32820173230788829 -0.082704229294403658 0 -0.3199773278045584 -0.06220884341642717 0 -0.33719288722815488 -0.059941756991783113 0 -0.32820173230788829 -0.082704229294403658 0 -0.35100235380525319 -0.071352385084720679 0 -0.33719288722815488 -0.059941756991783113 0 -0.31882520474866932 -0.1196414616810043 0 -0.32312096936807599 -0.1010732094577467 0 -0.33686565591833062 -0.1258291676336187 0 -0.30540111081052279 -0.094056073504085624 0 -0.31882520474866932 -0.1196414616810043 0 -0.32312096936807599 -0.1010732094577467 0 -0.32312096936807599 -0.1010732094577467 0 -0.34062446445367139 -0.099657549093108297 0 -0.33686565591833062 -0.1258291676336187 0 -0.32820173230788829 -0.082704229294403658 0 -0.32312096936807599 -0.1010732094577467 0 -0.34062446445367139 -0.099657549093108297 0 -0.34062446445367139 -0.099657549093108297 0 -0.3499701092589117 -0.11452480699945269 0 -0.33686565591833062 -0.1258291676336187 0 -0.34062446445367139 -0.099657549093108297 0 -0.3499701092589117 -0.11452480699945269 0 -0.35211846757588677 -0.086381091481758251 0 -0.3499701092589117 -0.11452480699945269 0 -0.36317453385790938 -0.094029711077253844 0 -0.35211846757588677 -0.086381091481758251 0 -0.3499701092589117 -0.11452480699945269 0 -0.35211846757588677 -0.086381091481758251 0 -0.3499701092589117 -0.11452480699945269 0 -0.36317453385790938 -0.094029711077253844 0 -0.37111743573070249 -0.10487629086943941 0 -0.36317453385790938 -0.094029711077253844 0 -0.37111743573070249 -0.10487629086943941 0 -0.37007568280757591 -0.091192151558046317 0 -0.37111743573070249 -0.10487629086943941 0 -0.373055432903801 -0.11982488062040859 0 -0.3624102018156834 -0.1234287634819642 0 -0.3499701092589117 -0.11452480699945269 0 -0.37111743573070249 -0.10487629086943941 0 -0.3624102018156834 -0.1234287634819642 0 -0.35100235380525319 -0.071352385084720679 0 -0.34949540733948431 -0.056516998184647872 0 -0.33719288722815488 -0.059941756991783113 0 -0.32820173230788829 -0.082704229294403658 0 -0.35100235380525319 -0.071352385084720679 0 -0.35211846757588677 -0.086381091481758251 0 -0.35100235380525319 -0.071352385084720679 0 -0.35211846757588677 -0.086381091481758251 0 -0.36588441758812251 -0.080861776025857701 0 -0.37111743573070249 -0.10487629086943941 0 -0.37007568280757591 -0.091192151558046317 0 -0.38012634405356899 -0.085000828259634315 0 -0.36317453385790938 -0.094029711077253844 0 -0.36588441758812251 -0.080861776025857701 0 -0.37007568280757591 -0.091192151558046317 0 -0.36317453385790938 -0.094029711077253844 0 -0.35211846757588677 -0.086381091481758251 0 -0.36588441758812251 -0.080861776025857701 0 -0.36588441758812251 -0.080861776025857701 0 -0.37007568280757591 -0.091192151558046317 0 -0.38012634405356899 -0.085000828259634315 0 -0.36588441758812251 -0.080861776025857701 0 -0.37795871742840242 -0.07224925570900935 0 -0.38012634405356899 -0.085000828259634315 0 -0.35100235380525319 -0.071352385084720679 0 -0.36942556315627179 -0.0699414471004733 0 -0.37380297530261808 -0.060000540875037763 0 -0.35100235380525319 -0.071352385084720679 0 -0.37380297530261808 -0.060000540875037763 0 -0.35100235380525319 -0.071352385084720679 0 -0.37380297530261808 -0.060000540875037763 0 -0.35969971999764011 -0.058344135265335023 0 -0.35100235380525319 -0.071352385084720679 0 -0.36588441758812251 -0.080861776025857701 0 -0.36942556315627179 -0.0699414471004733 0 -0.36588441758812251 -0.080861776025857701 0 -0.36942556315627179 -0.0699414471004733 0 -0.37795871742840242 -0.07224925570900935 0 -0.36942556315627179 -0.0699414471004733 0 -0.37380297530261808 -0.060000540875037763 0 -0.37847935165696289 -0.065243277807741057 0 -0.36744567488602231 -0.052333978299619291 0 -0.36871500315922978 -0.043909449026226101 0 -0.37873360014167717 -0.046513508685770269 0 -0.37380297530261808 -0.060000540875037763 0 -0.36744567488602231 -0.052333978299619291 0 -0.37873360014167717 -0.046513508685770269 0 -0.36744567488602231 -0.052333978299619291 0 -0.35779494871734802 -0.048667741405557068 0 -0.36871500315922978 -0.043909449026226101 0 -0.36744567488602231 -0.052333978299619291 0 -0.35969971999764011 -0.058344135265335023 0 -0.35779494871734802 -0.048667741405557068 0 -0.37380297530261808 -0.060000540875037763 0 -0.36744567488602231 -0.052333978299619291 0 -0.35969971999764011 -0.058344135265335023 0 -0.35779494871734802 -0.048667741405557068 0 -0.34949540733948431 -0.056516998184647872 0 -0.3431494803169835 -0.040766455262208449 0 -0.35100235380525319 -0.071352385084720679 0 -0.35969971999764011 -0.058344135265335023 0 -0.34949540733948431 -0.056516998184647872 0 -0.35969971999764011 -0.058344135265335023 0 -0.35779494871734802 -0.048667741405557068 0 -0.34949540733948431 -0.056516998184647872 0 -0.36049327538308662 -0.034781167500530258 0 -0.34901501879550401 -0.025734786111942361 0 -0.3431494803169835 -0.040766455262208449 0 -0.35779494871734802 -0.048667741405557068 0 -0.36049327538308662 -0.034781167500530258 0 -0.3431494803169835 -0.040766455262208449 0 -0.36049327538308662 -0.034781167500530258 0 -0.36871500315922978 -0.043909449026226101 0 -0.37710853278578887 -0.032823414216079233 0 -0.35779494871734802 -0.048667741405557068 0 -0.36049327538308662 -0.034781167500530258 0 -0.36871500315922978 -0.043909449026226101 0 -0.36871500315922978 -0.043909449026226101 0 -0.37710853278578887 -0.032823414216079233 0 -0.37873360014167717 -0.046513508685770269 0 -0.36049327538308662 -0.034781167500530258 0 -0.36640977996650081 -0.020757215748155051 0 -0.37710853278578887 -0.032823414216079233 0 -0.36640977996650081 -0.020757215748155051 0 -0.3727358861435085 -0.0050323493054692404 0 -0.35544029044407732 -0.010156976706462741 0 -0.3727358861435085 -0.0050323493054692404 0 -0.35544029044407732 -0.010156976706462741 0 -0.3576435151919547 0.0060426334537469354 0 -0.36640977996650081 -0.020757215748155051 0 -0.3727358861435085 -0.0050323493054692404 0 -0.38156162261841758 -0.01725389145580325 0 -0.35544029044407732 -0.010156976706462741 0 -0.34073442631225243 -0.00204379532965193 0 -0.3576435151919547 0.0060426334537469354 0 -0.35544029044407732 -0.010156976706462741 0 -0.34073442631225243 -0.00204379532965193 0 -0.34058054135869981 -0.01481152552427864 0 -0.36049327538308662 -0.034781167500530258 0 -0.36640977996650081 -0.020757215748155051 0 -0.34901501879550401 -0.025734786111942361 0 -0.36640977996650081 -0.020757215748155051 0 -0.35544029044407732 -0.010156976706462741 0 -0.34901501879550401 -0.025734786111942361 0 -0.35544029044407732 -0.010156976706462741 0 -0.34901501879550401 -0.025734786111942361 0 -0.34058054135869981 -0.01481152552427864 0 -0.34901501879550401 -0.025734786111942361 0 -0.33196419937102128 -0.025898592154807751 0 -0.34058054135869981 -0.01481152552427864 0 -0.33196419937102128 -0.025898592154807751 0 -0.34058054135869981 -0.01481152552427864 0 -0.32574877187064383 -0.01022347731852841 0 -0.34901501879550401 -0.025734786111942361 0 -0.33196419937102128 -0.025898592154807751 0 -0.3431494803169835 -0.040766455262208449 0 -0.34073442631225243 -0.00204379532965193 0 -0.32574877187064383 -0.01022347731852841 0 -0.32231720756699572 0.0083600292639006094 0 -0.34073442631225243 -0.00204379532965193 0 -0.34058054135869981 -0.01481152552427864 0 -0.32574877187064383 -0.01022347731852841 0 -0.30946553104838698 -0.0057553152784617489 0 -0.32574877187064383 -0.01022347731852841 0 -0.32231720756699572 0.0083600292639006094 0 -0.31110686428091561 -0.02428815148970383 0 -0.30946553104838698 -0.0057553152784617489 0 -0.32574877187064383 -0.01022347731852841 0 -0.31110686428091561 -0.02428815148970383 0 -0.33196419937102128 -0.025898592154807751 0 -0.31957707476366609 -0.035878945514970353 0 -0.31110686428091561 -0.02428815148970383 0 -0.33196419937102128 -0.025898592154807751 0 -0.32574877187064383 -0.01022347731852841 0 -0.30977080476242957 -0.044748758581651948 0 -0.31957707476366609 -0.035878945514970353 0 -0.32780677012955051 -0.049440236758790029 0 -0.31110686428091561 -0.02428815148970383 0 -0.30977080476242957 -0.044748758581651948 0 -0.31957707476366609 -0.035878945514970353 0 -0.33196419937102128 -0.025898592154807751 0 -0.31957707476366609 -0.035878945514970353 0 -0.3305668161867264 -0.037358123815053462 0 -0.31957707476366609 -0.035878945514970353 0 -0.32780677012955051 -0.049440236758790029 0 -0.3305668161867264 -0.037358123815053462 0 -0.30977080476242957 -0.044748758581651948 0 -0.3199773278045584 -0.06220884341642717 0 -0.32780677012955051 -0.049440236758790029 0 -0.3199773278045584 -0.06220884341642717 0 -0.32780677012955051 -0.049440236758790029 0 -0.33719288722815488 -0.059941756991783113 0 -0.32780677012955051 -0.049440236758790029 0 -0.33719288722815488 -0.059941756991783113 0 -0.3431494803169835 -0.040766455262208449 0 -0.34949540733948431 -0.056516998184647872 0 -0.33719288722815488 -0.059941756991783113 0 -0.3431494803169835 -0.040766455262208449 0 -0.33196419937102128 -0.025898592154807751 0 -0.3431494803169835 -0.040766455262208449 0 -0.3305668161867264 -0.037358123815053462 0 -0.32780677012955051 -0.049440236758790029 0 -0.3431494803169835 -0.040766455262208449 0 -0.3305668161867264 -0.037358123815053462 0 -0.30477374126081919 -0.2411851346132268 0 -0.31482476971312701 -0.22965409250053451 0 -0.31563751989968292 -0.24570898294167209 0 -0.30477374126081919 -0.2411851346132268 0 -0.30138180001830012 -0.2308065719405599 0 -0.29547028881694543 -0.240342859215427 0 -0.30491357898784421 -0.25253902949978357 0 -0.30477374126081919 -0.2411851346132268 0 -0.29641449012901572 -0.24805927158138369 0 -0.30477374126081919 -0.2411851346132268 0 -0.29547028881694543 -0.240342859215427 0 -0.29641449012901572 -0.24805927158138369 0 -0.30491357898784421 -0.25253902949978357 0 -0.30477374126081919 -0.2411851346132268 0 -0.31563751989968292 -0.24570898294167209 0 -0.30477374126081919 -0.2411851346132268 0 -0.30138180001830012 -0.2308065719405599 0 -0.31482476971312701 -0.22965409250053451 0 -0.30138180001830012 -0.2308065719405599 0 -0.30291029257181568 -0.2171098992122211 0 -0.31482476971312701 -0.22965409250053451 0 -0.30138180001830012 -0.2308065719405599 0 -0.28781593099794389 -0.23000968579518341 0 -0.30291029257181568 -0.2171098992122211 0 -0.30138180001830012 -0.2308065719405599 0 -0.28781593099794389 -0.23000968579518341 0 -0.29547028881694543 -0.240342859215427 0 -0.28781593099794389 -0.23000968579518341 0 -0.2719477434303621 -0.2263476192191215 0 -0.28476903415649629 -0.21295419050138439 0 -0.28781593099794389 -0.23000968579518341 0 -0.28476903415649629 -0.21295419050138439 0 -0.30291029257181568 -0.2171098992122211 0 -0.28781593099794389 -0.23000968579518341 0 -0.29547028881694543 -0.240342859215427 0 -0.2860831937266573 -0.246154073158073 0 -0.28781593099794389 -0.23000968579518341 0 -0.2860831937266573 -0.246154073158073 0 -0.2758475936948242 -0.2386413488558366 0 -0.29547028881694543 -0.240342859215427 0 -0.29641449012901572 -0.24805927158138369 0 -0.2860831937266573 -0.246154073158073 0 -0.2860831937266573 -0.246154073158073 0 -0.27388533292542427 -0.24980247904975311 0 -0.2758475936948242 -0.2386413488558366 0 -0.2758475936948242 -0.2386413488558366 0 -0.26357638465945449 -0.23953978557308109 0 -0.2719477434303621 -0.2263476192191215 0 -0.27388533292542427 -0.24980247904975311 0 -0.2758475936948242 -0.2386413488558366 0 -0.26357638465945449 -0.23953978557308109 0 -0.26282360736482052 -0.2514009672561755 0 -0.27388533292542427 -0.24980247904975311 0 -0.26357638465945449 -0.23953978557308109 0 -0.25269575174149039 -0.25159991233365048 0 -0.26357638465945449 -0.23953978557308109 0 -0.25269575174149039 -0.25159991233365048 0 -0.26282360736482052 -0.2514009672561755 0 -0.26357638465945449 -0.23953978557308109 0 -0.26357638465945449 -0.23953978557308109 0 -0.25432578313812421 -0.24080961738323289 0 -0.25314620720294417 -0.2264425066734054 0 -0.24616391387882999 -0.23902492230560779 0 -0.25432578313812421 -0.24080961738323289 0 -0.25314620720294417 -0.2264425066734054 0 -0.25269575174149039 -0.25159991233365048 0 -0.24616391387882999 -0.23902492230560779 0 -0.25432578313812421 -0.24080961738323289 0 -0.25269575174149039 -0.25159991233365048 0 -0.26357638465945449 -0.23953978557308109 0 -0.25432578313812421 -0.24080961738323289 0 -0.26357638465945449 -0.23953978557308109 0 -0.25314620720294417 -0.2264425066734054 0 -0.2719477434303621 -0.2263476192191215 0 -0.25314620720294417 -0.2264425066734054 0 -0.2719477434303621 -0.2263476192191215 0 -0.26653130987050982 -0.21049819791583829 0 -0.28781593099794389 -0.23000968579518341 0 -0.2758475936948242 -0.2386413488558366 0 -0.2719477434303621 -0.2263476192191215 0 -0.26653130987050982 -0.21049819791583829 0 -0.28176930884159318 -0.19418821864461441 0 -0.28476903415649629 -0.21295419050138439 0 -0.2719477434303621 -0.2263476192191215 0 -0.26653130987050982 -0.21049819791583829 0 -0.28476903415649629 -0.21295419050138439 0 -0.2484003008298015 -0.20721753419524491 0 -0.26653130987050982 -0.21049819791583829 0 -0.2564906429599571 -0.19310001292555051 0 -0.2484003008298015 -0.20721753419524491 0 -0.25314620720294417 -0.2264425066734054 0 -0.26653130987050982 -0.21049819791583829 0 -0.2564906429599571 -0.19310001292555051 0 -0.28176930884159318 -0.19418821864461441 0 -0.25862621579709499 -0.18066624163199399 0 -0.2564906429599571 -0.19310001292555051 0 -0.28176930884159318 -0.19418821864461441 0 -0.26653130987050982 -0.21049819791583829 0 -0.2564906429599571 -0.19310001292555051 0 -0.28176930884159318 -0.19418821864461441 0 -0.28176930884159318 -0.19418821864461441 0 -0.28476903415649629 -0.21295419050138439 0 -0.3070479747232292 -0.19527642436368001 0 -0.28176930884159318 -0.19418821864461441 0 -0.3070479747232292 -0.19527642436368001 0 -0.29190968977804982 -0.1817330595832741 0 -0.28176930884159318 -0.19418821864461441 0 -0.3070479747232292 -0.19527642436368001 0 -0.28476903415649629 -0.21295419050138439 0 -0.30291029257181568 -0.2171098992122211 0 -0.3070479747232292 -0.19527642436368001 0 -0.30291029257181568 -0.2171098992122211 0 -0.3070479747232292 -0.19527642436368001 0 -0.32462070943748672 -0.21099775325175721 0 -0.3070479747232292 -0.19527642436368001 0 -0.31052819065994258 -0.18741969384546861 0 -0.29190968977804982 -0.1817330595832741 0 -0.3070479747232292 -0.19527642436368001 0 -0.29190968977804982 -0.1817330595832741 0 -0.31052819065994258 -0.18741969384546861 0 -0.29190968977804982 -0.1817330595832741 0 -0.31303203943014812 -0.17986769747364539 0 -0.29235164252507118 -0.164116980449134 0 -0.31303203943014812 -0.17986769747364539 0 -0.29235164252507118 -0.164116980449134 0 -0.29190968977804982 -0.1817330595832741 0 -0.31303203943014812 -0.17986769747364539 0 -0.31052819065994258 -0.18741969384546861 0 -0.29190968977804982 -0.1817330595832741 0 -0.30714236134949552 -0.16614888894057481 0 -0.31492005431359971 -0.17068012236571869 0 -0.31303203943014812 -0.17986769747364539 0 -0.30714236134949552 -0.16614888894057481 0 -0.29235164252507118 -0.164116980449134 0 -0.31303203943014812 -0.17986769747364539 0 -0.30714236134949552 -0.16614888894057481 0 -0.30603600721968532 -0.15445279588113611 0 -0.3214508201147363 -0.16188719641011531 0 -0.30714236134949552 -0.16614888894057481 0 -0.29235164252507118 -0.164116980449134 0 -0.30603600721968532 -0.15445279588113611 0 -0.29190968977804982 -0.1817330595832741 0 -0.28022485864160679 -0.17127930401905939 0 -0.29235164252507118 -0.164116980449134 0 -0.29190968977804982 -0.1817330595832741 0 -0.28022485864160679 -0.17127930401905939 0 -0.29190968977804982 -0.1817330595832741 0 -0.26990395313970728 -0.17501186453506701 0 -0.29190968977804982 -0.1817330595832741 0 -0.26990395313970728 -0.17501186453506701 0 -0.28022485864160679 -0.17127930401905939 0 -0.28176930884159318 -0.19418821864461441 0 -0.26990395313970728 -0.17501186453506701 0 -0.25862621579709499 -0.18066624163199399 0 -0.28176930884159318 -0.19418821864461441 0 -0.29190968977804982 -0.1817330595832741 0 -0.26990395313970728 -0.17501186453506701 0 -0.24789821650136509 -0.1682906694868597 0 -0.26990395313970728 -0.17501186453506701 0 -0.25862621579709499 -0.18066624163199399 0 -0.24702580458792109 -0.17570743132091429 0 -0.2564906429599571 -0.19310001292555051 0 -0.25862621579709499 -0.18066624163199399 0 -0.24702580458792109 -0.17570743132091429 0 -0.24789821650136509 -0.1682906694868597 0 -0.25862621579709499 -0.18066624163199399 0 -0.24789821650136509 -0.1682906694868597 0 -0.26990395313970728 -0.17501186453506701 0 -0.26066728734186151 -0.1663580900293509 0 -0.24789821650136509 -0.1682906694868597 0 -0.26990395313970728 -0.17501186453506701 0 -0.25632695222120999 -0.16130427764063221 0 -0.26854002750516359 -0.16082554845484501 0 -0.25230565058340032 -0.149697637175533 0 -0.24789821650136509 -0.1682906694868597 0 -0.24777284349987741 -0.15753389399183279 0 -0.25632695222120999 -0.16130427764063221 0 -0.24789821650136509 -0.1682906694868597 0 -0.25632695222120999 -0.16130427764063221 0 -0.26066728734186151 -0.1663580900293509 0 -0.25632695222120999 -0.16130427764063221 0 -0.26066728734186151 -0.1663580900293509 0 -0.26854002750516359 -0.16082554845484501 0 -0.29235164252507118 -0.164116980449134 0 -0.26854002750516359 -0.16082554845484501 0 -0.28022485864160679 -0.17127930401905939 0 -0.29235164252507118 -0.164116980449134 0 -0.26854002750516359 -0.16082554845484501 0 -0.27167124561999428 -0.1483662634246227 0 -0.26990395313970728 -0.17501186453506701 0 -0.26066728734186151 -0.1663580900293509 0 -0.26854002750516359 -0.16082554845484501 0 -0.26990395313970728 -0.17501186453506701 0 -0.26854002750516359 -0.16082554845484501 0 -0.28022485864160679 -0.17127930401905939 0 -0.26854002750516359 -0.16082554845484501 0 -0.28022485864160679 -0.17127930401905939 0 -0.27167124561999428 -0.1483662634246227 0 -0.27093609321377748 -0.13530695864282899 0 -0.28358019590700428 -0.1450358477778658 0 -0.26854002750516359 -0.16082554845484501 0 -0.27167124561999428 -0.1483662634246227 0 -0.25230565058340032 -0.149697637175533 0 -0.27167124561999428 -0.1483662634246227 0 -0.25230565058340032 -0.149697637175533 0 -0.25099084871491728 -0.13261554640011131 0 -0.24777284349987741 -0.15753389399183279 0 -0.25632695222120999 -0.16130427764063221 0 -0.25230565058340032 -0.149697637175533 0 -0.27167124561999428 -0.1483662634246227 0 -0.25099084871491728 -0.13261554640011131 0 -0.25099084871491728 -0.13261554640011131 0 -0.26549034326965498 -0.12539708381555451 0 -0.27093609321377748 -0.13530695864282899 0 -0.27167124561999428 -0.1483662634246227 0 -0.25099084871491728 -0.13261554640011131 0 -0.27093609321377748 -0.13530695864282899 0 -0.25429658875674599 -0.1200292438712027 0 -0.25099084871491728 -0.13261554640011131 0 -0.26549034326965498 -0.12539708381555451 0 -0.26549034326965498 -0.12539708381555451 0 -0.27093609321377748 -0.13530695864282899 0 -0.27534094156094541 -0.12771572251152061 0 -0.27093609321377748 -0.13530695864282899 0 -0.2820418306319552 -0.1328124934116576 0 -0.28358019590700428 -0.1450358477778658 0 -0.27942790008100188 -0.1215316644623613 0 -0.27534094156094541 -0.12771572251152061 0 -0.2820418306319552 -0.1328124934116576 0 -0.27093609321377748 -0.13530695864282899 0 -0.27534094156094541 -0.12771572251152061 0 -0.2820418306319552 -0.1328124934116576 0 -0.2820418306319552 -0.1328124934116576 0 -0.28976423065011131 -0.1403054742626996 0 -0.29867992170383117 -0.12902213993743211 0 -0.27942790008100188 -0.1215316644623613 0 -0.29135841790735578 -0.12196828959389119 0 -0.2820418306319552 -0.1328124934116576 0 -0.29135841790735578 -0.12196828959389119 0 -0.2820418306319552 -0.1328124934116576 0 -0.29867992170383117 -0.12902213993743211 0 -0.2820418306319552 -0.1328124934116576 0 -0.28976423065011131 -0.1403054742626996 0 -0.28358019590700428 -0.1450358477778658 0 -0.29235164252507118 -0.164116980449134 0 -0.27167124561999428 -0.1483662634246227 0 -0.29235164252507118 -0.164116980449134 0 -0.27167124561999428 -0.1483662634246227 0 -0.28358019590700428 -0.1450358477778658 0 -0.29235164252507118 -0.164116980449134 0 -0.28358019590700428 -0.1450358477778658 0 -0.29471613280111691 -0.14930691647625219 0 -0.28976423065011131 -0.1403054742626996 0 -0.29471613280111691 -0.14930691647625219 0 -0.30534743412551901 -0.1427246894947842 0 -0.28976423065011131 -0.1403054742626996 0 -0.28358019590700428 -0.1450358477778658 0 -0.29471613280111691 -0.14930691647625219 0 -0.29471613280111691 -0.14930691647625219 0 -0.30603600721968532 -0.15445279588113611 0 -0.30534743412551901 -0.1427246894947842 0 -0.29235164252507118 -0.164116980449134 0 -0.29471613280111691 -0.14930691647625219 0 -0.30603600721968532 -0.15445279588113611 0 -0.30603600721968532 -0.15445279588113611 0 -0.30534743412551901 -0.1427246894947842 0 -0.31799035300068479 -0.1472302751177321 0 -0.31882520474866932 -0.1196414616810043 0 -0.30534743412551901 -0.1427246894947842 0 -0.29867992170383117 -0.12902213993743211 0 -0.28976423065011131 -0.1403054742626996 0 -0.30534743412551901 -0.1427246894947842 0 -0.29867992170383117 -0.12902213993743211 0 -0.31882520474866932 -0.1196414616810043 0 -0.30534743412551901 -0.1427246894947842 0 -0.31799035300068479 -0.1472302751177321 0 -0.31882520474866932 -0.1196414616810043 0 -0.33224929868681569 -0.145226849857923 0 -0.31882520474866932 -0.1196414616810043 0 -0.31799035300068479 -0.1472302751177321 0 -0.33224929868681569 -0.145226849857923 0 -0.31799035300068479 -0.1472302751177321 0 -0.33224929868681569 -0.145226849857923 0 -0.3214508201147363 -0.16188719641011531 0 -0.30603600721968532 -0.15445279588113611 0 -0.31799035300068479 -0.1472302751177321 0 -0.3214508201147363 -0.16188719641011531 0 -0.33224929868681569 -0.145226849857923 0 -0.34782175094193668 -0.14266852251714721 0 -0.34567339262496188 -0.1708122380348418 0 -0.33224929868681569 -0.145226849857923 0 -0.33686565591833062 -0.1258291676336187 0 -0.34782175094193668 -0.14266852251714721 0 -0.31882520474866932 -0.1196414616810043 0 -0.33224929868681569 -0.145226849857923 0 -0.33686565591833062 -0.1258291676336187 0 -0.3499701092589117 -0.11452480699945269 0 -0.33686565591833062 -0.1258291676336187 0 -0.34782175094193668 -0.14266852251714721 0 -0.3499701092589117 -0.11452480699945269 0 -0.34782175094193668 -0.14266852251714721 0 -0.3499701092589117 -0.11452480699945269 0 -0.3624102018156834 -0.1234287634819642 0 -0.34782175094193668 -0.14266852251714721 0 -0.3624102018156834 -0.1234287634819642 0 -0.37008628024306489 -0.13524931640337309 0 -0.34782175094193668 -0.14266852251714721 0 -0.373055432903801 -0.11982488062040859 0 -0.3624102018156834 -0.1234287634819642 0 -0.37008628024306489 -0.13524931640337309 0 -0.36499876202064491 -0.15037940915991041 0 -0.36490135304451771 -0.16577225507819571 0 -0.38569739592502539 -0.14802648328634321 0 -0.37008628024306489 -0.13524931640337309 0 -0.36499876202064491 -0.15037940915991041 0 -0.38569739592502539 -0.14802648328634321 0 -0.37008628024306489 -0.13524931640337309 0 -0.36499876202064491 -0.15037940915991041 0 -0.34782175094193668 -0.14266852251714721 0 -0.36499876202064491 -0.15037940915991041 0 -0.34782175094193668 -0.14266852251714721 0 -0.35648702994867981 -0.160180468514493 0 -0.34782175094193668 -0.14266852251714721 0 -0.34567339262496188 -0.1708122380348418 0 -0.35648702994867981 -0.160180468514493 0 -0.34782175094193668 -0.14266852251714721 0 -0.34567339262496188 -0.1708122380348418 0 -0.35567601882649008 -0.17090502979933631 0 -0.35648702994867981 -0.160180468514493 0 -0.36490135304451771 -0.16577225507819571 0 -0.34567339262496188 -0.1708122380348418 0 -0.35567601882649008 -0.17090502979933631 0 -0.35648702994867981 -0.160180468514493 0 -0.36499876202064491 -0.15037940915991041 0 -0.35648702994867981 -0.160180468514493 0 -0.36490135304451771 -0.16577225507819571 0 -0.35567601882649008 -0.17090502979933631 0 -0.36490135304451771 -0.16577225507819571 0 -0.36284407319082818 -0.1777738816387601 0 -0.36490135304451771 -0.16577225507819571 0 -0.37200656353543748 -0.17895039103093191 0 -0.38405404297022239 -0.17442182835517719 0 -0.37200656353543748 -0.17895039103093191 0 -0.36284407319082818 -0.1777738816387601 0 -0.36672117951152788 -0.18340756165252201 0 -0.37200656353543748 -0.17895039103093191 0 -0.37113852549514109 -0.1881794837698437 0 -0.37808818278305978 -0.18693516165811411 0 -0.37200656353543748 -0.17895039103093191 0 -0.36672117951152788 -0.18340756165252201 0 -0.37113852549514109 -0.1881794837698437 0 -0.36672117951152788 -0.18340756165252201 0 -0.36480107507527221 -0.18911984132443921 0 -0.37113852549514109 -0.1881794837698437 0 -0.36490135304451771 -0.16577225507819571 0 -0.37200656353543748 -0.17895039103093191 0 -0.36284407319082818 -0.1777738816387601 0 -0.36284407319082818 -0.1777738816387601 0 -0.36102731683707351 -0.18417580465156039 0 -0.356136139107327 -0.18034791634034791 0 -0.36284407319082818 -0.1777738816387601 0 -0.36672117951152788 -0.18340756165252201 0 -0.36102731683707351 -0.18417580465156039 0 -0.36672117951152788 -0.18340756165252201 0 -0.36102731683707351 -0.18417580465156039 0 -0.36480107507527221 -0.18911984132443921 0 -0.36102731683707351 -0.18417580465156039 0 -0.36032751189761592 -0.18898472756010551 0 -0.36480107507527221 -0.18911984132443921 0 -0.36102731683707351 -0.18417580465156039 0 -0.3558975901666443 -0.18706369567185241 0 -0.356136139107327 -0.18034791634034791 0 -0.36102731683707351 -0.18417580465156039 0 -0.3558975901666443 -0.18706369567185241 0 -0.36032751189761592 -0.18898472756010551 0 -0.356136139107327 -0.18034791634034791 0 -0.3518446415582801 -0.18380000338784019 0 -0.34986878654442349 -0.1788083666733252 0 -0.3558975901666443 -0.18706369567185241 0 -0.356136139107327 -0.18034791634034791 0 -0.3518446415582801 -0.18380000338784019 0 -0.3558975901666443 -0.18706369567185241 0 -0.3518446415582801 -0.18380000338784019 0 -0.35122379114893082 -0.18763675849483999 0 -0.35567601882649008 -0.17090502979933631 0 -0.356136139107327 -0.18034791634034791 0 -0.34986878654442349 -0.1788083666733252 0 -0.35567601882649008 -0.17090502979933631 0 -0.36284407319082818 -0.1777738816387601 0 -0.356136139107327 -0.18034791634034791 0 -0.34567339262496188 -0.1708122380348418 0 -0.34986878654442349 -0.1788083666733252 0 -0.34509736024502852 -0.17835832161955939 0 -0.34567339262496188 -0.1708122380348418 0 -0.35567601882649008 -0.17090502979933631 0 -0.34986878654442349 -0.1788083666733252 0 -0.34567339262496188 -0.1708122380348418 0 -0.34986878654442349 -0.1788083666733252 0 -0.34567339262496188 -0.1708122380348418 0 -0.34509736024502852 -0.17835832161955939 0 -0.34152156718229421 -0.17431125276361681 0 -0.34567339262496188 -0.1708122380348418 0 -0.34509736024502852 -0.17835832161955939 0 -0.3518446415582801 -0.18380000338784019 0 -0.34689409312494629 -0.1848277766216545 0 -0.35122379114893082 -0.18763675849483999 0 -0.3518446415582801 -0.18380000338784019 0 -0.34986878654442349 -0.1788083666733252 0 -0.34689409312494629 -0.1848277766216545 0 -0.34986878654442349 -0.1788083666733252 0 -0.34509736024502852 -0.17835832161955939 0 -0.34689409312494629 -0.1848277766216545 0 -0.34509736024502852 -0.17835832161955939 0 -0.34689409312494629 -0.1848277766216545 0 -0.34229722323836281 -0.18301470248847521 0 -0.34689409312494629 -0.1848277766216545 0 -0.34373152372515398 -0.18749780299104199 0 -0.34229722323836281 -0.18301470248847521 0 -0.34373152372515398 -0.18749780299104199 0 -0.34229722323836281 -0.18301470248847521 0 -0.33785092590164828 -0.18519867495946851 0 -0.34509736024502852 -0.17835832161955939 0 -0.34229722323836281 -0.18301470248847521 0 -0.33912278126575562 -0.1789707891432174 0 -0.33785092590164828 -0.18519867495946851 0 -0.33353801973853331 -0.1784879049516363 0 -0.33912278126575562 -0.1789707891432174 0 -0.34229722323836281 -0.18301470248847521 0 -0.33785092590164828 -0.18519867495946851 0 -0.33912278126575562 -0.1789707891432174 0 -0.33785092590164828 -0.18519867495946851 0 -0.33254034202017602 -0.18424764386963599 0 -0.33521919080499768 -0.18995914216352111 0 -0.33785092590164828 -0.18519867495946851 0 -0.33254034202017602 -0.18424764386963599 0 -0.33353801973853331 -0.1784879049516363 0 -0.33254034202017602 -0.18424764386963599 0 -0.32911594541742512 -0.180201675403657 0 -0.32570182524306929 -0.18427064474664931 0 -0.33254034202017602 -0.18424764386963599 0 -0.32911594541742512 -0.180201675403657 0 -0.33353801973853331 -0.1784879049516363 0 -0.33254034202017602 -0.18424764386963599 0 -0.32570182524306929 -0.18427064474664931 0 -0.33157005963425429 -0.1886783670228783 0 -0.33353801973853331 -0.1784879049516363 0 -0.33469698413569821 -0.16913540690143919 0 -0.32790113969049672 -0.17317323943239979 0 -0.33353801973853331 -0.1784879049516363 0 -0.33912278126575562 -0.1789707891432174 0 -0.33469698413569821 -0.16913540690143919 0 -0.32911594541742512 -0.180201675403657 0 -0.33353801973853331 -0.1784879049516363 0 -0.32790113969049672 -0.17317323943239979 0 -0.33912278126575562 -0.1789707891432174 0 -0.34152156718229421 -0.17431125276361681 0 -0.33469698413569821 -0.16913540690143919 0 -0.34509736024502852 -0.17835832161955939 0 -0.33912278126575562 -0.1789707891432174 0 -0.34152156718229421 -0.17431125276361681 0 -0.33224929868681569 -0.145226849857923 0 -0.33469698413569821 -0.16913540690143919 0 -0.3214508201147363 -0.16188719641011531 0 -0.33224929868681569 -0.145226849857923 0 -0.34567339262496188 -0.1708122380348418 0 -0.34567339262496188 -0.1708122380348418 0 -0.34152156718229421 -0.17431125276361681 0 -0.33469698413569821 -0.16913540690143919 0 -0.33224929868681569 -0.145226849857923 0 -0.34567339262496188 -0.1708122380348418 0 -0.33469698413569821 -0.16913540690143919 0 -0.33469698413569821 -0.16913540690143919 0 -0.3214508201147363 -0.16188719641011531 0 -0.32790113969049672 -0.17317323943239979 0 -0.3214508201147363 -0.16188719641011531 0 -0.32790113969049672 -0.17317323943239979 0 -0.32092403547576298 -0.17317961412923519 0 -0.3214508201147363 -0.16188719641011531 0 -0.31492005431359971 -0.17068012236571869 0 -0.32092403547576298 -0.17317961412923519 0 -0.30714236134949552 -0.16614888894057481 0 -0.3214508201147363 -0.16188719641011531 0 -0.31492005431359971 -0.17068012236571869 0 -0.31492005431359971 -0.17068012236571869 0 -0.31303203943014812 -0.17986769747364539 0 -0.32092403547576298 -0.17317961412923519 0 -0.31303203943014812 -0.17986769747364539 0 -0.32092403547576298 -0.17317961412923519 0 -0.32104018109559218 -0.17861882648578059 0 -0.31303203943014812 -0.17986769747364539 0 -0.32570182524306929 -0.18427064474664931 0 -0.33371243633522518 -0.1956184144981567 0 -0.31052819065994258 -0.18741969384546861 0 -0.31303203943014812 -0.17986769747364539 0 -0.32914669154183562 -0.1931063281076629 0 -0.31303203943014812 -0.17986769747364539 0 -0.32570182524306929 -0.18427064474664931 0 -0.32104018109559218 -0.17861882648578059 0 -0.32570182524306929 -0.18427064474664931 0 -0.32493662538446932 -0.17788880003954441 0 -0.32104018109559218 -0.17861882648578059 0 -0.32911594541742512 -0.180201675403657 0 -0.32570182524306929 -0.18427064474664931 0 -0.32493662538446932 -0.17788880003954441 0 -0.32911594541742512 -0.180201675403657 0 -0.32493662538446932 -0.17788880003954441 0 -0.32790113969049672 -0.17317323943239979 0 -0.32493662538446932 -0.17788880003954441 0 -0.32790113969049672 -0.17317323943239979 0 -0.32092403547576298 -0.17317961412923519 0 -0.32493662538446932 -0.17788880003954441 0 -0.32092403547576298 -0.17317961412923519 0 -0.32104018109559218 -0.17861882648578059 0 -0.3070479747232292 -0.19527642436368001 0 -0.31052819065994258 -0.18741969384546861 0 -0.32914669154183562 -0.1931063281076629 0 -0.31303203943014812 -0.17986769747364539 0 -0.33371243633522518 -0.1956184144981567 0 -0.3070479747232292 -0.19527642436368001 0 -0.33028121242231773 -0.19627657770463791 0 -0.3070479747232292 -0.19527642436368001 0 -0.33028121242231773 -0.19627657770463791 0 -0.32914669154183562 -0.1931063281076629 0 -0.3070479747232292 -0.19527642436368001 0 -0.32397528935094821 -0.20217184481749051 0 -0.32462070943748672 -0.21099775325175721 0 -0.31052819065994258 -0.18741969384546861 0 -0.32914669154183562 -0.1931063281076629 0 -0.31303203943014812 -0.17986769747364539 0 -0.33371243633522518 -0.1956184144981567 0 -0.32914669154183562 -0.1931063281076629 0 -0.3070479747232292 -0.19527642436368001 0 -0.32397528935094821 -0.20217184481749051 0 -0.33028121242231773 -0.19627657770463791 0 -0.3070479747232292 -0.19527642436368001 0 -0.32462070943748672 -0.21099775325175721 0 -0.32397528935094821 -0.20217184481749051 0 -0.32462070943748672 -0.21099775325175721 0 -0.33395126082075932 -0.20613662394988841 0 -0.33395126082075932 -0.20613662394988841 0 -0.35439283324030207 -0.21136913152266809 0 -0.34219344415174557 -0.22671908213983291 0 -0.33395126082075932 -0.20613662394988841 0 -0.33371243633522518 -0.1956184144981567 0 -0.35439283324030207 -0.21136913152266809 0 -0.32462070943748672 -0.21099775325175721 0 -0.33395126082075932 -0.20613662394988841 0 -0.34219344415174557 -0.22671908213983291 0 -0.33395126082075932 -0.20613662394988841 0 -0.33371243633522518 -0.1956184144981567 0 -0.33028121242231773 -0.19627657770463791 0 -0.32397528935094821 -0.20217184481749051 0 -0.33395126082075932 -0.20613662394988841 0 -0.33028121242231773 -0.19627657770463791 0 -0.32570182524306929 -0.18427064474664931 0 -0.33371243633522518 -0.1956184144981567 0 -0.33157005963425429 -0.1886783670228783 0 -0.33371243633522518 -0.1956184144981567 0 -0.33028121242231773 -0.19627657770463791 0 -0.32914669154183562 -0.1931063281076629 0 -0.33371243633522518 -0.1956184144981567 0 -0.33157005963425429 -0.1886783670228783 0 -0.33521919080499768 -0.18995914216352111 0 -0.33254034202017602 -0.18424764386963599 0 -0.33157005963425429 -0.1886783670228783 0 -0.33521919080499768 -0.18995914216352111 0 -0.33371243633522518 -0.1956184144981567 0 -0.33521919080499768 -0.18995914216352111 0 -0.3436648135389011 -0.1940298527508213 0 -0.34373152372515398 -0.18749780299104199 0 -0.33785092590164828 -0.18519867495946851 0 -0.3436648135389011 -0.1940298527508213 0 -0.33785092590164828 -0.18519867495946851 0 -0.33521919080499768 -0.18995914216352111 0 -0.3436648135389011 -0.1940298527508213 0 -0.34373152372515398 -0.18749780299104199 0 -0.3436648135389011 -0.1940298527508213 0 -0.34795056282191172 -0.19041800813479021 0 -0.34689409312494629 -0.1848277766216545 0 -0.34373152372515398 -0.18749780299104199 0 -0.34795056282191172 -0.19041800813479021 0 -0.3436648135389011 -0.1940298527508213 0 -0.35470446926090549 -0.1974794017581947 0 -0.35439283324030207 -0.21136913152266809 0 -0.3436648135389011 -0.1940298527508213 0 -0.34795056282191172 -0.19041800813479021 0 -0.35470446926090549 -0.1974794017581947 0 -0.33371243633522518 -0.1956184144981567 0 -0.3436648135389011 -0.1940298527508213 0 -0.35439283324030207 -0.21136913152266809 0 -0.34689409312494629 -0.1848277766216545 0 -0.35122379114893082 -0.18763675849483999 0 -0.34795056282191172 -0.19041800813479021 0 -0.35122379114893082 -0.18763675849483999 0 -0.34795056282191172 -0.19041800813479021 0 -0.3534544652943391 -0.19088759988615239 0 -0.3558975901666443 -0.18706369567185241 0 -0.35122379114893082 -0.18763675849483999 0 -0.3534544652943391 -0.19088759988615239 0 -0.34795056282191172 -0.19041800813479021 0 -0.35470446926090549 -0.1974794017581947 0 -0.3534544652943391 -0.19088759988615239 0 -0.35470446926090549 -0.1974794017581947 0 -0.3534544652943391 -0.19088759988615239 0 -0.35749591307330297 -0.19184013537108449 0 -0.35470446926090549 -0.1974794017581947 0 -0.35749591307330297 -0.19184013537108449 0 -0.36224732484888128 -0.1937512154903214 0 -0.3558975901666443 -0.18706369567185241 0 -0.3534544652943391 -0.19088759988615239 0 -0.35749591307330297 -0.19184013537108449 0 -0.3558975901666443 -0.18706369567185241 0 -0.35749591307330297 -0.19184013537108449 0 -0.36032751189761592 -0.18898472756010551 0 -0.36032751189761592 -0.18898472756010551 0 -0.36480107507527221 -0.18911984132443921 0 -0.36224732484888128 -0.1937512154903214 0 -0.36480107507527221 -0.18911984132443921 0 -0.36224732484888128 -0.1937512154903214 0 -0.36749964844747229 -0.19398446536128289 0 -0.35749591307330297 -0.19184013537108449 0 -0.36032751189761592 -0.18898472756010551 0 -0.36224732484888128 -0.1937512154903214 0 -0.35470446926090549 -0.1974794017581947 0 -0.36224732484888128 -0.1937512154903214 0 -0.36461731686867882 -0.1995337237107816 0 -0.35470446926090549 -0.1974794017581947 0 -0.36461731686867882 -0.1995337237107816 0 -0.35974367759298792 -0.20407209179356661 0 -0.36224732484888128 -0.1937512154903214 0 -0.36461731686867882 -0.1995337237107816 0 -0.36749964844747229 -0.19398446536128289 0 -0.36461731686867882 -0.1995337237107816 0 -0.37192646775770338 -0.20198605190673949 0 -0.36603574761351992 -0.20745797710689001 0 -0.36461731686867882 -0.1995337237107816 0 -0.37037264183458157 -0.1975047442961019 0 -0.36749964844747229 -0.19398446536128289 0 -0.36461731686867882 -0.1995337237107816 0 -0.37037264183458157 -0.1975047442961019 0 -0.37192646775770338 -0.20198605190673949 0 -0.37037264183458157 -0.1975047442961019 0 -0.37258860927643489 -0.19436571111634121 0 -0.37523116682261848 -0.19765376938536411 0 -0.37037264183458157 -0.1975047442961019 0 -0.37192646775770338 -0.20198605190673949 0 -0.37523116682261848 -0.19765376938536411 0 -0.37258860927643489 -0.19436571111634121 0 -0.37497831970514278 -0.19071240745588339 0 -0.37113852549514109 -0.1881794837698437 0 -0.37497831970514278 -0.19071240745588339 0 -0.37113852549514109 -0.1881794837698437 0 -0.37808818278305978 -0.18693516165811411 0 -0.36480107507527221 -0.18911984132443921 0 -0.37113852549514109 -0.1881794837698437 0 -0.36749964844747229 -0.19398446536128289 0 -0.37258860927643489 -0.19436571111634121 0 -0.37113852549514109 -0.1881794837698437 0 -0.36749964844747229 -0.19398446536128289 0 -0.37037264183458157 -0.1975047442961019 0 -0.37258860927643489 -0.19436571111634121 0 -0.36749964844747229 -0.19398446536128289 0 -0.36603574761351992 -0.20745797710689001 0 -0.36895216766965322 -0.2208103408158136 0 -0.37649758976993231 -0.2082262354072304 0 -0.37192646775770338 -0.20198605190673949 0 -0.36603574761351992 -0.20745797710689001 0 -0.37649758976993231 -0.2082262354072304 0 -0.35974367759298792 -0.20407209179356661 0 -0.36603574761351992 -0.20745797710689001 0 -0.35439283324030207 -0.21136913152266809 0 -0.36461731686867882 -0.1995337237107816 0 -0.35974367759298792 -0.20407209179356661 0 -0.36603574761351992 -0.20745797710689001 0 -0.36603574761351992 -0.20745797710689001 0 -0.35439283324030207 -0.21136913152266809 0 -0.36895216766965322 -0.2208103408158136 0 -0.33371243633522518 -0.1956184144981567 0 -0.35439283324030207 -0.21136913152266809 0 -0.35470446926090549 -0.1974794017581947 0 -0.35974367759298792 -0.20407209179356661 0 -0.35439283324030207 -0.21136913152266809 0 -0.3558580073749435 -0.2250562940180138 0 -0.35976617886600037 -0.24244041102791311 0 -0.34219344415174557 -0.22671908213983291 0 -0.35439283324030207 -0.21136913152266809 0 -0.3558580073749435 -0.2250562940180138 0 -0.34219344415174557 -0.22671908213983291 0 -0.35439283324030207 -0.21136913152266809 0 -0.3558580073749435 -0.2250562940180138 0 -0.36895216766965322 -0.2208103408158136 0 -0.36895216766965322 -0.2208103408158136 0 -0.35976617886600037 -0.24244041102791311 0 -0.38011488391490522 -0.22951228381873109 0 -0.3558580073749435 -0.2250562940180138 0 -0.36895216766965322 -0.2208103408158136 0 -0.35976617886600037 -0.24244041102791311 0 -0.35976617886600037 -0.24244041102791311 0 -0.38011488391490522 -0.22951228381873109 0 -0.35976617886600037 -0.24244041102791311 0 -0.3667027141827669 -0.24864613568214161 0 -0.38011488391490522 -0.22951228381873109 0 -0.35976617886600037 -0.24244041102791311 0 -0.3667027141827669 -0.24864613568214161 0 -0.35976617886600037 -0.24244041102791311 0 -0.34219344415174557 -0.22671908213983291 0 -0.34286232596016342 -0.25317992296082581 0 -0.35976617886600037 -0.24244041102791311 0 -0.34219344415174557 -0.22671908213983291 0 -0.34286232596016342 -0.25317992296082581 0 -0.35976617886600037 -0.24244041102791311 0 -0.32628340082826812 -0.25260276837628831 0 -0.34286232596016342 -0.25317992296082581 0 -0.329498434525338 -0.23772569208265229 0 -0.34286232596016342 -0.25317992296082581 0 -0.329498434525338 -0.23772569208265229 0 -0.34219344415174557 -0.22671908213983291 0 -0.32462070943748672 -0.21099775325175721 0 -0.329498434525338 -0.23772569208265229 0 -0.34219344415174557 -0.22671908213983291 0 -0.32462070943748672 -0.21099775325175721 0 -0.34219344415174557 -0.22671908213983291 0 -0.30291029257181568 -0.2171098992122211 0 -0.32462070943748672 -0.21099775325175721 0 -0.31482476971312701 -0.22965409250053451 0 -0.32462070943748672 -0.21099775325175721 0 -0.329498434525338 -0.23772569208265229 0 -0.31482476971312701 -0.22965409250053451 0 -0.329498434525338 -0.23772569208265229 0 -0.31482476971312701 -0.22965409250053451 0 -0.31563751989968292 -0.24570898294167209 0 -0.31482476971312701 -0.22965409250053451 0 -0.31563751989968292 -0.24570898294167209 0 -0.32628340082826812 -0.25260276837628831 0 -0.329498434525338 -0.23772569208265229 0 -0.31563751989968292 -0.24570898294167209 0 -0.42802411084152769 -0.25038384518556139 0 -0.42984862104793597 -0.2331284566258999 0 -0.41996770800192301 -0.24297740064175741 0 -0.42802411084152769 -0.25038384518556139 0 -0.42984862104793597 -0.2331284566258999 0 -0.44019851167852708 -0.2438185884147287 0 -0.41961156339831912 -0.25396053582215627 0 -0.42802411084152769 -0.25038384518556139 0 -0.41996770800192301 -0.24297740064175741 0 -0.42984862104793597 -0.2331284566258999 0 -0.42338901578463373 -0.2242638404749682 0 -0.43758788109215002 -0.22220435268531069 0 -0.42984862104793597 -0.2331284566258999 0 -0.42338901578463373 -0.2242638404749682 0 -0.40860271280512772 -0.2350927413830238 0 -0.42984862104793597 -0.2331284566258999 0 -0.40860271280512772 -0.2350927413830238 0 -0.42338901578463373 -0.2242638404749682 0 -0.40970288842773522 -0.22208668780867091 0 -0.40860271280512772 -0.2350927413830238 0 -0.42984862104793597 -0.2331284566258999 0 -0.40860271280512772 -0.2350927413830238 0 -0.41996770800192301 -0.24297740064175741 0 -0.40860271280512772 -0.2350927413830238 0 -0.4101058448757644 -0.24689735345145331 0 -0.40031549770242703 -0.24235612467253881 0 -0.40860271280512772 -0.2350927413830238 0 -0.41996770800192301 -0.24297740064175741 0 -0.4101058448757644 -0.24689735345145331 0 -0.41961156339831912 -0.25396053582215627 0 -0.41996770800192301 -0.24297740064175741 0 -0.4101058448757644 -0.24689735345145331 0 -0.40860271280512772 -0.2350927413830238 0 -0.40031549770242703 -0.24235612467253881 0 -0.38820280130525109 -0.23536641174540621 0 -0.40179810659226339 -0.25460435118111058 0 -0.4101058448757644 -0.24689735345145331 0 -0.40031549770242703 -0.24235612467253881 0 -0.37267884393622319 -0.25399263996048671 0 -0.40031549770242703 -0.24235612467253881 0 -0.37267884393622319 -0.25399263996048671 0 -0.3667027141827669 -0.24864613568214161 0 -0.38820280130525109 -0.23536641174540621 0 -0.3667027141827669 -0.24864613568214161 0 -0.38820280130525109 -0.23536641174540621 0 -0.38011488391490522 -0.22951228381873109 0 -0.3667027141827669 -0.24864613568214161 0 -0.38820280130525109 -0.23536641174540621 0 -0.37267884393622319 -0.25399263996048671 0 -0.40031549770242703 -0.24235612467253881 0 -0.38820280130525109 -0.23536641174540621 0 -0.38011488391490522 -0.22951228381873109 0 -0.40046358896380913 -0.2165841566095478 0 -0.38011488391490522 -0.22951228381873109 0 -0.40046358896380913 -0.2165841566095478 0 -0.38156569633326992 -0.2143893642039455 0 -0.38820280130525109 -0.23536641174540621 0 -0.38011488391490522 -0.22951228381873109 0 -0.40046358896380913 -0.2165841566095478 0 -0.36895216766965322 -0.2208103408158136 0 -0.38011488391490522 -0.22951228381873109 0 -0.38156569633326992 -0.2143893642039455 0 -0.40970288842773522 -0.22208668780867091 0 -0.38820280130525109 -0.23536641174540621 0 -0.40970288842773522 -0.22208668780867091 0 -0.38820280130525109 -0.23536641174540621 0 -0.40046358896380913 -0.2165841566095478 0 -0.40970288842773522 -0.22208668780867091 0 -0.40860271280512772 -0.2350927413830238 0 -0.38820280130525109 -0.23536641174540621 0 -0.40046358896380913 -0.2165841566095478 0 -0.39952378522940291 -0.2012016701803134 0 -0.41663688044338543 -0.20158616693661541 0 -0.40046358896380913 -0.2165841566095478 0 -0.39099094013547547 -0.2082480911044545 0 -0.38156569633326992 -0.2143893642039455 0 -0.39099094013547547 -0.2082480911044545 0 -0.38241069001542027 -0.20081717342401131 0 -0.39952378522940291 -0.2012016701803134 0 -0.40046358896380913 -0.2165841566095478 0 -0.39099094013547547 -0.2082480911044545 0 -0.39952378522940291 -0.2012016701803134 0 -0.39099094013547547 -0.2082480911044545 0 -0.38156569633326992 -0.2143893642039455 0 -0.38241069001542027 -0.20081717342401131 0 -0.37649758976993231 -0.2082262354072304 0 -0.38156569633326992 -0.2143893642039455 0 -0.38241069001542027 -0.20081717342401131 0 -0.38156569633326992 -0.2143893642039455 0 -0.38241069001542027 -0.20081717342401131 0 -0.37649758976993231 -0.2082262354072304 0 -0.37927743513081308 -0.20074677550214151 0 -0.38241069001542027 -0.20081717342401131 0 -0.37192646775770338 -0.20198605190673949 0 -0.37649758976993231 -0.2082262354072304 0 -0.37927743513081308 -0.20074677550214151 0 -0.36895216766965322 -0.2208103408158136 0 -0.37649758976993231 -0.2082262354072304 0 -0.38156569633326992 -0.2143893642039455 0 -0.38241069001542027 -0.20081717342401131 0 -0.38405404297022239 -0.17442182835517719 0 -0.38241069001542027 -0.20081717342401131 0 -0.39346378835199097 -0.19009865493506661 0 -0.38405404297022239 -0.17442182835517719 0 -0.37809796126593559 -0.19336927327923459 0 -0.38241069001542027 -0.20081717342401131 0 -0.37808818278305978 -0.18693516165811411 0 -0.37497831970514278 -0.19071240745588339 0 -0.37809796126593559 -0.19336927327923459 0 -0.37808818278305978 -0.18693516165811411 0 -0.37258860927643489 -0.19436571111634121 0 -0.37497831970514278 -0.19071240745588339 0 -0.37809796126593559 -0.19336927327923459 0 -0.37258860927643489 -0.19436571111634121 0 -0.37809796126593559 -0.19336927327923459 0 -0.37523116682261848 -0.19765376938536411 0 -0.37523116682261848 -0.19765376938536411 0 -0.37875431330869691 -0.19814674789768791 0 -0.37927743513081308 -0.20074677550214151 0 -0.37809796126593559 -0.19336927327923459 0 -0.37523116682261848 -0.19765376938536411 0 -0.37875431330869691 -0.19814674789768791 0 -0.37192646775770338 -0.20198605190673949 0 -0.37523116682261848 -0.19765376938536411 0 -0.37927743513081308 -0.20074677550214151 0 -0.37875431330869691 -0.19814674789768791 0 -0.37927743513081308 -0.20074677550214151 0 -0.38241069001542027 -0.20081717342401131 0 -0.37927743513081308 -0.20074677550214151 0 -0.38241069001542027 -0.20081717342401131 0 -0.37809796126593559 -0.19336927327923459 0 -0.37875431330869691 -0.19814674789768791 0 -0.38241069001542027 -0.20081717342401131 0 -0.39346378835199097 -0.19009865493506661 0 -0.40708510871044101 -0.19173777865965691 0 -0.41663688044338543 -0.20158616693661541 0 -0.39346378835199097 -0.19009865493506661 0 -0.41663688044338543 -0.20158616693661541 0 -0.39346378835199097 -0.19009865493506661 0 -0.39952378522940291 -0.2012016701803134 0 -0.41663688044338543 -0.20158616693661541 0 -0.38241069001542027 -0.20081717342401131 0 -0.39952378522940291 -0.2012016701803134 0 -0.38241069001542027 -0.20081717342401131 0 -0.39346378835199097 -0.19009865493506661 0 -0.39952378522940291 -0.2012016701803134 0 -0.39346378835199097 -0.19009865493506661 0 -0.40708510871044101 -0.19173777865965691 0 -0.39973429591551118 -0.18167452509491941 0 -0.40708510871044101 -0.19173777865965691 0 -0.41392246970819763 -0.19468739570557339 0 -0.41207619906090093 -0.18211079780273029 0 -0.39952378522940291 -0.2012016701803134 0 -0.41663688044338543 -0.20158616693661541 0 -0.41392246970819763 -0.19468739570557339 0 -0.42242777428512512 -0.18861481313172171 0 -0.41207619906090093 -0.18211079780273029 0 -0.41392246970819763 -0.19468739570557339 0 -0.4197873831392489 -0.19560400849965101 0 -0.42242777428512512 -0.18861481313172171 0 -0.4197873831392489 -0.19560400849965101 0 -0.42242777428512512 -0.18861481313172171 0 -0.42326832192258018 -0.19567525962609031 0 -0.42010561828114801 -0.1984710621370834 0 -0.41663688044338543 -0.20158616693661541 0 -0.42381633428369148 -0.2017474747935028 0 -0.41663688044338543 -0.20158616693661541 0 -0.42081229401271347 -0.20365602940036531 0 -0.41663688044338543 -0.20158616693661541 0 -0.42381633428369148 -0.2017474747935028 0 -0.41663688044338543 -0.20158616693661541 0 -0.42081229401271347 -0.20365602940036531 0 -0.42381633428369148 -0.2017474747935028 0 -0.42010561828114801 -0.1984710621370834 0 -0.41761308789299489 -0.19758715831973109 0 -0.41663688044338543 -0.20158616693661541 0 -0.42010561828114801 -0.1984710621370834 0 -0.4197873831392489 -0.19560400849965101 0 -0.42326832192258018 -0.19567525962609031 0 -0.42010561828114801 -0.1984710621370834 0 -0.4197873831392489 -0.19560400849965101 0 -0.41761308789299489 -0.19758715831973109 0 -0.41392246970819763 -0.19468739570557339 0 -0.4197873831392489 -0.19560400849965101 0 -0.41761308789299489 -0.19758715831973109 0 -0.41392246970819763 -0.19468739570557339 0 -0.41761308789299489 -0.19758715831973109 0 -0.41663688044338543 -0.20158616693661541 0 -0.40708510871044101 -0.19173777865965691 0 -0.41392246970819763 -0.19468739570557339 0 -0.41663688044338543 -0.20158616693661541 0 -0.40970288842773522 -0.22208668780867091 0 -0.42081229401271347 -0.20365602940036531 0 -0.43120297555021908 -0.20880696387193509 0 -0.40046358896380913 -0.2165841566095478 0 -0.42081229401271347 -0.20365602940036531 0 -0.40046358896380913 -0.2165841566095478 0 -0.41663688044338543 -0.20158616693661541 0 -0.42081229401271347 -0.20365602940036531 0 -0.40970288842773522 -0.22208668780867091 0 -0.40046358896380913 -0.2165841566095478 0 -0.42081229401271347 -0.20365602940036531 0 -0.40970288842773522 -0.22208668780867091 0 -0.43120297555021908 -0.20880696387193509 0 -0.42338901578463373 -0.2242638404749682 0 -0.40970288842773522 -0.22208668780867091 0 -0.43120297555021908 -0.20880696387193509 0 -0.42081229401271347 -0.20365602940036531 0 -0.43120297555021908 -0.20880696387193509 0 -0.42381633428369148 -0.2017474747935028 0 -0.42081229401271347 -0.20365602940036531 0 -0.43120297555021908 -0.20880696387193509 0 -0.42338901578463373 -0.2242638404749682 0 -0.43120297555021908 -0.20880696387193509 0 -0.43758788109215002 -0.22220435268531069 0 -0.43120297555021908 -0.20880696387193509 0 -0.43869393067953399 -0.2041801074516309 0 -0.44176615126813701 -0.21061690662176519 0 -0.43120297555021908 -0.20880696387193509 0 -0.42381633428369148 -0.2017474747935028 0 -0.43869393067953399 -0.2041801074516309 0 -0.43120297555021908 -0.20880696387193509 0 -0.43869393067953399 -0.2041801074516309 0 -0.42381633428369148 -0.2017474747935028 0 -0.44312742252763287 -0.1894785758750995 0 -0.43004228840428038 -0.1925778864501729 0 -0.42381633428369148 -0.2017474747935028 0 -0.44312742252763287 -0.1894785758750995 0 -0.42381633428369148 -0.2017474747935028 0 -0.44705482102493233 -0.20226959675108269 0 -0.43869393067953399 -0.2041801074516309 0 -0.42381633428369148 -0.2017474747935028 0 -0.44705482102493233 -0.20226959675108269 0 -0.43004228840428038 -0.1925778864501729 0 -0.4323737833018636 -0.18269374263530549 0 -0.44312742252763287 -0.1894785758750995 0 -0.43004228840428038 -0.1925778864501729 0 -0.42242777428512512 -0.18861481313172171 0 -0.4323737833018636 -0.18269374263530549 0 -0.43004228840428038 -0.1925778864501729 0 -0.42242777428512512 -0.18861481313172171 0 -0.42326832192258018 -0.19567525962609031 0 -0.42010561828114801 -0.1984710621370834 0 -0.42326832192258018 -0.19567525962609031 0 -0.42381633428369148 -0.2017474747935028 0 -0.43004228840428038 -0.1925778864501729 0 -0.42326832192258018 -0.19567525962609031 0 -0.42381633428369148 -0.2017474747935028 0 -0.42081229401271347 -0.20365602940036531 0 -0.42381633428369148 -0.2017474747935028 0 -0.42331212606435958 -0.17542552198195269 0 -0.4323737833018636 -0.18269374263530549 0 -0.43299418767608722 -0.1721885110817484 0 -0.42242777428512512 -0.18861481313172171 0 -0.42331212606435958 -0.17542552198195269 0 -0.4323737833018636 -0.18269374263530549 0 -0.4323737833018636 -0.18269374263530549 0 -0.43299418767608722 -0.1721885110817484 0 -0.44392170824555932 -0.17597690771065769 0 -0.43299418767608722 -0.1721885110817484 0 -0.42819970729362927 -0.1630325342999388 0 -0.43967826980353641 -0.16598983185647029 0 -0.42819970729362927 -0.1630325342999388 0 -0.43886380623945559 -0.15356846574240679 0 -0.43967826980353641 -0.16598983185647029 0 -0.42819970729362927 -0.1630325342999388 0 -0.41525341909324709 -0.16467233119360841 0 -0.42473198123930589 -0.14958865530674889 0 -0.42331212606435958 -0.17542552198195269 0 -0.43299418767608722 -0.1721885110817484 0 -0.42819970729362927 -0.1630325342999388 0 -0.42331212606435958 -0.17542552198195269 0 -0.42819970729362927 -0.1630325342999388 0 -0.41525341909324709 -0.16467233119360841 0 -0.41525341909324709 -0.16467233119360841 0 -0.40199234048400101 -0.1700035657219662 0 -0.40639486875296532 -0.1534787651579817 0 -0.42331212606435958 -0.17542552198195269 0 -0.41525341909324709 -0.16467233119360841 0 -0.41207619906090093 -0.18211079780273029 0 -0.41525341909324709 -0.16467233119360841 0 -0.41207619906090093 -0.18211079780273029 0 -0.40199234048400101 -0.1700035657219662 0 -0.42242777428512512 -0.18861481313172171 0 -0.42331212606435958 -0.17542552198195269 0 -0.41207619906090093 -0.18211079780273029 0 -0.40708510871044101 -0.19173777865965691 0 -0.41207619906090093 -0.18211079780273029 0 -0.39973429591551118 -0.18167452509491941 0 -0.39346378835199097 -0.19009865493506661 0 -0.39973429591551118 -0.18167452509491941 0 -0.38405404297022239 -0.17442182835517719 0 -0.39973429591551118 -0.18167452509491941 0 -0.38405404297022239 -0.17442182835517719 0 -0.40199234048400101 -0.1700035657219662 0 -0.41207619906090093 -0.18211079780273029 0 -0.39973429591551118 -0.18167452509491941 0 -0.40199234048400101 -0.1700035657219662 0 -0.38241069001542027 -0.20081717342401131 0 -0.38405404297022239 -0.17442182835517719 0 -0.37808818278305978 -0.18693516165811411 0 -0.37200656353543748 -0.17895039103093191 0 -0.38405404297022239 -0.17442182835517719 0 -0.37808818278305978 -0.18693516165811411 0 -0.36490135304451771 -0.16577225507819571 0 -0.38405404297022239 -0.17442182835517719 0 -0.38569739592502539 -0.14802648328634321 0 -0.38405404297022239 -0.17442182835517719 0 -0.39453466203305348 -0.16148266063036709 0 -0.38569739592502539 -0.14802648328634321 0 -0.36490135304451771 -0.16577225507819571 0 -0.38569739592502539 -0.14802648328634321 0 -0.38405404297022239 -0.17442182835517719 0 -0.38569739592502539 -0.14802648328634321 0 -0.39453466203305348 -0.16148266063036709 0 -0.40199234048400101 -0.1700035657219662 0 -0.40639486875296532 -0.1534787651579817 0 -0.38405404297022239 -0.17442182835517719 0 -0.39453466203305348 -0.16148266063036709 0 -0.40199234048400101 -0.1700035657219662 0 -0.39453466203305348 -0.16148266063036709 0 -0.38569739592502539 -0.14802648328634321 0 -0.40639486875296532 -0.1534787651579817 0 -0.38569739592502539 -0.14802648328634321 0 -0.40265432330059442 -0.13355672260990939 0 -0.40639486875296532 -0.1534787651579817 0 -0.38569739592502539 -0.14802648328634321 0 -0.40265432330059442 -0.13355672260990939 0 -0.38569739592502539 -0.14802648328634321 0 -0.38713768511653451 -0.1248927248945577 0 -0.373055432903801 -0.11982488062040859 0 -0.37008628024306489 -0.13524931640337309 0 -0.38713768511653451 -0.1248927248945577 0 -0.37008628024306489 -0.13524931640337309 0 -0.38569739592502539 -0.14802648328634321 0 -0.38713768511653451 -0.1248927248945577 0 -0.38569739592502539 -0.14802648328634321 0 -0.40265432330059442 -0.13355672260990939 0 -0.38713768511653451 -0.1248927248945577 0 -0.40265432330059442 -0.13355672260990939 0 -0.38713768511653451 -0.1248927248945577 0 -0.40093032622845309 -0.1177359141853024 0 -0.40265432330059442 -0.13355672260990939 0 -0.41961125067616262 -0.11908696193347471 0 -0.41629255512158397 -0.1377129053378186 0 -0.42807035163889179 -0.1328534216809785 0 -0.41961125067616262 -0.11908696193347471 0 -0.40265432330059442 -0.13355672260990939 0 -0.41629255512158397 -0.1377129053378186 0 -0.41961125067616262 -0.11908696193347471 0 -0.41525341909324709 -0.16467233119360841 0 -0.40639486875296532 -0.1534787651579817 0 -0.42473198123930589 -0.14958865530674889 0 -0.40265432330059442 -0.13355672260990939 0 -0.41629255512158397 -0.1377129053378186 0 -0.40639486875296532 -0.1534787651579817 0 -0.41629255512158397 -0.1377129053378186 0 -0.40639486875296532 -0.1534787651579817 0 -0.42473198123930589 -0.14958865530674889 0 -0.42473198123930589 -0.14958865530674889 0 -0.42807035163889179 -0.1328534216809785 0 -0.44121177927495392 -0.14045078862119989 0 -0.42473198123930589 -0.14958865530674889 0 -0.44121177927495392 -0.14045078862119989 0 -0.43886380623945559 -0.15356846574240679 0 -0.42819970729362927 -0.1630325342999388 0 -0.42473198123930589 -0.14958865530674889 0 -0.43886380623945559 -0.15356846574240679 0 -0.42807035163889179 -0.1328534216809785 0 -0.44121177927495392 -0.14045078862119989 0 -0.44052020649263562 -0.1237706642817635 0 -0.41629255512158397 -0.1377129053378186 0 -0.42473198123930589 -0.14958865530674889 0 -0.42807035163889179 -0.1328534216809785 0 -0.42807035163889179 -0.1328534216809785 0 -0.41961125067616262 -0.11908696193347471 0 -0.44052020649263562 -0.1237706642817635 0 -0.44121177927495392 -0.14045078862119989 0 -0.45463215060640871 -0.13401141268565489 0 -0.44052020649263562 -0.1237706642817635 0 -0.45463215060640871 -0.13401141268565489 0 -0.44052020649263562 -0.1237706642817635 0 -0.45426744548943471 -0.1193533059789549 0 -0.44121177927495392 -0.14045078862119989 0 -0.43886380623945559 -0.15356846574240679 0 -0.45608255742066001 -0.14860214337745109 0 -0.43886380623945559 -0.15356846574240679 0 -0.45608255742066001 -0.14860214337745109 0 -0.45231045042793411 -0.16347764433105591 0 -0.44121177927495392 -0.14045078862119989 0 -0.45608255742066001 -0.14860214337745109 0 -0.45463215060640871 -0.13401141268565489 0 -0.45608255742066001 -0.14860214337745109 0 -0.47547825210740252 -0.1352240665609912 0 -0.47287785008682048 -0.15951884034265429 0 -0.45463215060640871 -0.13401141268565489 0 -0.46392430273679369 -0.12644662627277911 0 -0.47547825210740252 -0.1352240665609912 0 -0.45608255742066001 -0.14860214337745109 0 -0.45463215060640871 -0.13401141268565489 0 -0.47547825210740252 -0.1352240665609912 0 -0.45463215060640871 -0.13401141268565489 0 -0.46392430273679369 -0.12644662627277911 0 -0.45426744548943471 -0.1193533059789549 0 -0.46392430273679369 -0.12644662627277911 0 -0.47547825210740252 -0.1352240665609912 0 -0.46881715524246459 -0.115509072659452 0 -0.47547825210740252 -0.1352240665609912 0 -0.5 -0.1279408146473501 0 -0.5 -0.15786009133021051 0 -0.47547825210740252 -0.1352240665609912 0 -0.5 -0.1279408146473501 0 -0.48354543313871412 -0.11241876297868331 0 -0.47547825210740252 -0.1352240665609912 0 -0.47287785008682048 -0.15951884034265429 0 -0.5 -0.15786009133021051 0 -0.47287785008682048 -0.15951884034265429 0 -0.48155878606986868 -0.1776905989604991 0 -0.4624385107715735 -0.17720967695669501 0 -0.47287785008682048 -0.15951884034265429 0 -0.5 -0.15786009133021051 0 -0.48155878606986868 -0.1776905989604991 0 -0.5 -0.15786009133021051 0 -0.48155878606986868 -0.1776905989604991 0 -0.5 -0.18777936801307091 0 -0.48155878606986868 -0.1776905989604991 0 -0.4821537636034337 -0.1949722228647347 0 -0.5 -0.18777936801307091 0 -0.48155878606986868 -0.1776905989604991 0 -0.4624385107715735 -0.17720967695669501 0 -0.47188259195738419 -0.1888033942556295 0 -0.48155878606986868 -0.1776905989604991 0 -0.47188259195738419 -0.1888033942556295 0 -0.4821537636034337 -0.1949722228647347 0 -0.4624385107715735 -0.17720967695669501 0 -0.44312742252763287 -0.1894785758750995 0 -0.45910734639022027 -0.19209492336163761 0 -0.4624385107715735 -0.17720967695669501 0 -0.45910734639022027 -0.19209492336163761 0 -0.47188259195738419 -0.1888033942556295 0 -0.45608255742066001 -0.14860214337745109 0 -0.47287785008682048 -0.15951884034265429 0 -0.45231045042793411 -0.16347764433105591 0 -0.47287785008682048 -0.15951884034265429 0 -0.4624385107715735 -0.17720967695669501 0 -0.45231045042793411 -0.16347764433105591 0 -0.43886380623945559 -0.15356846574240679 0 -0.45231045042793411 -0.16347764433105591 0 -0.43967826980353641 -0.16598983185647029 0 -0.45231045042793411 -0.16347764433105591 0 -0.43967826980353641 -0.16598983185647029 0 -0.44392170824555932 -0.17597690771065769 0 -0.43299418767608722 -0.1721885110817484 0 -0.43967826980353641 -0.16598983185647029 0 -0.44392170824555932 -0.17597690771065769 0 -0.4624385107715735 -0.17720967695669501 0 -0.44312742252763287 -0.1894785758750995 0 -0.4624385107715735 -0.17720967695669501 0 -0.45231045042793411 -0.16347764433105591 0 -0.44392170824555932 -0.17597690771065769 0 -0.4624385107715735 -0.17720967695669501 0 -0.44392170824555932 -0.17597690771065769 0 -0.44312742252763287 -0.1894785758750995 0 -0.4323737833018636 -0.18269374263530549 0 -0.44392170824555932 -0.17597690771065769 0 -0.44312742252763287 -0.1894785758750995 0 -0.44705482102493233 -0.20226959675108269 0 -0.44312742252763287 -0.1894785758750995 0 -0.45910734639022027 -0.19209492336163761 0 -0.42381633428369148 -0.2017474747935028 0 -0.44705482102493233 -0.20226959675108269 0 -0.44312742252763287 -0.1894785758750995 0 -0.43120297555021908 -0.20880696387193509 0 -0.45177170654188598 -0.21900342549179361 0 -0.43120297555021908 -0.20880696387193509 0 -0.44176615126813701 -0.21061690662176519 0 -0.45177170654188598 -0.21900342549179361 0 -0.43120297555021908 -0.20880696387193509 0 -0.45177170654188598 -0.21900342549179361 0 -0.43758788109215002 -0.22220435268531069 0 -0.44705482102493233 -0.20226959675108269 0 -0.43869393067953399 -0.2041801074516309 0 -0.44176615126813701 -0.21061690662176519 0 -0.44705482102493233 -0.20226959675108269 0 -0.47029330776617301 -0.20279171870866419 0 -0.47088307563406878 -0.21415777565884839 0 -0.44176615126813701 -0.21061690662176519 0 -0.47088307563406878 -0.21415777565884839 0 -0.44705482102493233 -0.20226959675108269 0 -0.44176615126813701 -0.21061690662176519 0 -0.47088307563406878 -0.21415777565884839 0 -0.44176615126813701 -0.21061690662176519 0 -0.47088307563406878 -0.21415777565884839 0 -0.45177170654188598 -0.21900342549179361 0 -0.44705482102493233 -0.20226959675108269 0 -0.47029330776617301 -0.20279171870866419 0 -0.44705482102493233 -0.20226959675108269 0 -0.45910734639022027 -0.19209492336163761 0 -0.47029330776617301 -0.20279171870866419 0 -0.45910734639022027 -0.19209492336163761 0 -0.47188259195738419 -0.1888033942556295 0 -0.47029330776617301 -0.20279171870866419 0 -0.47188259195738419 -0.1888033942556295 0 -0.47029330776617301 -0.20279171870866419 0 -0.4821537636034337 -0.1949722228647347 0 -0.47029330776617301 -0.20279171870866419 0 -0.4821537636034337 -0.1949722228647347 0 -0.47744454178686829 -0.20489338034956531 0 -0.4821537636034337 -0.1949722228647347 0 -0.48644802014379768 -0.20765180416601381 0 -0.47744454178686829 -0.20489338034956531 0 -0.4821537636034337 -0.1949722228647347 0 -0.5 -0.18777936801307091 0 -0.48644802014379768 -0.20765180416601381 0 -0.5 -0.18777936801307091 0 -0.50000000000000044 -0.21769864469593159 0 -0.48644802014379768 -0.20765180416601381 0 -0.50000000000000044 -0.21769864469593159 0 -0.48644802014379768 -0.20765180416601381 0 -0.47088307563406878 -0.21415777565884839 0 -0.50000000000000044 -0.21769864469593159 0 -0.47088307563406878 -0.21415777565884839 0 -0.50000000000000044 -0.21769864469593159 0 -0.47088307563406878 -0.21415777565884839 0 -0.48563854662296868 -0.22217063718336669 0 -0.48644802014379768 -0.20765180416601381 0 -0.47744454178686829 -0.20489338034956531 0 -0.47088307563406878 -0.21415777565884839 0 -0.47029330776617301 -0.20279171870866419 0 -0.47744454178686829 -0.20489338034956531 0 -0.47088307563406878 -0.21415777565884839 0 -0.4723404375335527 -0.22919988711165271 0 -0.4742335999572202 -0.23013837758055489 0 -0.49999999999999872 -0.22664262967080151 0 -0.47088307563406878 -0.21415777565884839 0 -0.4723404375335527 -0.22919988711165271 0 -0.48563854662296868 -0.22217063718336669 0 -0.47094076910639371 -0.23379354148897991 0 -0.4723404375335527 -0.22919988711165271 0 -0.46433196045492958 -0.23459822521954801 0 -0.47094076910639371 -0.23379354148897991 0 -0.4723404375335527 -0.22919988711165271 0 -0.4742335999572202 -0.23013837758055489 0 -0.4723404375335527 -0.22919988711165271 0 -0.4742335999572202 -0.23013837758055489 0 -0.47094076910639371 -0.23379354148897991 0 -0.4742335999572202 -0.23013837758055489 0 -0.47408190664097849 -0.2350854633862815 0 -0.4742335999572202 -0.23013837758055489 0 -0.47932989955110211 -0.23751698367441859 0 -0.47408190664097849 -0.2350854633862815 0 -0.4723404375335527 -0.22919988711165271 0 -0.49999999999999872 -0.22664262967080151 0 -0.4742335999572202 -0.23013837758055489 0 -0.49999999999999872 -0.22664262967080151 0 -0.48887384814312362 -0.23617586630737769 0 -0.4723404375335527 -0.22919988711165271 0 -0.48563854662296868 -0.22217063718336669 0 -0.49999999999999872 -0.22664262967080151 0 -0.50000000000000044 -0.21769864469593159 0 -0.48563854662296868 -0.22217063718336669 0 -0.49999999999999872 -0.22664262967080151 0 -0.5 -0.25452868202286227 0 -0.49999999999999872 -0.22664262967080151 0 -0.48887384814312362 -0.23617586630737769 0 -0.5 -0.25452868202286227 0 -0.48887384814312362 -0.23617586630737769 0 -0.48488985168481169 -0.24768668174123201 0 -0.48488985168481169 -0.24768668174123201 0 -0.47932989955110211 -0.23751698367441859 0 -0.47467447318562589 -0.247274770813766 0 -0.4742335999572202 -0.23013837758055489 0 -0.48887384814312362 -0.23617586630737769 0 -0.47932989955110211 -0.23751698367441859 0 -0.48887384814312362 -0.23617586630737769 0 -0.48488985168481169 -0.24768668174123201 0 -0.47932989955110211 -0.23751698367441859 0 -0.47932989955110211 -0.23751698367441859 0 -0.47408190664097849 -0.2350854633862815 0 -0.4694242281581843 -0.23957885851643801 0 -0.47932989955110211 -0.23751698367441859 0 -0.4694242281581843 -0.23957885851643801 0 -0.47467447318562589 -0.247274770813766 0 -0.47094076910639371 -0.23379354148897991 0 -0.47408190664097849 -0.2350854633862815 0 -0.4694242281581843 -0.23957885851643801 0 -0.4694242281581843 -0.23957885851643801 0 -0.47467447318562589 -0.247274770813766 0 -0.46349610418455361 -0.24941977676296981 0 -0.4694242281581843 -0.23957885851643801 0 -0.46349610418455361 -0.24941977676296981 0 -0.45785983818577269 -0.23925466711189361 0 -0.45785983818577269 -0.23925466711189361 0 -0.45109452929074428 -0.23116417186877611 0 -0.45112804841280352 -0.24736566691844331 0 -0.46349610418455361 -0.24941977676296981 0 -0.45785983818577269 -0.23925466711189361 0 -0.45112804841280352 -0.24736566691844331 0 -0.45785983818577269 -0.23925466711189361 0 -0.46433196045492958 -0.23459822521954801 0 -0.45109452929074428 -0.23116417186877611 0 -0.4694242281581843 -0.23957885851643801 0 -0.45785983818577269 -0.23925466711189361 0 -0.46433196045492958 -0.23459822521954801 0 -0.47094076910639371 -0.23379354148897991 0 -0.4694242281581843 -0.23957885851643801 0 -0.46433196045492958 -0.23459822521954801 0 -0.4723404375335527 -0.22919988711165271 0 -0.45109452929074428 -0.23116417186877611 0 -0.4723404375335527 -0.22919988711165271 0 -0.45109452929074428 -0.23116417186877611 0 -0.45177170654188598 -0.21900342549179361 0 -0.47088307563406878 -0.21415777565884839 0 -0.4723404375335527 -0.22919988711165271 0 -0.45177170654188598 -0.21900342549179361 0 -0.4723404375335527 -0.22919988711165271 0 -0.45177170654188598 -0.21900342549179361 0 -0.4723404375335527 -0.22919988711165271 0 -0.46433196045492958 -0.23459822521954801 0 -0.45109452929074428 -0.23116417186877611 0 -0.42984862104793597 -0.2331284566258999 0 -0.45109452929074428 -0.23116417186877611 0 -0.43758788109215002 -0.22220435268531069 0 -0.42984862104793597 -0.2331284566258999 0 -0.45109452929074428 -0.23116417186877611 0 -0.45109452929074428 -0.23116417186877611 0 -0.45177170654188598 -0.21900342549179361 0 -0.43758788109215002 -0.22220435268531069 0 -0.45109452929074428 -0.23116417186877611 0 -0.44019851167852708 -0.2438185884147287 0 -0.45112804841280352 -0.24736566691844331 0 -0.42984862104793597 -0.2331284566258999 0 -0.45109452929074428 -0.23116417186877611 0 -0.44019851167852708 -0.2438185884147287 0 -0.44089724879962422 -0.25705080147496268 0 -0.44019851167852708 -0.2438185884147287 0 -0.45112804841280352 -0.24736566691844331 0 -0.41642461966825739 -0.038780318134391617 0 -0.39660359679998269 -0.04864869666535452 0 -0.41642461966825739 -0.038780318134391617 0 -0.41089756014276457 -0.0273465628944418 0 -0.40389605463513911 -0.032560068849224209 0 -0.41642461966825739 -0.038780318134391617 0 -0.41094595120592048 -0.059827218664694537 0 -0.39660359679998269 -0.04864869666535452 0 -0.41642461966825739 -0.038780318134391617 0 -0.41094595120592048 -0.059827218664694537 0 -0.43734467008401551 -0.053300942227107413 0 -0.41642461966825739 -0.038780318134391617 0 -0.43734467008401551 -0.053300942227107413 0 -0.43624564253653308 -0.028911939603430602 0 -0.41642461966825739 -0.038780318134391617 0 -0.43624564253653308 -0.028911939603430602 0 -0.42651670953999299 -0.02743871733018971 0 -0.41642461966825739 -0.038780318134391617 0 -0.43624564253653308 -0.028911939603430602 0 -0.43734467008401551 -0.053300942227107413 0 -0.43624564253653308 -0.028911939603430602 0 -0.43624564253653308 -0.028911939603430602 0 -0.43236152417736318 -0.024620958449988819 0 -0.42651670953999299 -0.02743871733018971 0 -0.43624564253653308 -0.028911939603430602 0 -0.43614231701588069 -0.02661899762933518 0 -0.43624564253653308 -0.028911939603430602 0 -0.43236152417736318 -0.024620958449988819 0 -0.43614231701588069 -0.02661899762933518 0 -0.43236152417736318 -0.024620958449988819 0 -0.43614231701588069 -0.02661899762933518 0 -0.43447602696831228 -0.019394361176616259 0 -0.43614231701588069 -0.02661899762933518 0 -0.43447602696831228 -0.019394361176616259 0 -0.44086609746596123 -0.015603548146179751 0 -0.43447602696831228 -0.019394361176616259 0 -0.42840815569638052 -0.020259332766170649 0 -0.43155956440364018 -0.009729027194740893 0 -0.43236152417736318 -0.024620958449988819 0 -0.43447602696831228 -0.019394361176616259 0 -0.42840815569638052 -0.020259332766170649 0 -0.42840815569638052 -0.020259332766170649 0 -0.42228607738355889 -0.01460963477476428 0 -0.41914360562143232 -0.024621037696969099 0 -0.42840815569638052 -0.020259332766170649 0 -0.42651670953999299 -0.02743871733018971 0 -0.41914360562143232 -0.024621037696969099 0 -0.43236152417736318 -0.024620958449988819 0 -0.42840815569638052 -0.020259332766170649 0 -0.42651670953999299 -0.02743871733018971 0 -0.43447602696831228 -0.019394361176616259 0 -0.43155956440364018 -0.009729027194740893 0 -0.44086609746596123 -0.015603548146179751 0 -0.43155956440364018 -0.009729027194740893 0 -0.42228607738355889 -0.01460963477476428 0 -0.4230662589463603 -0.0056159073786445886 0 -0.42840815569638052 -0.020259332766170649 0 -0.43155956440364018 -0.009729027194740893 0 -0.42228607738355889 -0.01460963477476428 0 -0.43155956440364018 -0.009729027194740893 0 -0.4230662589463603 -0.0056159073786445886 0 -0.42634609871420909 0.0034385233172496981 0 -0.41451770114082392 -0.0075748115369784208 0 -0.40818426180049322 -0.018414492171847541 0 -0.40354340475790651 -0.001711349368747884 0 -0.4230662589463603 -0.0056159073786445886 0 -0.41451770114082392 -0.0075748115369784208 0 -0.41479875472881578 0.0017581986360569841 0 -0.4230662589463603 -0.0056159073786445886 0 -0.42634609871420909 0.0034385233172496981 0 -0.41479875472881578 0.0017581986360569841 0 -0.42228607738355889 -0.01460963477476428 0 -0.4230662589463603 -0.0056159073786445886 0 -0.41451770114082392 -0.0075748115369784208 0 -0.42228607738355889 -0.01460963477476428 0 -0.41451770114082392 -0.0075748115369784208 0 -0.40818426180049322 -0.018414492171847541 0 -0.41451770114082392 -0.0075748115369784208 0 -0.40354340475790651 -0.001711349368747884 0 -0.41479875472881578 0.0017581986360569841 0 -0.41642461966825739 -0.038780318134391617 0 -0.41914360562143232 -0.024621037696969099 0 -0.41089756014276457 -0.0273465628944418 0 -0.41642461966825739 -0.038780318134391617 0 -0.42651670953999299 -0.02743871733018971 0 -0.41914360562143232 -0.024621037696969099 0 -0.42228607738355889 -0.01460963477476428 0 -0.41914360562143232 -0.024621037696969099 0 -0.40818426180049322 -0.018414492171847541 0 -0.41914360562143232 -0.024621037696969099 0 -0.40818426180049322 -0.018414492171847541 0 -0.41089756014276457 -0.0273465628944418 0 -0.41089756014276457 -0.0273465628944418 0 -0.39900166095625689 -0.02335357220873055 0 -0.40389605463513911 -0.032560068849224209 0 -0.40818426180049322 -0.018414492171847541 0 -0.41089756014276457 -0.0273465628944418 0 -0.39900166095625689 -0.02335357220873055 0 -0.40818426180049322 -0.018414492171847541 0 -0.39900166095625689 -0.02335357220873055 0 -0.39601249246356579 -0.013364601210793961 0 -0.39900166095625689 -0.02335357220873055 0 -0.39601249246356579 -0.013364601210793961 0 -0.38898856531765202 -0.027465942039138481 0 -0.39900166095625689 -0.02335357220873055 0 -0.38898856531765202 -0.027465942039138481 0 -0.40389605463513911 -0.032560068849224209 0 -0.40818426180049322 -0.018414492171847541 0 -0.40354340475790651 -0.001711349368747884 0 -0.39601249246356579 -0.013364601210793961 0 -0.40354340475790651 -0.001711349368747884 0 -0.39601249246356579 -0.013364601210793961 0 -0.38811447903349 -0.0040798262151835194 0 -0.39601249246356579 -0.013364601210793961 0 -0.38811447903349 -0.0040798262151835194 0 -0.38156162261841758 -0.01725389145580325 0 -0.3727358861435085 -0.0050323493054692404 0 -0.38811447903349 -0.0040798262151835194 0 -0.38156162261841758 -0.01725389145580325 0 -0.39601249246356579 -0.013364601210793961 0 -0.38898856531765202 -0.027465942039138481 0 -0.38156162261841758 -0.01725389145580325 0 -0.36640977996650081 -0.020757215748155051 0 -0.38156162261841758 -0.01725389145580325 0 -0.37710853278578887 -0.032823414216079233 0 -0.38898856531765202 -0.027465942039138481 0 -0.38156162261841758 -0.01725389145580325 0 -0.37710853278578887 -0.032823414216079233 0 -0.37873360014167717 -0.046513508685770269 0 -0.38937576736963558 -0.038819406701810652 0 -0.39660359679998269 -0.04864869666535452 0 -0.37710853278578887 -0.032823414216079233 0 -0.37873360014167717 -0.046513508685770269 0 -0.38937576736963558 -0.038819406701810652 0 -0.38898856531765202 -0.027465942039138481 0 -0.37710853278578887 -0.032823414216079233 0 -0.38937576736963558 -0.038819406701810652 0 -0.38898856531765202 -0.027465942039138481 0 -0.38937576736963558 -0.038819406701810652 0 -0.40389605463513911 -0.032560068849224209 0 -0.41642461966825739 -0.038780318134391617 0 -0.40389605463513911 -0.032560068849224209 0 -0.39660359679998269 -0.04864869666535452 0 -0.38937576736963558 -0.038819406701810652 0 -0.40389605463513911 -0.032560068849224209 0 -0.39660359679998269 -0.04864869666535452 0 -0.40389605463513911 -0.032560068849224209 0 -0.39660359679998269 -0.04864869666535452 0 -0.39660359679998269 -0.04864869666535452 0 -0.3891352523764367 -0.065125365649829764 0 -0.41094595120592048 -0.059827218664694537 0 -0.39660359679998269 -0.04864869666535452 0 -0.3891352523764367 -0.065125365649829764 0 -0.37380297530261808 -0.060000540875037763 0 -0.39660359679998269 -0.04864869666535452 0 -0.38387928808743421 -0.060749340458391893 0 -0.37380297530261808 -0.060000540875037763 0 -0.37873360014167717 -0.046513508685770269 0 -0.39660359679998269 -0.04864869666535452 0 -0.39660359679998269 -0.04864869666535452 0 -0.38387928808743421 -0.060749340458391893 0 -0.3891352523764367 -0.065125365649829764 0 -0.37380297530261808 -0.060000540875037763 0 -0.39660359679998269 -0.04864869666535452 0 -0.37380297530261808 -0.060000540875037763 0 -0.38387928808743421 -0.060749340458391893 0 -0.37847935165696289 -0.065243277807741057 0 -0.3891352523764367 -0.065125365649829764 0 -0.38012634405356899 -0.085000828259634315 0 -0.36942556315627179 -0.0699414471004733 0 -0.37847935165696289 -0.065243277807741057 0 -0.37795871742840242 -0.07224925570900935 0 -0.37847935165696289 -0.065243277807741057 0 -0.3891352523764367 -0.065125365649829764 0 -0.37795871742840242 -0.07224925570900935 0 -0.3891352523764367 -0.065125365649829764 0 -0.38012634405356899 -0.085000828259634315 0 -0.39001826349955449 -0.078625208110986486 0 -0.3891352523764367 -0.065125365649829764 0 -0.37795871742840242 -0.07224925570900935 0 -0.38012634405356899 -0.085000828259634315 0 -0.38387928808743421 -0.060749340458391893 0 -0.37847935165696289 -0.065243277807741057 0 -0.3891352523764367 -0.065125365649829764 0 -0.38387928808743421 -0.060749340458391893 0 -0.3891352523764367 -0.065125365649829764 0 -0.39001826349955449 -0.078625208110986486 0 -0.38857797430804453 -0.10175896650277209 0 -0.38012634405356899 -0.085000828259634315 0 -0.39001826349955449 -0.078625208110986486 0 -0.38857797430804453 -0.10175896650277209 0 -0.39001826349955449 -0.078625208110986486 0 -0.40206768076457577 -0.091413582361850987 0 -0.38857797430804453 -0.10175896650277209 0 -0.39001826349955449 -0.078625208110986486 0 -0.40206768076457577 -0.091413582361850987 0 -0.40494622760153531 -0.078289310852233784 0 -0.41094595120592048 -0.059827218664694537 0 -0.3891352523764367 -0.065125365649829764 0 -0.40494622760153531 -0.078289310852233784 0 -0.3891352523764367 -0.065125365649829764 0 -0.40494622760153531 -0.078289310852233784 0 -0.3891352523764367 -0.065125365649829764 0 -0.39001826349955449 -0.078625208110986486 0 -0.40494622760153531 -0.078289310852233784 0 -0.373055432903801 -0.11982488062040859 0 -0.38713768511653451 -0.1248927248945577 0 -0.38857797430804453 -0.10175896650277209 0 -0.38713768511653451 -0.1248927248945577 0 -0.38857797430804453 -0.10175896650277209 0 -0.37111743573070249 -0.10487629086943941 0 -0.38012634405356899 -0.085000828259634315 0 -0.38857797430804453 -0.10175896650277209 0 -0.37111743573070249 -0.10487629086943941 0 -0.373055432903801 -0.11982488062040859 0 -0.38857797430804453 -0.10175896650277209 0 -0.37111743573070249 -0.10487629086943941 0 -0.38012634405356899 -0.085000828259634315 0 -0.38857797430804453 -0.10175896650277209 0 -0.40093032622845309 -0.1177359141853024 0 -0.40812693535521088 -0.1054121459346009 0 -0.40206768076457577 -0.091413582361850987 0 -0.38857797430804453 -0.10175896650277209 0 -0.40812693535521088 -0.1054121459346009 0 -0.38713768511653451 -0.1248927248945577 0 -0.38857797430804453 -0.10175896650277209 0 -0.40093032622845309 -0.1177359141853024 0 -0.40093032622845309 -0.1177359141853024 0 -0.41961125067616262 -0.11908696193347471 0 -0.40812693535521088 -0.1054121459346009 0 -0.40265432330059442 -0.13355672260990939 0 -0.40093032622845309 -0.1177359141853024 0 -0.41961125067616262 -0.11908696193347471 0 -0.41961125067616262 -0.11908696193347471 0 -0.42126589172743478 -0.10514239129493901 0 -0.40812693535521088 -0.1054121459346009 0 -0.40206768076457577 -0.091413582361850987 0 -0.40812693535521088 -0.1054121459346009 0 -0.42075720282663381 -0.091453256054638055 0 -0.42126589172743478 -0.10514239129493901 0 -0.40812693535521088 -0.1054121459346009 0 -0.42075720282663381 -0.091453256054638055 0 -0.43656817805173248 -0.10461720125704201 0 -0.42075720282663381 -0.091453256054638055 0 -0.43656817805173248 -0.10461720125704201 0 -0.42075720282663381 -0.091453256054638055 0 -0.43954272517897619 -0.1020789474744614 0 -0.42126589172743478 -0.10514239129493901 0 -0.43656817805173248 -0.10461720125704201 0 -0.42075720282663381 -0.091453256054638055 0 -0.41961125067616262 -0.11908696193347471 0 -0.44052020649263562 -0.1237706642817635 0 -0.43977751352054989 -0.10728923860111481 0 -0.41961125067616262 -0.11908696193347471 0 -0.42126589172743478 -0.10514239129493901 0 -0.43656817805173248 -0.10461720125704201 0 -0.41961125067616262 -0.11908696193347471 0 -0.43656817805173248 -0.10461720125704201 0 -0.41961125067616262 -0.11908696193347471 0 -0.43656817805173248 -0.10461720125704201 0 -0.43977751352054989 -0.10728923860111481 0 -0.41094595120592048 -0.059827218664694537 0 -0.40494622760153531 -0.078289310852233784 0 -0.42122134070529521 -0.074818678459250068 0 -0.40494622760153531 -0.078289310852233784 0 -0.42122134070529521 -0.074818678459250068 0 -0.42075720282663381 -0.091453256054638055 0 -0.40206768076457577 -0.091413582361850987 0 -0.40494622760153531 -0.078289310852233784 0 -0.42075720282663381 -0.091453256054638055 0 -0.40494622760153531 -0.078289310852233784 0 -0.42075720282663381 -0.091453256054638055 0 -0.42122134070529521 -0.074818678459250068 0 -0.42075720282663381 -0.091453256054638055 0 -0.43844369763149671 -0.077689944850784398 0 -0.42075720282663381 -0.091453256054638055 0 -0.43844369763149671 -0.077689944850784398 0 -0.43954272517897619 -0.1020789474744614 0 -0.43734467008401551 -0.053300942227107413 0 -0.42122134070529521 -0.074818678459250068 0 -0.43844369763149671 -0.077689944850784398 0 -0.41094595120592048 -0.059827218664694537 0 -0.43734467008401551 -0.053300942227107413 0 -0.42122134070529521 -0.074818678459250068 0 -0.43844369763149671 -0.077689944850784398 0 -0.45571840652412687 -0.085652441097851528 0 -0.4564944222375833 -0.065806266033449787 0 -0.43734467008401551 -0.053300942227107413 0 -0.43844369763149671 -0.077689944850784398 0 -0.43734467008401551 -0.053300942227107413 0 -0.43844369763149671 -0.077689944850784398 0 -0.4564944222375833 -0.065806266033449787 0 -0.43844369763149671 -0.077689944850784398 0 -0.43954272517897619 -0.1020789474744614 0 -0.43844369763149671 -0.077689944850784398 0 -0.4477986049915228 -0.089859317952725448 0 -0.44382917895391799 -0.098421211677146792 0 -0.43844369763149671 -0.077689944850784398 0 -0.4477986049915228 -0.089859317952725448 0 -0.45571840652412687 -0.085652441097851528 0 -0.43844369763149671 -0.077689944850784398 0 -0.43954272517897619 -0.1020789474744614 0 -0.44382917895391799 -0.098421211677146792 0 -0.4477986049915228 -0.089859317952725448 0 -0.45571840652412687 -0.085652441097851528 0 -0.45320313685654978 -0.097673674185119061 0 -0.45571840652412687 -0.085652441097851528 0 -0.46591582706502499 -0.1000544782053677 0 -0.4723533346409361 -0.079244334674497902 0 -0.45571840652412687 -0.085652441097851528 0 -0.4564944222375833 -0.065806266033449787 0 -0.4723533346409361 -0.079244334674497902 0 -0.4564944222375833 -0.065806266033449787 0 -0.4723533346409361 -0.079244334674497902 0 -0.47687012251745931 -0.055565710757322528 0 -0.44052020649263562 -0.1237706642817635 0 -0.43977751352054989 -0.10728923860111481 0 -0.44052020649263562 -0.1237706642817635 0 -0.43977751352054989 -0.10728923860111481 0 -0.45426744548943471 -0.1193533059789549 0 -0.45189682731040459 -0.10746678177029099 0 -0.43977751352054989 -0.10728923860111481 0 -0.45426744548943471 -0.1193533059789549 0 -0.43977751352054989 -0.10728923860111481 0 -0.45426744548943471 -0.1193533059789549 0 -0.45189682731040459 -0.10746678177029099 0 -0.44571453091961322 -0.1031945604138743 0 -0.43977751352054989 -0.10728923860111481 0 -0.45189682731040459 -0.10746678177029099 0 -0.44571453091961322 -0.1031945604138743 0 -0.45320313685654978 -0.097673674185119061 0 -0.43656817805173248 -0.10461720125704201 0 -0.43977751352054989 -0.10728923860111481 0 -0.43977751352054989 -0.10728923860111481 0 -0.43954272517897619 -0.1020789474744614 0 -0.43656817805173248 -0.10461720125704201 0 -0.43977751352054989 -0.10728923860111481 0 -0.43954272517897619 -0.1020789474744614 0 -0.43656817805173248 -0.10461720125704201 0 -0.43954272517897619 -0.1020789474744614 0 -0.44571453091961322 -0.1031945604138743 0 -0.43977751352054989 -0.10728923860111481 0 -0.43954272517897619 -0.1020789474744614 0 -0.43954272517897619 -0.1020789474744614 0 -0.44382917895391799 -0.098421211677146792 0 -0.44571453091961322 -0.1031945604138743 0 -0.43954272517897619 -0.1020789474744614 0 -0.44382917895391799 -0.098421211677146792 0 -0.4477986049915228 -0.089859317952725448 0 -0.44382917895391799 -0.098421211677146792 0 -0.45320313685654978 -0.097673674185119061 0 -0.44571453091961322 -0.1031945604138743 0 -0.44382917895391799 -0.098421211677146792 0 -0.45320313685654978 -0.097673674185119061 0 -0.45189682731040459 -0.10746678177029099 0 -0.46591582706502499 -0.1000544782053677 0 -0.46881715524246459 -0.115509072659452 0 -0.45571840652412687 -0.085652441097851528 0 -0.45320313685654978 -0.097673674185119061 0 -0.46591582706502499 -0.1000544782053677 0 -0.45189682731040459 -0.10746678177029099 0 -0.45320313685654978 -0.097673674185119061 0 -0.46591582706502499 -0.1000544782053677 0 -0.45189682731040459 -0.10746678177029099 0 -0.45426744548943471 -0.1193533059789549 0 -0.46881715524246459 -0.115509072659452 0 -0.46392430273679369 -0.12644662627277911 0 -0.45426744548943471 -0.1193533059789549 0 -0.46881715524246459 -0.115509072659452 0 -0.47547825210740252 -0.1352240665609912 0 -0.48354543313871412 -0.11241876297868331 0 -0.46881715524246459 -0.115509072659452 0 -0.46591582706502499 -0.1000544782053677 0 -0.48354543313871412 -0.11241876297868331 0 -0.48361279281764669 -0.092399189609369922 0 -0.46591582706502499 -0.1000544782053677 0 -0.48354543313871412 -0.11241876297868331 0 -0.46881715524246459 -0.115509072659452 0 -0.48354543313871412 -0.11241876297868331 0 -0.5 -0.098021537964489536 0 -0.48361279281764669 -0.092399189609369922 0 -0.5 -0.1279408146473501 0 -0.48354543313871412 -0.11241876297868331 0 -0.5 -0.098021537964489536 0 -0.4723533346409361 -0.079244334674497902 0 -0.5 -0.068102261281629106 0 -0.47687012251745931 -0.055565710757322528 0 -0.46591582706502499 -0.1000544782053677 0 -0.48361279281764669 -0.092399189609369922 0 -0.4723533346409361 -0.079244334674497902 0 -0.48361279281764669 -0.092399189609369922 0 -0.4723533346409361 -0.079244334674497902 0 -0.5 -0.068102261281629106 0 -0.5 -0.098021537964489536 0 -0.48361279281764669 -0.092399189609369922 0 -0.5 -0.068102261281629106 0 -0.5 -0.068102261281629106 0 -0.5 -0.038182984598768677 0 -0.47687012251745931 -0.055565710757322528 0 -0.5 -0.038182984598768677 0 -0.47880267208788507 -0.032501392464563642 0 -0.47687012251745931 -0.055565710757322528 0 -0.47880267208788507 -0.032501392464563642 0 -0.47687012251745931 -0.055565710757322528 0 -0.45823630202746563 -0.043384222593135013 0 -0.4564944222375833 -0.065806266033449787 0 -0.47687012251745931 -0.055565710757322528 0 -0.45823630202746563 -0.043384222593135013 0 -0.47880267208788507 -0.032501392464563642 0 -0.45823630202746563 -0.043384222593135013 0 -0.46436617754035697 -0.027843536358910161 0 -0.45823630202746563 -0.043384222593135013 0 -0.45288616935525677 -0.031002688878359209 0 -0.46436617754035697 -0.027843536358910161 0 -0.43734467008401551 -0.053300942227107413 0 -0.45823630202746563 -0.043384222593135013 0 -0.44577194772285872 -0.038878515454087471 0 -0.43624564253653308 -0.028911939603430602 0 -0.44577194772285872 -0.038878515454087471 0 -0.45288616935525677 -0.031002688878359209 0 -0.43734467008401551 -0.053300942227107413 0 -0.43624564253653308 -0.028911939603430602 0 -0.44577194772285872 -0.038878515454087471 0 -0.45823630202746563 -0.043384222593135013 0 -0.44577194772285872 -0.038878515454087471 0 -0.45288616935525677 -0.031002688878359209 0 -0.43734467008401551 -0.053300942227107413 0 -0.4564944222375833 -0.065806266033449787 0 -0.45823630202746563 -0.043384222593135013 0 -0.45268984637942927 -0.015521969219030681 0 -0.44052134192037312 0.0077433011281837294 0 -0.45268984637942927 -0.015521969219030681 0 -0.45905748688569292 0.00014468263979291099 0 -0.44052134192037312 0.0077433011281837294 0 -0.45268984637942927 -0.015521969219030681 0 -0.44086609746596123 -0.015603548146179751 0 -0.44052134192037312 0.0077433011281837294 0 -0.43155956440364018 -0.009729027194740893 0 -0.44086609746596123 -0.015603548146179751 0 -0.44052134192037312 0.0077433011281837294 0 -0.43624564253653308 -0.028911939603430602 0 -0.43614231701588069 -0.02661899762933518 0 -0.45268984637942927 -0.015521969219030681 0 -0.43624564253653308 -0.028911939603430602 0 -0.45288616935525677 -0.031002688878359209 0 -0.46082639764396738 -0.016673812560785092 0 -0.43624564253653308 -0.028911939603430602 0 -0.45268984637942927 -0.015521969219030681 0 -0.46082639764396738 -0.016673812560785092 0 -0.43624564253653308 -0.028911939603430602 0 -0.46082639764396738 -0.016673812560785092 0 -0.43614231701588069 -0.02661899762933518 0 -0.45268984637942927 -0.015521969219030681 0 -0.44086609746596123 -0.015603548146179751 0 -0.45288616935525677 -0.031002688878359209 0 -0.46082639764396738 -0.016673812560785092 0 -0.46436617754035697 -0.027843536358910161 0 -0.46082639764396738 -0.016673812560785092 0 -0.46436617754035697 -0.027843536358910161 0 -0.47633723465163719 -0.017532386308101149 0 -0.45268984637942927 -0.015521969219030681 0 -0.46082639764396738 -0.016673812560785092 0 -0.45905748688569292 0.00014468263979291099 0 -0.46082639764396738 -0.016673812560785092 0 -0.47769092598597629 -0.0023794822403386002 0 -0.45905748688569292 0.00014468263979291099 0 -0.46082639764396738 -0.016673812560785092 0 -0.47769092598597629 -0.0023794822403386002 0 -0.47633723465163719 -0.017532386308101149 0 -0.47880267208788507 -0.032501392464563642 0 -0.46436617754035697 -0.027843536358910161 0 -0.47633723465163719 -0.017532386308101149 0 -0.47880267208788507 -0.032501392464563642 0 -0.47633723465163719 -0.017532386308101149 0 -0.5 -0.0082637079159082472 0 -0.5 -0.038182984598768677 0 -0.47880267208788507 -0.032501392464563642 0 -0.5 -0.0082637079159082472 0 -0.47769092598597629 -0.0023794822403386002 0 -0.47633723465163719 -0.017532386308101149 0 -0.5 -0.0082637079159082472 0 -0.47769092598597629 -0.0023794822403386002 0 -0.5 -0.0082637079159082472 0 -0.5 0.021655568766952241 0 -0.5 0.021655568766952241 0 -0.47237292914098272 0.018024535219458321 0 -0.47235132372320338 0.044256482206469223 0 -0.47769092598597629 -0.0023794822403386002 0 -0.47237292914098272 0.018024535219458321 0 -0.45905748688569292 0.00014468263979291099 0 -0.47769092598597629 -0.0023794822403386002 0 -0.5 0.021655568766952241 0 -0.47237292914098272 0.018024535219458321 0 -0.5 0.051574845449812723 0 -0.47235132372320338 0.044256482206469223 0 -0.48314646650624338 0.06477175179210258 0 -0.5 0.021655568766952241 0 -0.5 0.051574845449812723 0 -0.47235132372320338 0.044256482206469223 0 -0.47235132372320338 0.044256482206469223 0 -0.46546695432921009 0.069880326681046129 0 -0.48314646650624338 0.06477175179210258 0 -0.47235132372320338 0.044256482206469223 0 -0.44719588890140471 0.052764249168672957 0 -0.46546695432921009 0.069880326681046129 0 -0.47235132372320338 0.044256482206469223 0 -0.44719588890140471 0.052764249168672957 0 -0.4533086346721622 0.02565697030632921 0 -0.44719588890140471 0.052764249168672957 0 -0.4533086346721622 0.02565697030632921 0 -0.4283528374613168 0.031008571475398119 0 -0.44719588890140471 0.052764249168672957 0 -0.42957485807747797 0.053487758796535903 0 -0.43677472253173272 0.064893804533657298 0 -0.47237292914098272 0.018024535219458321 0 -0.45905748688569292 0.00014468263979291099 0 -0.4533086346721622 0.02565697030632921 0 -0.47237292914098272 0.018024535219458321 0 -0.47235132372320338 0.044256482206469223 0 -0.4533086346721622 0.02565697030632921 0 -0.4533086346721622 0.02565697030632921 0 -0.44052134192037312 0.0077433011281837294 0 -0.4283528374613168 0.031008571475398119 0 -0.45905748688569292 0.00014468263979291099 0 -0.4533086346721622 0.02565697030632921 0 -0.44052134192037312 0.0077433011281837294 0 -0.43155956440364018 -0.009729027194740893 0 -0.44052134192037312 0.0077433011281837294 0 -0.42634609871420909 0.0034385233172496981 0 -0.44052134192037312 0.0077433011281837294 0 -0.42634609871420909 0.0034385233172496981 0 -0.4283528374613168 0.031008571475398119 0 -0.42634609871420909 0.0034385233172496981 0 -0.41479875472881578 0.0017581986360569841 0 -0.41219604021997192 0.01385938646501471 0 -0.40354340475790651 -0.001711349368747884 0 -0.41479875472881578 0.0017581986360569841 0 -0.41219604021997192 0.01385938646501471 0 -0.41219604021997192 0.01385938646501471 0 -0.4283528374613168 0.031008571475398119 0 -0.40406486621437621 0.030024681396925861 0 -0.42634609871420909 0.0034385233172496981 0 -0.41219604021997192 0.01385938646501471 0 -0.4283528374613168 0.031008571475398119 0 -0.44052134192037312 0.0077433011281837294 0 -0.4283528374613168 0.031008571475398119 0 -0.44719588890140471 0.052764249168672957 0 -0.4283528374613168 0.031008571475398119 0 -0.42957485807747797 0.053487758796535903 0 -0.4283528374613168 0.031008571475398119 0 -0.4161843330022606 0.054273841822612502 0 -0.4283528374613168 0.031008571475398119 0 -0.42957485807747797 0.053487758796535903 0 -0.4161843330022606 0.054273841822612502 0 -0.42957485807747797 0.053487758796535903 0 -0.41936650849067508 0.06449832698233865 0 -0.43677472253173272 0.064893804533657298 0 -0.4161843330022606 0.054273841822612502 0 -0.41190507461612919 0.040800504646253753 0 -0.39901826178656352 0.047894923890078517 0 -0.4161843330022606 0.054273841822612502 0 -0.39901826178656352 0.047894923890078517 0 -0.41936650849067508 0.06449832698233865 0 -0.39901826178656352 0.047894923890078517 0 -0.41936650849067508 0.06449832698233865 0 -0.39901826178656352 0.047894923890078517 0 -0.40265401881179619 0.06359879603933348 0 -0.41936650849067508 0.06449832698233865 0 -0.42957485807747797 0.053487758796535903 0 -0.4161843330022606 0.054273841822612502 0 -0.41936650849067508 0.06449832698233865 0 -0.4283528374613168 0.031008571475398119 0 -0.4161843330022606 0.054273841822612502 0 -0.41190507461612919 0.040800504646253753 0 -0.4283528374613168 0.031008571475398119 0 -0.41190507461612919 0.040800504646253753 0 -0.40406486621437621 0.030024681396925861 0 -0.39901826178656352 0.047894923890078517 0 -0.38551900320531501 0.029094762978980601 0 -0.40406486621437621 0.030024681396925861 0 -0.41190507461612919 0.040800504646253753 0 -0.39901826178656352 0.047894923890078517 0 -0.40406486621437621 0.030024681396925861 0 -0.39901826178656352 0.047894923890078517 0 -0.388845472156647 0.059784113351215903 0 -0.40265401881179619 0.06359879603933348 0 -0.39901826178656352 0.047894923890078517 0 -0.388845472156647 0.059784113351215903 0 -0.38348463903866259 0.044802097910515211 0 -0.388845472156647 0.059784113351215903 0 -0.38348463903866259 0.044802097910515211 0 -0.37383807879763031 0.055065091997188967 0 -0.38348463903866259 0.044802097910515211 0 -0.38551900320531501 0.029094762978980601 0 -0.37259768205274452 0.035313509304904928 0 -0.38348463903866259 0.044802097910515211 0 -0.37259768205274452 0.035313509304904928 0 -0.37383807879763031 0.055065091997188967 0 -0.39901826178656352 0.047894923890078517 0 -0.38348463903866259 0.044802097910515211 0 -0.38551900320531501 0.029094762978980601 0 -0.38551900320531501 0.029094762978980601 0 -0.37644711720780888 0.01293353161802571 0 -0.37259768205274452 0.035313509304904928 0 -0.38551900320531501 0.029094762978980601 0 -0.37644711720780888 0.01293353161802571 0 -0.39526362157828437 0.02015261735334669 0 -0.3727358861435085 -0.0050323493054692404 0 -0.38811447903349 -0.0040798262151835194 0 -0.37644711720780888 0.01293353161802571 0 -0.38811447903349 -0.0040798262151835194 0 -0.37644711720780888 0.01293353161802571 0 -0.39348712634180411 0.0074059512740417902 0 -0.37644711720780888 0.01293353161802571 0 -0.39348712634180411 0.0074059512740417902 0 -0.39526362157828437 0.02015261735334669 0 -0.41219604021997192 0.01385938646501471 0 -0.39348712634180411 0.0074059512740417902 0 -0.39526362157828437 0.02015261735334669 0 -0.40354340475790651 -0.001711349368747884 0 -0.41219604021997192 0.01385938646501471 0 -0.39348712634180411 0.0074059512740417902 0 -0.40354340475790651 -0.001711349368747884 0 -0.38811447903349 -0.0040798262151835194 0 -0.39348712634180411 0.0074059512740417902 0 -0.41219604021997192 0.01385938646501471 0 -0.39526362157828437 0.02015261735334669 0 -0.40406486621437621 0.030024681396925861 0 -0.38551900320531501 0.029094762978980601 0 -0.39526362157828437 0.02015261735334669 0 -0.40406486621437621 0.030024681396925861 0 -0.39596198308202191 0.10082531817026349 0 -0.40610856250752991 0.1100822863616214 0 -0.40831012214748369 0.092701689252969663 0 -0.39596198308202191 0.10082531817026349 0 -0.39121924637401911 0.1186905530681384 0 -0.40610856250752991 0.1100822863616214 0 -0.39121924637401911 0.1186905530681384 0 -0.40610856250752991 0.1100822863616214 0 -0.41188713018768031 0.12665792156459341 0 -0.39121924637401911 0.1186905530681384 0 -0.37863962855358257 0.097394840853382056 0 -0.37266194517571088 0.11924582587637 0 -0.39596198308202191 0.10082531817026349 0 -0.39121924637401911 0.1186905530681384 0 -0.37863962855358257 0.097394840853382056 0 -0.39596198308202191 0.10082531817026349 0 -0.37863962855358257 0.097394840853382056 0 -0.39457782222065468 0.0862529933168215 0 -0.37863962855358257 0.097394840853382056 0 -0.37795838316975011 0.075530906237203529 0 -0.39457782222065468 0.0862529933168215 0 -0.388845472156647 0.059784113351215903 0 -0.37795838316975011 0.075530906237203529 0 -0.37383807879763031 0.055065091997188967 0 -0.37795838316975011 0.075530906237203529 0 -0.39611945133547932 0.071812864032975682 0 -0.39457782222065468 0.0862529933168215 0 -0.388845472156647 0.059784113351215903 0 -0.37795838316975011 0.075530906237203529 0 -0.39611945133547932 0.071812864032975682 0 -0.388845472156647 0.059784113351215903 0 -0.39611945133547932 0.071812864032975682 0 -0.40265401881179619 0.06359879603933348 0 -0.39611945133547932 0.071812864032975682 0 -0.39457782222065468 0.0862529933168215 0 -0.41001683835926422 0.074871045854665794 0 -0.39611945133547932 0.071812864032975682 0 -0.40265401881179619 0.06359879603933348 0 -0.41001683835926422 0.074871045854665794 0 -0.39457782222065468 0.0862529933168215 0 -0.40831012214748369 0.092701689252969663 0 -0.41001683835926422 0.074871045854665794 0 -0.39596198308202191 0.10082531817026349 0 -0.39457782222065468 0.0862529933168215 0 -0.40831012214748369 0.092701689252969663 0 -0.40831012214748369 0.092701689252969663 0 -0.41001683835926422 0.074871045854665794 0 -0.42199986276063511 0.08204159357200784 0 -0.40831012214748369 0.092701689252969663 0 -0.42199986276063511 0.08204159357200784 0 -0.42362351084865951 0.096305654604052229 0 -0.41001683835926422 0.074871045854665794 0 -0.41936650849067508 0.06449832698233865 0 -0.42199986276063511 0.08204159357200784 0 -0.40265401881179619 0.06359879603933348 0 -0.41001683835926422 0.074871045854665794 0 -0.41936650849067508 0.06449832698233865 0 -0.41936650849067508 0.06449832698233865 0 -0.43677472253173272 0.064893804533657298 0 -0.4397147551947867 0.081101730074598838 0 -0.41936650849067508 0.06449832698233865 0 -0.42199986276063511 0.08204159357200784 0 -0.4397147551947867 0.081101730074598838 0 -0.41936650849067508 0.06449832698233865 0 -0.4397147551947867 0.081101730074598838 0 -0.42199986276063511 0.08204159357200784 0 -0.43102887031750747 0.088203833388877509 0 -0.4397147551947867 0.081101730074598838 0 -0.42199986276063511 0.08204159357200784 0 -0.43102887031750747 0.088203833388877509 0 -0.42362351084865951 0.096305654604052229 0 -0.43102887031750747 0.088203833388877509 0 -0.4397147551947867 0.081101730074598838 0 -0.43877735246594901 0.093366355304851129 0 -0.43102887031750747 0.088203833388877509 0 -0.42362351084865951 0.096305654604052229 0 -0.43877735246594901 0.093366355304851129 0 -0.42553169535651991 0.1128121683209326 0 -0.44470049234425718 0.1199539701567575 0 -0.43877735246594901 0.093366355304851129 0 -0.42362351084865951 0.096305654604052229 0 -0.42553169535651991 0.1128121683209326 0 -0.43877735246594901 0.093366355304851129 0 -0.40610856250752991 0.1100822863616214 0 -0.40831012214748369 0.092701689252969663 0 -0.42362351084865951 0.096305654604052229 0 -0.40610856250752991 0.1100822863616214 0 -0.42362351084865951 0.096305654604052229 0 -0.42553169535651991 0.1128121683209326 0 -0.40610856250752991 0.1100822863616214 0 -0.42553169535651991 0.1128121683209326 0 -0.41188713018768031 0.12665792156459341 0 -0.42553169535651991 0.1128121683209326 0 -0.41188713018768031 0.12665792156459341 0 -0.43055611729894289 0.13494313714694131 0 -0.42553169535651991 0.1128121683209326 0 -0.44470049234425718 0.1199539701567575 0 -0.43055611729894289 0.13494313714694131 0 -0.44470049234425718 0.1199539701567575 0 -0.46006300189889843 0.097705133166859026 0 -0.43877735246594901 0.093366355304851129 0 -0.44470049234425718 0.1199539701567575 0 -0.43877735246594901 0.093366355304851129 0 -0.46006300189889843 0.097705133166859026 0 -0.48041124860300999 0.1143085362591192 0 -0.46405412127144791 0.12660858834733721 0 -0.44470049234425718 0.1199539701567575 0 -0.46006300189889843 0.097705133166859026 0 -0.46405412127144791 0.12660858834733721 0 -0.43677472253173272 0.064893804533657298 0 -0.44954477751245192 0.06991692202180963 0 -0.4397147551947867 0.081101730074598838 0 -0.44719588890140471 0.052764249168672957 0 -0.43677472253173272 0.064893804533657298 0 -0.44954477751245192 0.06991692202180963 0 -0.46006300189889843 0.097705133166859026 0 -0.44954477751245192 0.06991692202180963 0 -0.4397147551947867 0.081101730074598838 0 -0.46006300189889843 0.097705133166859026 0 -0.4397147551947867 0.081101730074598838 0 -0.46006300189889843 0.097705133166859026 0 -0.4397147551947867 0.081101730074598838 0 -0.43877735246594901 0.093366355304851129 0 -0.46006300189889843 0.097705133166859026 0 -0.44954477751245192 0.06991692202180963 0 -0.46546695432921009 0.069880326681046129 0 -0.44719588890140471 0.052764249168672957 0 -0.44954477751245192 0.06991692202180963 0 -0.46546695432921009 0.069880326681046129 0 -0.46546695432921009 0.069880326681046129 0 -0.48314646650624338 0.06477175179210258 0 -0.48139378781537379 0.08948337828717158 0 -0.46006300189889843 0.097705133166859026 0 -0.46546695432921009 0.069880326681046129 0 -0.48139378781537379 0.08948337828717158 0 -0.48314646650624338 0.06477175179210258 0 -0.48139378781537379 0.08948337828717158 0 -0.5 0.081494122132673152 0 -0.5 0.051574845449812723 0 -0.48314646650624338 0.06477175179210258 0 -0.5 0.081494122132673152 0 -0.48041124860300999 0.1143085362591192 0 -0.48513130152580197 0.12882436416716039 0 -0.46405412127144791 0.12660858834733721 0 -0.46006300189889843 0.097705133166859026 0 -0.48041124860300999 0.1143085362591192 0 -0.46006300189889843 0.097705133166859026 0 -0.48139378781537379 0.08948337828717158 0 -0.48041124860300999 0.1143085362591192 0 -0.48139378781537379 0.08948337828717158 0 -0.5 0.081494122132673152 0 -0.5 0.1114133988155336 0 -0.48139378781537379 0.08948337828717158 0 -0.48041124860300999 0.1143085362591192 0 -0.5 0.1114133988155336 0 -0.48041124860300999 0.1143085362591192 0 -0.5 0.1114133988155336 0 -0.48513130152580197 0.12882436416716039 0 -0.5 0.1114133988155336 0 -0.48513130152580197 0.12882436416716039 0 -0.5 0.14133267549839409 0 -0.48513130152580197 0.12882436416716039 0 -0.47398255240840709 0.14284662209366061 0 -0.5 0.14133267549839409 0 -0.48513130152580197 0.12882436416716039 0 -0.47398255240840709 0.14284662209366061 0 -0.46405412127144791 0.12660858834733721 0 -0.47398255240840709 0.14284662209366061 0 -0.47959556109513007 0.15552351467848621 0 -0.46585654009822802 0.15686665851508411 0 -0.47959556109513007 0.15552351467848621 0 -0.5 0.14133267549839409 0 -0.49045998213724051 0.16312846053292521 0 -0.47398255240840709 0.14284662209366061 0 -0.47959556109513007 0.15552351467848621 0 -0.5 0.14133267549839409 0 -0.5 0.14133267549839409 0 -0.5 0.17125195218125461 0 -0.49045998213724051 0.16312846053292521 0 -0.5 0.17125195218125461 0 -0.49045998213724051 0.16312846053292521 0 -0.48402872839729139 0.17433287490630381 0 -0.5 0.17125195218125461 0 -0.48500981559002893 0.18700982880994549 0 -0.5 0.20117122886411501 0 -0.5 0.17125195218125461 0 -0.48500981559002893 0.18700982880994549 0 -0.48402872839729139 0.17433287490630381 0 -0.48500981559002893 0.18700982880994549 0 -0.48402872839729139 0.17433287490630381 0 -0.47184193647183248 0.1822207357411203 0 -0.48402872839729139 0.17433287490630381 0 -0.47184193647183248 0.1822207357411203 0 -0.47350337711905699 0.16812883019674749 0 -0.49045998213724051 0.16312846053292521 0 -0.47350337711905699 0.16812883019674749 0 -0.47959556109513007 0.15552351467848621 0 -0.49045998213724051 0.16312846053292521 0 -0.47350337711905699 0.16812883019674749 0 -0.49045998213724051 0.16312846053292521 0 -0.48402872839729139 0.17433287490630381 0 -0.47350337711905699 0.16812883019674749 0 -0.47959556109513007 0.15552351467848621 0 -0.47350337711905699 0.16812883019674749 0 -0.46585654009822802 0.15686665851508411 0 -0.47350337711905699 0.16812883019674749 0 -0.45654677210087352 0.17312919986056999 0 -0.45654677210087352 0.17312919986056999 0 -0.4506236322225653 0.14654158500866371 0 -0.46585654009822802 0.15686665851508411 0 -0.45654677210087352 0.17312919986056999 0 -0.4506236322225653 0.14654158500866371 0 -0.47350337711905699 0.16812883019674749 0 -0.46585654009822802 0.15686665851508411 0 -0.45654677210087352 0.17312919986056999 0 -0.45654677210087352 0.17312919986056999 0 -0.46069385395941309 0.1917444980773112 0 -0.45654677210087352 0.17312919986056999 0 -0.46069385395941309 0.1917444980773112 0 -0.44633603776944653 0.18805229923720571 0 -0.47184193647183248 0.1822207357411203 0 -0.45654677210087352 0.17312919986056999 0 -0.46069385395941309 0.1917444980773112 0 -0.47184193647183248 0.1822207357411203 0 -0.47350337711905699 0.16812883019674749 0 -0.45654677210087352 0.17312919986056999 0 -0.45654677210087352 0.17312919986056999 0 -0.42818495003240131 0.18149287847016349 0 -0.45654677210087352 0.17312919986056999 0 -0.44633603776944653 0.18805229923720571 0 -0.42818495003240131 0.18149287847016349 0 -0.45654677210087352 0.17312919986056999 0 -0.43276028739042122 0.1578044664100956 0 -0.42818495003240131 0.18149287847016349 0 -0.45654677210087352 0.17312919986056999 0 -0.4506236322225653 0.14654158500866371 0 -0.43276028739042122 0.1578044664100956 0 -0.4506236322225653 0.14654158500866371 0 -0.43055611729894289 0.13494313714694131 0 -0.43276028739042122 0.1578044664100956 0 -0.44470049234425718 0.1199539701567575 0 -0.4506236322225653 0.14654158500866371 0 -0.44470049234425718 0.1199539701567575 0 -0.4506236322225653 0.14654158500866371 0 -0.43055611729894289 0.13494313714694131 0 -0.44470049234425718 0.1199539701567575 0 -0.4506236322225653 0.14654158500866371 0 -0.46405412127144791 0.12660858834733721 0 -0.47398255240840709 0.14284662209366061 0 -0.4506236322225653 0.14654158500866371 0 -0.46405412127144791 0.12660858834733721 0 -0.47398255240840709 0.14284662209366061 0 -0.46585654009822802 0.15686665851508411 0 -0.4506236322225653 0.14654158500866371 0 -0.47452615834669432 0.24180038639937829 0 -0.5 0.23109050554697549 0 -0.5 0.26100978222983601 0 -0.5 0.23109050554697549 0 -0.47859126844344158 0.2235184497598913 0 -0.48432497459320151 0.20841968306112041 0 -0.47452615834669432 0.24180038639937829 0 -0.47859126844344158 0.2235184497598913 0 -0.46347752402272352 0.2292083191815758 0 -0.47452615834669432 0.24180038639937829 0 -0.5 0.23109050554697549 0 -0.47859126844344158 0.2235184497598913 0 -0.47859126844344158 0.2235184497598913 0 -0.46647893587811462 0.21536441910117751 0 -0.46347752402272352 0.2292083191815758 0 -0.47859126844344158 0.2235184497598913 0 -0.47369457232361561 0.21046496728686309 0 -0.46647893587811462 0.21536441910117751 0 -0.47369457232361561 0.21046496728686309 0 -0.48432497459320151 0.20841968306112041 0 -0.47126907166433168 0.1989791825958441 0 -0.47369457232361561 0.21046496728686309 0 -0.47126907166433168 0.1989791825958441 0 -0.46484093581795272 0.21035979629405219 0 -0.47859126844344158 0.2235184497598913 0 -0.47369457232361561 0.21046496728686309 0 -0.48432497459320151 0.20841968306112041 0 -0.5 0.23109050554697549 0 -0.48432497459320151 0.20841968306112041 0 -0.5 0.20117122886411501 0 -0.48500981559002893 0.18700982880994549 0 -0.48432497459320151 0.20841968306112041 0 -0.5 0.20117122886411501 0 -0.48500981559002893 0.18700982880994549 0 -0.48432497459320151 0.20841968306112041 0 -0.47126907166433168 0.1989791825958441 0 -0.48500981559002893 0.18700982880994549 0 -0.47184193647183248 0.1822207357411203 0 -0.47126907166433168 0.1989791825958441 0 -0.47184193647183248 0.1822207357411203 0 -0.47126907166433168 0.1989791825958441 0 -0.46069385395941309 0.1917444980773112 0 -0.46069385395941309 0.1917444980773112 0 -0.46484093581795272 0.21035979629405219 0 -0.47126907166433168 0.1989791825958441 0 -0.46069385395941309 0.1917444980773112 0 -0.46484093581795272 0.21035979629405219 0 -0.46069385395941309 0.1917444980773112 0 -0.45031905668633909 0.1982703569198494 0 -0.46484093581795272 0.21035979629405219 0 -0.46069385395941309 0.1917444980773112 0 -0.44633603776944653 0.18805229923720571 0 -0.45031905668633909 0.1982703569198494 0 -0.44633603776944653 0.18805229923720571 0 -0.45031905668633909 0.1982703569198494 0 -0.43593555606820539 0.19562456285813451 0 -0.45031905668633909 0.1982703569198494 0 -0.44355272047494432 0.2085020257773301 0 -0.43593555606820539 0.19562456285813451 0 -0.44355272047494432 0.2085020257773301 0 -0.45089830109323392 0.22371385158012619 0 -0.43251749079479618 0.22281596030164949 0 -0.45031905668633909 0.1982703569198494 0 -0.44355272047494432 0.2085020257773301 0 -0.46484093581795272 0.21035979629405219 0 -0.44355272047494432 0.2085020257773301 0 -0.46647893587811462 0.21536441910117751 0 -0.44355272047494432 0.2085020257773301 0 -0.46484093581795272 0.21035979629405219 0 -0.46647893587811462 0.21536441910117751 0 -0.44355272047494432 0.2085020257773301 0 -0.46647893587811462 0.21536441910117751 0 -0.45089830109323392 0.22371385158012619 0 -0.47369457232361561 0.21046496728686309 0 -0.46484093581795272 0.21035979629405219 0 -0.46647893587811462 0.21536441910117751 0 -0.46347752402272352 0.2292083191815758 0 -0.45089830109323392 0.22371385158012619 0 -0.44689295635213322 0.24164448906730571 0 -0.46647893587811462 0.21536441910117751 0 -0.46347752402272352 0.2292083191815758 0 -0.45089830109323392 0.22371385158012619 0 -0.45089830109323392 0.22371385158012619 0 -0.44689295635213322 0.24164448906730571 0 -0.43251749079479618 0.22281596030164949 0 -0.47452615834669432 0.24180038639937829 0 -0.46347752402272352 0.2292083191815758 0 -0.44689295635213322 0.24164448906730571 0 -0.47452615834669432 0.24180038639937829 0 -0.44689295635213322 0.24164448906730571 0 -0.46610852269701719 0.26093384423378352 0 -0.40689822137541132 0.2368176938792087 0 -0.42189819271725543 0.24343350545188239 0 -0.41504677901668768 0.22705929070848871 0 -0.40689822137541132 0.2368176938792087 0 -0.42189819271725543 0.24343350545188239 0 -0.40592372611597038 0.25351311705686119 0 -0.44689295635213322 0.24164448906730571 0 -0.42189819271725543 0.24343350545188239 0 -0.42499008188577281 0.23189496878966739 0 -0.44689295635213322 0.24164448906730571 0 -0.42189819271725543 0.24343350545188239 0 -0.4265864995108426 0.26173109908361419 0 -0.44689295635213322 0.24164448906730571 0 -0.42499008188577281 0.23189496878966739 0 -0.43251749079479618 0.22281596030164949 0 -0.42499008188577281 0.23189496878966739 0 -0.43251749079479618 0.22281596030164949 0 -0.41504677901668768 0.22705929070848871 0 -0.41504677901668768 0.22705929070848871 0 -0.40819575251081941 0.21865997449275451 0 -0.39872697973184268 0.2244365901427236 0 -0.43251749079479618 0.22281596030164949 0 -0.41504677901668768 0.22705929070848871 0 -0.41764104165283961 0.21519831246025209 0 -0.40689822137541132 0.2368176938792087 0 -0.41504677901668768 0.22705929070848871 0 -0.39872697973184268 0.2244365901427236 0 -0.42189819271725543 0.24343350545188239 0 -0.42499008188577281 0.23189496878966739 0 -0.41504677901668768 0.22705929070848871 0 -0.41504677901668768 0.22705929070848871 0 -0.40819575251081941 0.21865997449275451 0 -0.41764104165283961 0.21519831246025209 0 -0.41149668994342409 0.20999161678644679 0 -0.41629834242849412 0.20034410443433731 0 -0.3975030037435795 0.20761513650228941 0 -0.41629834242849412 0.20034410443433731 0 -0.3975030037435795 0.20761513650228941 0 -0.40819575251081941 0.21865997449275451 0 -0.41149668994342409 0.20999161678644679 0 -0.41764104165283961 0.21519831246025209 0 -0.41149668994342409 0.20999161678644679 0 -0.4180266913966364 0.20753458623649881 0 -0.41629834242849412 0.20034410443433731 0 -0.41149668994342409 0.20999161678644679 0 -0.4180266913966364 0.20753458623649881 0 -0.41764104165283961 0.21519831246025209 0 -0.4180266913966364 0.20753458623649881 0 -0.42062650507177413 0.20163963245348271 0 -0.41629834242849412 0.20034410443433731 0 -0.4180266913966364 0.20753458623649881 0 -0.41764104165283961 0.21519831246025209 0 -0.42823389710095761 0.21094832804322741 0 -0.43251749079479618 0.22281596030164949 0 -0.41764104165283961 0.21519831246025209 0 -0.42823389710095761 0.21094832804322741 0 -0.44355272047494432 0.2085020257773301 0 -0.42823389710095761 0.21094832804322741 0 -0.42062650507177413 0.20163963245348271 0 -0.44355272047494432 0.2085020257773301 0 -0.42062650507177413 0.20163963245348271 0 -0.44355272047494432 0.2085020257773301 0 -0.43251749079479618 0.22281596030164949 0 -0.42823389710095761 0.21094832804322741 0 -0.4180266913966364 0.20753458623649881 0 -0.42823389710095761 0.21094832804322741 0 -0.42062650507177413 0.20163963245348271 0 -0.43593555606820539 0.19562456285813451 0 -0.42062650507177413 0.20163963245348271 0 -0.42818495003240131 0.18149287847016349 0 -0.44355272047494432 0.2085020257773301 0 -0.43593555606820539 0.19562456285813451 0 -0.42062650507177413 0.20163963245348271 0 -0.44633603776944653 0.18805229923720571 0 -0.43593555606820539 0.19562456285813451 0 -0.42818495003240131 0.18149287847016349 0 -0.42062650507177413 0.20163963245348271 0 -0.39982312796392921 0.18985655707975729 0 -0.42818495003240131 0.18149287847016349 0 -0.42062650507177413 0.20163963245348271 0 -0.41629834242849412 0.20034410443433731 0 -0.39982312796392921 0.18985655707975729 0 -0.41629834242849412 0.20034410443433731 0 -0.39770028966860382 0.19477723912963529 0 -0.42062650507177413 0.20163963245348271 0 -0.41629834242849412 0.20034410443433731 0 -0.41629834242849412 0.20034410443433731 0 -0.40084338961963389 0.20111334343546591 0 -0.3975030037435795 0.20761513650228941 0 -0.41629834242849412 0.20034410443433731 0 -0.40084338961963389 0.20111334343546591 0 -0.39770028966860382 0.19477723912963529 0 -0.41629834242849412 0.20034410443433731 0 -0.39982312796392921 0.18985655707975729 0 -0.39770028966860382 0.19477723912963529 0 -0.40084338961963389 0.20111334343546591 0 -0.39205330465310678 0.2011109238694995 0 -0.39770028966860382 0.19477723912963529 0 -0.39205330465310678 0.2011109238694995 0 -0.39770028966860382 0.19477723912963529 0 -0.38345345020348248 0.19797374236049509 0 -0.39770028966860382 0.19477723912963529 0 -0.39458924588678668 0.18907625355377469 0 -0.38741217208859519 0.18742057866046519 0 -0.39982312796392921 0.18985655707975729 0 -0.39770028966860382 0.19477723912963529 0 -0.39458924588678668 0.18907625355377469 0 -0.39982312796392921 0.18985655707975729 0 -0.39458924588678668 0.18907625355377469 0 -0.39635436725167222 0.1857691545938609 0 -0.39770028966860382 0.19477723912963529 0 -0.38345345020348248 0.19797374236049509 0 -0.37348501022645753 0.18766201671544791 0 -0.39770028966860382 0.19477723912963529 0 -0.38741217208859519 0.18742057866046519 0 -0.37348501022645753 0.18766201671544791 0 -0.37888904707391341 0.2142801987641389 0 -0.37348501022645753 0.18766201671544791 0 -0.38345345020348248 0.19797374236049509 0 -0.37888904707391341 0.2142801987641389 0 -0.37348501022645753 0.18766201671544791 0 -0.39770028966860382 0.19477723912963529 0 -0.37348501022645753 0.18766201671544791 0 -0.37888904707391341 0.2142801987641389 0 -0.3975030037435795 0.20761513650228941 0 -0.38868092528430831 0.22117196172167139 0 -0.37888904707391341 0.2142801987641389 0 -0.3975030037435795 0.20761513650228941 0 -0.39205330465310678 0.2011109238694995 0 -0.37888904707391341 0.2142801987641389 0 -0.3975030037435795 0.20761513650228941 0 -0.39205330465310678 0.2011109238694995 0 -0.38345345020348248 0.19797374236049509 0 -0.37888904707391341 0.2142801987641389 0 -0.40819575251081941 0.21865997449275451 0 -0.3975030037435795 0.20761513650228941 0 -0.39872697973184268 0.2244365901427236 0 -0.3975030037435795 0.20761513650228941 0 -0.39872697973184268 0.2244365901427236 0 -0.38868092528430831 0.22117196172167139 0 -0.40084338961963389 0.20111334343546591 0 -0.39205330465310678 0.2011109238694995 0 -0.3975030037435795 0.20761513650228941 0 -0.40819575251081941 0.21865997449275451 0 -0.41149668994342409 0.20999161678644679 0 -0.3975030037435795 0.20761513650228941 0 -0.40689822137541132 0.2368176938792087 0 -0.39872697973184268 0.2244365901427236 0 -0.39442001868011412 0.23507198129336329 0 -0.39872697973184268 0.2244365901427236 0 -0.38868092528430831 0.22117196172167139 0 -0.39442001868011412 0.23507198129336329 0 -0.37888904707391341 0.2142801987641389 0 -0.38868092528430831 0.22117196172167139 0 -0.38203887030088679 0.22979500194619101 0 -0.37888904707391341 0.2142801987641389 0 -0.38203887030088679 0.22979500194619101 0 -0.36999901698636273 0.22932405624317739 0 -0.37888904707391341 0.2142801987641389 0 -0.38203887030088679 0.22979500194619101 0 -0.38203887030088679 0.22979500194619101 0 -0.37629231649560863 0.23842558874520081 0 -0.36999901698636273 0.22932405624317739 0 -0.38868092528430831 0.22117196172167139 0 -0.38203887030088679 0.22979500194619101 0 -0.39442001868011412 0.23507198129336329 0 -0.38203887030088679 0.22979500194619101 0 -0.38526095272109828 0.24529513503010819 0 -0.38203887030088679 0.22979500194619101 0 -0.38526095272109828 0.24529513503010819 0 -0.39442001868011412 0.23507198129336329 0 -0.38203887030088679 0.22979500194619101 0 -0.37629231649560863 0.23842558874520081 0 -0.38526095272109828 0.24529513503010819 0 -0.37629231649560863 0.23842558874520081 0 -0.37763970978882072 0.2474514091889734 0 -0.38526095272109828 0.24529513503010819 0 -0.40689822137541132 0.2368176938792087 0 -0.39442001868011412 0.23507198129336329 0 -0.40592372611597038 0.25351311705686119 0 -0.38526095272109828 0.24529513503010819 0 -0.40592372611597038 0.25351311705686119 0 -0.38526095272109828 0.24529513503010819 0 -0.39442001868011412 0.23507198129336329 0 -0.40592372611597038 0.25351311705686119 0 -0.41783346629221391 0.14588871142060489 0 -0.4111882954212987 0.162547575084107 0 -0.40179255497620481 0.14206953521383939 0 -0.41783346629221391 0.14588871142060489 0 -0.43276028739042122 0.1578044664100956 0 -0.4111882954212987 0.162547575084107 0 -0.41783346629221391 0.14588871142060489 0 -0.41188713018768031 0.12665792156459341 0 -0.43055611729894289 0.13494313714694131 0 -0.41783346629221391 0.14588871142060489 0 -0.41188713018768031 0.12665792156459341 0 -0.40179255497620481 0.14206953521383939 0 -0.41783346629221391 0.14588871142060489 0 -0.43055611729894289 0.13494313714694131 0 -0.43276028739042122 0.1578044664100956 0 -0.43276028739042122 0.1578044664100956 0 -0.42818495003240131 0.18149287847016349 0 -0.4111882954212987 0.162547575084107 0 -0.39982312796392921 0.18985655707975729 0 -0.42818495003240131 0.18149287847016349 0 -0.40636880978383533 0.17935943119362299 0 -0.39982312796392921 0.18985655707975729 0 -0.42818495003240131 0.18149287847016349 0 -0.42818495003240131 0.18149287847016349 0 -0.40636880978383533 0.17935943119362299 0 -0.4111882954212987 0.162547575084107 0 -0.40636880978383533 0.17935943119362299 0 -0.4111882954212987 0.162547575084107 0 -0.39725437601896069 0.1725308610519368 0 -0.4111882954212987 0.162547575084107 0 -0.39379467285130731 0.15911936991891859 0 -0.39725437601896069 0.1725308610519368 0 -0.39379467285130731 0.15911936991891859 0 -0.39725437601896069 0.1725308610519368 0 -0.38782855409090389 0.17121567838004231 0 -0.39982312796392921 0.18985655707975729 0 -0.40636880978383533 0.17935943119362299 0 -0.40008099632396549 0.1827910632068063 0 -0.39982312796392921 0.18985655707975729 0 -0.40008099632396549 0.1827910632068063 0 -0.39635436725167222 0.1857691545938609 0 -0.40636880978383533 0.17935943119362299 0 -0.40008099632396549 0.1827910632068063 0 -0.39725437601896069 0.1725308610519368 0 -0.39725437601896069 0.1725308610519368 0 -0.39494048704709073 0.18193191128931879 0 -0.388213903554677 0.18036141187270571 0 -0.40008099632396549 0.1827910632068063 0 -0.39725437601896069 0.1725308610519368 0 -0.39494048704709073 0.18193191128931879 0 -0.39725437601896069 0.1725308610519368 0 -0.388213903554677 0.18036141187270571 0 -0.38782855409090389 0.17121567838004231 0 -0.40008099632396549 0.1827910632068063 0 -0.39494048704709073 0.18193191128931879 0 -0.39635436725167222 0.1857691545938609 0 -0.39494048704709073 0.18193191128931879 0 -0.39233797903658879 0.18518998783964749 0 -0.388213903554677 0.18036141187270571 0 -0.39458924588678668 0.18907625355377469 0 -0.39233797903658879 0.18518998783964749 0 -0.39635436725167222 0.1857691545938609 0 -0.39458924588678668 0.18907625355377469 0 -0.39233797903658879 0.18518998783964749 0 -0.38741217208859519 0.18742057866046519 0 -0.39494048704709073 0.18193191128931879 0 -0.39233797903658879 0.18518998783964749 0 -0.39635436725167222 0.1857691545938609 0 -0.38171216100325722 0.17762615634199891 0 -0.37939642227564419 0.1646715288330112 0 -0.37348501022645753 0.18766201671544791 0 -0.37939642227564419 0.1646715288330112 0 -0.37348501022645753 0.18766201671544791 0 -0.38741217208859519 0.18742057866046519 0 -0.388213903554677 0.18036141187270571 0 -0.38085526557422311 0.18419896120482879 0 -0.39233797903658879 0.18518998783964749 0 -0.38741217208859519 0.18742057866046519 0 -0.388213903554677 0.18036141187270571 0 -0.388213903554677 0.18036141187270571 0 -0.38171216100325722 0.17762615634199891 0 -0.38085526557422311 0.18419896120482879 0 -0.388213903554677 0.18036141187270571 0 -0.38171216100325722 0.17762615634199891 0 -0.38782855409090389 0.17121567838004231 0 -0.38171216100325722 0.17762615634199891 0 -0.38085526557422311 0.18419896120482879 0 -0.37348501022645753 0.18766201671544791 0 -0.38741217208859519 0.18742057866046519 0 -0.38085526557422311 0.18419896120482879 0 -0.37348501022645753 0.18766201671544791 0 -0.39379467285130731 0.15911936991891859 0 -0.38782855409090389 0.17121567838004231 0 -0.37939642227564419 0.1646715288330112 0 -0.38171216100325722 0.17762615634199891 0 -0.38782855409090389 0.17121567838004231 0 -0.37939642227564419 0.1646715288330112 0 -0.37939642227564419 0.1646715288330112 0 -0.38530783432483168 0.14168104095057479 0 -0.36813595810524308 0.1613146680260075 0 -0.39379467285130731 0.15911936991891859 0 -0.37939642227564419 0.1646715288330112 0 -0.38530783432483168 0.14168104095057479 0 -0.37939642227564419 0.1646715288330112 0 -0.38530783432483168 0.14168104095057479 0 -0.39379467285130731 0.15911936991891859 0 -0.38530783432483168 0.14168104095057479 0 -0.40179255497620481 0.14206953521383939 0 -0.4111882954212987 0.162547575084107 0 -0.39379467285130731 0.15911936991891859 0 -0.40179255497620481 0.14206953521383939 0 -0.39121924637401911 0.1186905530681384 0 -0.41188713018768031 0.12665792156459341 0 -0.40179255497620481 0.14206953521383939 0 -0.39121924637401911 0.1186905530681384 0 -0.38530783432483168 0.14168104095057479 0 -0.40179255497620481 0.14206953521383939 0 -0.39121924637401911 0.1186905530681384 0 -0.38530783432483168 0.14168104095057479 0 -0.37266194517571088 0.11924582587637 0 -0.39121924637401911 0.1186905530681384 0 -0.38530783432483168 0.14168104095057479 0 -0.38530783432483168 0.14168104095057479 0 -0.3627869059840278 0.13496731933656719 0 -0.37266194517571088 0.11924582587637 0 -0.3627869059840278 0.13496731933656719 0 -0.34997758287436442 0.1512845326090585 0 -0.3412064166712514 0.1237543988795269 0 -0.3627869059840278 0.13496731933656719 0 -0.34997758287436442 0.1512845326090585 0 -0.36813595810524308 0.1613146680260075 0 -0.38530783432483168 0.14168104095057479 0 -0.3627869059840278 0.13496731933656719 0 -0.36813595810524308 0.1613146680260075 0 -0.3627869059840278 0.13496731933656719 0 -0.36813595810524308 0.1613146680260075 0 -0.37939642227564419 0.1646715288330112 0 -0.36813595810524308 0.1613146680260075 0 -0.37348501022645753 0.18766201671544791 0 -0.36813595810524308 0.1613146680260075 0 -0.36654307007594689 0.17199076443900371 0 -0.35625396961913702 0.16602138559483989 0 -0.36813595810524308 0.1613146680260075 0 -0.37348501022645753 0.18766201671544791 0 -0.36783554831434651 0.1829058803210197 0 -0.36654307007594689 0.17199076443900371 0 -0.37348501022645753 0.18766201671544791 0 -0.36813595810524308 0.1613146680260075 0 -0.36654307007594689 0.17199076443900371 0 -0.37348501022645753 0.18766201671544791 0 -0.36783554831434651 0.1829058803210197 0 -0.37348501022645753 0.18766201671544791 0 -0.36711439258564182 0.18887983985585169 0 -0.36783554831434651 0.1829058803210197 0 -0.36654307007594689 0.17199076443900371 0 -0.36419972036933979 0.18309090027377559 0 -0.36654307007594689 0.17199076443900371 0 -0.35670289029538921 0.1783101732417888 0 -0.35625396961913702 0.16602138559483989 0 -0.36654307007594689 0.17199076443900371 0 -0.36419972036933979 0.18309090027377559 0 -0.35670289029538921 0.1783101732417888 0 -0.36419972036933979 0.18309090027377559 0 -0.35670289029538921 0.1783101732417888 0 -0.36102354239922441 0.1915861078914628 0 -0.36783554831434651 0.1829058803210197 0 -0.36419972036933979 0.18309090027377559 0 -0.36711439258564182 0.18887983985585169 0 -0.33950551805932738 0.16919168386260511 0 -0.34891491593461521 0.1954177277824021 0 -0.35670289029538921 0.1783101732417888 0 -0.33950551805932738 0.16919168386260511 0 -0.34891491593461521 0.1954177277824021 0 -0.34997758287436442 0.1512845326090585 0 -0.36813595810524308 0.1613146680260075 0 -0.35625396961913702 0.16602138559483989 0 -0.34997758287436442 0.1512845326090585 0 -0.35625396961913702 0.16602138559483989 0 -0.33950551805932738 0.16919168386260511 0 -0.35670289029538921 0.1783101732417888 0 -0.35625396961913702 0.16602138559483989 0 -0.33950551805932738 0.16919168386260511 0 -0.33950551805932738 0.16919168386260511 0 -0.3165577483891806 0.1691692618640365 0 -0.33009612018403972 0.14296563994280809 0 -0.33950551805932738 0.16919168386260511 0 -0.3165577483891806 0.1691692618640365 0 -0.33174122468229872 0.1917912191023208 0 -0.33950551805932738 0.16919168386260511 0 -0.34891491593461521 0.1954177277824021 0 -0.33174122468229872 0.1917912191023208 0 -0.3165577483891806 0.1691692618640365 0 -0.33174122468229872 0.1917912191023208 0 -0.31472940787682951 0.19474584608242351 0 -0.33009612018403972 0.14296563994280809 0 -0.30991442990740953 0.13230010932235239 0 -0.31216125732809302 0.14797223823963659 0 -0.3165577483891806 0.1691692618640365 0 -0.33009612018403972 0.14296563994280809 0 -0.31216125732809302 0.14797223823963659 0 -0.33009612018403972 0.14296563994280809 0 -0.30991442990740953 0.13230010932235239 0 -0.32324864512390789 0.1216825000927344 0 -0.33009612018403972 0.14296563994280809 0 -0.3412064166712514 0.1237543988795269 0 -0.32324864512390789 0.1216825000927344 0 -0.34997758287436442 0.1512845326090585 0 -0.33009612018403972 0.14296563994280809 0 -0.3412064166712514 0.1237543988795269 0 -0.34997758287436442 0.1512845326090585 0 -0.33950551805932738 0.16919168386260511 0 -0.33009612018403972 0.14296563994280809 0 -0.33950551805932738 0.16919168386260511 0 -0.33009612018403972 0.14296563994280809 0 -0.35106365726006378 0.2424575940342536 0 -0.35941510122654441 0.2372735369053188 0 -0.35414526533921098 0.23131871319146971 0 -0.35106365726006378 0.2424575940342536 0 -0.36171405935762979 0.24587739131352379 0 -0.35941510122654441 0.2372735369053188 0 -0.35106365726006378 0.2424575940342536 0 -0.36171405935762979 0.24587739131352379 0 -0.36108095298844539 0.25717626776004388 0 -0.36171405935762979 0.24587739131352379 0 -0.36826282134177207 0.24083588741512371 0 -0.36995129617131689 0.25104890021408138 0 -0.37763970978882072 0.2474514091889734 0 -0.36826282134177207 0.24083588741512371 0 -0.36995129617131689 0.25104890021408138 0 -0.37629231649560863 0.23842558874520081 0 -0.37763970978882072 0.2474514091889734 0 -0.36826282134177207 0.24083588741512371 0 -0.37629231649560863 0.23842558874520081 0 -0.36826282134177207 0.24083588741512371 0 -0.36999901698636273 0.22932405624317739 0 -0.36826282134177207 0.24083588741512371 0 -0.36452955255595348 0.23374441817685579 0 -0.36999901698636273 0.22932405624317739 0 -0.36826282134177207 0.24083588741512371 0 -0.35941510122654441 0.2372735369053188 0 -0.36452955255595348 0.23374441817685579 0 -0.36171405935762979 0.24587739131352379 0 -0.36826282134177207 0.24083588741512371 0 -0.35941510122654441 0.2372735369053188 0 -0.36452955255595348 0.23374441817685579 0 -0.36044127066913489 0.2275441921438035 0 -0.36999901698636273 0.22932405624317739 0 -0.37888904707391341 0.2142801987641389 0 -0.36999901698636273 0.22932405624317739 0 -0.35832431380990282 0.22164377170219901 0 -0.35941510122654441 0.2372735369053188 0 -0.36452955255595348 0.23374441817685579 0 -0.36044127066913489 0.2275441921438035 0 -0.36044127066913489 0.2275441921438035 0 -0.36999901698636273 0.22932405624317739 0 -0.35832431380990282 0.22164377170219901 0 -0.36044127066913489 0.2275441921438035 0 -0.35832431380990282 0.22164377170219901 0 -0.35832431380990282 0.22164377170219901 0 -0.35414526533921098 0.23131871319146971 0 -0.34148198373040911 0.2276744711717737 0 -0.35832431380990282 0.22164377170219901 0 -0.34148198373040911 0.2276744711717737 0 -0.35832431380990282 0.22164377170219901 0 -0.34155973008744073 0.20957265985972831 0 -0.34148198373040911 0.2276744711717737 0 -0.35941510122654441 0.2372735369053188 0 -0.36044127066913489 0.2275441921438035 0 -0.35414526533921098 0.23131871319146971 0 -0.36044127066913489 0.2275441921438035 0 -0.35832431380990282 0.22164377170219901 0 -0.35414526533921098 0.23131871319146971 0 -0.35106365726006378 0.2424575940342536 0 -0.35414526533921098 0.23131871319146971 0 -0.34148198373040911 0.2276744711717737 0 -0.35832431380990282 0.22164377170219901 0 -0.36094327802494353 0.20391139790470561 0 -0.34891491593461521 0.1954177277824021 0 -0.35832431380990282 0.22164377170219901 0 -0.34891491593461521 0.1954177277824021 0 -0.35832431380990282 0.22164377170219901 0 -0.34891491593461521 0.1954177277824021 0 -0.34155973008744073 0.20957265985972831 0 -0.37888904707391341 0.2142801987641389 0 -0.35832431380990282 0.22164377170219901 0 -0.37888904707391341 0.2142801987641389 0 -0.35832431380990282 0.22164377170219901 0 -0.36636601847278227 0.21003425673649931 0 -0.35832431380990282 0.22164377170219901 0 -0.36636601847278227 0.21003425673649931 0 -0.36094327802494353 0.20391139790470561 0 -0.37888904707391341 0.2142801987641389 0 -0.36636601847278227 0.21003425673649931 0 -0.37008759950819298 0.20087512541096481 0 -0.36636601847278227 0.21003425673649931 0 -0.36094327802494353 0.20391139790470561 0 -0.37008759950819298 0.20087512541096481 0 -0.37888904707391341 0.2142801987641389 0 -0.37008759950819298 0.20087512541096481 0 -0.37348501022645753 0.18766201671544791 0 -0.36094327802494353 0.20391139790470561 0 -0.37008759950819298 0.20087512541096481 0 -0.36102354239922441 0.1915861078914628 0 -0.37008759950819298 0.20087512541096481 0 -0.37348501022645753 0.18766201671544791 0 -0.36711439258564182 0.18887983985585169 0 -0.37008759950819298 0.20087512541096481 0 -0.37348501022645753 0.18766201671544791 0 -0.36419972036933979 0.18309090027377559 0 -0.36711439258564182 0.18887983985585169 0 -0.36102354239922441 0.1915861078914628 0 -0.37008759950819298 0.20087512541096481 0 -0.36711439258564182 0.18887983985585169 0 -0.36102354239922441 0.1915861078914628 0 -0.35670289029538921 0.1783101732417888 0 -0.36102354239922441 0.1915861078914628 0 -0.34891491593461521 0.1954177277824021 0 -0.36094327802494353 0.20391139790470561 0 -0.36102354239922441 0.1915861078914628 0 -0.34891491593461521 0.1954177277824021 0 -0.34891491593461521 0.1954177277824021 0 -0.33174122468229872 0.1917912191023208 0 -0.34155973008744073 0.20957265985972831 0 -0.33174122468229872 0.1917912191023208 0 -0.31472940787682951 0.19474584608242351 0 -0.32601920123253392 0.2103975198093862 0 -0.32601920123253392 0.2103975198093862 0 -0.3181743580246234 0.22930149061238711 0 -0.30043584867920131 0.21243207012588011 0 -0.31472940787682951 0.19474584608242351 0 -0.32601920123253392 0.2103975198093862 0 -0.30043584867920131 0.21243207012588011 0 -0.32601920123253392 0.2103975198093862 0 -0.34155973008744073 0.20957265985972831 0 -0.34148198373040911 0.2276744711717737 0 -0.33174122468229872 0.1917912191023208 0 -0.32601920123253392 0.2103975198093862 0 -0.34155973008744073 0.20957265985972831 0 -0.32601920123253392 0.2103975198093862 0 -0.34148198373040911 0.2276744711717737 0 -0.3181743580246234 0.22930149061238711 0 -0.3181743580246234 0.22930149061238711 0 -0.30623601615023688 0.24825507439570049 0 -0.33365848456934111 0.25271567107787218 0 -0.35106365726006378 0.2424575940342536 0 -0.34148198373040911 0.2276744711717737 0 -0.33365848456934111 0.25271567107787218 0 -0.34148198373040911 0.2276744711717737 0 -0.3181743580246234 0.22930149061238711 0 -0.33365848456934111 0.25271567107787218 0 -0.30623601615023688 0.24825507439570049 0 -0.2956357159971687 0.23108789178661199 0 -0.27881354773113259 0.24379447771352891 0 -0.30623601615023688 0.24825507439570049 0 -0.27881354773113259 0.24379447771352891 0 -0.3181743580246234 0.22930149061238711 0 -0.30623601615023688 0.24825507439570049 0 -0.2956357159971687 0.23108789178661199 0 -0.3181743580246234 0.22930149061238711 0 -0.2956357159971687 0.23108789178661199 0 -0.30043584867920131 0.21243207012588011 0 -0.2956357159971687 0.23108789178661199 0 -0.2760860789731352 0.22039771372408301 0 -0.27881354773113259 0.24379447771352891 0 -0.2956357159971687 0.23108789178661199 0 -0.30043584867920131 0.21243207012588011 0 -0.2760860789731352 0.22039771372408301 0 -0.30043584867920131 0.21243207012588011 0 -0.28037092572967348 0.1991063123205272 0 -0.2760860789731352 0.22039771372408301 0 -0.31472940787682951 0.19474584608242351 0 -0.30043584867920131 0.21243207012588011 0 -0.29757600535348883 0.18900056977993429 0 -0.30043584867920131 0.21243207012588011 0 -0.29757600535348883 0.18900056977993429 0 -0.29757600535348883 0.18900056977993429 0 -0.28037092572967348 0.1991063123205272 0 -0.28349917046688 0.18054796376032151 0 -0.30043584867920131 0.21243207012588011 0 -0.29757600535348883 0.18900056977993429 0 -0.28037092572967348 0.1991063123205272 0 -0.25297644052139662 0.20692629817911529 0 -0.26593639991495271 0.18533005514875769 0 -0.24314242389584911 0.1755453200112668 0 -0.28037092572967348 0.1991063123205272 0 -0.25297644052139662 0.20692629817911529 0 -0.26593639991495271 0.18533005514875769 0 -0.28037092572967348 0.1991063123205272 0 -0.28349917046688 0.18054796376032151 0 -0.26593639991495271 0.18533005514875769 0 -0.25297644052139662 0.20692629817911529 0 -0.26593639991495271 0.18533005514875769 0 -0.28037092572967348 0.1991063123205272 0 -0.25297644052139662 0.20692629817911529 0 -0.2760860789731352 0.22039771372408301 0 -0.25297644052139662 0.20692629817911529 0 -0.2760860789731352 0.22039771372408301 0 -0.25139107931202842 0.23933388103135719 0 -0.25139107931202842 0.23933388103135719 0 -0.27881354773113259 0.24379447771352891 0 -0.25139107931202842 0.23933388103135719 0 -0.27881354773113259 0.24379447771352891 0 -0.26421699293618528 0.25786898771701178 0 -0.2760860789731352 0.22039771372408301 0 -0.25139107931202842 0.23933388103135719 0 -0.27881354773113259 0.24379447771352891 0 -0.2918563187020643 0.1421375690880424 0 -0.30127181117804119 0.1533017781012134 0 -0.2947161620277764 0.16556906943398839 0 -0.2918563187020643 0.1421375690880424 0 -0.27889635930850881 0.16373381211840021 0 -0.2918563187020643 0.1421375690880424 0 -0.2947161620277764 0.16556906943398839 0 -0.2918563187020643 0.1421375690880424 0 -0.27889635930850881 0.16373381211840021 0 -0.27692103927744299 0.1478616441137853 0 -0.2918563187020643 0.1421375690880424 0 -0.28175765531408559 0.14003796295145821 0 -0.27692103927744299 0.1478616441137853 0 -0.2918563187020643 0.1421375690880424 0 -0.28299938864497193 0.13250471734719771 0 -0.28849835999833789 0.11462486941648679 0 -0.2918563187020643 0.1421375690880424 0 -0.2970912187671701 0.1334142258573639 0 -0.28849835999833789 0.11462486941648679 0 -0.2918563187020643 0.1421375690880424 0 -0.28849835999833789 0.11462486941648679 0 -0.2918563187020643 0.1421375690880424 0 -0.28175765531408559 0.14003796295145821 0 -0.28299938864497193 0.13250471734719771 0 -0.2918563187020643 0.1421375690880424 0 -0.2970912187671701 0.1334142258573639 0 -0.2918563187020643 0.1421375690880424 0 -0.2970912187671701 0.1334142258573639 0 -0.30245900717655561 0.14182518412172171 0 -0.2970912187671701 0.1334142258573639 0 -0.30991442990740953 0.13230010932235239 0 -0.30245900717655561 0.14182518412172171 0 -0.2970912187671701 0.1334142258573639 0 -0.30991442990740953 0.13230010932235239 0 -0.30076626854693572 0.1244014380409955 0 -0.30991442990740953 0.13230010932235239 0 -0.31216125732809302 0.14797223823963659 0 -0.30245900717655561 0.14182518412172171 0 -0.31216125732809302 0.14797223823963659 0 -0.30245900717655561 0.14182518412172171 0 -0.30127181117804119 0.1533017781012134 0 -0.2918563187020643 0.1421375690880424 0 -0.30245900717655561 0.14182518412172171 0 -0.30127181117804119 0.1533017781012134 0 -0.3165577483891806 0.1691692618640365 0 -0.30127181117804119 0.1533017781012134 0 -0.2947161620277764 0.16556906943398839 0 -0.3165577483891806 0.1691692618640365 0 -0.31216125732809302 0.14797223823963659 0 -0.30127181117804119 0.1533017781012134 0 -0.3165577483891806 0.1691692618640365 0 -0.31472940787682951 0.19474584608242351 0 -0.29757600535348883 0.18900056977993429 0 -0.3165577483891806 0.1691692618640365 0 -0.29757600535348883 0.18900056977993429 0 -0.2947161620277764 0.16556906943398839 0 -0.29757600535348883 0.18900056977993429 0 -0.2947161620277764 0.16556906943398839 0 -0.29757600535348883 0.18900056977993429 0 -0.28349917046688 0.18054796376032151 0 -0.2947161620277764 0.16556906943398839 0 -0.28349917046688 0.18054796376032151 0 -0.2947161620277764 0.16556906943398839 0 -0.27889635930850881 0.16373381211840021 0 -0.2918563187020643 0.1421375690880424 0 -0.2947161620277764 0.16556906943398839 0 -0.27889635930850881 0.16373381211840021 0 -0.27889635930850881 0.16373381211840021 0 -0.26976150988152259 0.1572048254173937 0 -0.27692103927744299 0.1478616441137853 0 -0.27889635930850881 0.16373381211840021 0 -0.26620110226573451 0.16775606710937149 0 -0.26976150988152259 0.1572048254173937 0 -0.27889635930850881 0.16373381211840021 0 -0.26593639991495271 0.18533005514875769 0 -0.27889635930850881 0.16373381211840021 0 -0.26620110226573451 0.16775606710937149 0 -0.26593639991495271 0.18533005514875769 0 -0.28349917046688 0.18054796376032151 0 -0.27889635930850881 0.16373381211840021 0 -0.26593639991495271 0.18533005514875769 0 -0.26620110226573451 0.16775606710937149 0 -0.26593639991495271 0.18533005514875769 0 -0.24314242389584911 0.1755453200112668 0 -0.26620110226573451 0.16775606710937149 0 -0.25935500801854661 0.15810676857067549 0 -0.24314242389584911 0.1755453200112668 0 -0.26620110226573451 0.16775606710937149 0 -0.26976150988152259 0.1572048254173937 0 -0.25935500801854661 0.15810676857067549 0 -0.25935500801854661 0.15810676857067549 0 -0.25654721185358698 0.14564582788204219 0 -0.2454743413834497 0.15244065546323851 0 -0.25654721185358698 0.14564582788204219 0 -0.25485797146470862 0.136760960293178 0 -0.24555459179943939 0.14020245409129439 0 -0.25654721185358698 0.14564582788204219 0 -0.26645474645592637 0.14864610303225531 0 -0.26407855810594449 0.13832758497029549 0 -0.26976150988152259 0.1572048254173937 0 -0.25935500801854661 0.15810676857067549 0 -0.26645474645592637 0.14864610303225531 0 -0.25935500801854661 0.15810676857067549 0 -0.25654721185358698 0.14564582788204219 0 -0.26645474645592637 0.14864610303225531 0 -0.26976150988152259 0.1572048254173937 0 -0.26645474645592637 0.14864610303225531 0 -0.27692103927744299 0.1478616441137853 0 -0.26645474645592637 0.14864610303225531 0 -0.2703445824488081 0.14302388116037171 0 -0.27692103927744299 0.1478616441137853 0 -0.26645474645592637 0.14864610303225531 0 -0.2703445824488081 0.14302388116037171 0 -0.26407855810594449 0.13832758497029549 0 -0.2703445824488081 0.14302388116037171 0 -0.27692103927744299 0.1478616441137853 0 -0.27525387463186302 0.13764792125680711 0 -0.28175765531408559 0.14003796295145821 0 -0.27692103927744299 0.1478616441137853 0 -0.27525387463186302 0.13764792125680711 0 -0.28299938864497193 0.13250471734719771 0 -0.27628845905214128 0.12647622719339119 0 -0.27525387463186302 0.13764792125680711 0 -0.28175765531408559 0.14003796295145821 0 -0.28299938864497193 0.13250471734719771 0 -0.27525387463186302 0.13764792125680711 0 -0.27628845905214128 0.12647622719339119 0 -0.27525387463186302 0.13764792125680711 0 -0.26407855810594449 0.13832758497029549 0 -0.2703445824488081 0.14302388116037171 0 -0.27525387463186302 0.13764792125680711 0 -0.26407855810594449 0.13832758497029549 0 -0.27628845905214128 0.12647622719339119 0 -0.26407855810594449 0.13832758497029549 0 -0.27628845905214128 0.12647622719339119 0 -0.2670793284519043 0.12697382305245031 0 -0.26407855810594449 0.13832758497029549 0 -0.2670793284519043 0.12697382305245031 0 -0.26236112527405431 0.13219040725468251 0 -0.26407855810594449 0.13832758497029549 0 -0.2670793284519043 0.12697382305245031 0 -0.26236112527405431 0.13219040725468251 0 -0.26300893025822197 0.1196474411756088 0 -0.26236112527405431 0.13219040725468251 0 -0.26407855810594449 0.13832758497029549 0 -0.25485797146470862 0.136760960293178 0 -0.25654721185358698 0.14564582788204219 0 -0.26407855810594449 0.13832758497029549 0 -0.25485797146470862 0.136760960293178 0 -0.26236112527405431 0.13219040725468251 0 -0.25485797146470862 0.136760960293178 0 -0.25294579802062023 0.13047377132861721 0 -0.26236112527405431 0.13219040725468251 0 -0.25294579802062023 0.13047377132861721 0 -0.2495549461829274 0.12227365389669689 0 -0.25485797146470862 0.136760960293178 0 -0.25294579802062023 0.13047377132861721 0 -0.24500914916079031 0.13067006386991159 0 -0.26236112527405431 0.13219040725468251 0 -0.25280670041438252 0.11105161146075 0 -0.26300893025822197 0.1196474411756088 0 -0.25280670041438252 0.11105161146075 0 -0.26512135301326112 0.1120972512244514 0 -0.27288647506184249 0.1061343308577375 0 -0.26236112527405431 0.13219040725468251 0 -0.25280670041438252 0.11105161146075 0 -0.26236112527405431 0.13219040725468251 0 -0.25280670041438252 0.11105161146075 0 -0.2495549461829274 0.12227365389669689 0 -0.25280670041438252 0.11105161146075 0 -0.25057259276164001 0.10610873461084951 0 -0.2495549461829274 0.12227365389669689 0 -0.25280670041438252 0.11105161146075 0 -0.26512135301326112 0.1120972512244514 0 -0.26300893025822197 0.1196474411756088 0 -0.25280670041438252 0.11105161146075 0 -0.25057259276164001 0.10610873461084951 0 -0.26866666405445427 0.10121590452386579 0 -0.25280670041438252 0.11105161146075 0 -0.26866666405445427 0.10121590452386579 0 -0.25280670041438252 0.11105161146075 0 -0.26866666405445427 0.10121590452386579 0 -0.27288647506184249 0.1061343308577375 0 -0.25057259276164001 0.10610873461084951 0 -0.26866666405445427 0.10121590452386579 0 -0.25678594610201788 0.09122962197432663 0 -0.25057259276164001 0.10610873461084951 0 -0.26866666405445427 0.10121590452386579 0 -0.25280670041438252 0.11105161146075 0 -0.25057259276164001 0.10610873461084951 0 -0.26866666405445427 0.10121590452386579 0 -0.26810682086484938 0.090158931121184296 0 -0.25678594610201788 0.09122962197432663 0 -0.26866666405445427 0.10121590452386579 0 -0.27288647506184249 0.1061343308577375 0 -0.27814408571121091 0.095286962578764733 0 -0.26866666405445427 0.10121590452386579 0 -0.27814408571121091 0.095286962578764733 0 -0.26810682086484938 0.090158931121184296 0 -0.26866666405445427 0.10121590452386579 0 -0.27814408571121091 0.095286962578764733 0 -0.27288647506184249 0.1061343308577375 0 -0.27794842181167051 0.1126200800548384 0 -0.28705325700436429 0.1027847343297921 0 -0.27288647506184249 0.1061343308577375 0 -0.27814408571121091 0.095286962578764733 0 -0.28705325700436429 0.1027847343297921 0 -0.27628845905214128 0.12647622719339119 0 -0.2670793284519043 0.12697382305245031 0 -0.27002232584988012 0.1181063309991474 0 -0.2670793284519043 0.12697382305245031 0 -0.26300893025822197 0.1196474411756088 0 -0.27002232584988012 0.1181063309991474 0 -0.26512135301326112 0.1120972512244514 0 -0.26300893025822197 0.1196474411756088 0 -0.27002232584988012 0.1181063309991474 0 -0.26512135301326112 0.1120972512244514 0 -0.27002232584988012 0.1181063309991474 0 -0.27155807758581169 0.1105324664882411 0 -0.27002232584988012 0.1181063309991474 0 -0.27155807758581169 0.1105324664882411 0 -0.27794842181167051 0.1126200800548384 0 -0.26512135301326112 0.1120972512244514 0 -0.27288647506184249 0.1061343308577375 0 -0.27155807758581169 0.1105324664882411 0 -0.27288647506184249 0.1061343308577375 0 -0.27155807758581169 0.1105324664882411 0 -0.27794842181167051 0.1126200800548384 0 -0.27628845905214128 0.12647622719339119 0 -0.27002232584988012 0.1181063309991474 0 -0.27794842181167051 0.1126200800548384 0 -0.27628845905214128 0.12647622719339119 0 -0.27794842181167051 0.1126200800548384 0 -0.28849835999833789 0.11462486941648679 0 -0.2970912187671701 0.1334142258573639 0 -0.28849835999833789 0.11462486941648679 0 -0.30076626854693572 0.1244014380409955 0 -0.28299938864497193 0.13250471734719771 0 -0.27628845905214128 0.12647622719339119 0 -0.28849835999833789 0.11462486941648679 0 -0.27628845905214128 0.12647622719339119 0 -0.28849835999833789 0.11462486941648679 0 -0.27794842181167051 0.1126200800548384 0 -0.28849835999833789 0.11462486941648679 0 -0.28705325700436429 0.1027847343297921 0 -0.28849835999833789 0.11462486941648679 0 -0.28705325700436429 0.1027847343297921 0 -0.28849835999833789 0.11462486941648679 0 -0.28705325700436429 0.1027847343297921 0 -0.30548855095535699 0.098133594620987738 0 -0.28849835999833789 0.11462486941648679 0 -0.30548855095535699 0.098133594620987738 0 -0.28849835999833789 0.11462486941648679 0 -0.30756106551482543 0.11726654756777879 0 -0.30076626854693572 0.1244014380409955 0 -0.28849835999833789 0.11462486941648679 0 -0.30548855095535699 0.098133594620987738 0 -0.30756106551482543 0.11726654756777879 0 -0.30991442990740953 0.13230010932235239 0 -0.30756106551482543 0.11726654756777879 0 -0.30076626854693572 0.1244014380409955 0 -0.30298571441376249 0.079746388387451447 0 -0.29428693019276919 0.064642335310751378 0 -0.31087026662152928 0.060399646522830197 0 -0.28705325700436429 0.1027847343297921 0 -0.30548855095535699 0.098133594620987738 0 -0.30298571441376249 0.079746388387451447 0 -0.30548855095535699 0.098133594620987738 0 -0.30298571441376249 0.079746388387451447 0 -0.32247874191237591 0.081642319825488627 0 -0.27814408571121091 0.095286962578764733 0 -0.30298571441376249 0.079746388387451447 0 -0.27814408571121091 0.095286962578764733 0 -0.28705325700436429 0.1027847343297921 0 -0.30298571441376249 0.079746388387451447 0 -0.27814408571121091 0.095286962578764733 0 -0.30298571441376249 0.079746388387451447 0 -0.2857283639567596 0.078706770705389673 0 -0.2857283639567596 0.078706770705389673 0 -0.29428693019276919 0.064642335310751378 0 -0.27863783112942281 0.067639169654824874 0 -0.30298571441376249 0.079746388387451447 0 -0.2857283639567596 0.078706770705389673 0 -0.29428693019276919 0.064642335310751378 0 -0.2857283639567596 0.078706770705389673 0 -0.27863783112942281 0.067639169654824874 0 -0.27385399160081592 0.081504535273258294 0 -0.27863783112942281 0.067639169654824874 0 -0.27385399160081592 0.081504535273258294 0 -0.26476671119264111 0.069517965186360872 0 -0.27385399160081592 0.081504535273258294 0 -0.26333698099652553 0.081962953875059488 0 -0.26476671119264111 0.069517965186360872 0 -0.27863783112942281 0.067639169654824874 0 -0.26476671119264111 0.069517965186360872 0 -0.2682137786970904 0.055227611747250473 0 -0.27814408571121091 0.095286962578764733 0 -0.2857283639567596 0.078706770705389673 0 -0.27385399160081592 0.081504535273258294 0 -0.27385399160081592 0.081504535273258294 0 -0.26810682086484938 0.090158931121184296 0 -0.26333698099652553 0.081962953875059488 0 -0.27814408571121091 0.095286962578764733 0 -0.27385399160081592 0.081504535273258294 0 -0.26810682086484938 0.090158931121184296 0 -0.26333698099652553 0.081962953875059488 0 -0.25678594610201788 0.09122962197432663 0 -0.25346816626772828 0.074268162720198885 0 -0.26810682086484938 0.090158931121184296 0 -0.26333698099652553 0.081962953875059488 0 -0.25678594610201788 0.09122962197432663 0 -0.26476671119264111 0.069517965186360872 0 -0.25346816626772828 0.074268162720198885 0 -0.25360119246043211 0.057810151226187878 0 -0.26333698099652553 0.081962953875059488 0 -0.26476671119264111 0.069517965186360872 0 -0.25346816626772828 0.074268162720198885 0 -0.26476671119264111 0.069517965186360872 0 -0.25360119246043211 0.057810151226187878 0 -0.2682137786970904 0.055227611747250473 0 -0.25574481582809111 0.044318768053857253 0 -0.26879735302068319 0.042055326472656043 0 -0.2682137786970904 0.055227611747250473 0 -0.25360119246043211 0.057810151226187878 0 -0.25574481582809111 0.044318768053857253 0 -0.2682137786970904 0.055227611747250473 0 -0.25360119246043211 0.057810151226187878 0 -0.25574481582809111 0.044318768053857253 0 -0.24110745163309169 0.04678577748804634 0 -0.25574481582809111 0.044318768053857253 0 -0.26125220525872112 0.033162019528711367 0 -0.24701164898211991 0.03155230310963332 0 -0.25574481582809111 0.044318768053857253 0 -0.26125220525872112 0.033162019528711367 0 -0.26879735302068319 0.042055326472656043 0 -0.26879735302068319 0.042055326472656043 0 -0.27550470552567929 0.029268219452662159 0 -0.28349676470312068 0.048823965961317148 0 -0.26125220525872112 0.033162019528711367 0 -0.26879735302068319 0.042055326472656043 0 -0.27550470552567929 0.029268219452662159 0 -0.27863783112942281 0.067639169654824874 0 -0.2682137786970904 0.055227611747250473 0 -0.28349676470312068 0.048823965961317148 0 -0.26879735302068319 0.042055326472656043 0 -0.2682137786970904 0.055227611747250473 0 -0.28349676470312068 0.048823965961317148 0 -0.26371132860610658 -0.00097302060264807077 0 -0.25920250293703168 0.018615480554748091 0 -0.248825998532342 0.0074863227716318844 0 -0.2470035725250225 -0.0060353005064712022 0 -0.26371132860610658 -0.00097302060264807077 0 -0.248825998532342 0.0074863227716318844 0 -0.26125220525872112 0.033162019528711367 0 -0.25920250293703168 0.018615480554748091 0 -0.27550470552567929 0.029268219452662159 0 -0.26125220525872112 0.033162019528711367 0 -0.25920250293703168 0.018615480554748091 0 -0.24701164898211991 0.03155230310963332 0 -0.25920250293703168 0.018615480554748091 0 -0.27550470552567929 0.029268219452662159 0 -0.27893174120018371 0.013000652813682579 0 -0.26371132860610658 -0.00097302060264807077 0 -0.28880650995713142 -0.0093632575293901513 0 -0.27893174120018371 0.013000652813682579 0 -0.26371132860610658 -0.00097302060264807077 0 -0.25920250293703168 0.018615480554748091 0 -0.27893174120018371 0.013000652813682579 0 -0.28880650995713142 -0.0093632575293901513 0 -0.30233839583200239 0.0094334270527566683 0 -0.28880650995713142 -0.0093632575293901513 0 -0.27893174120018371 0.013000652813682579 0 -0.30233839583200239 0.0094334270527566683 0 -0.27550470552567929 0.029268219452662159 0 -0.27893174120018371 0.013000652813682579 0 -0.29362732497155891 0.029457055163415392 0 -0.27893174120018371 0.013000652813682579 0 -0.29362732497155891 0.029457055163415392 0 -0.30233839583200239 0.0094334270527566683 0 -0.29362732497155891 0.029457055163415392 0 -0.30233839583200239 0.0094334270527566683 0 -0.31587028170687342 0.028230111634903389 0 -0.30233839583200239 0.0094334270527566683 0 -0.31587028170687342 0.028230111634903389 0 -0.30946553104838698 -0.0057553152784617489 0 -0.30233839583200239 0.0094334270527566683 0 -0.32231720756699572 0.0083600292639006094 0 -0.29428693019276919 0.064642335310751378 0 -0.28349676470312068 0.048823965961317148 0 -0.30367743979287593 0.04769300349017145 0 -0.29428693019276919 0.064642335310751378 0 -0.27863783112942281 0.067639169654824874 0 -0.28349676470312068 0.048823965961317148 0 -0.27550470552567929 0.029268219452662159 0 -0.29362732497155891 0.029457055163415392 0 -0.28349676470312068 0.048823965961317148 0 -0.29362732497155891 0.029457055163415392 0 -0.28349676470312068 0.048823965961317148 0 -0.30367743979287593 0.04769300349017145 0 -0.29362732497155891 0.029457055163415392 0 -0.30367743979287593 0.04769300349017145 0 -0.31587028170687342 0.028230111634903389 0 -0.29428693019276919 0.064642335310751378 0 -0.31087026662152928 0.060399646522830197 0 -0.30367743979287593 0.04769300349017145 0 -0.31087026662152928 0.060399646522830197 0 -0.30367743979287593 0.04769300349017145 0 -0.32557390559192451 0.045710691229638542 0 -0.31087026662152928 0.060399646522830197 0 -0.32557390559192451 0.045710691229638542 0 -0.32782734311631428 0.064205814196138147 0 -0.30367743979287593 0.04769300349017145 0 -0.32557390559192451 0.045710691229638542 0 -0.31587028170687342 0.028230111634903389 0 -0.32557390559192451 0.045710691229638542 0 -0.31587028170687342 0.028230111634903389 0 -0.33073835566446741 0.024460535450689842 0 -0.32557390559192451 0.045710691229638542 0 -0.34296870208188512 0.034215386901967008 0 -0.33073835566446741 0.024460535450689842 0 -0.32557390559192451 0.045710691229638542 0 -0.34296870208188512 0.034215386901967008 0 -0.34673974962038168 0.055925273268246263 0 -0.32557390559192451 0.045710691229638542 0 -0.34673974962038168 0.055925273268246263 0 -0.32782734311631428 0.064205814196138147 0 -0.30233839583200239 0.0094334270527566683 0 -0.32231720756699572 0.0083600292639006094 0 -0.31587028170687342 0.028230111634903389 0 -0.32231720756699572 0.0083600292639006094 0 -0.31587028170687342 0.028230111634903389 0 -0.33073835566446741 0.024460535450689842 0 -0.34296870208188512 0.034215386901967008 0 -0.33073835566446741 0.024460535450689842 0 -0.34063750223763423 0.01355159896089861 0 -0.32231720756699572 0.0083600292639006094 0 -0.33073835566446741 0.024460535450689842 0 -0.34063750223763423 0.01355159896089861 0 -0.34073442631225243 -0.00204379532965193 0 -0.32231720756699572 0.0083600292639006094 0 -0.34063750223763423 0.01355159896089861 0 -0.34063750223763423 0.01355159896089861 0 -0.3576435151919547 0.0060426334537469354 0 -0.35834174770344712 0.024200567724083251 0 -0.34073442631225243 -0.00204379532965193 0 -0.34063750223763423 0.01355159896089861 0 -0.3576435151919547 0.0060426334537469354 0 -0.34296870208188512 0.034215386901967008 0 -0.34063750223763423 0.01355159896089861 0 -0.35834174770344712 0.024200567724083251 0 -0.37644711720780888 0.01293353161802571 0 -0.35834174770344712 0.024200567724083251 0 -0.37259768205274452 0.035313509304904928 0 -0.37644711720780888 0.01293353161802571 0 -0.3576435151919547 0.0060426334537469354 0 -0.35834174770344712 0.024200567724083251 0 -0.3727358861435085 -0.0050323493054692404 0 -0.37644711720780888 0.01293353161802571 0 -0.3576435151919547 0.0060426334537469354 0 -0.34673974962038168 0.055925273268246263 0 -0.35955532785852817 0.044793551105820728 0 -0.36203606823757739 0.062717488913229202 0 -0.34296870208188512 0.034215386901967008 0 -0.34673974962038168 0.055925273268246263 0 -0.35955532785852817 0.044793551105820728 0 -0.34296870208188512 0.034215386901967008 0 -0.35834174770344712 0.024200567724083251 0 -0.35955532785852817 0.044793551105820728 0 -0.35834174770344712 0.024200567724083251 0 -0.37259768205274452 0.035313509304904928 0 -0.35955532785852817 0.044793551105820728 0 -0.37259768205274452 0.035313509304904928 0 -0.35955532785852817 0.044793551105820728 0 -0.37383807879763031 0.055065091997188967 0 -0.35955532785852817 0.044793551105820728 0 -0.37383807879763031 0.055065091997188967 0 -0.36203606823757739 0.062717488913229202 0 -0.37795838316975011 0.075530906237203529 0 -0.37383807879763031 0.055065091997188967 0 -0.36203606823757739 0.062717488913229202 0 -0.37795838316975011 0.075530906237203529 0 -0.36203606823757739 0.062717488913229202 0 -0.35208880174159701 0.082272621957686518 0 -0.34673974962038168 0.055925273268246263 0 -0.36203606823757739 0.062717488913229202 0 -0.35208880174159701 0.082272621957686518 0 -0.34673974962038168 0.055925273268246263 0 -0.35208880174159701 0.082272621957686518 0 -0.34673974962038168 0.055925273268246263 0 -0.35208880174159701 0.082272621957686518 0 -0.33679320217289638 0.075241146931168193 0 -0.35208880174159701 0.082272621957686518 0 -0.3574378538628124 0.1086199706471269 0 -0.33710511880707711 0.090350154872753205 0 -0.37863962855358257 0.097394840853382056 0 -0.37795838316975011 0.075530906237203529 0 -0.35208880174159701 0.082272621957686518 0 -0.37863962855358257 0.097394840853382056 0 -0.35208880174159701 0.082272621957686518 0 -0.3574378538628124 0.1086199706471269 0 -0.37863962855358257 0.097394840853382056 0 -0.37266194517571088 0.11924582587637 0 -0.3574378538628124 0.1086199706471269 0 -0.3627869059840278 0.13496731933656719 0 -0.3574378538628124 0.1086199706471269 0 -0.3627869059840278 0.13496731933656719 0 -0.37266194517571088 0.11924582587637 0 -0.3574378538628124 0.1086199706471269 0 -0.3627869059840278 0.13496731933656719 0 -0.3574378538628124 0.1086199706471269 0 -0.3412064166712514 0.1237543988795269 0 -0.35208880174159701 0.082272621957686518 0 -0.3574378538628124 0.1086199706471269 0 -0.3574378538628124 0.1086199706471269 0 -0.32778425755920609 0.1056989897983073 0 -0.33710511880707711 0.090350154872753205 0 -0.3574378538628124 0.1086199706471269 0 -0.3412064166712514 0.1237543988795269 0 -0.32778425755920609 0.1056989897983073 0 -0.3412064166712514 0.1237543988795269 0 -0.32324864512390789 0.1216825000927344 0 -0.32778425755920609 0.1056989897983073 0 -0.30991442990740953 0.13230010932235239 0 -0.30756106551482543 0.11726654756777879 0 -0.32324864512390789 0.1216825000927344 0 -0.30756106551482543 0.11726654756777879 0 -0.32324864512390789 0.1216825000927344 0 -0.32778425755920609 0.1056989897983073 0 -0.30548855095535699 0.098133594620987738 0 -0.30756106551482543 0.11726654756777879 0 -0.32778425755920609 0.1056989897983073 0 -0.30548855095535699 0.098133594620987738 0 -0.32778425755920609 0.1056989897983073 0 -0.32247874191237591 0.081642319825488627 0 -0.30548855095535699 0.098133594620987738 0 -0.32247874191237591 0.081642319825488627 0 -0.30298571441376249 0.079746388387451447 0 -0.31087026662152928 0.060399646522830197 0 -0.32782734311631428 0.064205814196138147 0 -0.30298571441376249 0.079746388387451447 0 -0.32782734311631428 0.064205814196138147 0 -0.30298571441376249 0.079746388387451447 0 -0.32247874191237591 0.081642319825488627 0 -0.32782734311631428 0.064205814196138147 0 -0.32247874191237591 0.081642319825488627 0 -0.32782734311631428 0.064205814196138147 0 -0.33679320217289638 0.075241146931168193 0 -0.34673974962038168 0.055925273268246263 0 -0.32782734311631428 0.064205814196138147 0 -0.33679320217289638 0.075241146931168193 0 -0.32778425755920609 0.1056989897983073 0 -0.32247874191237591 0.081642319825488627 0 -0.33710511880707711 0.090350154872753205 0 -0.35208880174159701 0.082272621957686518 0 -0.33679320217289638 0.075241146931168193 0 -0.33710511880707711 0.090350154872753205 0 -0.32247874191237591 0.081642319825488627 0 -0.33679320217289638 0.075241146931168193 0 -0.33710511880707711 0.090350154872753205 0 -0.39377677331495708 0.48347385912113522 0 -0.39658517192870479 0.46739421930907959 0 -0.41255843039112139 0.48006833841615398 0 -0.39377677331495708 0.48347385912113522 0 -0.38935113144988581 0.5 0 -0.41312357888980128 0.5 0 -0.38935113144988581 0.5 0 -0.37541597510642821 0.48541815248167092 0 -0.36557868400997012 0.5 0 -0.39377677331495708 0.48347385912113522 0 -0.38935113144988581 0.5 0 -0.37541597510642821 0.48541815248167092 0 -0.39377677331495708 0.48347385912113522 0 -0.37562635212380141 0.46796244451990698 0 -0.39658517192870479 0.46739421930907959 0 -0.39377677331495708 0.48347385912113522 0 -0.37541597510642821 0.48541815248167092 0 -0.37562635212380141 0.46796244451990698 0 -0.37562635212380141 0.46796244451990698 0 -0.38585701177596132 0.45286206811011592 0 -0.36768512146653021 0.45062847395082012 0 -0.37562635212380141 0.46796244451990698 0 -0.38585701177596132 0.45286206811011592 0 -0.39658517192870479 0.46739421930907959 0 -0.38585701177596132 0.45286206811011592 0 -0.38421781058557741 0.43911022311192649 0 -0.36768512146653021 0.45062847395082012 0 -0.38585701177596132 0.45286206811011592 0 -0.38421781058557741 0.43911022311192649 0 -0.3988102446760351 0.43992296853855067 0 -0.38585701177596132 0.45286206811011592 0 -0.3988102446760351 0.43992296853855067 0 -0.4093574707912202 0.45725239649782051 0 -0.38585701177596132 0.45286206811011592 0 -0.39658517192870479 0.46739421930907959 0 -0.4093574707912202 0.45725239649782051 0 -0.39658517192870479 0.46739421930907959 0 -0.4093574707912202 0.45725239649782051 0 -0.41255843039112139 0.48006833841615398 0 -0.3988102446760351 0.43992296853855067 0 -0.4093574707912202 0.45725239649782051 0 -0.41246310005121278 0.43819284607708009 0 -0.4093574707912202 0.45725239649782051 0 -0.41246310005121278 0.43819284607708009 0 -0.42661139638853068 0.44934191608870988 0 -0.4093574707912202 0.45725239649782051 0 -0.42661139638853068 0.44934191608870988 0 -0.43175371135912483 0.47467095804435011 0 -0.42661139638853068 0.44934191608870988 0 -0.43175371135912483 0.47467095804435011 0 -0.42661139638853068 0.44934191608870988 0 -0.43175371135912483 0.47467095804435011 0 -0.44825444067500619 0.45778431259844782 0 -0.4093574707912202 0.45725239649782051 0 -0.43175371135912483 0.47467095804435011 0 -0.41255843039112139 0.48006833841615398 0 -0.41255843039112139 0.48006833841615398 0 -0.41312357888980128 0.5 0 -0.43689602632971702 0.49999999999999067 0 -0.39377677331495708 0.48347385912113522 0 -0.41255843039112139 0.48006833841615398 0 -0.41312357888980128 0.5 0 -0.43175371135912483 0.47467095804435011 0 -0.41255843039112139 0.48006833841615398 0 -0.43689602632971702 0.49999999999999067 0 -0.43175371135912483 0.47467095804435011 0 -0.43689602632971702 0.49999999999999067 0 -0.43175371135912483 0.47467095804435011 0 -0.43689602632971702 0.49999999999999067 0 -0.47169190135141659 0.47166748470655467 0 -0.43689602632971702 0.49999999999999067 0 -0.5 0.5 0 -0.47169190135141659 0.47166748470655467 0 -0.5 0.5 0 -0.47169190135141659 0.47166748470655467 0 -0.5 0.43096713600524672 0 -0.47169190135141659 0.47166748470655467 0 -0.45422379202058871 0.43325083903575978 0 -0.5 0.43096713600524672 0 -0.47169190135141659 0.47166748470655467 0 -0.44825444067500619 0.45778431259844782 0 -0.45422379202058871 0.43325083903575978 0 -0.43175371135912483 0.47467095804435011 0 -0.47169190135141659 0.47166748470655467 0 -0.44825444067500619 0.45778431259844782 0 -0.42661139638853068 0.44934191608870988 0 -0.44825444067500619 0.45778431259844782 0 -0.45422379202058871 0.43325083903575978 0 -0.43975422431710598 0.41083787624075818 0 -0.45422379202058871 0.43325083903575978 0 -0.42146908141793671 0.42401287413306982 0 -0.43975422431710598 0.41083787624075818 0 -0.45455230020904808 0.40987027570712953 0 -0.45422379202058871 0.43325083903575978 0 -0.45455230020904808 0.40987027570712953 0 -0.45422379202058871 0.43325083903575978 0 -0.4706883261260868 0.41133075138611619 0 -0.45422379202058871 0.43325083903575978 0 -0.5 0.43096713600524672 0 -0.4706883261260868 0.41133075138611619 0 -0.5 0.43096713600524672 0 -0.4706883261260868 0.41133075138611619 0 -0.48043052622307197 0.39531668788478069 0 -0.5 0.43096713600524672 0 -0.5 0.38168246196129119 0 -0.48043052622307197 0.39531668788478069 0 -0.5 0.38168246196129119 0 -0.48043052622307197 0.39531668788478069 0 -0.48084223144618637 0.37423676581465182 0 -0.4706883261260868 0.41133075138611619 0 -0.48043052622307197 0.39531668788478069 0 -0.46165603479874839 0.39326230750436542 0 -0.48043052622307197 0.39531668788478069 0 -0.46939656496741128 0.38042070463701377 0 -0.46165603479874839 0.39326230750436542 0 -0.48043052622307197 0.39531668788478069 0 -0.46939656496741128 0.38042070463701377 0 -0.48084223144618637 0.37423676581465182 0 -0.46939656496741128 0.38042070463701377 0 -0.45670811498780461 0.38138864517877119 0 -0.46199368038356647 0.36847191686127612 0 -0.46939656496741128 0.38042070463701377 0 -0.45670811498780461 0.38138864517877119 0 -0.46165603479874839 0.39326230750436542 0 -0.45670811498780461 0.38138864517877119 0 -0.46165603479874839 0.39326230750436542 0 -0.45100186368911133 0.3878388454951946 0 -0.45455230020904808 0.40987027570712953 0 -0.46165603479874839 0.39326230750436542 0 -0.44631697771207313 0.39644076633996261 0 -0.45455230020904808 0.40987027570712953 0 -0.4706883261260868 0.41133075138611619 0 -0.46165603479874839 0.39326230750436542 0 -0.43975422431710598 0.41083787624075818 0 -0.45455230020904808 0.40987027570712953 0 -0.44631697771207313 0.39644076633996261 0 -0.46165603479874839 0.39326230750436542 0 -0.44631697771207313 0.39644076633996261 0 -0.45100186368911133 0.3878388454951946 0 -0.44631697771207313 0.39644076633996261 0 -0.43916022341545241 0.38357787451935271 0 -0.43362276968721802 0.39894802851904598 0 -0.43975422431710598 0.41083787624075818 0 -0.44631697771207313 0.39644076633996261 0 -0.43362276968721802 0.39894802851904598 0 -0.45670811498780461 0.38138864517877119 0 -0.45100186368911133 0.3878388454951946 0 -0.43916022341545241 0.38357787451935271 0 -0.43916022341545241 0.38357787451935271 0 -0.43386884732411768 0.38412337429753701 0 -0.45149724173417938 0.36998806328603562 0 -0.45670811498780461 0.38138864517877119 0 -0.43916022341545241 0.38357787451935271 0 -0.46199368038356647 0.36847191686127612 0 -0.43386884732411768 0.38412337429753701 0 -0.45149724173417938 0.36998806328603562 0 -0.43916022341545241 0.38357787451935271 0 -0.46199368038356647 0.36847191686127612 0 -0.44631697771207313 0.39644076633996261 0 -0.45100186368911133 0.3878388454951946 0 -0.43916022341545241 0.38357787451935271 0 -0.43916022341545241 0.38357787451935271 0 -0.43386884732411768 0.38412337429753701 0 -0.41624045291405543 0.39825868530903769 0 -0.43386884732411768 0.38412337429753701 0 -0.41624045291405543 0.39825868530903769 0 -0.41042288491419981 0.3696036097660817 0 -0.41624045291405543 0.39825868530903769 0 -0.40579718820462563 0.38563709581161232 0 -0.41042288491419981 0.3696036097660817 0 -0.41624045291405543 0.39825868530903769 0 -0.41042288491419981 0.3696036097660817 0 -0.41280263650301141 0.40101529507395423 0 -0.40102242335472987 0.41046124759573921 0 -0.41280263650301141 0.40101529507395423 0 -0.40624678768228722 0.39539865044662148 0 -0.40455414019845909 0.40001407223715718 0 -0.41280263650301141 0.40101529507395423 0 -0.41624045291405543 0.39825868530903769 0 -0.41119235135393217 0.41159608046120721 0 -0.41624045291405543 0.39825868530903769 0 -0.40579718820462563 0.38563709581161232 0 -0.40624678768228722 0.39539865044662148 0 -0.41280263650301141 0.40101529507395423 0 -0.41624045291405543 0.39825868530903769 0 -0.40624678768228722 0.39539865044662148 0 -0.41280263650301141 0.40101529507395423 0 -0.41624045291405543 0.39825868530903769 0 -0.43386884732411768 0.38412337429753701 0 -0.41624045291405543 0.39825868530903769 0 -0.43916022341545241 0.38357787451935271 0 -0.41624045291405543 0.39825868530903769 0 -0.43362276968721802 0.39894802851904598 0 -0.41624045291405543 0.39825868530903769 0 -0.43362276968721802 0.39894802851904598 0 -0.42779321046740082 0.40812065276757592 0 -0.43916022341545241 0.38357787451935271 0 -0.41624045291405543 0.39825868530903769 0 -0.43975422431710598 0.41083787624075818 0 -0.43362276968721802 0.39894802851904598 0 -0.42779321046740082 0.40812065276757592 0 -0.42661139638853068 0.44934191608870988 0 -0.45422379202058871 0.43325083903575978 0 -0.42146908141793671 0.42401287413306982 0 -0.43975422431710598 0.41083787624075818 0 -0.42779321046740082 0.40812065276757592 0 -0.42146908141793671 0.42401287413306982 0 -0.42661139638853068 0.44934191608870988 0 -0.42146908141793671 0.42401287413306982 0 -0.41246310005121278 0.43819284607708009 0 -0.42146908141793671 0.42401287413306982 0 -0.40434084904664008 0.42380715332584279 0 -0.41246310005121278 0.43819284607708009 0 -0.42661139638853068 0.44934191608870988 0 -0.42146908141793671 0.42401287413306982 0 -0.42146908141793671 0.42401287413306982 0 -0.41119235135393217 0.41159608046120721 0 -0.40434084904664008 0.42380715332584279 0 -0.41624045291405543 0.39825868530903769 0 -0.42146908141793671 0.42401287413306982 0 -0.41119235135393217 0.41159608046120721 0 -0.41624045291405543 0.39825868530903769 0 -0.42146908141793671 0.42401287413306982 0 -0.41624045291405543 0.39825868530903769 0 -0.42779321046740082 0.40812065276757592 0 -0.42146908141793671 0.42401287413306982 0 -0.41280263650301141 0.40101529507395423 0 -0.41119235135393217 0.41159608046120721 0 -0.40102242335472987 0.41046124759573921 0 -0.41280263650301141 0.40101529507395423 0 -0.40102242335472987 0.41046124759573921 0 -0.39437819059013351 0.41320437797200638 0 -0.41280263650301141 0.40101529507395423 0 -0.39437819059013351 0.41320437797200638 0 -0.41119235135393217 0.41159608046120721 0 -0.40102242335472987 0.41046124759573921 0 -0.40434084904664008 0.42380715332584279 0 -0.40102242335472987 0.41046124759573921 0 -0.39437819059013351 0.41320437797200638 0 -0.40434084904664008 0.42380715332584279 0 -0.39437819059013351 0.41320437797200638 0 -0.40434084904664008 0.42380715332584279 0 -0.39170147536363142 0.42828064294682527 0 -0.39437819059013351 0.41320437797200638 0 -0.40075702390631401 0.40394737592315599 0 -0.39442025036841011 0.40342517745548578 0 -0.39437819059013351 0.41320437797200638 0 -0.38765283913904491 0.40373110938067952 0 -0.39442025036841011 0.40342517745548578 0 -0.3988102446760351 0.43992296853855067 0 -0.40434084904664008 0.42380715332584279 0 -0.39170147536363142 0.42828064294682527 0 -0.3988102446760351 0.43992296853855067 0 -0.41246310005121278 0.43819284607708009 0 -0.40434084904664008 0.42380715332584279 0 -0.38421781058557741 0.43911022311192649 0 -0.3988102446760351 0.43992296853855067 0 -0.39170147536363142 0.42828064294682527 0 -0.38421781058557741 0.43911022311192649 0 -0.39170147536363142 0.42828064294682527 0 -0.37595374467725562 0.42539346087005869 0 -0.39437819059013351 0.41320437797200638 0 -0.39170147536363142 0.42828064294682527 0 -0.37595374467725562 0.42539346087005869 0 -0.38421781058557741 0.43911022311192649 0 -0.37595374467725562 0.42539346087005869 0 -0.37154812818406407 0.43816993315416458 0 -0.39437819059013351 0.41320437797200638 0 -0.3761886614665424 0.40561413891772141 0 -0.38765283913904491 0.40373110938067952 0 -0.39437819059013351 0.41320437797200638 0 -0.37595374467725562 0.42539346087005869 0 -0.39437819059013351 0.41320437797200638 0 -0.37595374467725562 0.42539346087005869 0 -0.3761886614665424 0.40561413891772141 0 -0.3761886614665424 0.40561413891772141 0 -0.38765283913904491 0.40373110938067952 0 -0.3874684616352162 0.38945131717169068 0 -0.38765283913904491 0.40373110938067952 0 -0.3874684616352162 0.38945131717169068 0 -0.39305151958377438 0.39695774424777619 0 -0.38292775080548469 0.38191251644466812 0 -0.3874684616352162 0.38945131717169068 0 -0.37386356216032712 0.38649946109362732 0 -0.38292775080548469 0.38191251644466812 0 -0.37991049508005392 0.37322058527552859 0 -0.37386356216032712 0.38649946109362732 0 -0.38292775080548469 0.38191251644466812 0 -0.39119009244985031 0.37969038118096871 0 -0.37991049508005392 0.37322058527552859 0 -0.38292775080548469 0.38191251644466812 0 -0.3874684616352162 0.38945131717169068 0 -0.39119009244985031 0.37969038118096871 0 -0.39948326122210842 0.37799939920152947 0 -0.40579718820462563 0.38563709581161232 0 -0.41042288491419981 0.3696036097660817 0 -0.3874684616352162 0.38945131717169068 0 -0.39710061543432779 0.38911325219251719 0 -0.39119009244985031 0.37969038118096871 0 -0.39710061543432779 0.38911325219251719 0 -0.39119009244985031 0.37969038118096871 0 -0.39948326122210842 0.37799939920152947 0 -0.39119009244985031 0.37969038118096871 0 -0.39948326122210842 0.37799939920152947 0 -0.3995731544226836 0.3695020569384555 0 -0.39710061543432779 0.38911325219251719 0 -0.39948326122210842 0.37799939920152947 0 -0.40579718820462563 0.38563709581161232 0 -0.39710061543432779 0.38911325219251719 0 -0.40579718820462563 0.38563709581161232 0 -0.40624678768228722 0.39539865044662148 0 -0.39710061543432779 0.38911325219251719 0 -0.40624678768228722 0.39539865044662148 0 -0.39861543134187299 0.39906786503850777 0 -0.41280263650301141 0.40101529507395423 0 -0.39437819059013351 0.41320437797200638 0 -0.40075702390631401 0.40394737592315599 0 -0.40624678768228722 0.39539865044662148 0 -0.40455414019845909 0.40001407223715718 0 -0.39861543134187299 0.39906786503850777 0 -0.41280263650301141 0.40101529507395423 0 -0.40455414019845909 0.40001407223715718 0 -0.40075702390631401 0.40394737592315599 0 -0.40455414019845909 0.40001407223715718 0 -0.40075702390631401 0.40394737592315599 0 -0.39861543134187299 0.39906786503850777 0 -0.40075702390631401 0.40394737592315599 0 -0.39861543134187299 0.39906786503850777 0 -0.39442025036841011 0.40342517745548578 0 -0.39861543134187299 0.39906786503850777 0 -0.39442025036841011 0.40342517745548578 0 -0.39305151958377438 0.39695774424777619 0 -0.38765283913904491 0.40373110938067952 0 -0.39442025036841011 0.40342517745548578 0 -0.39305151958377438 0.39695774424777619 0 -0.3874684616352162 0.38945131717169068 0 -0.39710061543432779 0.38911325219251719 0 -0.39305151958377438 0.39695774424777619 0 -0.39710061543432779 0.38911325219251719 0 -0.39861543134187299 0.39906786503850777 0 -0.39305151958377438 0.39695774424777619 0 -0.39776985221600081 0.35926035979464199 0 -0.40657272041951981 0.35063919809943772 0 -0.41000186280808693 0.36752981874959012 0 -0.39776985221600081 0.35926035979464199 0 -0.39390195065778838 0.3482428558819779 0 -0.3866607258676078 0.35441478367918577 0 -0.39390195065778838 0.3482428558819779 0 -0.39724285312931212 0.34144316083523701 0 -0.40657272041951981 0.35063919809943772 0 -0.39776985221600081 0.35926035979464199 0 -0.39390195065778838 0.3482428558819779 0 -0.40657272041951981 0.35063919809943772 0 -0.39776985221600081 0.35926035979464199 0 -0.3995731544226836 0.3695020569384555 0 -0.41000186280808693 0.36752981874959012 0 -0.3995731544226836 0.3695020569384555 0 -0.41042288491419981 0.3696036097660817 0 -0.39948326122210842 0.37799939920152947 0 -0.3995731544226836 0.3695020569384555 0 -0.41042288491419981 0.3696036097660817 0 -0.3995731544226836 0.3695020569384555 0 -0.41000186280808693 0.36752981874959012 0 -0.39776985221600081 0.35926035979464199 0 -0.3995731544226836 0.3695020569384555 0 -0.38689604829717128 0.36245207981484939 0 -0.3995731544226836 0.3695020569384555 0 -0.38689604829717128 0.36245207981484939 0 -0.37300736871822948 0.36925340277524632 0 -0.3995731544226836 0.3695020569384555 0 -0.37991049508005392 0.37322058527552859 0 -0.39119009244985031 0.37969038118096871 0 -0.3995731544226836 0.3695020569384555 0 -0.37991049508005392 0.37322058527552859 0 -0.3995731544226836 0.3695020569384555 0 -0.37991049508005392 0.37322058527552859 0 -0.37300736871822948 0.36925340277524632 0 -0.3995731544226836 0.3695020569384555 0 -0.37300736871822948 0.36925340277524632 0 -0.38689604829717128 0.36245207981484939 0 -0.37746914026133471 0.35982979588671721 0 -0.37300736871822948 0.36925340277524632 0 -0.37746914026133471 0.35982979588671721 0 -0.3866607258676078 0.35441478367918577 0 -0.37642826932623369 0.35000154489169011 0 -0.38689604829717128 0.36245207981484939 0 -0.37746914026133471 0.35982979588671721 0 -0.3866607258676078 0.35441478367918577 0 -0.39776985221600081 0.35926035979464199 0 -0.38689604829717128 0.36245207981484939 0 -0.3866607258676078 0.35441478367918577 0 -0.39390195065778838 0.3482428558819779 0 -0.3866607258676078 0.35441478367918577 0 -0.38463061466747311 0.34595815582307332 0 -0.39390195065778838 0.3482428558819779 0 -0.38463061466747311 0.34595815582307332 0 -0.39168523097482982 0.34029607964988368 0 -0.3866607258676078 0.35441478367918577 0 -0.38463061466747311 0.34595815582307332 0 -0.37642826932623369 0.35000154489169011 0 -0.38463061466747311 0.34595815582307332 0 -0.37642826932623369 0.35000154489169011 0 -0.3787563480894145 0.34202988484950791 0 -0.37642826932623369 0.35000154489169011 0 -0.3787563480894145 0.34202988484950791 0 -0.37072194456669411 0.34269980869944883 0 -0.3787563480894145 0.34202988484950791 0 -0.37594192088583472 0.3329357814357396 0 -0.38486677617604548 0.3368265819073884 0 -0.38463061466747311 0.34595815582307332 0 -0.3787563480894145 0.34202988484950791 0 -0.38486677617604548 0.3368265819073884 0 -0.3787563480894145 0.34202988484950791 0 -0.37594192088583472 0.3329357814357396 0 -0.37072194456669411 0.34269980869944883 0 -0.37594192088583472 0.3329357814357396 0 -0.38250280522077812 0.33116058449097818 0 -0.38486677617604548 0.3368265819073884 0 -0.37594192088583472 0.3329357814357396 0 -0.38250280522077812 0.33116058449097818 0 -0.38080292712209618 0.32494907968193792 0 -0.38250280522077812 0.33116058449097818 0 -0.38839959669913587 0.32993089493884697 0 -0.38486677617604548 0.3368265819073884 0 -0.38250280522077812 0.33116058449097818 0 -0.38839959669913587 0.32993089493884697 0 -0.38080292712209618 0.32494907968193792 0 -0.38839959669913587 0.32993089493884697 0 -0.38486677617604548 0.3368265819073884 0 -0.39173953600946282 0.33436310192430352 0 -0.38463061466747311 0.34595815582307332 0 -0.38486677617604548 0.3368265819073884 0 -0.39168523097482982 0.34029607964988368 0 -0.38486677617604548 0.3368265819073884 0 -0.39168523097482982 0.34029607964988368 0 -0.39173953600946282 0.33436310192430352 0 -0.38047838166951248 0.31778402510540582 0 -0.37483097234427198 0.31145346067050889 0 -0.37080256603309891 0.32142707452001568 0 -0.38047838166951248 0.31778402510540582 0 -0.38262282128491593 0.31162943355782452 0 -0.37483097234427198 0.31145346067050889 0 -0.38047838166951248 0.31778402510540582 0 -0.38080292712209618 0.32494907968193792 0 -0.37080256603309891 0.32142707452001568 0 -0.37594192088583472 0.3329357814357396 0 -0.38080292712209618 0.32494907968193792 0 -0.37080256603309891 0.32142707452001568 0 -0.38047838166951248 0.31778402510540582 0 -0.38080292712209618 0.32494907968193792 0 -0.38951841851101482 0.31882139483799682 0 -0.38839959669913587 0.32993089493884697 0 -0.38080292712209618 0.32494907968193792 0 -0.39118580657176988 0.32527285250472038 0 -0.38080292712209618 0.32494907968193792 0 -0.38951841851101482 0.31882139483799682 0 -0.39118580657176988 0.32527285250472038 0 -0.38047838166951248 0.31778402510540582 0 -0.38951841851101482 0.31882139483799682 0 -0.38262282128491593 0.31162943355782452 0 -0.38951841851101482 0.31882139483799682 0 -0.3934462848906658 0.30975438010982398 0 -0.38262282128491593 0.31162943355782452 0 -0.38951841851101482 0.31882139483799682 0 -0.40102758939218519 0.32332604104001039 0 -0.3934462848906658 0.30975438010982398 0 -0.40102758939218519 0.32332604104001039 0 -0.39878711980797449 0.31229035994632087 0 -0.3934462848906658 0.30975438010982398 0 -0.40102758939218519 0.32332604104001039 0 -0.3934462848906658 0.30975438010982398 0 -0.39118580657176988 0.32527285250472038 0 -0.40102758939218519 0.32332604104001039 0 -0.39618050113441772 0.32933685202480972 0 -0.38951841851101482 0.31882139483799682 0 -0.39118580657176988 0.32527285250472038 0 -0.40102758939218519 0.32332604104001039 0 -0.40102758939218519 0.32332604104001039 0 -0.40631695347348529 0.33279478825011632 0 -0.40102758939218519 0.32332604104001039 0 -0.39878711980797449 0.31229035994632087 0 -0.41346853634354558 0.31926151274956099 0 -0.39878711980797449 0.31229035994632087 0 -0.40102758939218519 0.32332604104001039 0 -0.41346853634354558 0.31926151274956099 0 -0.39878711980797449 0.31229035994632087 0 -0.40314357803095002 0.33374857744928599 0 -0.40631695347348529 0.33279478825011632 0 -0.40657272041951981 0.35063919809943772 0 -0.40314357803095002 0.33374857744928599 0 -0.40657272041951981 0.35063919809943772 0 -0.39724285312931212 0.34144316083523701 0 -0.40314357803095002 0.33374857744928599 0 -0.40657272041951981 0.35063919809943772 0 -0.39390195065778838 0.3482428558819779 0 -0.39724285312931212 0.34144316083523701 0 -0.39168523097482982 0.34029607964988368 0 -0.39724285312931212 0.34144316083523701 0 -0.39168523097482982 0.34029607964988368 0 -0.39756557506288498 0.33542510110058882 0 -0.39168523097482982 0.34029607964988368 0 -0.39173953600946282 0.33436310192430352 0 -0.39756557506288498 0.33542510110058882 0 -0.38839959669913587 0.32993089493884697 0 -0.39118580657176988 0.32527285250472038 0 -0.39618050113441772 0.32933685202480972 0 -0.38839959669913587 0.32993089493884697 0 -0.39173953600946282 0.33436310192430352 0 -0.39618050113441772 0.32933685202480972 0 -0.39173953600946282 0.33436310192430352 0 -0.39618050113441772 0.32933685202480972 0 -0.39756557506288498 0.33542510110058882 0 -0.39756557506288498 0.33542510110058882 0 -0.40314357803095002 0.33374857744928599 0 -0.40102758939218519 0.32332604104001039 0 -0.40314357803095002 0.33374857744928599 0 -0.39618050113441772 0.32933685202480972 0 -0.39756557506288498 0.33542510110058882 0 -0.40314357803095002 0.33374857744928599 0 -0.40102758939218519 0.32332604104001039 0 -0.39618050113441772 0.32933685202480972 0 -0.40314357803095002 0.33374857744928599 0 -0.40102758939218519 0.32332604104001039 0 -0.40314357803095002 0.33374857744928599 0 -0.40631695347348529 0.33279478825011632 0 -0.40314357803095002 0.33374857744928599 0 -0.40631695347348529 0.33279478825011632 0 -0.39724285312931212 0.34144316083523701 0 -0.39756557506288498 0.33542510110058882 0 -0.40314357803095002 0.33374857744928599 0 -0.40631695347348529 0.33279478825011632 0 -0.41526772841775461 0.34881800464798868 0 -0.40631695347348529 0.33279478825011632 0 -0.42814995287911672 0.32623266555280139 0 -0.40631695347348529 0.33279478825011632 0 -0.42253240541549641 0.33804116158664532 0 -0.41526772841775461 0.34881800464798868 0 -0.40631695347348529 0.33279478825011632 0 -0.42814995287911672 0.32623266555280139 0 -0.42253240541549641 0.33804116158664532 0 -0.40631695347348529 0.33279478825011632 0 -0.41346853634354558 0.31926151274956099 0 -0.42814995287911672 0.32623266555280139 0 -0.40102758939218519 0.32332604104001039 0 -0.40631695347348529 0.33279478825011632 0 -0.41346853634354558 0.31926151274956099 0 -0.41346853634354558 0.31926151274956099 0 -0.42814995287911672 0.32623266555280139 0 -0.42814995287911672 0.32623266555280139 0 -0.44788314382255151 0.32030166094026352 0 -0.42905264030565499 0.30720624236330391 0 -0.41346853634354558 0.31926151274956099 0 -0.42814995287911672 0.32623266555280139 0 -0.42905264030565499 0.30720624236330391 0 -0.42253240541549641 0.33804116158664532 0 -0.43272238541078861 0.33644939184261552 0 -0.43020500689633617 0.34591095763970381 0 -0.42814995287911672 0.32623266555280139 0 -0.42253240541549641 0.33804116158664532 0 -0.43272238541078861 0.33644939184261552 0 -0.42814995287911672 0.32623266555280139 0 -0.43272238541078861 0.33644939184261552 0 -0.44303361624781168 0.33329985088629738 0 -0.42814995287911672 0.32623266555280139 0 -0.44303361624781168 0.33329985088629738 0 -0.43272238541078861 0.33644939184261552 0 -0.43020500689633617 0.34591095763970381 0 -0.44356005827317763 0.3447158319552493 0 -0.43020500689633617 0.34591095763970381 0 -0.4305461135334131 0.35592339598704342 0 -0.43912985941842819 0.35279863545074691 0 -0.4305461135334131 0.35592339598704342 0 -0.41526772841775461 0.34881800464798868 0 -0.42421850336202299 0.36484122104586159 0 -0.4305461135334131 0.35592339598704342 0 -0.44058757833478102 0.36174556302335259 0 -0.43912985941842819 0.35279863545074691 0 -0.43020500689633617 0.34591095763970381 0 -0.4305461135334131 0.35592339598704342 0 -0.41526772841775461 0.34881800464798868 0 -0.42253240541549641 0.33804116158664532 0 -0.43020500689633617 0.34591095763970381 0 -0.41526772841775461 0.34881800464798868 0 -0.40657272041951981 0.35063919809943772 0 -0.41000186280808693 0.36752981874959012 0 -0.41526772841775461 0.34881800464798868 0 -0.42421850336202299 0.36484122104586159 0 -0.41526772841775461 0.34881800464798868 0 -0.40657272041951981 0.35063919809943772 0 -0.41000186280808693 0.36752981874959012 0 -0.40631695347348529 0.33279478825011632 0 -0.41526772841775461 0.34881800464798868 0 -0.40657272041951981 0.35063919809943772 0 -0.41526772841775461 0.34881800464798868 0 -0.41000186280808693 0.36752981874959012 0 -0.42421850336202299 0.36484122104586159 0 -0.41042288491419981 0.3696036097660817 0 -0.43096006332418962 0.36979583652605869 0 -0.3995731544226836 0.3695020569384555 0 -0.41042288491419981 0.3696036097660817 0 -0.41000186280808693 0.36752981874959012 0 -0.41042288491419981 0.3696036097660817 0 -0.41000186280808693 0.36752981874959012 0 -0.41000186280808693 0.36752981874959012 0 -0.42421850336202299 0.36484122104586159 0 -0.41042288491419981 0.3696036097660817 0 -0.42421850336202299 0.36484122104586159 0 -0.42524843340503288 0.36668494877408331 0 -0.41042288491419981 0.3696036097660817 0 -0.41000186280808693 0.36752981874959012 0 -0.42421850336202299 0.36484122104586159 0 -0.42421850336202299 0.36484122104586159 0 -0.44058757833478102 0.36174556302335259 0 -0.41042288491419981 0.3696036097660817 0 -0.42524843340503288 0.36668494877408331 0 -0.43096006332418962 0.36979583652605869 0 -0.43386884732411768 0.38412337429753701 0 -0.41042288491419981 0.3696036097660817 0 -0.43096006332418962 0.36979583652605869 0 -0.42421850336202299 0.36484122104586159 0 -0.43096006332418962 0.36979583652605869 0 -0.44058757833478102 0.36174556302335259 0 -0.4305461135334131 0.35592339598704342 0 -0.42421850336202299 0.36484122104586159 0 -0.44058757833478102 0.36174556302335259 0 -0.42421850336202299 0.36484122104586159 0 -0.42524843340503288 0.36668494877408331 0 -0.42421850336202299 0.36484122104586159 0 -0.42524843340503288 0.36668494877408331 0 -0.43096006332418962 0.36979583652605869 0 -0.43096006332418962 0.36979583652605869 0 -0.44058757833478102 0.36174556302335259 0 -0.45149724173417938 0.36998806328603562 0 -0.43916022341545241 0.38357787451935271 0 -0.45149724173417938 0.36998806328603562 0 -0.46199368038356647 0.36847191686127612 0 -0.43386884732411768 0.38412337429753701 0 -0.43096006332418962 0.36979583652605869 0 -0.45149724173417938 0.36998806328603562 0 -0.43096006332418962 0.36979583652605869 0 -0.45149724173417938 0.36998806328603562 0 -0.44058757833478102 0.36174556302335259 0 -0.45149724173417938 0.36998806328603562 0 -0.45075054005443338 0.35569742864838522 0 -0.43020500689633617 0.34591095763970381 0 -0.44356005827317763 0.3447158319552493 0 -0.43912985941842819 0.35279863545074691 0 -0.44356005827317763 0.3447158319552493 0 -0.43912985941842819 0.35279863545074691 0 -0.45075054005443338 0.35569742864838522 0 -0.44058757833478102 0.36174556302335259 0 -0.43912985941842819 0.35279863545074691 0 -0.45075054005443338 0.35569742864838522 0 -0.44356005827317763 0.3447158319552493 0 -0.45075054005443338 0.35569742864838522 0 -0.45581310833071259 0.34471873781650048 0 -0.45581310833071259 0.34471873781650048 0 -0.47169837580861879 0.35378980346242578 0 -0.46707961735205411 0.33407306969527217 0 -0.45075054005443338 0.35569742864838522 0 -0.45581310833071259 0.34471873781650048 0 -0.47169837580861879 0.35378980346242578 0 -0.45149724173417938 0.36998806328603562 0 -0.46199368038356647 0.36847191686127612 0 -0.47169837580861879 0.35378980346242578 0 -0.45149724173417938 0.36998806328603562 0 -0.47169837580861879 0.35378980346242578 0 -0.45149724173417938 0.36998806328603562 0 -0.45075054005443338 0.35569742864838522 0 -0.47169837580861879 0.35378980346242578 0 -0.46939656496741128 0.38042070463701377 0 -0.46199368038356647 0.36847191686127612 0 -0.48084223144618637 0.37423676581465182 0 -0.46199368038356647 0.36847191686127612 0 -0.48084223144618637 0.37423676581465182 0 -0.4848271373516807 0.35336595920319969 0 -0.5 0.38168246196129119 0 -0.4848271373516807 0.35336595920319969 0 -0.50000000000000122 0.34649546368771061 0 -0.46199368038356647 0.36847191686127612 0 -0.4848271373516807 0.35336595920319969 0 -0.47169837580861879 0.35378980346242578 0 -0.4848271373516807 0.35336595920319969 0 -0.49189950988305842 0.33759154363881638 0 -0.47169837580861879 0.35378980346242578 0 -0.49189950988305842 0.33759154363881638 0 -0.46199368038356647 0.36847191686127612 0 -0.47169837580861879 0.35378980346242578 0 -0.4848271373516807 0.35336595920319969 0 -0.4848271373516807 0.35336595920319969 0 -0.50000000000000122 0.34649546368771061 0 -0.49189950988305842 0.33759154363881638 0 -0.5 0.38168246196129119 0 -0.48084223144618637 0.37423676581465182 0 -0.4848271373516807 0.35336595920319969 0 -0.49175200074331682 0.32370181728424052 0 -0.50000000000000322 0.3310961734715081 0 -0.5 0.3110126161921023 0 -0.49175200074331682 0.32370181728424052 0 -0.48586278544222522 0.31320028303108099 0 -0.48099770839130052 0.32560847008769511 0 -0.49175200074331682 0.32370181728424052 0 -0.48586278544222522 0.31320028303108099 0 -0.5 0.3110126161921023 0 -0.49175200074331682 0.32370181728424052 0 -0.50000000000000322 0.3310961734715081 0 -0.49189950988305842 0.33759154363881638 0 -0.50000000000000322 0.3310961734715081 0 -0.49189950988305842 0.33759154363881638 0 -0.50000000000000122 0.34649546368771061 0 -0.49189950988305842 0.33759154363881638 0 -0.50000000000000122 0.34649546368771061 0 -0.50000000000000322 0.3310961734715081 0 -0.49189950988305842 0.33759154363881638 0 -0.49189950988305842 0.33759154363881638 0 -0.48099770839130052 0.32560847008769511 0 -0.49175200074331682 0.32370181728424052 0 -0.49189950988305842 0.33759154363881638 0 -0.48099770839130052 0.32560847008769511 0 -0.49189950988305842 0.33759154363881638 0 -0.48099770839130052 0.32560847008769511 0 -0.46707961735205411 0.33407306969527217 0 -0.47169837580861879 0.35378980346242578 0 -0.49189950988305842 0.33759154363881638 0 -0.46707961735205411 0.33407306969527217 0 -0.46885185977775889 0.32438427765976091 0 -0.48099770839130052 0.32560847008769511 0 -0.47009590689954289 0.3136253965365734 0 -0.46885185977775889 0.32438427765976091 0 -0.48099770839130052 0.32560847008769511 0 -0.46707961735205411 0.33407306969527217 0 -0.48586278544222522 0.31320028303108099 0 -0.48099770839130052 0.32560847008769511 0 -0.47687342696934931 0.31158834622317971 0 -0.47009590689954289 0.3136253965365734 0 -0.47687342696934931 0.31158834622317971 0 -0.48099770839130052 0.32560847008769511 0 -0.47009590689954289 0.3136253965365734 0 -0.47687342696934931 0.31158834622317971 0 -0.48099770839130052 0.32560847008769511 0 -0.47009590689954289 0.3136253965365734 0 -0.47009590689954289 0.3136253965365734 0 -0.44788314382255151 0.32030166094026352 0 -0.45901288818089259 0.30460728945628102 0 -0.47009590689954289 0.3136253965365734 0 -0.44788314382255151 0.32030166094026352 0 -0.47009590689954289 0.3136253965365734 0 -0.45896055998523272 0.32565698734016019 0 -0.44788314382255151 0.32030166094026352 0 -0.46885185977775889 0.32438427765976091 0 -0.45896055998523272 0.32565698734016019 0 -0.46707961735205411 0.33407306969527217 0 -0.46885185977775889 0.32438427765976091 0 -0.47009590689954289 0.3136253965365734 0 -0.45896055998523272 0.32565698734016019 0 -0.45896055998523272 0.32565698734016019 0 -0.45580614967614219 0.33389064433171239 0 -0.44800958559043907 0.33034577093539008 0 -0.45896055998523272 0.32565698734016019 0 -0.46707961735205411 0.33407306969527217 0 -0.45580614967614219 0.33389064433171239 0 -0.45581310833071259 0.34471873781650048 0 -0.46707961735205411 0.33407306969527217 0 -0.45580614967614219 0.33389064433171239 0 -0.45581310833071259 0.34471873781650048 0 -0.45580614967614219 0.33389064433171239 0 -0.44942020745950728 0.33797142579219391 0 -0.44356005827317763 0.3447158319552493 0 -0.44942020745950728 0.33797142579219391 0 -0.44303361624781168 0.33329985088629738 0 -0.44356005827317763 0.3447158319552493 0 -0.45581310833071259 0.34471873781650048 0 -0.44942020745950728 0.33797142579219391 0 -0.44942020745950728 0.33797142579219391 0 -0.44800958559043907 0.33034577093539008 0 -0.44303361624781168 0.33329985088629738 0 -0.45580614967614219 0.33389064433171239 0 -0.44942020745950728 0.33797142579219391 0 -0.44800958559043907 0.33034577093539008 0 -0.43272238541078861 0.33644939184261552 0 -0.44356005827317763 0.3447158319552493 0 -0.44303361624781168 0.33329985088629738 0 -0.42814995287911672 0.32623266555280139 0 -0.44788314382255151 0.32030166094026352 0 -0.42814995287911672 0.32623266555280139 0 -0.44303361624781168 0.33329985088629738 0 -0.44788314382255151 0.32030166094026352 0 -0.45896055998523272 0.32565698734016019 0 -0.44800958559043907 0.33034577093539008 0 -0.44788314382255151 0.32030166094026352 0 -0.44800958559043907 0.33034577093539008 0 -0.44303361624781168 0.33329985088629738 0 -0.44788314382255151 0.32030166094026352 0 -0.44800958559043907 0.33034577093539008 0 -0.44788314382255151 0.32030166094026352 0 -0.44788314382255151 0.32030166094026352 0 -0.44756620836413352 0.29512537102531472 0 -0.45901288818089259 0.30460728945628102 0 -0.44788314382255151 0.32030166094026352 0 -0.44756620836413352 0.29512537102531472 0 -0.42905264030565499 0.30720624236330391 0 -0.44788314382255151 0.32030166094026352 0 -0.44756620836413352 0.29512537102531472 0 -0.44756620836413352 0.29512537102531472 0 -0.44724927290571531 0.26994908111036592 0 -0.44756620836413352 0.29512537102531472 0 -0.44724927290571531 0.26994908111036592 0 -0.43427858469874597 0.29161112043352289 0 -0.44756620836413352 0.29512537102531472 0 -0.47093205523305148 0.29646395781646662 0 -0.4736246364528568 0.28043907001153201 0 -0.44756620836413352 0.29512537102531472 0 -0.4736246364528568 0.28043907001153201 0 -0.44724927290571531 0.26994908111036592 0 -0.44756620836413352 0.29512537102531472 0 -0.45901288818089259 0.30460728945628102 0 -0.47093205523305148 0.29646395781646662 0 -0.45901288818089259 0.30460728945628102 0 -0.47178581124679148 0.3050269412052895 0 -0.47093205523305148 0.29646395781646662 0 -0.47009590689954289 0.3136253965365734 0 -0.45901288818089259 0.30460728945628102 0 -0.47178581124679148 0.3050269412052895 0 -0.47009590689954289 0.3136253965365734 0 -0.47178581124679148 0.3050269412052895 0 -0.47687342696934931 0.31158834622317971 0 -0.47178581124679148 0.3050269412052895 0 -0.47687342696934931 0.31158834622317971 0 -0.47889054432166311 0.30480916920891937 0 -0.48586278544222522 0.31320028303108099 0 -0.47889054432166311 0.30480916920891937 0 -0.48649129114935302 0.2990809434305049 0 -0.48586278544222522 0.31320028303108099 0 -0.47687342696934931 0.31158834622317971 0 -0.47889054432166311 0.30480916920891937 0 -0.47889054432166311 0.30480916920891937 0 -0.47093205523305148 0.29646395781646662 0 -0.48649129114935302 0.2990809434305049 0 -0.47178581124679148 0.3050269412052895 0 -0.47889054432166311 0.30480916920891937 0 -0.47093205523305148 0.29646395781646662 0 -0.47093205523305148 0.29646395781646662 0 -0.48649129114935302 0.2990809434305049 0 -0.4736246364528568 0.28043907001153201 0 -0.49999999999999911 0.29092905891269638 0 -0.48649129114935302 0.2990809434305049 0 -0.4736246364528568 0.28043907001153201 0 -0.49999999999999911 0.29092905891269638 0 -0.4736246364528568 0.28043907001153201 0 -0.49999999999999911 0.29092905891269638 0 -0.5 0.3110126161921023 0 -0.48649129114935302 0.2990809434305049 0 -0.48586278544222522 0.31320028303108099 0 -0.5 0.3110126161921023 0 -0.48649129114935302 0.2990809434305049 0 -0.5 0.26100978222983601 0 -0.4736246364528568 0.28043907001153201 0 -0.46610852269701719 0.26093384423378352 0 -0.47452615834669432 0.24180038639937829 0 -0.5 0.26100978222983601 0 -0.46610852269701719 0.26093384423378352 0 -0.49999999999999911 0.29092905891269638 0 -0.5 0.26100978222983601 0 -0.4736246364528568 0.28043907001153201 0 -0.44689295635213322 0.24164448906730571 0 -0.46610852269701719 0.26093384423378352 0 -0.44724927290571531 0.26994908111036592 0 -0.4736246364528568 0.28043907001153201 0 -0.46610852269701719 0.26093384423378352 0 -0.44724927290571531 0.26994908111036592 0 -0.4736246364528568 0.28043907001153201 0 -0.44724927290571531 0.26994908111036592 0 -0.44689295635213322 0.24164448906730571 0 -0.44724927290571531 0.26994908111036592 0 -0.44689295635213322 0.24164448906730571 0 -0.44724927290571531 0.26994908111036592 0 -0.4265864995108426 0.26173109908361419 0 -0.42189819271725543 0.24343350545188239 0 -0.4265864995108426 0.26173109908361419 0 -0.40592372611597038 0.25351311705686119 0 -0.4265864995108426 0.26173109908361419 0 -0.40592372611597038 0.25351311705686119 0 -0.4265864995108426 0.26173109908361419 0 -0.41767470102105131 0.26638192645012859 0 -0.40592372611597038 0.25351311705686119 0 -0.41767470102105131 0.26638192645012859 0 -0.41691564106730461 0.27892138989973508 0 -0.4047450519625832 0.27692963717501229 0 -0.41767470102105131 0.26638192645012859 0 -0.41691564106730461 0.27892138989973508 0 -0.42743230293276779 0.27162097403552998 0 -0.44724927290571531 0.26994908111036592 0 -0.42873540015892558 0.28112137363380468 0 -0.43427858469874597 0.29161112043352289 0 -0.44724927290571531 0.26994908111036592 0 -0.42873540015892558 0.28112137363380468 0 -0.42743230293276779 0.27162097403552998 0 -0.44724927290571531 0.26994908111036592 0 -0.4265864995108426 0.26173109908361419 0 -0.44724927290571531 0.26994908111036592 0 -0.4265864995108426 0.26173109908361419 0 -0.42743230293276779 0.27162097403552998 0 -0.41691564106730461 0.27892138989973508 0 -0.42873540015892558 0.28112137363380468 0 -0.42743230293276779 0.27162097403552998 0 -0.4265864995108426 0.26173109908361419 0 -0.41767470102105131 0.26638192645012859 0 -0.42743230293276779 0.27162097403552998 0 -0.41691564106730461 0.27892138989973508 0 -0.42873540015892558 0.28112137363380468 0 -0.42062906021100932 0.29322400020386019 0 -0.42873540015892558 0.28112137363380468 0 -0.43427858469874597 0.29161112043352289 0 -0.42062906021100932 0.29322400020386019 0 -0.44756620836413352 0.29512537102531472 0 -0.43427858469874597 0.29161112043352289 0 -0.42905264030565499 0.30720624236330391 0 -0.43427858469874597 0.29161112043352289 0 -0.42905264030565499 0.30720624236330391 0 -0.42062906021100932 0.29322400020386019 0 -0.4137847164754882 0.30454530163035132 0 -0.40808447668868669 0.29214571684159152 0 -0.39878711980797449 0.31229035994632087 0 -0.41346853634354558 0.31926151274956099 0 -0.42905264030565499 0.30720624236330391 0 -0.4137847164754882 0.30454530163035132 0 -0.42905264030565499 0.30720624236330391 0 -0.4137847164754882 0.30454530163035132 0 -0.42062906021100932 0.29322400020386019 0 -0.41346853634354558 0.31926151274956099 0 -0.4137847164754882 0.30454530163035132 0 -0.39878711980797449 0.31229035994632087 0 -0.41691564106730461 0.27892138989973508 0 -0.42062906021100932 0.29322400020386019 0 -0.40808447668868669 0.29214571684159152 0 -0.4137847164754882 0.30454530163035132 0 -0.42062906021100932 0.29322400020386019 0 -0.40808447668868669 0.29214571684159152 0 -0.41691564106730461 0.27892138989973508 0 -0.40808447668868669 0.29214571684159152 0 -0.4047450519625832 0.27692963717501229 0 -0.40808447668868669 0.29214571684159152 0 -0.39364527060776011 0.28696361219426941 0 -0.4047450519625832 0.27692963717501229 0 -0.39364527060776011 0.28696361219426941 0 -0.39878711980797449 0.31229035994632087 0 -0.3934462848906658 0.30975438010982398 0 -0.40808447668868669 0.29214571684159152 0 -0.39364527060776011 0.28696361219426941 0 -0.39878711980797449 0.31229035994632087 0 -0.39364527060776011 0.28696361219426941 0 -0.39878711980797449 0.31229035994632087 0 -0.39878711980797449 0.31229035994632087 0 -0.3934462848906658 0.30975438010982398 0 -0.3934462848906658 0.30975438010982398 0 -0.38262282128491593 0.31162943355782452 0 -0.37293294748303157 0.30001406593601432 0 -0.3934462848906658 0.30975438010982398 0 -0.37293294748303157 0.30001406593601432 0 -0.3934462848906658 0.30975438010982398 0 -0.3805238214388651 0.28662125146218759 0 -0.3934462848906658 0.30975438010982398 0 -0.3805238214388651 0.28662125146218759 0 -0.37293294748303157 0.30001406593601432 0 -0.38262282128491593 0.31162943355782452 0 -0.37483097234427198 0.31145346067050889 0 -0.37293294748303157 0.30001406593601432 0 -0.39364527060776011 0.28696361219426941 0 -0.3934462848906658 0.30975438010982398 0 -0.3805238214388651 0.28662125146218759 0 -0.39364527060776011 0.28696361219426941 0 -0.3805238214388651 0.28662125146218759 0 -0.38256846786030863 0.27467746272830651 0 -0.3805238214388651 0.28662125146218759 0 -0.38256846786030863 0.27467746272830651 0 -0.36760135798706461 0.26348812281455097 0 -0.39364527060776011 0.28696361219426941 0 -0.38256846786030863 0.27467746272830651 0 -0.38850342140754918 0.26163686444221712 0 -0.38256846786030863 0.27467746272830651 0 -0.38850342140754918 0.26163686444221712 0 -0.36760135798706461 0.26348812281455097 0 -0.38526095272109828 0.24529513503010819 0 -0.38850342140754918 0.26163686444221712 0 -0.37763970978882072 0.2474514091889734 0 -0.38850342140754918 0.26163686444221712 0 -0.36995129617131689 0.25104890021408138 0 -0.37763970978882072 0.2474514091889734 0 -0.38526095272109828 0.24529513503010819 0 -0.38850342140754918 0.26163686444221712 0 -0.41767470102105131 0.26638192645012859 0 -0.38850342140754918 0.26163686444221712 0 -0.40592372611597038 0.25351311705686119 0 -0.41767470102105131 0.26638192645012859 0 -0.38850342140754918 0.26163686444221712 0 -0.38526095272109828 0.24529513503010819 0 -0.38850342140754918 0.26163686444221712 0 -0.40592372611597038 0.25351311705686119 0 -0.39364527060776011 0.28696361219426941 0 -0.38850342140754918 0.26163686444221712 0 -0.4047450519625832 0.27692963717501229 0 -0.39364527060776011 0.28696361219426941 0 -0.38850342140754918 0.26163686444221712 0 -0.41767470102105131 0.26638192645012859 0 -0.38850342140754918 0.26163686444221712 0 -0.4047450519625832 0.27692963717501229 0 -0.3560064050722106 0.27003561994060071 0 -0.34453888856100889 0.28078874873127357 0 -0.36258179992450318 0.28213606400028313 0 -0.3560064050722106 0.27003561994060071 0 -0.34453888856100889 0.28078874873127357 0 -0.34430082903474502 0.26702789382000047 0 -0.34430082903474502 0.26702789382000047 0 -0.36108095298844539 0.25717626776004388 0 -0.33365848456934111 0.25271567107787218 0 -0.3560064050722106 0.27003561994060071 0 -0.34430082903474502 0.26702789382000047 0 -0.36108095298844539 0.25717626776004388 0 -0.35106365726006378 0.2424575940342536 0 -0.36108095298844539 0.25717626776004388 0 -0.33365848456934111 0.25271567107787218 0 -0.36108095298844539 0.25717626776004388 0 -0.33365848456934111 0.25271567107787218 0 -0.3560064050722106 0.27003561994060071 0 -0.36108095298844539 0.25717626776004388 0 -0.36760135798706461 0.26348812281455097 0 -0.38850342140754918 0.26163686444221712 0 -0.36108095298844539 0.25717626776004388 0 -0.36760135798706461 0.26348812281455097 0 -0.38850342140754918 0.26163686444221712 0 -0.36108095298844539 0.25717626776004388 0 -0.36995129617131689 0.25104890021408138 0 -0.38850342140754918 0.26163686444221712 0 -0.36108095298844539 0.25717626776004388 0 -0.36171405935762979 0.24587739131352379 0 -0.36108095298844539 0.25717626776004388 0 -0.36995129617131689 0.25104890021408138 0 -0.3805238214388651 0.28662125146218759 0 -0.36760135798706461 0.26348812281455097 0 -0.36667834610566091 0.27557026455440559 0 -0.3805238214388651 0.28662125146218759 0 -0.36760135798706461 0.26348812281455097 0 -0.3560064050722106 0.27003561994060071 0 -0.36760135798706461 0.26348812281455097 0 -0.36667834610566091 0.27557026455440559 0 -0.3560064050722106 0.27003561994060071 0 -0.36667834610566091 0.27557026455440559 0 -0.36258179992450318 0.28213606400028313 0 -0.3805238214388651 0.28662125146218759 0 -0.36919330580854992 0.29073712852366429 0 -0.36258179992450318 0.28213606400028313 0 -0.3805238214388651 0.28662125146218759 0 -0.36667834610566091 0.27557026455440559 0 -0.36258179992450318 0.28213606400028313 0 -0.36919330580854992 0.29073712852366429 0 -0.36073465438779972 0.29417713269617202 0 -0.37293294748303157 0.30001406593601432 0 -0.3805238214388651 0.28662125146218759 0 -0.36919330580854992 0.29073712852366429 0 -0.37293294748303157 0.30001406593601432 0 -0.36919330580854992 0.29073712852366429 0 -0.36073465438779972 0.29417713269617202 0 -0.36258179992450318 0.28213606400028313 0 -0.37483097234427198 0.31145346067050889 0 -0.37293294748303157 0.30001406593601432 0 -0.36417254169879021 0.30842560442523331 0 -0.36073465438779972 0.29417713269617202 0 -0.37293294748303157 0.30001406593601432 0 -0.36417254169879021 0.30842560442523331 0 -0.36417254169879021 0.30842560442523331 0 -0.35042773195515842 0.3026718485547355 0 -0.35530637798938081 0.32081004417395381 0 -0.36073465438779972 0.29417713269617202 0 -0.36417254169879021 0.30842560442523331 0 -0.35042773195515842 0.3026718485547355 0 -0.34453888856100889 0.28078874873127357 0 -0.35042773195515842 0.3026718485547355 0 -0.33728646956175501 0.29447431564517479 0 -0.34453888856100889 0.28078874873127357 0 -0.36073465438779972 0.29417713269617202 0 -0.36258179992450318 0.28213606400028313 0 -0.34453888856100889 0.28078874873127357 0 -0.36073465438779972 0.29417713269617202 0 -0.35042773195515842 0.3026718485547355 0 -0.34453888856100889 0.28078874873127357 0 -0.33728646956175501 0.29447431564517479 0 -0.32621941398271881 0.27442316159021207 0 -0.33728646956175501 0.29447431564517479 0 -0.32265680208931041 0.29956009510768589 0 -0.32621941398271881 0.27442316159021207 0 -0.33728646956175501 0.29447431564517479 0 -0.32265680208931041 0.29956009510768589 0 -0.33438955201906839 0.32479306639605332 0 -0.35042773195515842 0.3026718485547355 0 -0.33728646956175501 0.29447431564517479 0 -0.33438955201906839 0.32479306639605332 0 -0.32265680208931041 0.29956009510768589 0 -0.33438955201906839 0.32479306639605332 0 -0.32265680208931041 0.29956009510768589 0 -0.3010440500563194 0.30979185292288258 0 -0.31668428358774992 0.3217905486839876 0 -0.32265680208931041 0.29956009510768589 0 -0.32621941398271881 0.27442316159021207 0 -0.29863955480262921 0.27896675766517992 0 -0.34453888856100889 0.28078874873127357 0 -0.34430082903474502 0.26702789382000047 0 -0.32621941398271881 0.27442316159021207 0 -0.34430082903474502 0.26702789382000047 0 -0.32621941398271881 0.27442316159021207 0 -0.33365848456934111 0.25271567107787218 0 -0.30623601615023688 0.24825507439570049 0 -0.32621941398271881 0.27442316159021207 0 -0.33365848456934111 0.25271567107787218 0 -0.30623601615023688 0.24825507439570049 0 -0.33365848456934111 0.25271567107787218 0 -0.29863955480262921 0.27896675766517992 0 -0.28189088799907819 0.2642437093259139 0 -0.26717262753633753 0.28224489778854578 0 -0.30623601615023688 0.24825507439570049 0 -0.32621941398271881 0.27442316159021207 0 -0.29863955480262921 0.27896675766517992 0 -0.30623601615023688 0.24825507439570049 0 -0.29863955480262921 0.27896675766517992 0 -0.28189088799907819 0.2642437093259139 0 -0.30623601615023688 0.24825507439570049 0 -0.27881354773113259 0.24379447771352891 0 -0.28189088799907819 0.2642437093259139 0 -0.27881354773113259 0.24379447771352891 0 -0.28189088799907819 0.2642437093259139 0 -0.26421699293618528 0.25786898771701178 0 -0.28189088799907819 0.2642437093259139 0 -0.26421699293618528 0.25786898771701178 0 -0.26717262753633753 0.28224489778854578 0 -0.26717262753633753 0.28224489778854578 0 -0.24415727795711151 0.29220362301900432 0 -0.24563769547896491 0.26580735339367562 0 -0.26421699293618528 0.25786898771701178 0 -0.26717262753633753 0.28224489778854578 0 -0.24563769547896491 0.26580735339367562 0 -0.25139107931202842 0.23933388103135719 0 -0.26421699293618528 0.25786898771701178 0 -0.24563769547896491 0.26580735339367562 0 -0.26434115553573989 0.30534378428432979 0 -0.24719073199611041 0.31709700931060869 0 -0.24415727795711151 0.29220362301900432 0 -0.26434115553573989 0.30534378428432979 0 -0.26717262753633753 0.28224489778854578 0 -0.24415727795711151 0.29220362301900432 0 -0.26434115553573989 0.30534378428432979 0 -0.26717262753633753 0.28224489778854578 0 -0.28239723003669298 0.29843775742287459 0 -0.26434115553573989 0.30534378428432979 0 -0.28239723003669298 0.29843775742287459 0 -0.27973263707777102 0.3204049814787836 0 -0.29863955480262921 0.27896675766517992 0 -0.26717262753633753 0.28224489778854578 0 -0.28239723003669298 0.29843775742287459 0 -0.28239723003669298 0.29843775742287459 0 -0.3010440500563194 0.30979185292288258 0 -0.27973263707777102 0.3204049814787836 0 -0.29863955480262921 0.27896675766517992 0 -0.28239723003669298 0.29843775742287459 0 -0.3010440500563194 0.30979185292288258 0 -0.32265680208931041 0.29956009510768589 0 -0.29863955480262921 0.27896675766517992 0 -0.3010440500563194 0.30979185292288258 0 -0.3010440500563194 0.30979185292288258 0 -0.29926324077797412 0.33411848835228491 0 -0.31668428358774992 0.3217905486839876 0 -0.29926324077797412 0.33411848835228491 0 -0.31879384447817732 0.34783199522578617 0 -0.29926324077797412 0.33411848835228491 0 -0.31879384447817732 0.34783199522578617 0 -0.31302772175139781 0.33527966127092218 0 -0.29926324077797412 0.33411848835228491 0 -0.30399457537816471 0.3481445545187935 0 -0.31879384447817732 0.34783199522578617 0 -0.29926324077797412 0.33411848835228491 0 -0.31302772175139781 0.33527966127092218 0 -0.31668428358774992 0.3217905486839876 0 -0.29926324077797412 0.33411848835228491 0 -0.28245071860131837 0.34341365553927311 0 -0.27973263707777102 0.3204049814787836 0 -0.29926324077797412 0.33411848835228491 0 -0.28245071860131837 0.34341365553927311 0 -0.29244347790832348 0.35169871262972391 0 -0.29926324077797412 0.33411848835228491 0 -0.27973263707777102 0.3204049814787836 0 -0.3010440500563194 0.30979185292288258 0 -0.29926324077797412 0.33411848835228491 0 -0.27973263707777102 0.3204049814787836 0 -0.26434115553573989 0.30534378428432979 0 -0.27973263707777102 0.3204049814787836 0 -0.26477759975461568 0.32171281106653621 0 -0.27973263707777102 0.3204049814787836 0 -0.26828218627047362 0.33557193681273401 0 -0.26477759975461568 0.32171281106653621 0 -0.28245071860131837 0.34341365553927311 0 -0.27973263707777102 0.3204049814787836 0 -0.26828218627047362 0.33557193681273401 0 -0.28245071860131837 0.34341365553927311 0 -0.26828218627047362 0.33557193681273401 0 -0.27061007787866442 0.34851447613183828 0 -0.26828218627047362 0.33557193681273401 0 -0.25554896750977102 0.3306915666425802 0 -0.26477759975461568 0.32171281106653621 0 -0.26828218627047362 0.33557193681273401 0 -0.25145706260165962 0.34419168153181989 0 -0.27061007787866442 0.34851447613183828 0 -0.26828218627047362 0.33557193681273401 0 -0.25554896750977102 0.3306915666425802 0 -0.25145706260165962 0.34419168153181989 0 -0.25554896750977102 0.3306915666425802 0 -0.25145706260165962 0.34419168153181989 0 -0.2454184280701952 0.33492276887157618 0 -0.26434115553573989 0.30534378428432979 0 -0.26477759975461568 0.32171281106653621 0 -0.24719073199611041 0.31709700931060869 0 -0.25554896750977102 0.3306915666425802 0 -0.26477759975461568 0.32171281106653621 0 -0.24719073199611041 0.31709700931060869 0 -0.2642846315626653 0.36912287527908999 0 -0.25358003584887612 0.36153875207317732 0 -0.25687088905293348 0.3781419561323231 0 -0.25358003584887612 0.36153875207317732 0 -0.25687088905293348 0.3781419561323231 0 -0.24450349114954259 0.36964901619699081 0 -0.2642846315626653 0.36912287527908999 0 -0.25358003584887612 0.36153875207317732 0 -0.26426078689958998 0.35872481778547438 0 -0.25145706260165962 0.34419168153181989 0 -0.26426078689958998 0.35872481778547438 0 -0.27061007787866442 0.34851447613183828 0 -0.25358003584887612 0.36153875207317732 0 -0.25145706260165962 0.34419168153181989 0 -0.26426078689958998 0.35872481778547438 0 -0.25145706260165962 0.34419168153181989 0 -0.26426078689958998 0.35872481778547438 0 -0.26426078689958998 0.35872481778547438 0 -0.27061007787866442 0.34851447613183828 0 -0.2742915466127529 0.36093282125038401 0 -0.28245071860131837 0.34341365553927311 0 -0.27061007787866442 0.34851447613183828 0 -0.28104417543564969 0.35656689584432227 0 -0.27061007787866442 0.34851447613183828 0 -0.28104417543564969 0.35656689584432227 0 -0.2742915466127529 0.36093282125038401 0 -0.2642846315626653 0.36912287527908999 0 -0.27706451119752029 0.37325795403912893 0 -0.25687088905293348 0.3781419561323231 0 -0.28104417543564969 0.35656689584432227 0 -0.2742915466127529 0.36093282125038401 0 -0.27836826758687599 0.36808765436023178 0 -0.2642846315626653 0.36912287527908999 0 -0.26426078689958998 0.35872481778547438 0 -0.27706451119752029 0.37325795403912893 0 -0.26426078689958998 0.35872481778547438 0 -0.2742915466127529 0.36093282125038401 0 -0.27706451119752029 0.37325795403912893 0 -0.26426078689958998 0.35872481778547438 0 -0.27706451119752029 0.37325795403912893 0 -0.2742915466127529 0.36093282125038401 0 -0.27706451119752029 0.37325795403912893 0 -0.27836826758687599 0.36808765436023178 0 -0.27706451119752029 0.37325795403912893 0 -0.27836826758687599 0.36808765436023178 0 -0.27836826758687599 0.36808765436023178 0 -0.28925703139105757 0.36599964923442752 0 -0.28834919833829292 0.37741793818798508 0 -0.27706451119752029 0.37325795403912893 0 -0.27836826758687599 0.36808765436023178 0 -0.28834919833829292 0.37741793818798508 0 -0.28104417543564969 0.35656689584432227 0 -0.27836826758687599 0.36808765436023178 0 -0.28925703139105757 0.36599964923442752 0 -0.28925703139105757 0.36599964923442752 0 -0.29244347790832348 0.35169871262972391 0 -0.29865112586577702 0.36194903228924208 0 -0.28925703139105757 0.36599964923442752 0 -0.29601095395545918 0.37299386679921182 0 -0.29865112586577702 0.36194903228924208 0 -0.28925703139105757 0.36599964923442752 0 -0.29601095395545918 0.37299386679921182 0 -0.28834919833829292 0.37741793818798508 0 -0.28245071860131837 0.34341365553927311 0 -0.28104417543564969 0.35656689584432227 0 -0.29244347790832348 0.35169871262972391 0 -0.28104417543564969 0.35656689584432227 0 -0.28925703139105757 0.36599964923442752 0 -0.29244347790832348 0.35169871262972391 0 -0.29926324077797412 0.33411848835228491 0 -0.29244347790832348 0.35169871262972391 0 -0.30399457537816471 0.3481445545187935 0 -0.30399457537816471 0.3481445545187935 0 -0.30949765766113579 0.35745411439808722 0 -0.29865112586577702 0.36194903228924208 0 -0.29244347790832348 0.35169871262972391 0 -0.30399457537816471 0.3481445545187935 0 -0.29865112586577702 0.36194903228924208 0 -0.30399457537816471 0.3481445545187935 0 -0.30949765766113579 0.35745411439808722 0 -0.31202257844723458 0.35101545575943771 0 -0.30399457537816471 0.3481445545187935 0 -0.31202257844723458 0.35101545575943771 0 -0.31879384447817732 0.34783199522578617 0 -0.29601095395545918 0.37299386679921182 0 -0.29865112586577702 0.36194903228924208 0 -0.30690887348454238 0.37255674001123701 0 -0.29865112586577702 0.36194903228924208 0 -0.30690887348454238 0.37255674001123701 0 -0.30949765766113579 0.35745411439808722 0 -0.29865112586577702 0.36194903228924208 0 -0.30690887348454238 0.37255674001123701 0 -0.32285316651873458 0.36868295240236038 0 -0.33832444817838048 0.36154550209928749 0 -0.32230442607011528 0.35029696689435408 0 -0.30949765766113579 0.35745411439808722 0 -0.30690887348454238 0.37255674001123701 0 -0.32230442607011528 0.35029696689435408 0 -0.30690887348454238 0.37255674001123701 0 -0.32285316651873458 0.36868295240236038 0 -0.32230442607011528 0.35029696689435408 0 -0.30690887348454238 0.37255674001123701 0 -0.32230442607011528 0.35029696689435408 0 -0.33832444817838048 0.36154550209928749 0 -0.34291054709002761 0.3802178765713628 0 -0.3301149409457379 0.37855417963087012 0 -0.32285316651873458 0.36868295240236038 0 -0.33832444817838048 0.36154550209928749 0 -0.3301149409457379 0.37855417963087012 0 -0.33832444817838048 0.36154550209928749 0 -0.32230442607011528 0.35029696689435408 0 -0.3324393152588026 0.3491626609614884 0 -0.32718158206687642 0.33657211163605472 0 -0.34612230194882648 0.35002603768442081 0 -0.33832444817838048 0.36154550209928749 0 -0.3324393152588026 0.3491626609614884 0 -0.32230442607011528 0.35029696689435408 0 -0.33832444817838048 0.36154550209928749 0 -0.3324393152588026 0.3491626609614884 0 -0.34612230194882648 0.35002603768442081 0 -0.3324393152588026 0.3491626609614884 0 -0.32230442607011528 0.35029696689435408 0 -0.31879384447817732 0.34783199522578617 0 -0.3324393152588026 0.3491626609614884 0 -0.31879384447817732 0.34783199522578617 0 -0.32286061588881348 0.34221160727356292 0 -0.32230442607011528 0.35029696689435408 0 -0.31879384447817732 0.34783199522578617 0 -0.30949765766113579 0.35745411439808722 0 -0.31202257844723458 0.35101545575943771 0 -0.32230442607011528 0.35029696689435408 0 -0.31202257844723458 0.35101545575943771 0 -0.32230442607011528 0.35029696689435408 0 -0.31879384447817732 0.34783199522578617 0 -0.31879384447817732 0.34783199522578617 0 -0.31302772175139781 0.33527966127092218 0 -0.32286061588881348 0.34221160727356292 0 -0.31302772175139781 0.33527966127092218 0 -0.32718158206687642 0.33657211163605472 0 -0.31668428358774992 0.3217905486839876 0 -0.31302772175139781 0.33527966127092218 0 -0.32286061588881348 0.34221160727356292 0 -0.32718158206687642 0.33657211163605472 0 -0.3324393152588026 0.3491626609614884 0 -0.32286061588881348 0.34221160727356292 0 -0.32718158206687642 0.33657211163605472 0 -0.32718158206687642 0.33657211163605472 0 -0.31668428358774992 0.3217905486839876 0 -0.33438955201906839 0.32479306639605332 0 -0.32265680208931041 0.29956009510768589 0 -0.31668428358774992 0.3217905486839876 0 -0.33438955201906839 0.32479306639605332 0 -0.33438955201906839 0.32479306639605332 0 -0.34612230194882648 0.35002603768442081 0 -0.32718158206687642 0.33657211163605472 0 -0.33438955201906839 0.32479306639605332 0 -0.34612230194882648 0.35002603768442081 0 -0.33438955201906839 0.32479306639605332 0 -0.35209928114746242 0.33538746281529608 0 -0.34612230194882648 0.35002603768442081 0 -0.35209928114746242 0.33538746281529608 0 -0.35530637798938081 0.32081004417395381 0 -0.36427332109796851 0.33343434518827542 0 -0.35209928114746242 0.33538746281529608 0 -0.36427332109796851 0.33343434518827542 0 -0.36076783596534051 0.34734589948519878 0 -0.35042773195515842 0.3026718485547355 0 -0.33438955201906839 0.32479306639605332 0 -0.35530637798938081 0.32081004417395381 0 -0.33438955201906839 0.32479306639605332 0 -0.35209928114746242 0.33538746281529608 0 -0.35530637798938081 0.32081004417395381 0 -0.36417254169879021 0.30842560442523331 0 -0.35530637798938081 0.32081004417395381 0 -0.37080256603309891 0.32142707452001568 0 -0.35530637798938081 0.32081004417395381 0 -0.37080256603309891 0.32142707452001568 0 -0.36427332109796851 0.33343434518827542 0 -0.37483097234427198 0.31145346067050889 0 -0.36417254169879021 0.30842560442523331 0 -0.37080256603309891 0.32142707452001568 0 -0.36427332109796851 0.33343434518827542 0 -0.37072194456669411 0.34269980869944883 0 -0.36076783596534051 0.34734589948519878 0 -0.37594192088583472 0.3329357814357396 0 -0.37080256603309891 0.32142707452001568 0 -0.36427332109796851 0.33343434518827542 0 -0.37594192088583472 0.3329357814357396 0 -0.36427332109796851 0.33343434518827542 0 -0.37072194456669411 0.34269980869944883 0 -0.37642826932623369 0.35000154489169011 0 -0.37072194456669411 0.34269980869944883 0 -0.3680896309551181 0.34967028251924609 0 -0.37072194456669411 0.34269980869944883 0 -0.3680896309551181 0.34967028251924609 0 -0.36076783596534051 0.34734589948519878 0 -0.3680896309551181 0.34967028251924609 0 -0.36076783596534051 0.34734589948519878 0 -0.36372660193435769 0.35399960708534389 0 -0.36076783596534051 0.34734589948519878 0 -0.36372660193435769 0.35399960708534389 0 -0.35780274990731442 0.35651232149938811 0 -0.36372660193435769 0.35399960708534389 0 -0.3630384604121436 0.36129235561620571 0 -0.35780274990731442 0.35651232149938811 0 -0.3680896309551181 0.34967028251924609 0 -0.36372660193435769 0.35399960708534389 0 -0.36906516188077881 0.35604980017881249 0 -0.36372660193435769 0.35399960708534389 0 -0.36906516188077881 0.35604980017881249 0 -0.3630384604121436 0.36129235561620571 0 -0.37746914026133471 0.35982979588671721 0 -0.37642826932623369 0.35000154489169011 0 -0.36906516188077881 0.35604980017881249 0 -0.37642826932623369 0.35000154489169011 0 -0.3680896309551181 0.34967028251924609 0 -0.36906516188077881 0.35604980017881249 0 -0.37746914026133471 0.35982979588671721 0 -0.36906516188077881 0.35604980017881249 0 -0.36921741688629189 0.36288443291528039 0 -0.37746914026133471 0.35982979588671721 0 -0.36921741688629189 0.36288443291528039 0 -0.37300736871822948 0.36925340277524632 0 -0.36921741688629189 0.36288443291528039 0 -0.37300736871822948 0.36925340277524632 0 -0.36462362958586692 0.36696317443637783 0 -0.37991049508005392 0.37322058527552859 0 -0.37300736871822948 0.36925340277524632 0 -0.36024783573742408 0.37693911361260068 0 -0.36272703753965441 0.37114492048578102 0 -0.35869487187873172 0.36353296978249361 0 -0.35785505187858402 0.3752590089727883 0 -0.37300736871822948 0.36925340277524632 0 -0.36272703753965441 0.37114492048578102 0 -0.36462362958586692 0.36696317443637783 0 -0.37300736871822948 0.36925340277524632 0 -0.36272703753965441 0.37114492048578102 0 -0.36024783573742408 0.37693911361260068 0 -0.36272703753965441 0.37114492048578102 0 -0.36462362958586692 0.36696317443637783 0 -0.35869487187873172 0.36353296978249361 0 -0.36272703753965441 0.37114492048578102 0 -0.35785505187858402 0.3752590089727883 0 -0.36024783573742408 0.37693911361260068 0 -0.36906516188077881 0.35604980017881249 0 -0.36921741688629189 0.36288443291528039 0 -0.3630384604121436 0.36129235561620571 0 -0.36921741688629189 0.36288443291528039 0 -0.36462362958586692 0.36696317443637783 0 -0.3630384604121436 0.36129235561620571 0 -0.36462362958586692 0.36696317443637783 0 -0.3630384604121436 0.36129235561620571 0 -0.35869487187873172 0.36353296978249361 0 -0.3630384604121436 0.36129235561620571 0 -0.35869487187873172 0.36353296978249361 0 -0.35780274990731442 0.35651232149938811 0 -0.34612230194882648 0.35002603768442081 0 -0.35785505187858402 0.3752590089727883 0 -0.35869487187873172 0.36353296978249361 0 -0.34612230194882648 0.35002603768442081 0 -0.35785505187858402 0.3752590089727883 0 -0.33832444817838048 0.36154550209928749 0 -0.34612230194882648 0.35002603768442081 0 -0.35785505187858402 0.3752590089727883 0 -0.33832444817838048 0.36154550209928749 0 -0.35785505187858402 0.3752590089727883 0 -0.33832444817838048 0.36154550209928749 0 -0.35785505187858402 0.3752590089727883 0 -0.34291054709002761 0.3802178765713628 0 -0.35209928114746242 0.33538746281529608 0 -0.36076783596534051 0.34734589948519878 0 -0.34612230194882648 0.35002603768442081 0 -0.36076783596534051 0.34734589948519878 0 -0.34612230194882648 0.35002603768442081 0 -0.35780274990731442 0.35651232149938811 0 -0.35869487187873172 0.36353296978249361 0 -0.34612230194882648 0.35002603768442081 0 -0.35780274990731442 0.35651232149938811 0 -0.35893277033071019 0.39609022586963788 0 -0.33039707902620391 0.40272913456758408 0 -0.35893277033071019 0.39609022586963788 0 -0.35171049827163398 0.4101995329813054 0 -0.33039707902620391 0.40272913456758408 0 -0.35893277033071019 0.39609022586963788 0 -0.36483888137903031 0.41113789345728202 0 -0.35171049827163398 0.4101995329813054 0 -0.35893277033071019 0.39609022586963788 0 -0.35035877287636408 0.38599477854762643 0 -0.33757997010944357 0.389134350521954 0 -0.35893277033071019 0.39609022586963788 0 -0.35035877287636408 0.38599477854762643 0 -0.36024783573742408 0.37693911361260068 0 -0.35855248280087809 0.37675893478244149 0 -0.36024783573742408 0.37693911361260068 0 -0.34291054709002761 0.3802178765713628 0 -0.36024783573742408 0.37693911361260068 0 -0.34291054709002761 0.3802178765713628 0 -0.35855248280087809 0.37675893478244149 0 -0.35785505187858402 0.3752590089727883 0 -0.34291054709002761 0.3802178765713628 0 -0.35035877287636408 0.38599477854762643 0 -0.36024783573742408 0.37693911361260068 0 -0.34291054709002761 0.3802178765713628 0 -0.35855248280087809 0.37675893478244149 0 -0.35785505187858402 0.3752590089727883 0 -0.35785505187858402 0.3752590089727883 0 -0.36024783573742408 0.37693911361260068 0 -0.35855248280087809 0.37675893478244149 0 -0.35785505187858402 0.3752590089727883 0 -0.36024783573742408 0.37693911361260068 0 -0.35893277033071019 0.39609022586963788 0 -0.36024783573742408 0.37693911361260068 0 -0.37386356216032712 0.38649946109362732 0 -0.37991049508005392 0.37322058527552859 0 -0.36024783573742408 0.37693911361260068 0 -0.37386356216032712 0.38649946109362732 0 -0.37991049508005392 0.37322058527552859 0 -0.36024783573742408 0.37693911361260068 0 -0.36024783573742408 0.37693911361260068 0 -0.37386356216032712 0.38649946109362732 0 -0.3761886614665424 0.40561413891772141 0 -0.35893277033071019 0.39609022586963788 0 -0.36483888137903031 0.41113789345728202 0 -0.3874684616352162 0.38945131717169068 0 -0.35893277033071019 0.39609022586963788 0 -0.37386356216032712 0.38649946109362732 0 -0.3761886614665424 0.40561413891772141 0 -0.3874684616352162 0.38945131717169068 0 -0.35893277033071019 0.39609022586963788 0 -0.3874684616352162 0.38945131717169068 0 -0.35893277033071019 0.39609022586963788 0 -0.37595374467725562 0.42539346087005869 0 -0.3761886614665424 0.40561413891772141 0 -0.36483888137903031 0.41113789345728202 0 -0.37595374467725562 0.42539346087005869 0 -0.36016052951059829 0.42154048321167059 0 -0.36483888137903031 0.41113789345728202 0 -0.37595374467725562 0.42539346087005869 0 -0.35752929876437811 0.43758254376811168 0 -0.37595374467725562 0.42539346087005869 0 -0.35752929876437811 0.43758254376811168 0 -0.37154812818406407 0.43816993315416458 0 -0.37595374467725562 0.42539346087005869 0 -0.36016052951059829 0.42154048321167059 0 -0.35752929876437811 0.43758254376811168 0 -0.36016052951059829 0.42154048321167059 0 -0.34396318889529109 0.42015583916784771 0 -0.35752929876437811 0.43758254376811168 0 -0.34850739108178908 0.43460951270778742 0 -0.33301283642112622 0.42777581131939701 0 -0.35187498182635152 0.44904272028773878 0 -0.34850739108178908 0.43460951270778742 0 -0.34396318889529109 0.42015583916784771 0 -0.35752929876437811 0.43758254376811168 0 -0.34396318889529109 0.42015583916784771 0 -0.35752929876437811 0.43758254376811168 0 -0.36016052951059829 0.42154048321167059 0 -0.35171049827163398 0.4101995329813054 0 -0.34396318889529109 0.42015583916784771 0 -0.36016052951059829 0.42154048321167059 0 -0.36483888137903031 0.41113789345728202 0 -0.35171049827163398 0.4101995329813054 0 -0.35171049827163398 0.4101995329813054 0 -0.34396318889529109 0.42015583916784771 0 -0.33039707902620391 0.40272913456758408 0 -0.34396318889529109 0.42015583916784771 0 -0.3323759301516705 0.41518239973147458 0 -0.33039707902620391 0.40272913456758408 0 -0.34396318889529109 0.42015583916784771 0 -0.33039707902620391 0.40272913456758408 0 -0.34396318889529109 0.42015583916784771 0 -0.3323759301516705 0.41518239973147458 0 -0.33301283642112622 0.42777581131939701 0 -0.33301283642112622 0.42777581131939701 0 -0.32210296291157209 0.43711134752161518 0 -0.3349608044433634 0.44350302080180909 0 -0.34850739108178908 0.43460951270778742 0 -0.34396318889529109 0.42015583916784771 0 -0.33301283642112622 0.42777581131939701 0 -0.33301283642112622 0.42777581131939701 0 -0.32210296291157209 0.43711134752161518 0 -0.31619923567340269 0.42462938415173768 0 -0.32210296291157209 0.43711134752161518 0 -0.31619923567340269 0.42462938415173768 0 -0.30652300287106798 0.43279359528883249 0 -0.3323759301516705 0.41518239973147458 0 -0.31415069101590071 0.40650890235105519 0 -0.33039707902620391 0.40272913456758408 0 -0.33301283642112622 0.42777581131939701 0 -0.31619923567340269 0.42462938415173768 0 -0.31415069101590071 0.40650890235105519 0 -0.3323759301516705 0.41518239973147458 0 -0.33301283642112622 0.42777581131939701 0 -0.31415069101590071 0.40650890235105519 0 -0.33301283642112622 0.42777581131939701 0 -0.31415069101590071 0.40650890235105519 0 -0.31415069101590071 0.40650890235105519 0 -0.33039707902620391 0.40272913456758408 0 -0.31415069101590071 0.40650890235105519 0 -0.33039707902620391 0.40272913456758408 0 -0.31865297625537309 0.38764293728941063 0 -0.33039707902620391 0.40272913456758408 0 -0.31865297625537309 0.38764293728941063 0 -0.33039707902620391 0.40272913456758408 0 -0.33757997010944357 0.389134350521954 0 -0.31865297625537309 0.38764293728941063 0 -0.35893277033071019 0.39609022586963788 0 -0.33039707902620391 0.40272913456758408 0 -0.33757997010944357 0.389134350521954 0 -0.33757997010944357 0.389134350521954 0 -0.3301149409457379 0.37855417963087012 0 -0.31865297625537309 0.38764293728941063 0 -0.34291054709002761 0.3802178765713628 0 -0.33757997010944357 0.389134350521954 0 -0.3301149409457379 0.37855417963087012 0 -0.35035877287636408 0.38599477854762643 0 -0.34291054709002761 0.3802178765713628 0 -0.33757997010944357 0.389134350521954 0 -0.32285316651873458 0.36868295240236038 0 -0.3301149409457379 0.37855417963087012 0 -0.31865297625537309 0.38764293728941063 0 -0.30690887348454238 0.37255674001123701 0 -0.32285316651873458 0.36868295240236038 0 -0.31865297625537309 0.38764293728941063 0 -0.30690887348454238 0.37255674001123701 0 -0.31865297625537309 0.38764293728941063 0 -0.30690887348454238 0.37255674001123701 0 -0.31865297625537309 0.38764293728941063 0 -0.29688854069762621 0.38704597427316612 0 -0.29601095395545918 0.37299386679921182 0 -0.30690887348454238 0.37255674001123701 0 -0.29688854069762621 0.38704597427316612 0 -0.30690887348454238 0.37255674001123701 0 -0.29688854069762621 0.38704597427316612 0 -0.31415069101590071 0.40650890235105519 0 -0.29688854069762621 0.38704597427316612 0 -0.30219780625158699 0.40178602860748652 0 -0.30219780625158699 0.40178602860748652 0 -0.29351253238759739 0.3919276260420681 0 -0.29584417490956372 0.4107679647200223 0 -0.31415069101590071 0.40650890235105519 0 -0.29688854069762621 0.38704597427316612 0 -0.31415069101590071 0.40650890235105519 0 -0.31865297625537309 0.38764293728941063 0 -0.29688854069762621 0.38704597427316612 0 -0.29688854069762621 0.38704597427316612 0 -0.30219780625158699 0.40178602860748652 0 -0.29351253238759739 0.3919276260420681 0 -0.30219780625158699 0.40178602860748652 0 -0.29351253238759739 0.3919276260420681 0 -0.29351253238759739 0.3919276260420681 0 -0.27753765880322667 0.4150270270889892 0 -0.29584417490956372 0.4107679647200223 0 -0.29351253238759739 0.3919276260420681 0 -0.27753765880322667 0.4150270270889892 0 -0.27706451119752029 0.37325795403912893 0 -0.29351253238759739 0.3919276260420681 0 -0.28834919833829292 0.37741793818798508 0 -0.27706451119752029 0.37325795403912893 0 -0.29351253238759739 0.3919276260420681 0 -0.29601095395545918 0.37299386679921182 0 -0.29688854069762621 0.38704597427316612 0 -0.28834919833829292 0.37741793818798508 0 -0.29688854069762621 0.38704597427316612 0 -0.28834919833829292 0.37741793818798508 0 -0.29688854069762621 0.38704597427316612 0 -0.29351253238759739 0.3919276260420681 0 -0.28834919833829292 0.37741793818798508 0 -0.29688854069762621 0.38704597427316612 0 -0.29351253238759739 0.3919276260420681 0 -0.27706451119752029 0.37325795403912893 0 -0.27145525814780053 0.39550253859387913 0 -0.25687088905293348 0.3781419561323231 0 -0.27706451119752029 0.37325795403912893 0 -0.27145525814780053 0.39550253859387913 0 -0.27706451119752029 0.37325795403912893 0 -0.29351253238759739 0.3919276260420681 0 -0.27145525814780053 0.39550253859387913 0 -0.27145525814780053 0.39550253859387913 0 -0.26056881117847702 0.40469515359647379 0 -0.26584600509808037 0.41774712314862927 0 -0.29351253238759739 0.3919276260420681 0 -0.27145525814780053 0.39550253859387913 0 -0.27753765880322667 0.4150270270889892 0 -0.27145525814780053 0.39550253859387913 0 -0.25845698491678543 0.39145172168720238 0 -0.26056881117847702 0.40469515359647379 0 -0.25845698491678543 0.39145172168720238 0 -0.26056881117847702 0.40469515359647379 0 -0.24774811111395911 0.39951308516308542 0 -0.27145525814780053 0.39550253859387913 0 -0.25845698491678543 0.39145172168720238 0 -0.25687088905293348 0.3781419561323231 0 -0.25845698491678543 0.39145172168720238 0 -0.25687088905293348 0.3781419561323231 0 -0.23615852561215869 0.37976487093659761 0 -0.25362564266405951 0.4285539516616178 0 -0.25933769661575973 0.41926129938957318 0 -0.24302698068029829 0.42305603324543661 0 -0.26362292744026028 0.42656317022171653 0 -0.26584600509808037 0.41774712314862927 0 -0.26634815770358761 0.431206859251696 0 -0.26362292744026028 0.42656317022171653 0 -0.25362564266405951 0.4285539516616178 0 -0.25933769661575973 0.41926129938957318 0 -0.26362292744026028 0.42656317022171653 0 -0.26584600509808037 0.41774712314862927 0 -0.26362292744026028 0.42656317022171653 0 -0.25933769661575973 0.41926129938957318 0 -0.26362292744026028 0.42656317022171653 0 -0.26634815770358761 0.431206859251696 0 -0.26362292744026028 0.42656317022171653 0 -0.26634815770358761 0.431206859251696 0 -0.26021605828679523 0.44007377284196458 0 -0.26362292744026028 0.42656317022171653 0 -0.25362564266405951 0.4285539516616178 0 -0.26021605828679523 0.44007377284196458 0 -0.26362292744026028 0.42656317022171653 0 -0.26021605828679523 0.44007377284196458 0 -0.26634815770358761 0.431206859251696 0 -0.26021605828679523 0.44007377284196458 0 -0.25362564266405951 0.4285539516616178 0 -0.26021605828679523 0.44007377284196458 0 -0.24931220853158659 0.43847952607093649 0 -0.25933769661575973 0.41926129938957318 0 -0.24302698068029829 0.42305603324543661 0 -0.24774811111395911 0.39951308516308542 0 -0.25933769661575973 0.41926129938957318 0 -0.24302698068029829 0.42305603324543661 0 -0.25933769661575973 0.41926129938957318 0 -0.24774811111395911 0.39951308516308542 0 -0.26056881117847702 0.40469515359647379 0 -0.25933769661575973 0.41926129938957318 0 -0.24774811111395911 0.39951308516308542 0 -0.26056881117847702 0.40469515359647379 0 -0.25933769661575973 0.41926129938957318 0 -0.26584600509808037 0.41774712314862927 0 -0.26362292744026028 0.42656317022171653 0 -0.25933769661575973 0.41926129938957318 0 -0.26584600509808037 0.41774712314862927 0 -0.25933769661575973 0.41926129938957318 0 -0.26584600509808037 0.41774712314862927 0 -0.26584600509808037 0.41774712314862927 0 -0.27753765880322667 0.4150270270889892 0 -0.26634815770358761 0.431206859251696 0 -0.26584600509808037 0.41774712314862927 0 -0.27753765880322667 0.4150270270889892 0 -0.27145525814780053 0.39550253859387913 0 -0.26584600509808037 0.41774712314862927 0 -0.27145525814780053 0.39550253859387913 0 -0.26584600509808037 0.41774712314862927 0 -0.27753765880322667 0.4150270270889892 0 -0.27753765880322667 0.4150270270889892 0 -0.26634815770358761 0.431206859251696 0 -0.27753765880322667 0.4150270270889892 0 -0.27639493866390158 0.42766017500473769 0 -0.28388399855554591 0.4264288300737431 0 -0.27753765880322667 0.4150270270889892 0 -0.27639493866390158 0.42766017500473769 0 -0.26634815770358761 0.431206859251696 0 -0.27639493866390158 0.42766017500473769 0 -0.26634815770358761 0.431206859251696 0 -0.27780993959324712 0.4379779836045235 0 -0.27639493866390158 0.42766017500473769 0 -0.28388399855554591 0.4264288300737431 0 -0.27780993959324712 0.4379779836045235 0 -0.28388399855554591 0.4264288300737431 0 -0.29251711404075897 0.43652123417677657 0 -0.27780993959324712 0.4379779836045235 0 -0.28388399855554591 0.4264288300737431 0 -0.29679499510485657 0.42509377770743251 0 -0.29251711404075897 0.43652123417677657 0 -0.27753765880322667 0.4150270270889892 0 -0.29584417490956372 0.4107679647200223 0 -0.28388399855554591 0.4264288300737431 0 -0.29679499510485657 0.42509377770743251 0 -0.29584417490956372 0.4107679647200223 0 -0.27753765880322667 0.4150270270889892 0 -0.28388399855554591 0.4264288300737431 0 -0.29584417490956372 0.4107679647200223 0 -0.31415069101590071 0.40650890235105519 0 -0.30219780625158699 0.40178602860748652 0 -0.29584417490956372 0.4107679647200223 0 -0.31415069101590071 0.40650890235105519 0 -0.29584417490956372 0.4107679647200223 0 -0.30520668514734639 0.41895726427778801 0 -0.31415069101590071 0.40650890235105519 0 -0.29584417490956372 0.4107679647200223 0 -0.31619923567340269 0.42462938415173768 0 -0.31415069101590071 0.40650890235105519 0 -0.30520668514734639 0.41895726427778801 0 -0.29679499510485657 0.42509377770743251 0 -0.29584417490956372 0.4107679647200223 0 -0.30520668514734639 0.41895726427778801 0 -0.29251711404075897 0.43652123417677657 0 -0.30652300287106798 0.43279359528883249 0 -0.30165403520183948 0.44238637518321933 0 -0.29679499510485657 0.42509377770743251 0 -0.29251711404075897 0.43652123417677657 0 -0.30652300287106798 0.43279359528883249 0 -0.29679499510485657 0.42509377770743251 0 -0.30520668514734639 0.41895726427778801 0 -0.30652300287106798 0.43279359528883249 0 -0.31619923567340269 0.42462938415173768 0 -0.30520668514734639 0.41895726427778801 0 -0.30652300287106798 0.43279359528883249 0 -0.30652300287106798 0.43279359528883249 0 -0.31179958595210949 0.44462323681706828 0 -0.30165403520183948 0.44238637518321933 0 -0.31179958595210949 0.44462323681706828 0 -0.30123522445438827 0.45210815503585422 0 -0.31239792989978588 0.46000267392381439 0 -0.31179958595210949 0.44462323681706828 0 -0.30123522445438827 0.45210815503585422 0 -0.30165403520183948 0.44238637518321933 0 -0.30123522445438827 0.45210815503585422 0 -0.30165403520183948 0.44238637518321933 0 -0.29363587888837922 0.44462322816424149 0 -0.30123522445438827 0.45210815503585422 0 -0.31239792989978588 0.46000267392381439 0 -0.30045577839936582 0.47021039684775562 0 -0.28574416485524201 0.45827683475200498 0 -0.27934013094723598 0.46245999898899248 0 -0.30045577839936582 0.47021039684775562 0 -0.27934013094723598 0.46245999898899248 0 -0.30045577839936582 0.47021039684775562 0 -0.28504850169964441 0.44915044026004147 0 -0.30045577839936582 0.47021039684775562 0 -0.30123522445438827 0.45210815503585422 0 -0.28504850169964441 0.44915044026004147 0 -0.30045577839936582 0.47021039684775562 0 -0.28574416485524201 0.45827683475200498 0 -0.28504850169964441 0.44915044026004147 0 -0.30045577839936582 0.47021039684775562 0 -0.30123522445438827 0.45210815503585422 0 -0.29363587888837922 0.44462322816424149 0 -0.28504850169964441 0.44915044026004147 0 -0.29251711404075897 0.43652123417677657 0 -0.29363587888837922 0.44462322816424149 0 -0.2863743502026837 0.44241569732877861 0 -0.29251711404075897 0.43652123417677657 0 -0.30165403520183948 0.44238637518321933 0 -0.29363587888837922 0.44462322816424149 0 -0.29363587888837922 0.44462322816424149 0 -0.28504850169964441 0.44915044026004147 0 -0.2863743502026837 0.44241569732877861 0 -0.28574416485524201 0.45827683475200498 0 -0.28504850169964441 0.44915044026004147 0 -0.278132248374722 0.45128650291123051 0 -0.28504850169964441 0.44915044026004147 0 -0.28185888095290801 0.44518341243111248 0 -0.278132248374722 0.45128650291123051 0 -0.28504850169964441 0.44915044026004147 0 -0.28185888095290801 0.44518341243111248 0 -0.2863743502026837 0.44241569732877861 0 -0.28185888095290801 0.44518341243111248 0 -0.2863743502026837 0.44241569732877861 0 -0.27780993959324712 0.4379779836045235 0 -0.29251711404075897 0.43652123417677657 0 -0.2863743502026837 0.44241569732877861 0 -0.27780993959324712 0.4379779836045235 0 -0.26634815770358761 0.431206859251696 0 -0.26740588924923181 0.44850554749714427 0 -0.278132248374722 0.45128650291123051 0 -0.26634815770358761 0.431206859251696 0 -0.278132248374722 0.45128650291123051 0 -0.26634815770358761 0.431206859251696 0 -0.27780993959324712 0.4379779836045235 0 -0.278132248374722 0.45128650291123051 0 -0.28185888095290801 0.44518341243111248 0 -0.27780993959324712 0.4379779836045235 0 -0.278132248374722 0.45128650291123051 0 -0.27934013094723598 0.46245999898899248 0 -0.25822448349510568 0.45470960113023051 0 -0.26297591559779848 0.46546317668214948 0 -0.27934013094723598 0.46245999898899248 0 -0.25822448349510568 0.45470960113023051 0 -0.26740588924923181 0.44850554749714427 0 -0.27934013094723598 0.46245999898899248 0 -0.25822448349510568 0.45470960113023051 0 -0.28574416485524201 0.45827683475200498 0 -0.278132248374722 0.45128650291123051 0 -0.27934013094723598 0.46245999898899248 0 -0.27934013094723598 0.46245999898899248 0 -0.26297591559779848 0.46546317668214948 0 -0.26833357291996812 0.47281783445819842 0 -0.26740588924923181 0.44850554749714427 0 -0.278132248374722 0.45128650291123051 0 -0.27934013094723598 0.46245999898899248 0 -0.25321816232730188 0.46782529109163412 0 -0.26021605828679523 0.44007377284196458 0 -0.25822448349510568 0.45470960113023051 0 -0.25321816232730188 0.46782529109163412 0 -0.26021605828679523 0.44007377284196458 0 -0.25321816232730188 0.46782529109163412 0 -0.25192925290185608 0.45205635536278999 0 -0.26021605828679523 0.44007377284196458 0 -0.25822448349510568 0.45470960113023051 0 -0.26297591559779848 0.46546317668214948 0 -0.25321816232730188 0.46782529109163412 0 -0.26634815770358761 0.431206859251696 0 -0.26740588924923181 0.44850554749714427 0 -0.26021605828679523 0.44007377284196458 0 -0.25192925290185608 0.45205635536278999 0 -0.26021605828679523 0.44007377284196458 0 -0.25192925290185608 0.45205635536278999 0 -0.26021605828679523 0.44007377284196458 0 -0.24931220853158659 0.43847952607093649 0 -0.26740588924923181 0.44850554749714427 0 -0.25822448349510568 0.45470960113023051 0 -0.26021605828679523 0.44007377284196458 0 -0.26302506066948789 0.48688481604241562 0 -0.24733552485617311 0.48281562508478959 0 -0.26044341855193798 0.49992199692126271 0 -0.24733552485617311 0.48281562508478959 0 -0.26044341855193798 0.49992199692126271 0 -0.26302506066948789 0.48688481604241562 0 -0.24733552485617311 0.48281562508478959 0 -0.26302506066948789 0.48688481604241562 0 -0.2582375652231586 0.47729539067437182 0 -0.24733552485617311 0.48281562508478959 0 -0.25321816232730188 0.46782529109163412 0 -0.2582375652231586 0.47729539067437182 0 -0.24733552485617311 0.48281562508478959 0 -0.26297591559779848 0.46546317668214948 0 -0.2582375652231586 0.47729539067437182 0 -0.26833357291996812 0.47281783445819842 0 -0.26297591559779848 0.46546317668214948 0 -0.25321816232730188 0.46782529109163412 0 -0.2582375652231586 0.47729539067437182 0 -0.26302506066948789 0.48688481604241562 0 -0.2582375652231586 0.47729539067437182 0 -0.26833357291996812 0.47281783445819842 0 -0.26302506066948789 0.48688481604241562 0 -0.26833357291996812 0.47281783445819842 0 -0.27905544607343152 0.4816418291728034 0 -0.26833357291996812 0.47281783445819842 0 -0.2789657786709851 0.47245951761487809 0 -0.27905544607343152 0.4816418291728034 0 -0.27934013094723598 0.46245999898899248 0 -0.26833357291996812 0.47281783445819842 0 -0.2789657786709851 0.47245951761487809 0 -0.26302506066948789 0.48688481604241562 0 -0.27905544607343152 0.4816418291728034 0 -0.28104547463056162 0.5 0 -0.26044341855193798 0.49992199692126271 0 -0.26302506066948789 0.48688481604241562 0 -0.28104547463056162 0.5 0 -0.28104547463056162 0.5 0 -0.29378181285823912 0.48497930538065959 0 -0.30164753070918532 0.5 0 -0.27905544607343152 0.4816418291728034 0 -0.28104547463056162 0.5 0 -0.29378181285823912 0.48497930538065959 0 -0.27934013094723598 0.46245999898899248 0 -0.2871238394908382 0.47394112338344663 0 -0.30045577839936582 0.47021039684775562 0 -0.27934013094723598 0.46245999898899248 0 -0.2789657786709851 0.47245951761487809 0 -0.2871238394908382 0.47394112338344663 0 -0.2789657786709851 0.47245951761487809 0 -0.27905544607343152 0.4816418291728034 0 -0.2871238394908382 0.47394112338344663 0 -0.27905544607343152 0.4816418291728034 0 -0.29378181285823912 0.48497930538065959 0 -0.2871238394908382 0.47394112338344663 0 -0.29378181285823912 0.48497930538065959 0 -0.2871238394908382 0.47394112338344663 0 -0.30045577839936582 0.47021039684775562 0 -0.30045577839936582 0.47021039684775562 0 -0.32134189787490391 0.47787654755556669 0 -0.29378181285823912 0.48497930538065959 0 -0.30045577839936582 0.47021039684775562 0 -0.31135268259358623 0.48510519842388028 0 -0.30045577839936582 0.47021039684775562 0 -0.31135268259358623 0.48510519842388028 0 -0.32134189787490391 0.47787654755556669 0 -0.31239792989978588 0.46000267392381439 0 -0.30045577839936582 0.47021039684775562 0 -0.32134189787490391 0.47787654755556669 0 -0.30045577839936582 0.47021039684775562 0 -0.31135268259358623 0.48510519842388028 0 -0.29378181285823912 0.48497930538065959 0 -0.30164753070918532 0.5 0 -0.31135268259358623 0.48510519842388028 0 -0.30164753070918532 0.5 0 -0.31135268259358623 0.48510519842388028 0 -0.32224958678780891 0.50000000000000333 0 -0.31135268259358623 0.48510519842388028 0 -0.32224958678780891 0.50000000000000333 0 -0.31135268259358623 0.48510519842388028 0 -0.32224958678780891 0.50000000000000333 0 -0.32872009592683488 0.48917972971819101 0 -0.32224958678780891 0.50000000000000333 0 -0.32872009592683488 0.48917972971819101 0 -0.34391413539888949 0.5 0 -0.32872009592683488 0.48917972971819101 0 -0.3422280173504415 0.48554269826337859 0 -0.34391413539888949 0.5 0 -0.32872009592683488 0.48917972971819101 0 -0.3422280173504415 0.48554269826337859 0 -0.32134189787490391 0.47787654755556669 0 -0.3422280173504415 0.48554269826337859 0 -0.33568566213701378 0.47554603822587982 0 -0.32134189787490391 0.47787654755556669 0 -0.3422280173504415 0.48554269826337859 0 -0.32134189787490391 0.47787654755556669 0 -0.33568566213701378 0.47554603822587982 0 -0.33728912563512692 0.46865430695413901 0 -0.34539483255419878 0.47081905030884219 0 -0.3422280173504415 0.48554269826337859 0 -0.33568566213701378 0.47554603822587982 0 -0.34539483255419878 0.47081905030884219 0 -0.33568566213701378 0.47554603822587982 0 -0.32974348766817718 0.47083809631681989 0 -0.32134189787490391 0.47787654755556669 0 -0.33568566213701378 0.47554603822587982 0 -0.32974348766817718 0.47083809631681989 0 -0.33728912563512692 0.46865430695413901 0 -0.32974348766817718 0.47083809631681989 0 -0.32134189787490391 0.47787654755556669 0 -0.32379668109101062 0.46465163349759819 0 -0.31135268259358623 0.48510519842388028 0 -0.32872009592683488 0.48917972971819101 0 -0.32134189787490391 0.47787654755556669 0 -0.31239792989978588 0.46000267392381439 0 -0.32134189787490391 0.47787654755556669 0 -0.32379668109101062 0.46465163349759819 0 -0.31239792989978588 0.46000267392381439 0 -0.32379668109101062 0.46465163349759819 0 -0.32459418067211232 0.45242938064819921 0 -0.32379668109101062 0.46465163349759819 0 -0.32459418067211232 0.45242938064819921 0 -0.33153230005094703 0.46228769738235198 0 -0.32210296291157209 0.43711134752161518 0 -0.31179958595210949 0.44462323681706828 0 -0.32459418067211232 0.45242938064819921 0 -0.32210296291157209 0.43711134752161518 0 -0.30652300287106798 0.43279359528883249 0 -0.31179958595210949 0.44462323681706828 0 -0.31179958595210949 0.44462323681706828 0 -0.31239792989978588 0.46000267392381439 0 -0.32459418067211232 0.45242938064819921 0 -0.32210296291157209 0.43711134752161518 0 -0.32459418067211232 0.45242938064819921 0 -0.3349608044433634 0.44350302080180909 0 -0.33301283642112622 0.42777581131939701 0 -0.3349608044433634 0.44350302080180909 0 -0.35187498182635152 0.44904272028773878 0 -0.33301283642112622 0.42777581131939701 0 -0.35187498182635152 0.44904272028773878 0 -0.3349608044433634 0.44350302080180909 0 -0.34242193314571051 0.45130506739768789 0 -0.35187498182635152 0.44904272028773878 0 -0.32459418067211232 0.45242938064819921 0 -0.3349608044433634 0.44350302080180909 0 -0.33568165728659372 0.4557369950816601 0 -0.3349608044433634 0.44350302080180909 0 -0.34242193314571051 0.45130506739768789 0 -0.33568165728659372 0.4557369950816601 0 -0.32974348766817718 0.47083809631681989 0 -0.33153230005094703 0.46228769738235198 0 -0.33728912563512692 0.46865430695413901 0 -0.32974348766817718 0.47083809631681989 0 -0.32379668109101062 0.46465163349759819 0 -0.33153230005094703 0.46228769738235198 0 -0.32459418067211232 0.45242938064819921 0 -0.33153230005094703 0.46228769738235198 0 -0.33568165728659372 0.4557369950816601 0 -0.3418478612600942 0.45529166827543938 0 -0.34165588113998802 0.46110417561997458 0 -0.34763197346808439 0.45302043500243511 0 -0.33568165728659372 0.4557369950816601 0 -0.3418478612600942 0.45529166827543938 0 -0.34165588113998802 0.46110417561997458 0 -0.33153230005094703 0.46228769738235198 0 -0.33568165728659372 0.4557369950816601 0 -0.34165588113998802 0.46110417561997458 0 -0.34242193314571051 0.45130506739768789 0 -0.33568165728659372 0.4557369950816601 0 -0.3418478612600942 0.45529166827543938 0 -0.33153230005094703 0.46228769738235198 0 -0.34165588113998802 0.46110417561997458 0 -0.33728912563512692 0.46865430695413901 0 -0.34165588113998802 0.46110417561997458 0 -0.33728912563512692 0.46865430695413901 0 -0.34539483255419878 0.47081905030884219 0 -0.35577199377258828 0.45788518395848482 0 -0.34763197346808439 0.45302043500243511 0 -0.35660532873902728 0.47651021750121758 0 -0.34763197346808439 0.45302043500243511 0 -0.34539483255419878 0.47081905030884219 0 -0.35660532873902728 0.47651021750121758 0 -0.35577199377258828 0.45788518395848482 0 -0.3629920941920845 0.46077307091254482 0 -0.35660532873902728 0.47651021750121758 0 -0.34165588113998802 0.46110417561997458 0 -0.34763197346808439 0.45302043500243511 0 -0.34539483255419878 0.47081905030884219 0 -0.34763197346808439 0.45302043500243511 0 -0.35660532873902728 0.47651021750121758 0 -0.34242193314571051 0.45130506739768789 0 -0.3418478612600942 0.45529166827543938 0 -0.34763197346808439 0.45302043500243511 0 -0.35577199377258828 0.45788518395848482 0 -0.35895439130003742 0.45261658705254781 0 -0.35187498182635152 0.44904272028773878 0 -0.35577199377258828 0.45788518395848482 0 -0.34763197346808439 0.45302043500243511 0 -0.35187498182635152 0.44904272028773878 0 -0.35577199377258828 0.45788518395848482 0 -0.35895439130003742 0.45261658705254781 0 -0.3629920941920845 0.46077307091254482 0 -0.34242193314571051 0.45130506739768789 0 -0.34763197346808439 0.45302043500243511 0 -0.35187498182635152 0.44904272028773878 0 -0.35895439130003742 0.45261658705254781 0 -0.35187498182635152 0.44904272028773878 0 -0.35746425673711563 0.44522221506022269 0 -0.34850739108178908 0.43460951270778742 0 -0.35187498182635152 0.44904272028773878 0 -0.35752929876437811 0.43758254376811168 0 -0.35187498182635152 0.44904272028773878 0 -0.35752929876437811 0.43758254376811168 0 -0.35746425673711563 0.44522221506022269 0 -0.38421781058557741 0.43911022311192649 0 -0.36768512146653021 0.45062847395082012 0 -0.37154812818406407 0.43816993315416458 0 -0.35752929876437811 0.43758254376811168 0 -0.36768512146653021 0.45062847395082012 0 -0.37154812818406407 0.43816993315416458 0 -0.35752929876437811 0.43758254376811168 0 -0.35746425673711563 0.44522221506022269 0 -0.36768512146653021 0.45062847395082012 0 -0.35752929876437811 0.43758254376811168 0 -0.36768512146653021 0.45062847395082012 0 -0.35895439130003742 0.45261658705254781 0 -0.35746425673711563 0.44522221506022269 0 -0.36768512146653021 0.45062847395082012 0 -0.37562635212380141 0.46796244451990698 0 -0.3629920941920845 0.46077307091254482 0 -0.35660532873902728 0.47651021750121758 0 -0.37562635212380141 0.46796244451990698 0 -0.36768512146653021 0.45062847395082012 0 -0.3629920941920845 0.46077307091254482 0 -0.35895439130003742 0.45261658705254781 0 -0.36768512146653021 0.45062847395082012 0 -0.3629920941920845 0.46077307091254482 0 -0.37541597510642821 0.48541815248167092 0 -0.37562635212380141 0.46796244451990698 0 -0.35660532873902728 0.47651021750121758 0 -0.37541597510642821 0.48541815248167092 0 -0.36557868400997012 0.5 0 -0.35660532873902728 0.47651021750121758 0 -0.36557868400997012 0.5 0 -0.35660532873902728 0.47651021750121758 0 -0.3422280173504415 0.48554269826337859 0 -0.36557868400997012 0.5 0 -0.34391413539888949 0.5 0 -0.3422280173504415 0.48554269826337859 0 -0.36557868400997012 0.5 0 -0.35660532873902728 0.47651021750121758 0 -0.3422280173504415 0.48554269826337859 0 -0.34539483255419878 0.47081905030884219 0 -0.35660532873902728 0.47651021750121758 0 -0.14925758641639039 0.47027222966635318 0 -0.1345608376539047 0.47935432955306922 0 -0.1420762829764062 0.46278038955511841 0 -0.14802215569233451 0.4802877018906046 0 -0.14925758641639039 0.47027222966635318 0 -0.1345608376539047 0.47935432955306922 0 -0.14802215569233451 0.4802877018906046 0 -0.14950755628339821 0.49100083295595998 0 -0.1345608376539047 0.47935432955306922 0 -0.14925758641639039 0.47027222966635318 0 -0.1345608376539047 0.47935432955306922 0 -0.14802215569233451 0.4802877018906046 0 -0.14925758641639039 0.47027222966635318 0 -0.15876264241564489 0.48052341538703619 0 -0.14802215569233451 0.4802877018906046 0 -0.14950755628339821 0.49100083295595998 0 -0.15876264241564489 0.48052341538703619 0 -0.14950755628339821 0.49100083295595998 0 -0.13798698909862159 0.5 0 -0.1670802009441201 0.50000000000000422 0 -0.14950755628339821 0.49100083295595998 0 -0.12555682768827681 0.49005201419200328 0 -0.14950755628339821 0.49100083295595998 0 -0.12555682768827681 0.49005201419200328 0 -0.1345608376539047 0.47935432955306922 0 -0.14950755628339821 0.49100083295595998 0 -0.13798698909862159 0.5 0 -0.12555682768827681 0.49005201419200328 0 -0.1345608376539047 0.47935432955306922 0 -0.1317392373652615 0.46186154496403459 0 -0.123806867802781 0.4760718409820987 0 -0.12555682768827681 0.49005201419200328 0 -0.1345608376539047 0.47935432955306922 0 -0.123806867802781 0.4760718409820987 0 -0.1345608376539047 0.47935432955306922 0 -0.1317392373652615 0.46186154496403459 0 -0.1420762829764062 0.46278038955511841 0 -0.1317392373652615 0.46186154496403459 0 -0.13911346606820371 0.45114038722173061 0 -0.1420762829764062 0.46278038955511841 0 -0.1317392373652615 0.46186154496403459 0 -0.13911346606820371 0.45114038722173061 0 -0.1175278611985557 0.4414109046201049 0 -0.13911346606820371 0.45114038722173061 0 -0.14134849115587869 0.4362927422242453 0 -0.1175278611985557 0.4414109046201049 0 -0.13911346606820371 0.45114038722173061 0 -0.1505267546261829 0.44464879564325072 0 -0.14134849115587869 0.4362927422242453 0 -0.13911346606820371 0.45114038722173061 0 -0.1505267546261829 0.44464879564325072 0 -0.1512295047039732 0.45788985590781212 0 -0.1505267546261829 0.44464879564325072 0 -0.1512295047039732 0.45788985590781212 0 -0.16168600153672461 0.44375448646641252 0 -0.14925758641639039 0.47027222966635318 0 -0.1420762829764062 0.46278038955511841 0 -0.1512295047039732 0.45788985590781212 0 -0.13911346606820371 0.45114038722173061 0 -0.1420762829764062 0.46278038955511841 0 -0.1512295047039732 0.45788985590781212 0 -0.14925758641639039 0.47027222966635318 0 -0.1512295047039732 0.45788985590781212 0 -0.16395433517887659 0.46119012977963803 0 -0.14925758641639039 0.47027222966635318 0 -0.16395433517887659 0.46119012977963803 0 -0.1512295047039732 0.45788985590781212 0 -0.16395433517887659 0.46119012977963803 0 -0.16168600153672461 0.44375448646641252 0 -0.14925758641639039 0.47027222966635318 0 -0.16395433517887659 0.46119012977963803 0 -0.16454551897389591 0.47185809134985202 0 -0.1512295047039732 0.45788985590781212 0 -0.16395433517887659 0.46119012977963803 0 -0.16395433517887659 0.46119012977963803 0 -0.17814195359100429 0.46486978794415501 0 -0.16454551897389591 0.47185809134985202 0 -0.16395433517887659 0.46119012977963803 0 -0.17814195359100429 0.46486978794415501 0 -0.16395433517887659 0.46119012977963803 0 -0.16168600153672461 0.44375448646641252 0 -0.17103486797636261 0.4471897681451904 0 -0.1505267546261829 0.44464879564325072 0 -0.16168600153672461 0.44375448646641252 0 -0.1587909809002063 0.43025032556441789 0 -0.16168600153672461 0.44375448646641252 0 -0.17103486797636261 0.4471897681451904 0 -0.17549095324639891 0.43439896748679813 0 -0.16395433517887659 0.46119012977963803 0 -0.17103486797636261 0.4471897681451904 0 -0.18300818194345081 0.44941548884791122 0 -0.18300818194345081 0.44941548884791122 0 -0.19020681979945339 0.42655386081594521 0 -0.17103486797636261 0.4471897681451904 0 -0.18300818194345081 0.44941548884791122 0 -0.17549095324639891 0.43439896748679813 0 -0.16395433517887659 0.46119012977963803 0 -0.18300818194345081 0.44941548884791122 0 -0.16395433517887659 0.46119012977963803 0 -0.18300818194345081 0.44941548884791122 0 -0.17814195359100429 0.46486978794415501 0 -0.18300818194345081 0.44941548884791122 0 -0.17814195359100429 0.46486978794415501 0 -0.19290685328284871 0.45713181718368351 0 -0.18300818194345081 0.44941548884791122 0 -0.17814195359100429 0.46486978794415501 0 -0.17814195359100429 0.46486978794415501 0 -0.17261107726756289 0.48243489397207973 0 -0.1895235255557132 0.48309835460276918 0 -0.17814195359100429 0.46486978794415501 0 -0.17261107726756289 0.48243489397207973 0 -0.17814195359100429 0.46486978794415501 0 -0.17261107726756289 0.48243489397207973 0 -0.16454551897389591 0.47185809134985202 0 -0.17261107726756289 0.48243489397207973 0 -0.16454551897389591 0.47185809134985202 0 -0.15876264241564489 0.48052341538703619 0 -0.14925758641639039 0.47027222966635318 0 -0.16454551897389591 0.47185809134985202 0 -0.15876264241564489 0.48052341538703619 0 -0.14950755628339821 0.49100083295595998 0 -0.15876264241564489 0.48052341538703619 0 -0.1670802009441201 0.50000000000000422 0 -0.17261107726756289 0.48243489397207973 0 -0.15876264241564489 0.48052341538703619 0 -0.1670802009441201 0.50000000000000422 0 -0.17261107726756289 0.48243489397207973 0 -0.1670802009441201 0.50000000000000422 0 -0.17261107726756289 0.48243489397207973 0 -0.19042100534607451 0.5 0 -0.1895235255557132 0.48309835460276918 0 -0.17261107726756289 0.48243489397207973 0 -0.1670802009441201 0.50000000000000422 0 -0.19042100534607451 0.5 0 -0.20120647734606109 0.47085173365769778 0 -0.1895235255557132 0.48309835460276918 0 -0.21376180974802911 0.5 0 -0.19042100534607451 0.5 0 -0.1895235255557132 0.48309835460276918 0 -0.21376180974802911 0.5 0 -0.17814195359100429 0.46486978794415501 0 -0.20120647734606109 0.47085173365769778 0 -0.1895235255557132 0.48309835460276918 0 -0.20120647734606109 0.47085173365769778 0 -0.21376180974802911 0.5 0 -0.22427100110111689 0.47683367937124432 0 -0.20120647734606109 0.47085173365769778 0 -0.22427100110111689 0.47683367937124432 0 -0.20120647734606109 0.47085173365769778 0 -0.22427100110111689 0.47683367937124432 0 -0.21768270894567299 0.46360351733803662 0 -0.21376180974802911 0.5 0 -0.22427100110111689 0.47683367937124432 0 -0.23710261414998349 0.5 0 -0.22427100110111689 0.47683367937124432 0 -0.23465535491660641 0.46626745136821268 0 -0.21768270894567299 0.46360351733803662 0 -0.25321816232730188 0.46782529109163412 0 -0.24733552485617311 0.48281562508478959 0 -0.23465535491660641 0.46626745136821268 0 -0.22427100110111689 0.47683367937124432 0 -0.24733552485617311 0.48281562508478959 0 -0.23465535491660641 0.46626745136821268 0 -0.22427100110111689 0.47683367937124432 0 -0.24733552485617311 0.48281562508478959 0 -0.24733552485617311 0.48281562508478959 0 -0.23465535491660641 0.46626745136821268 0 -0.26044341855193798 0.49992199692126271 0 -0.24733552485617311 0.48281562508478959 0 -0.23710261414998349 0.5 0 -0.22427100110111689 0.47683367937124432 0 -0.24733552485617311 0.48281562508478959 0 -0.23710261414998349 0.5 0 -0.25192925290185608 0.45205635536278999 0 -0.2362863774677515 0.4402345941401557 0 -0.24931220853158659 0.43847952607093649 0 -0.25192925290185608 0.45205635536278999 0 -0.2362863774677515 0.4402345941401557 0 -0.23872991454061299 0.45361621931042118 0 -0.25321816232730188 0.46782529109163412 0 -0.23465535491660641 0.46626745136821268 0 -0.23872991454061299 0.45361621931042118 0 -0.25321816232730188 0.46782529109163412 0 -0.25192925290185608 0.45205635536278999 0 -0.23872991454061299 0.45361621931042118 0 -0.23465535491660641 0.46626745136821268 0 -0.23872991454061299 0.45361621931042118 0 -0.22197518497703889 0.44971927765163627 0 -0.23465535491660641 0.46626745136821268 0 -0.22197518497703889 0.44971927765163627 0 -0.21768270894567299 0.46360351733803662 0 -0.23465535491660641 0.46626745136821268 0 -0.22197518497703889 0.44971927765163627 0 -0.2362863774677515 0.4402345941401557 0 -0.23872991454061299 0.45361621931042118 0 -0.22197518497703889 0.44971927765163627 0 -0.2362863774677515 0.4402345941401557 0 -0.22197518497703889 0.44971927765163627 0 -0.22112079986516919 0.43520173759593139 0 -0.22197518497703889 0.44971927765163627 0 -0.2092950150374715 0.43317110393505998 0 -0.22197518497703889 0.44971927765163627 0 -0.2092950150374715 0.43317110393505998 0 -0.22112079986516919 0.43520173759593139 0 -0.2063055263875419 0.45434544464139198 0 -0.19615159849046071 0.44129329639148501 0 -0.2092950150374715 0.43317110393505998 0 -0.22197518497703889 0.44971927765163627 0 -0.2063055263875419 0.45434544464139198 0 -0.2092950150374715 0.43317110393505998 0 -0.22197518497703889 0.44971927765163627 0 -0.2063055263875419 0.45434544464139198 0 -0.21768270894567299 0.46360351733803662 0 -0.20120647734606109 0.47085173365769778 0 -0.2063055263875419 0.45434544464139198 0 -0.21768270894567299 0.46360351733803662 0 -0.20120647734606109 0.47085173365769778 0 -0.2063055263875419 0.45434544464139198 0 -0.19290685328284871 0.45713181718368351 0 -0.17814195359100429 0.46486978794415501 0 -0.20120647734606109 0.47085173365769778 0 -0.17814195359100429 0.46486978794415501 0 -0.20120647734606109 0.47085173365769778 0 -0.19290685328284871 0.45713181718368351 0 -0.18300818194345081 0.44941548884791122 0 -0.19290685328284871 0.45713181718368351 0 -0.19615159849046071 0.44129329639148501 0 -0.18300818194345081 0.44941548884791122 0 -0.19615159849046071 0.44129329639148501 0 -0.19020681979945339 0.42655386081594521 0 -0.2063055263875419 0.45434544464139198 0 -0.19290685328284871 0.45713181718368351 0 -0.19615159849046071 0.44129329639148501 0 -0.18300818194345081 0.44941548884791122 0 -0.19615159849046071 0.44129329639148501 0 -0.19615159849046071 0.44129329639148501 0 -0.19020681979945339 0.42655386081594521 0 -0.19897462030043039 0.42999976408922458 0 -0.19897462030043039 0.42999976408922458 0 -0.198874299821892 0.41957161698336881 0 -0.2092950150374715 0.43317110393505998 0 -0.19020681979945339 0.42655386081594521 0 -0.19897462030043039 0.42999976408922458 0 -0.198874299821892 0.41957161698336881 0 -0.19615159849046071 0.44129329639148501 0 -0.19897462030043039 0.42999976408922458 0 -0.2092950150374715 0.43317110393505998 0 -0.19615159849046071 0.44129329639148501 0 -0.2092950150374715 0.43317110393505998 0 -0.19020681979945339 0.42655386081594521 0 -0.19740545765545661 0.40369223278397931 0 -0.19020681979945339 0.42655386081594521 0 -0.19740545765545661 0.40369223278397931 0 -0.1837834852846647 0.41274932510525969 0 -0.198874299821892 0.41957161698336881 0 -0.20563373898451451 0.41324340490364381 0 -0.19740545765545661 0.40369223278397931 0 -0.19020681979945339 0.42655386081594521 0 -0.198874299821892 0.41957161698336881 0 -0.19740545765545661 0.40369223278397931 0 -0.20563373898451451 0.41324340490364381 0 -0.210281667508355 0.40454194487088269 0 -0.19740545765545661 0.40369223278397931 0 -0.20563373898451451 0.41324340490364381 0 -0.21385363143092639 0.41545406838550519 0 -0.210281667508355 0.40454194487088269 0 -0.198874299821892 0.41957161698336881 0 -0.20563373898451451 0.41324340490364381 0 -0.20775363850594239 0.4229571614944822 0 -0.20563373898451451 0.41324340490364381 0 -0.21385363143092639 0.41545406838550519 0 -0.20775363850594239 0.4229571614944822 0 -0.21385363143092639 0.41545406838550519 0 -0.21595507453612431 0.42369649639247808 0 -0.2255613953152473 0.41461761776036071 0 -0.21385363143092639 0.41545406838550519 0 -0.20775363850594239 0.4229571614944822 0 -0.21595507453612431 0.42369649639247808 0 -0.21385363143092639 0.41545406838550519 0 -0.21795358589397959 0.40928916667281212 0 -0.210281667508355 0.40454194487088269 0 -0.2092950150374715 0.43317110393505998 0 -0.21251783014982889 0.43117951183262188 0 -0.198874299821892 0.41957161698336881 0 -0.2092950150374715 0.43317110393505998 0 -0.20775363850594239 0.4229571614944822 0 -0.2092950150374715 0.43317110393505998 0 -0.20775363850594239 0.4229571614944822 0 -0.21203868853915081 0.42735703683003401 0 -0.198874299821892 0.41957161698336881 0 -0.2092950150374715 0.43317110393505998 0 -0.21203868853915081 0.42735703683003401 0 -0.21595507453612431 0.42369649639247808 0 -0.2155628646356387 0.4280472776391579 0 -0.20775363850594239 0.4229571614944822 0 -0.21203868853915081 0.42735703683003401 0 -0.21595507453612431 0.42369649639247808 0 -0.21203868853915081 0.42735703683003401 0 -0.2155628646356387 0.4280472776391579 0 -0.21251783014982889 0.43117951183262188 0 -0.2155628646356387 0.4280472776391579 0 -0.21251783014982889 0.43117951183262188 0 -0.21952816054280319 0.42977924088500508 0 -0.21595507453612431 0.42369649639247808 0 -0.2155628646356387 0.4280472776391579 0 -0.21952816054280319 0.42977924088500508 0 -0.21251783014982889 0.43117951183262188 0 -0.22112079986516919 0.43520173759593139 0 -0.21952816054280319 0.42977924088500508 0 -0.2092950150374715 0.43317110393505998 0 -0.21251783014982889 0.43117951183262188 0 -0.22112079986516919 0.43520173759593139 0 -0.2092950150374715 0.43317110393505998 0 -0.21203868853915081 0.42735703683003401 0 -0.21251783014982889 0.43117951183262188 0 -0.22112079986516919 0.43520173759593139 0 -0.21952816054280319 0.42977924088500508 0 -0.22671626474483689 0.42685076710130021 0 -0.2362863774677515 0.4402345941401557 0 -0.22112079986516919 0.43520173759593139 0 -0.22671626474483689 0.42685076710130021 0 -0.21595507453612431 0.42369649639247808 0 -0.21952816054280319 0.42977924088500508 0 -0.22671626474483689 0.42685076710130021 0 -0.22671626474483689 0.42685076710130021 0 -0.2255613953152473 0.41461761776036071 0 -0.24302698068029829 0.42305603324543661 0 -0.2255613953152473 0.41461761776036071 0 -0.24302698068029829 0.42305603324543661 0 -0.23423944509694211 0.40509455143471629 0 -0.21595507453612431 0.42369649639247808 0 -0.22671626474483689 0.42685076710130021 0 -0.2255613953152473 0.41461761776036071 0 -0.21385363143092639 0.41545406838550519 0 -0.21795358589397959 0.40928916667281212 0 -0.2255613953152473 0.41461761776036071 0 -0.21795358589397959 0.40928916667281212 0 -0.2255613953152473 0.41461761776036071 0 -0.2221176493213895 0.40254303567449973 0 -0.2255613953152473 0.41461761776036071 0 -0.23423944509694211 0.40509455143471629 0 -0.2221176493213895 0.40254303567449973 0 -0.24302698068029829 0.42305603324543661 0 -0.24774811111395911 0.39951308516308542 0 -0.23423944509694211 0.40509455143471629 0 -0.2362863774677515 0.4402345941401557 0 -0.22671626474483689 0.42685076710130021 0 -0.24302698068029829 0.42305603324543661 0 -0.22671626474483689 0.42685076710130021 0 -0.24302698068029829 0.42305603324543661 0 -0.2362863774677515 0.4402345941401557 0 -0.24931220853158659 0.43847952607093649 0 -0.24302698068029829 0.42305603324543661 0 -0.25362564266405951 0.4285539516616178 0 -0.24931220853158659 0.43847952607093649 0 -0.24302698068029829 0.42305603324543661 0 -0.23615852561215869 0.37976487093659761 0 -0.24774811111395911 0.39951308516308542 0 -0.22747795092483639 0.38887995309293982 0 -0.25845698491678543 0.39145172168720238 0 -0.23615852561215869 0.37976487093659761 0 -0.24774811111395911 0.39951308516308542 0 -0.23615852561215869 0.37976487093659761 0 -0.24774811111395911 0.39951308516308542 0 -0.25687088905293348 0.3781419561323231 0 -0.23615852561215869 0.37976487093659761 0 -0.24450349114954259 0.36964901619699081 0 -0.24774811111395911 0.39951308516308542 0 -0.23423944509694211 0.40509455143471629 0 -0.22747795092483639 0.38887995309293982 0 -0.23423944509694211 0.40509455143471629 0 -0.2221176493213895 0.40254303567449973 0 -0.22747795092483639 0.38887995309293982 0 -0.2221176493213895 0.40254303567449973 0 -0.22747795092483639 0.38887995309293982 0 -0.21420559372568801 0.39130595921178679 0 -0.21987010089168291 0.3853037128631 0 -0.22747795092483639 0.38887995309293982 0 -0.22046496345178271 0.37785940343881302 0 -0.21987010089168291 0.3853037128631 0 -0.22747795092483639 0.38887995309293982 0 -0.21420559372568801 0.39130595921178679 0 -0.23615852561215869 0.37976487093659761 0 -0.22747795092483639 0.38887995309293982 0 -0.23225288693887761 0.37367929929778521 0 -0.22747795092483639 0.38887995309293982 0 -0.22046496345178271 0.37785940343881302 0 -0.23225288693887761 0.37367929929778521 0 -0.2046040955114613 0.38083060475201402 0 -0.2203927249882198 0.37070094801589992 0 -0.21451855635361211 0.38169611257290997 0 -0.2046040955114613 0.38083060475201402 0 -0.2203927249882198 0.37070094801589992 0 -0.22046496345178271 0.37785940343881302 0 -0.21451855635361211 0.38169611257290997 0 -0.2203927249882198 0.37070094801589992 0 -0.21987010089168291 0.3853037128631 0 -0.22046496345178271 0.37785940343881302 0 -0.21451855635361211 0.38169611257290997 0 -0.21451855635361211 0.38169611257290997 0 -0.2046040955114613 0.38083060475201402 0 -0.21420559372568801 0.39130595921178679 0 -0.21987010089168291 0.3853037128631 0 -0.21451855635361211 0.38169611257290997 0 -0.21420559372568801 0.39130595921178679 0 -0.2046040955114613 0.38083060475201402 0 -0.21420559372568801 0.39130595921178679 0 -0.19740545765545661 0.40369223278397931 0 -0.21420559372568801 0.39130595921178679 0 -0.210281667508355 0.40454194487088269 0 -0.19740545765545661 0.40369223278397931 0 -0.21795358589397959 0.40928916667281212 0 -0.2221176493213895 0.40254303567449973 0 -0.210281667508355 0.40454194487088269 0 -0.2221176493213895 0.40254303567449973 0 -0.21420559372568801 0.39130595921178679 0 -0.210281667508355 0.40454194487088269 0 -0.2046040955114613 0.38083060475201402 0 -0.19740545765545661 0.40369223278397931 0 -0.2046040955114613 0.38083060475201402 0 -0.19740545765545661 0.40369223278397931 0 -0.19002924352218559 0.39018152706280801 0 -0.19740545765545661 0.40369223278397931 0 -0.19002924352218559 0.39018152706280801 0 -0.1866681444988039 0.40153888358141182 0 -0.19740545765545661 0.40369223278397931 0 -0.1866681444988039 0.40153888358141182 0 -0.1837834852846647 0.41274932510525969 0 -0.2046040955114613 0.38083060475201402 0 -0.19002924352218559 0.39018152706280801 0 -0.18812101743743179 0.37615184416078717 0 -0.2046040955114613 0.38083060475201402 0 -0.18812101743743179 0.37615184416078717 0 -0.1996985486950425 0.3711877977694516 0 -0.2046040955114613 0.38083060475201402 0 -0.19002924352218559 0.39018152706280801 0 -0.18812101743743179 0.37615184416078717 0 -0.1778025064711643 0.38765993689373668 0 -0.1707329774880188 0.37683879180260338 0 -0.19002924352218559 0.39018152706280801 0 -0.18812101743743179 0.37615184416078717 0 -0.1778025064711643 0.38765993689373668 0 -0.1707329774880188 0.37683879180260338 0 -0.16098658594421819 0.39225406482711572 0 -0.15121392266389189 0.37668199096478472 0 -0.1778025064711643 0.38765993689373668 0 -0.1707329774880188 0.37683879180260338 0 -0.16098658594421819 0.39225406482711572 0 -0.1778025064711643 0.38765993689373668 0 -0.16098658594421819 0.39225406482711572 0 -0.17545439153290879 0.39953244937360022 0 -0.16098658594421819 0.39225406482711572 0 -0.160589118359482 0.41015226654685583 0 -0.14825450328128981 0.40255685382687978 0 -0.16098658594421819 0.39225406482711572 0 -0.17545439153290879 0.39953244937360022 0 -0.160589118359482 0.41015226654685583 0 -0.19002924352218559 0.39018152706280801 0 -0.17545439153290879 0.39953244937360022 0 -0.1866681444988039 0.40153888358141182 0 -0.19002924352218559 0.39018152706280801 0 -0.17545439153290879 0.39953244937360022 0 -0.19002924352218559 0.39018152706280801 0 -0.1778025064711643 0.38765993689373668 0 -0.17545439153290879 0.39953244937360022 0 -0.17545439153290879 0.39953244937360022 0 -0.1866681444988039 0.40153888358141182 0 -0.1837834852846647 0.41274932510525969 0 -0.17545439153290879 0.39953244937360022 0 -0.1837834852846647 0.41274932510525969 0 -0.1729802510679338 0.41917504613814821 0 -0.19020681979945339 0.42655386081594521 0 -0.1837834852846647 0.41274932510525969 0 -0.18044954771796551 0.42441068206213728 0 -0.1837834852846647 0.41274932510525969 0 -0.1729802510679338 0.41917504613814821 0 -0.18044954771796551 0.42441068206213728 0 -0.18300818194345081 0.44941548884791122 0 -0.19020681979945339 0.42655386081594521 0 -0.17549095324639891 0.43439896748679813 0 -0.19020681979945339 0.42655386081594521 0 -0.18044954771796551 0.42441068206213728 0 -0.17549095324639891 0.43439896748679813 0 -0.1729802510679338 0.41917504613814821 0 -0.18044954771796551 0.42441068206213728 0 -0.17549095324639891 0.43439896748679813 0 -0.1729802510679338 0.41917504613814821 0 -0.17549095324639891 0.43439896748679813 0 -0.1587909809002063 0.43025032556441789 0 -0.16168600153672461 0.44375448646641252 0 -0.17549095324639891 0.43439896748679813 0 -0.1587909809002063 0.43025032556441789 0 -0.1729802510679338 0.41917504613814821 0 -0.1587909809002063 0.43025032556441789 0 -0.160589118359482 0.41015226654685583 0 -0.17545439153290879 0.39953244937360022 0 -0.1729802510679338 0.41917504613814821 0 -0.160589118359482 0.41015226654685583 0 -0.160589118359482 0.41015226654685583 0 -0.14706799743033541 0.4171448595509728 0 -0.14825450328128981 0.40255685382687978 0 -0.1587909809002063 0.43025032556441789 0 -0.160589118359482 0.41015226654685583 0 -0.14706799743033541 0.4171448595509728 0 -0.14706799743033541 0.4171448595509728 0 -0.13455873223935641 0.40552006203737279 0 -0.14825450328128981 0.40255685382687978 0 -0.1587909809002063 0.43025032556441789 0 -0.14706799743033541 0.4171448595509728 0 -0.14134849115587869 0.4362927422242453 0 -0.1505267546261829 0.44464879564325072 0 -0.1587909809002063 0.43025032556441789 0 -0.14134849115587869 0.4362927422242453 0 -0.14134849115587869 0.4362927422242453 0 -0.13319822975466461 0.42136570043816263 0 -0.1175278611985557 0.4414109046201049 0 -0.14706799743033541 0.4171448595509728 0 -0.14134849115587869 0.4362927422242453 0 -0.13319822975466461 0.42136570043816263 0 -0.14706799743033541 0.4171448595509728 0 -0.13319822975466461 0.42136570043816263 0 -0.13455873223935641 0.40552006203737279 0 -0.13319822975466461 0.42136570043816263 0 -0.13455873223935641 0.40552006203737279 0 -0.11837051106887329 0.412823249579923 0 -0.13455873223935641 0.40552006203737279 0 -0.14199004935829621 0.38963186752495149 0 -0.12134371811491849 0.39187501852612899 0 -0.13712049021653289 0.37215923529509443 0 -0.12095524285709421 0.37693910849459628 0 -0.12134371811491849 0.39187501852612899 0 -0.13712049021653289 0.37215923529509443 0 -0.12134371811491849 0.39187501852612899 0 -0.14199004935829621 0.38963186752495149 0 -0.13712049021653289 0.37215923529509443 0 -0.12134371811491849 0.39187501852612899 0 -0.16098658594421819 0.39225406482711572 0 -0.14199004935829621 0.38963186752495149 0 -0.15121392266389189 0.37668199096478472 0 -0.14199004935829621 0.38963186752495149 0 -0.15121392266389189 0.37668199096478472 0 -0.13712049021653289 0.37215923529509443 0 -0.16098658594421819 0.39225406482711572 0 -0.14199004935829621 0.38963186752495149 0 -0.14825450328128981 0.40255685382687978 0 -0.13455873223935641 0.40552006203737279 0 -0.14199004935829621 0.38963186752495149 0 -0.14825450328128981 0.40255685382687978 0 -0.1342684676028936 0.34582825785491689 0 -0.1569308079326677 0.34740284486785161 0 -0.14702564907460089 0.35978104008147349 0 -0.1569308079326677 0.34740284486785161 0 -0.16474638319981341 0.36269795406901661 0 -0.14702564907460089 0.35978104008147349 0 -0.1342684676028936 0.34582825785491689 0 -0.1569308079326677 0.34740284486785161 0 -0.14702564907460089 0.35978104008147349 0 -0.1569308079326677 0.34740284486785161 0 -0.15121392266389189 0.37668199096478472 0 -0.14702564907460089 0.35978104008147349 0 -0.16474638319981341 0.36269795406901661 0 -0.15121392266389189 0.37668199096478472 0 -0.14702564907460089 0.35978104008147349 0 -0.13712049021653289 0.37215923529509443 0 -0.15121392266389189 0.37668199096478472 0 -0.13712049021653289 0.37215923529509443 0 -0.14702564907460089 0.35978104008147349 0 -0.13712049021653289 0.37215923529509443 0 -0.13712049021653289 0.37215923529509443 0 -0.12848952486178769 0.35915399149691962 0 -0.11406200784567561 0.36475948493145582 0 -0.13712049021653289 0.37215923529509443 0 -0.11406200784567561 0.36475948493145582 0 -0.14702564907460089 0.35978104008147349 0 -0.13712049021653289 0.37215923529509443 0 -0.12848952486178769 0.35915399149691962 0 -0.14702564907460089 0.35978104008147349 0 -0.1342684676028936 0.34582825785491689 0 -0.12848952486178769 0.35915399149691962 0 -0.1342684676028936 0.34582825785491689 0 -0.13138353846333151 0.32894467408798761 0 -0.1189291387869567 0.33399533644656082 0 -0.1342684676028936 0.34582825785491689 0 -0.13138353846333151 0.32894467408798761 0 -0.1434317785107721 0.33578346345729149 0 -0.13138353846333151 0.32894467408798761 0 -0.14475767733956019 0.32521556834017568 0 -0.1434317785107721 0.33578346345729149 0 -0.13138353846333151 0.32894467408798761 0 -0.13623030625231569 0.31790435832669828 0 -0.10915871834759421 0.32353479044488059 0 -0.13138353846333151 0.32894467408798761 0 -0.13623030625231569 0.31790435832669828 0 -0.13138353846333151 0.32894467408798761 0 -0.13623030625231569 0.31790435832669828 0 -0.14475767733956019 0.32521556834017568 0 -0.13623030625231569 0.31790435832669828 0 -0.15893152189812701 0.31318288967315139 0 -0.13623030625231569 0.31790435832669828 0 -0.14475767733956019 0.32521556834017568 0 -0.15893152189812701 0.31318288967315139 0 -0.14475767733956019 0.32521556834017568 0 -0.1538112415732544 0.33026245615574967 0 -0.15893152189812701 0.31318288967315139 0 -0.1434317785107721 0.33578346345729149 0 -0.1538112415732544 0.33026245615574967 0 -0.1569308079326677 0.34740284486785161 0 -0.1342684676028936 0.34582825785491689 0 -0.1434317785107721 0.33578346345729149 0 -0.1569308079326677 0.34740284486785161 0 -0.14475767733956019 0.32521556834017568 0 -0.1434317785107721 0.33578346345729149 0 -0.1538112415732544 0.33026245615574967 0 -0.1538112415732544 0.33026245615574967 0 -0.17238113023108351 0.32809501666806551 0 -0.1569308079326677 0.34740284486785161 0 -0.17238113023108351 0.32809501666806551 0 -0.18540729031149841 0.34938140042192389 0 -0.1569308079326677 0.34740284486785161 0 -0.17238113023108351 0.32809501666806551 0 -0.1569308079326677 0.34740284486785161 0 -0.1538112415732544 0.33026245615574967 0 -0.15893152189812701 0.31318288967315139 0 -0.17238113023108351 0.32809501666806551 0 -0.15893152189812701 0.31318288967315139 0 -0.17238113023108351 0.32809501666806551 0 -0.17186472006915091 0.30977831367592568 0 -0.17238113023108351 0.32809501666806551 0 -0.18783145252949879 0.30878718846827907 0 -0.17238113023108351 0.32809501666806551 0 -0.18783145252949879 0.30878718846827907 0 -0.17186472006915091 0.30977831367592568 0 -0.17238113023108351 0.32809501666806551 0 -0.19086844107474829 0.33100755855631681 0 -0.18783145252949879 0.30878718846827907 0 -0.17238113023108351 0.32809501666806551 0 -0.18540729031149841 0.34938140042192389 0 -0.19086844107474829 0.33100755855631681 0 -0.18540729031149841 0.34938140042192389 0 -0.16474638319981341 0.36269795406901661 0 -0.1807478457431699 0.36560275982456392 0 -0.18540729031149841 0.34938140042192389 0 -0.1807478457431699 0.36560275982456392 0 -0.1947315602790872 0.36294380866848841 0 -0.18540729031149841 0.34938140042192389 0 -0.1569308079326677 0.34740284486785161 0 -0.18540729031149841 0.34938140042192389 0 -0.1569308079326677 0.34740284486785161 0 -0.16474638319981341 0.36269795406901661 0 -0.1707329774880188 0.37683879180260338 0 -0.15121392266389189 0.37668199096478472 0 -0.16474638319981341 0.36269795406901661 0 -0.1707329774880188 0.37683879180260338 0 -0.16474638319981341 0.36269795406901661 0 -0.1807478457431699 0.36560275982456392 0 -0.18812101743743179 0.37615184416078717 0 -0.1707329774880188 0.37683879180260338 0 -0.1807478457431699 0.36560275982456392 0 -0.18812101743743179 0.37615184416078717 0 -0.1807478457431699 0.36560275982456392 0 -0.1947315602790872 0.36294380866848841 0 -0.18812101743743179 0.37615184416078717 0 -0.1947315602790872 0.36294380866848841 0 -0.1996985486950425 0.3711877977694516 0 -0.1947315602790872 0.36294380866848841 0 -0.20081663934545221 0.35744511135760332 0 -0.20924393410089409 0.36609528036400479 0 -0.1947315602790872 0.36294380866848841 0 -0.1996985486950425 0.3711877977694516 0 -0.20924393410089409 0.36609528036400479 0 -0.18540729031149841 0.34938140042192389 0 -0.20081663934545221 0.35744511135760332 0 -0.21388377269032921 0.35135995597599629 0 -0.18540729031149841 0.34938140042192389 0 -0.21388377269032921 0.35135995597599629 0 -0.20025621997078741 0.34158130687425031 0 -0.18540729031149841 0.34938140042192389 0 -0.21388377269032921 0.35135995597599629 0 -0.18540729031149841 0.34938140042192389 0 -0.1947315602790872 0.36294380866848841 0 -0.20081663934545221 0.35744511135760332 0 -0.21388377269032921 0.35135995597599629 0 -0.20993807626155769 0.34277820571690548 0 -0.20025621997078741 0.34158130687425031 0 -0.20081663934545221 0.35744511135760332 0 -0.21388377269032921 0.35135995597599629 0 -0.20924393410089409 0.36609528036400479 0 -0.21388377269032921 0.35135995597599629 0 -0.20924393410089409 0.36609528036400479 0 -0.21484358142118451 0.35976033440041388 0 -0.21695588171853419 0.35157340714245772 0 -0.21388377269032921 0.35135995597599629 0 -0.21484358142118451 0.35976033440041388 0 -0.21388377269032921 0.35135995597599629 0 -0.20924393410089409 0.36609528036400479 0 -0.21695588171853419 0.35157340714245772 0 -0.21388377269032921 0.35135995597599629 0 -0.21702790732635829 0.34137472849696771 0 -0.21695588171853419 0.35157340714245772 0 -0.22011238828714441 0.34292104131454793 0 -0.21702790732635829 0.34137472849696771 0 -0.21388377269032921 0.35135995597599629 0 -0.21702790732635829 0.34137472849696771 0 -0.20993807626155769 0.34277820571690548 0 -0.21388377269032921 0.35135995597599629 0 -0.21702790732635829 0.34137472849696771 0 -0.21695588171853419 0.35157340714245772 0 -0.21388377269032921 0.35135995597599629 0 -0.2046040955114613 0.38083060475201402 0 -0.20924393410089409 0.36609528036400479 0 -0.2203927249882198 0.37070094801589992 0 -0.21695588171853419 0.35157340714245772 0 -0.21484358142118451 0.35976033440041388 0 -0.2203927249882198 0.37070094801589992 0 -0.2046040955114613 0.38083060475201402 0 -0.20924393410089409 0.36609528036400479 0 -0.2046040955114613 0.38083060475201402 0 -0.1996985486950425 0.3711877977694516 0 -0.20924393410089409 0.36609528036400479 0 -0.20924393410089409 0.36609528036400479 0 -0.21484358142118451 0.35976033440041388 0 -0.2203927249882198 0.37070094801589992 0 -0.22046496345178271 0.37785940343881302 0 -0.2203927249882198 0.37070094801589992 0 -0.23225288693887761 0.37367929929778521 0 -0.22046496345178271 0.37785940343881302 0 -0.2203927249882198 0.37070094801589992 0 -0.2203927249882198 0.37070094801589992 0 -0.24451966550672541 0.35522160410547049 0 -0.2203927249882198 0.37070094801589992 0 -0.22872121340252319 0.35620429792440772 0 -0.24451966550672541 0.35522160410547049 0 -0.2203927249882198 0.37070094801589992 0 -0.23225288693887761 0.37367929929778521 0 -0.24451966550672541 0.35522160410547049 0 -0.2203927249882198 0.37070094801589992 0 -0.22011238828714441 0.34292104131454793 0 -0.21695588171853419 0.35157340714245772 0 -0.2203927249882198 0.37070094801589992 0 -0.22011238828714441 0.34292104131454793 0 -0.2203927249882198 0.37070094801589992 0 -0.22872121340252319 0.35620429792440772 0 -0.22011238828714441 0.34292104131454793 0 -0.2298476904246568 0.3459023054246374 0 -0.22872121340252319 0.35620429792440772 0 -0.22011238828714441 0.34292104131454793 0 -0.2298476904246568 0.3459023054246374 0 -0.22872121340252319 0.35620429792440772 0 -0.23652783135534369 0.3489372582425308 0 -0.2298476904246568 0.3459023054246374 0 -0.23652783135534369 0.3489372582425308 0 -0.23632496632462249 0.34109893118324019 0 -0.25358003584887612 0.36153875207317732 0 -0.25145706260165962 0.34419168153181989 0 -0.24451966550672541 0.35522160410547049 0 -0.22872121340252319 0.35620429792440772 0 -0.23652783135534369 0.3489372582425308 0 -0.24451966550672541 0.35522160410547049 0 -0.23652783135534369 0.3489372582425308 0 -0.24284959077170931 0.34487444878692752 0 -0.24451966550672541 0.35522160410547049 0 -0.23652783135534369 0.3489372582425308 0 -0.24284959077170931 0.34487444878692752 0 -0.23632496632462249 0.34109893118324019 0 -0.25145706260165962 0.34419168153181989 0 -0.24284959077170931 0.34487444878692752 0 -0.24451966550672541 0.35522160410547049 0 -0.25358003584887612 0.36153875207317732 0 -0.24451966550672541 0.35522160410547049 0 -0.24450349114954259 0.36964901619699081 0 -0.23225288693887761 0.37367929929778521 0 -0.24451966550672541 0.35522160410547049 0 -0.24450349114954259 0.36964901619699081 0 -0.23615852561215869 0.37976487093659761 0 -0.23225288693887761 0.37367929929778521 0 -0.24450349114954259 0.36964901619699081 0 -0.24719073199611041 0.31709700931060869 0 -0.23780401498776979 0.32789562838594588 0 -0.21983205158606969 0.31514113461319582 0 -0.25554896750977102 0.3306915666425802 0 -0.24719073199611041 0.31709700931060869 0 -0.2454184280701952 0.33492276887157618 0 -0.24719073199611041 0.31709700931060869 0 -0.23780401498776979 0.32789562838594588 0 -0.2454184280701952 0.33492276887157618 0 -0.25145706260165962 0.34419168153181989 0 -0.24284959077170931 0.34487444878692752 0 -0.2454184280701952 0.33492276887157618 0 -0.24284959077170931 0.34487444878692752 0 -0.2454184280701952 0.33492276887157618 0 -0.23632496632462249 0.34109893118324019 0 -0.23780401498776979 0.32789562838594588 0 -0.2454184280701952 0.33492276887157618 0 -0.23632496632462249 0.34109893118324019 0 -0.22878422232205259 0.33459180818431339 0 -0.22011238828714441 0.34292104131454793 0 -0.21983205158606969 0.31514113461319582 0 -0.22011238828714441 0.34292104131454793 0 -0.21983205158606969 0.31514113461319582 0 -0.21702790732635829 0.34137472849696771 0 -0.23780401498776979 0.32789562838594588 0 -0.23632496632462249 0.34109893118324019 0 -0.22878422232205259 0.33459180818431339 0 -0.22011238828714441 0.34292104131454793 0 -0.21983205158606969 0.31514113461319582 0 -0.2298476904246568 0.3459023054246374 0 -0.23632496632462249 0.34109893118324019 0 -0.22878422232205259 0.33459180818431339 0 -0.2298476904246568 0.3459023054246374 0 -0.22878422232205259 0.33459180818431339 0 -0.22011238828714441 0.34292104131454793 0 -0.23780401498776979 0.32789562838594588 0 -0.22878422232205259 0.33459180818431339 0 -0.21983205158606969 0.31514113461319582 0 -0.21983205158606969 0.31514113461319582 0 -0.20846611233087359 0.32719288034906552 0 -0.21702790732635829 0.34137472849696771 0 -0.21983205158606969 0.31514113461319582 0 -0.20846611233087359 0.32719288034906552 0 -0.18783145252949879 0.30878718846827907 0 -0.21702790732635829 0.34137472849696771 0 -0.20858440505875589 0.33679683152040779 0 -0.20993807626155769 0.34277820571690548 0 -0.20846611233087359 0.32719288034906552 0 -0.21702790732635829 0.34137472849696771 0 -0.20858440505875589 0.33679683152040779 0 -0.20846611233087359 0.32719288034906552 0 -0.20858440505875589 0.33679683152040779 0 -0.20025621997078741 0.34158130687425031 0 -0.20858440505875589 0.33679683152040779 0 -0.20993807626155769 0.34277820571690548 0 -0.20025621997078741 0.34158130687425031 0 -0.18540729031149841 0.34938140042192389 0 -0.19086844107474829 0.33100755855631681 0 -0.20025621997078741 0.34158130687425031 0 -0.20846611233087359 0.32719288034906552 0 -0.19086844107474829 0.33100755855631681 0 -0.20025621997078741 0.34158130687425031 0 -0.20846611233087359 0.32719288034906552 0 -0.19086844107474829 0.33100755855631681 0 -0.18783145252949879 0.30878718846827907 0 -0.21983205158606969 0.31514113461319582 0 -0.18783145252949879 0.30878718846827907 0 -0.20200572979158829 0.29422694034112129 0 -0.20200572979158829 0.29422694034112129 0 -0.19960618472986291 0.2735063837072671 0 -0.18320724522751511 0.28633876700502081 0 -0.18783145252949879 0.30878718846827907 0 -0.20200572979158829 0.29422694034112129 0 -0.18320724522751511 0.28633876700502081 0 -0.20200572979158829 0.29422694034112129 0 -0.21955171488499509 0.28736122791184388 0 -0.19960618472986291 0.2735063837072671 0 -0.21983205158606969 0.31514113461319582 0 -0.20200572979158829 0.29422694034112129 0 -0.21955171488499509 0.28736122791184388 0 -0.21983205158606969 0.31514113461319582 0 -0.21955171488499509 0.28736122791184388 0 -0.21983205158606969 0.31514113461319582 0 -0.21955171488499509 0.28736122791184388 0 -0.24415727795711151 0.29220362301900432 0 -0.21955171488499509 0.28736122791184388 0 -0.24415727795711151 0.29220362301900432 0 -0.24563769547896491 0.26580735339367562 0 -0.24719073199611041 0.31709700931060869 0 -0.21983205158606969 0.31514113461319582 0 -0.24415727795711151 0.29220362301900432 0 -0.25139107931202842 0.23933388103135719 0 -0.24563769547896491 0.26580735339367562 0 -0.23327168792548991 0.24619043079746261 0 -0.21955171488499509 0.28736122791184388 0 -0.24563769547896491 0.26580735339367562 0 -0.21927137818392051 0.25958132121049199 0 -0.21955171488499509 0.28736122791184388 0 -0.21927137818392051 0.25958132121049199 0 -0.24563769547896491 0.26580735339367562 0 -0.21927137818392051 0.25958132121049199 0 -0.23327168792548991 0.24619043079746261 0 -0.21927137818392051 0.25958132121049199 0 -0.19960618472986291 0.2735063837072671 0 -0.1959140480586069 0.2472216879876257 0 -0.21955171488499509 0.28736122791184388 0 -0.21927137818392051 0.25958132121049199 0 -0.19960618472986291 0.2735063837072671 0 -0.19960618472986291 0.2735063837072671 0 -0.17849727944486801 0.26615652526091738 0 -0.1959140480586069 0.2472216879876257 0 -0.17849727944486801 0.26615652526091738 0 -0.1959140480586069 0.2472216879876257 0 -0.1769204517543552 0.25688321553488852 0 -0.17849727944486801 0.26615652526091738 0 -0.1959140480586069 0.2472216879876257 0 -0.1769204517543552 0.25688321553488852 0 -0.1959140480586069 0.2472216879876257 0 -0.18181835984643899 0.2483739062922746 0 -0.1769204517543552 0.25688321553488852 0 -0.1670330696439207 0.26601323572576241 0 -0.17849727944486801 0.26615652526091738 0 -0.1769204517543552 0.25688321553488852 0 -0.1678019049136181 0.2545739380821529 0 -0.18181835984643899 0.2483739062922746 0 -0.15626091951273369 0.25620809505257769 0 -0.15676854247149891 0.27112088882455809 0 -0.16703766058109179 0.2477291540734885 0 -0.15676854247149891 0.27112088882455809 0 -0.16703766058109179 0.2477291540734885 0 -0.1678019049136181 0.2545739380821529 0 -0.15676854247149891 0.27112088882455809 0 -0.16703766058109179 0.2477291540734885 0 -0.1678019049136181 0.2545739380821529 0 -0.15676854247149891 0.27112088882455809 0 -0.1670330696439207 0.26601323572576241 0 -0.1769204517543552 0.25688321553488852 0 -0.1678019049136181 0.2545739380821529 0 -0.1670330696439207 0.26601323572576241 0 -0.15626091951273369 0.25620809505257769 0 -0.15917047785687771 0.2480966498047488 0 -0.16703766058109179 0.2477291540734885 0 -0.1670330696439207 0.26601323572576241 0 -0.17849727944486801 0.26615652526091738 0 -0.16108051083112901 0.28509136253420908 0 -0.17849727944486801 0.26615652526091738 0 -0.16108051083112901 0.28509136253420908 0 -0.15676854247149891 0.27112088882455809 0 -0.1670330696439207 0.26601323572576241 0 -0.16108051083112901 0.28509136253420908 0 -0.19960618472986291 0.2735063837072671 0 -0.17849727944486801 0.26615652526091738 0 -0.18320724522751511 0.28633876700502081 0 -0.17849727944486801 0.26615652526091738 0 -0.18320724522751511 0.28633876700502081 0 -0.16108051083112901 0.28509136253420908 0 -0.18320724522751511 0.28633876700502081 0 -0.17215928677974399 0.29688590094369272 0 -0.16108051083112901 0.28509136253420908 0 -0.18783145252949879 0.30878718846827907 0 -0.18320724522751511 0.28633876700502081 0 -0.17215928677974399 0.29688590094369272 0 -0.18783145252949879 0.30878718846827907 0 -0.17215928677974399 0.29688590094369272 0 -0.17186472006915091 0.30977831367592568 0 -0.15893152189812701 0.31318288967315139 0 -0.17186472006915091 0.30977831367592568 0 -0.16155557182209901 0.30151213801136523 0 -0.17215928677974399 0.29688590094369272 0 -0.17186472006915091 0.30977831367592568 0 -0.16155557182209901 0.30151213801136523 0 -0.17215928677974399 0.29688590094369272 0 -0.16155557182209901 0.30151213801136523 0 -0.16108051083112901 0.28509136253420908 0 -0.14649942436190611 0.29451262357562757 0 -0.13571695289204691 0.28763370891329959 0 -0.14343002569078869 0.27761711944809181 0 -0.16108051083112901 0.28509136253420908 0 -0.1436637422173902 0.30402619980750067 0 -0.16108051083112901 0.28509136253420908 0 -0.14649942436190611 0.29451262357562757 0 -0.1436637422173902 0.30402619980750067 0 -0.15676854247149891 0.27112088882455809 0 -0.16108051083112901 0.28509136253420908 0 -0.14649942436190611 0.29451262357562757 0 -0.15676854247149891 0.27112088882455809 0 -0.14649942436190611 0.29451262357562757 0 -0.13623030625231569 0.31790435832669828 0 -0.14649942436190611 0.29451262357562757 0 -0.1436637422173902 0.30402619980750067 0 -0.16155557182209901 0.30151213801136523 0 -0.16108051083112901 0.28509136253420908 0 -0.1436637422173902 0.30402619980750067 0 -0.15893152189812701 0.31318288967315139 0 -0.16155557182209901 0.30151213801136523 0 -0.1436637422173902 0.30402619980750067 0 -0.13623030625231569 0.31790435832669828 0 -0.14649942436190611 0.29451262357562757 0 -0.13623030625231569 0.31790435832669828 0 -0.15893152189812701 0.31318288967315139 0 -0.1436637422173902 0.30402619980750067 0 -0.13623030625231569 0.31790435832669828 0 -0.14649942436190611 0.29451262357562757 0 -0.13285997458331181 0.30180801038196231 0 -0.13623030625231569 0.31790435832669828 0 -0.13285997458331181 0.30180801038196231 0 -0.1242508066889408 0.30716123372168158 0 -0.13285997458331181 0.30180801038196231 0 -0.121920939071476 0.29491566814169468 0 -0.1242508066889408 0.30716123372168158 0 -0.13387440075275159 0.26931512301912142 0 -0.121920939071476 0.29491566814169468 0 -0.13571695289204691 0.28763370891329959 0 -0.13387440075275159 0.26931512301912142 0 -0.121920939071476 0.29491566814169468 0 -0.14649942436190611 0.29451262357562757 0 -0.13285997458331181 0.30180801038196231 0 -0.13571695289204691 0.28763370891329959 0 -0.13285997458331181 0.30180801038196231 0 -0.13571695289204691 0.28763370891329959 0 -0.121920939071476 0.29491566814169468 0 -0.13571695289204691 0.28763370891329959 0 -0.13387440075275159 0.26931512301912142 0 -0.14343002569078869 0.27761711944809181 0 -0.13387440075275159 0.26931512301912142 0 -0.1244451796721414 0.25644565112192769 0 -0.14582786243402859 0.24371457789654891 0 -0.13387440075275159 0.26931512301912142 0 -0.14582786243402859 0.24371457789654891 0 -0.1464205246061614 0.2629516111806226 0 -0.15190739204803849 0.25114217137947081 0 -0.14582786243402859 0.24371457789654891 0 -0.13387440075275159 0.26931512301912142 0 -0.1464205246061614 0.2629516111806226 0 -0.14582786243402859 0.24371457789654891 0 -0.15626091951273369 0.25620809505257769 0 -0.1464205246061614 0.2629516111806226 0 -0.15190739204803849 0.25114217137947081 0 -0.15626091951273369 0.25620809505257769 0 -0.15190739204803849 0.25114217137947081 0 -0.15917047785687771 0.2480966498047488 0 -0.15626091951273369 0.25620809505257769 0 -0.15676854247149891 0.27112088882455809 0 -0.1464205246061614 0.2629516111806226 0 -0.15676854247149891 0.27112088882455809 0 -0.14649942436190611 0.29451262357562757 0 -0.14343002569078869 0.27761711944809181 0 -0.15676854247149891 0.27112088882455809 0 -0.1464205246061614 0.2629516111806226 0 -0.14343002569078869 0.27761711944809181 0 -0.13387440075275159 0.26931512301912142 0 -0.1464205246061614 0.2629516111806226 0 -0.14343002569078869 0.27761711944809181 0 -0.097456391861015401 0.26298202381997121 0 -0.1148102035491215 0.2738159660576524 0 -0.10116798111750901 0.28228631079225319 0 -0.097456391861015401 0.26298202381997121 0 -0.087044737653767065 0.25214828806328349 0 -0.1086797112352569 0.23845491223857271 0 -0.097456391861015401 0.26298202381997121 0 -0.1141804967842906 0.24423214211298441 0 -0.097456391861015401 0.26298202381997121 0 -0.1244451796721414 0.25644565112192769 0 -0.1148102035491215 0.2738159660576524 0 -0.097456391861015401 0.26298202381997121 0 -0.1244451796721414 0.25644565112192769 0 -0.1141804967842906 0.24423214211298441 0 -0.13387440075275159 0.26931512301912142 0 -0.1148102035491215 0.2738159660576524 0 -0.121920939071476 0.29491566814169468 0 -0.13387440075275159 0.26931512301912142 0 -0.1244451796721414 0.25644565112192769 0 -0.1148102035491215 0.2738159660576524 0 -0.1148102035491215 0.2738159660576524 0 -0.121920939071476 0.29491566814169468 0 -0.10116798111750901 0.28228631079225319 0 -0.121920939071476 0.29491566814169468 0 -0.1162336200281034 0.30493636835290328 0 -0.097370740223619079 0.29898683446605401 0 -0.1242508066889408 0.30716123372168158 0 -0.1162336200281034 0.30493636835290328 0 -0.1140091935094968 0.31624176340514909 0 -0.121920939071476 0.29491566814169468 0 -0.1242508066889408 0.30716123372168158 0 -0.1162336200281034 0.30493636835290328 0 -0.097370740223619079 0.29898683446605401 0 -0.1140091935094968 0.31624176340514909 0 -0.097370740223619079 0.29898683446605401 0 -0.10375535698213249 0.31468160148898439 0 -0.1140091935094968 0.31624176340514909 0 -0.097370740223619079 0.29898683446605401 0 -0.093463513036548915 0.3159673763270946 0 -0.10375535698213249 0.31468160148898439 0 -0.1162336200281034 0.30493636835290328 0 -0.097370740223619079 0.29898683446605401 0 -0.1140091935094968 0.31624176340514909 0 -0.121920939071476 0.29491566814169468 0 -0.097370740223619079 0.29898683446605401 0 -0.10116798111750901 0.28228631079225319 0 -0.097370740223619079 0.29898683446605401 0 -0.080732286937741399 0.28173190552695909 0 -0.097370740223619079 0.29898683446605401 0 -0.10116798111750901 0.28228631079225319 0 -0.080732286937741399 0.28173190552695909 0 -0.097370740223619079 0.29898683446605401 0 -0.080732286937741399 0.28173190552695909 0 -0.081824873239436741 0.30383274221507978 0 -0.097370740223619079 0.29898683446605401 0 -0.081824873239436741 0.30383274221507978 0 -0.093463513036548915 0.3159673763270946 0 -0.081824873239436741 0.30383274221507978 0 -0.081701408254608282 0.31567987905924672 0 -0.093463513036548915 0.3159673763270946 0 -0.068502971550993663 0.29544254761577998 0 -0.058089830928088587 0.30333851896369718 0 -0.069430116299575059 0.31375417513175091 0 -0.081824873239436741 0.30383274221507978 0 -0.068502971550993663 0.29544254761577998 0 -0.069430116299575059 0.31375417513175091 0 -0.081824873239436741 0.30383274221507978 0 -0.069430116299575059 0.31375417513175091 0 -0.081701408254608282 0.31567987905924672 0 -0.067923421047586557 0.2856016801063358 0 -0.071900666683963249 0.2725730626178432 0 -0.050557759017647787 0.29265920466476092 0 -0.080732286937741399 0.28173190552695909 0 -0.081824873239436741 0.30383274221507978 0 -0.068502971550993663 0.29544254761577998 0 -0.080732286937741399 0.28173190552695909 0 -0.068502971550993663 0.29544254761577998 0 -0.067923421047586557 0.2856016801063358 0 -0.080732286937741399 0.28173190552695909 0 -0.068502971550993663 0.29544254761577998 0 -0.065409764072275917 0.2658416638879923 0 -0.071900666683963249 0.2725730626178432 0 -0.057451273277745907 0.27844192583535621 0 -0.065409764072275917 0.2658416638879923 0 -0.071900666683963249 0.2725730626178432 0 -0.071900666683963249 0.2725730626178432 0 -0.081554265567138448 0.27313369712059249 0 -0.078466723417477346 0.26630618238209808 0 -0.065409764072275917 0.2658416638879923 0 -0.071900666683963249 0.2725730626178432 0 -0.078466723417477346 0.26630618238209808 0 -0.080732286937741399 0.28173190552695909 0 -0.071900666683963249 0.2725730626178432 0 -0.080732286937741399 0.28173190552695909 0 -0.067923421047586557 0.2856016801063358 0 -0.071900666683963249 0.2725730626178432 0 -0.080732286937741399 0.28173190552695909 0 -0.071900666683963249 0.2725730626178432 0 -0.081554265567138448 0.27313369712059249 0 -0.097456391861015401 0.26298202381997121 0 -0.10116798111750901 0.28228631079225319 0 -0.080732286937741399 0.28173190552695909 0 -0.097456391861015401 0.26298202381997121 0 -0.080732286937741399 0.28173190552695909 0 -0.097456391861015401 0.26298202381997121 0 -0.080732286937741399 0.28173190552695909 0 -0.081554265567138448 0.27313369712059249 0 -0.097456391861015401 0.26298202381997121 0 -0.081554265567138448 0.27313369712059249 0 -0.086086687715366303 0.26390499697213587 0 -0.081554265567138448 0.27313369712059249 0 -0.078466723417477346 0.26630618238209808 0 -0.086086687715366303 0.26390499697213587 0 -0.097456391861015401 0.26298202381997121 0 -0.087044737653767065 0.25214828806328349 0 -0.086086687715366303 0.26390499697213587 0 -0.078466723417477346 0.26630618238209808 0 -0.087044737653767065 0.25214828806328349 0 -0.086086687715366303 0.26390499697213587 0 -0.065409764072275917 0.2658416638879923 0 -0.078466723417477346 0.26630618238209808 0 -0.087044737653767065 0.25214828806328349 0 -0.065409764072275917 0.2658416638879923 0 -0.087044737653767065 0.25214828806328349 0 -0.065409764072275917 0.2658416638879923 0 -0.058299821849755483 0.25846828934993937 0 -0.078116512866455143 0.24348422504824679 0 -0.065409764072275917 0.2658416638879923 0 -0.087044737653767065 0.25214828806328349 0 -0.078116512866455143 0.24348422504824679 0 -0.058299821849755483 0.25846828934993937 0 -0.078116512866455143 0.24348422504824679 0 -0.065409764072275917 0.2658416638879923 0 -0.058299821849755483 0.25846828934993937 0 -0.045561351254967589 0.26810027393993319 0 -0.065409764072275917 0.2658416638879923 0 -0.058299821849755483 0.25846828934993937 0 -0.058299821849755483 0.25846828934993937 0 -0.045561351254967589 0.26810027393993319 0 -0.058299821849755483 0.25846828934993937 0 -0.045561351254967589 0.26810027393993319 0 -0.046853307711298579 0.25653683229774388 0 -0.058299821849755483 0.25846828934993937 0 -0.046853307711298579 0.25653683229774388 0 -0.044892061925858907 0.24456375503149719 0 -0.058299821849755483 0.25846828934993937 0 -0.044892061925858907 0.24456375503149719 0 -0.065409764072275917 0.2658416638879923 0 -0.041135899874665871 0.28120526689512709 0 -0.045561351254967589 0.26810027393993319 0 -0.057451273277745907 0.27844192583535621 0 -0.041135899874665871 0.28120526689512709 0 -0.051336649199088223 0.28346079937728341 0 -0.071900666683963249 0.2725730626178432 0 -0.057451273277745907 0.27844192583535621 0 -0.050557759017647787 0.29265920466476092 0 -0.065409764072275917 0.2658416638879923 0 -0.041135899874665871 0.28120526689512709 0 -0.065409764072275917 0.2658416638879923 0 -0.057451273277745907 0.27844192583535621 0 -0.041135899874665871 0.28120526689512709 0 -0.041135899874665871 0.28120526689512709 0 -0.045561351254967589 0.26810027393993319 0 -0.033110376280382901 0.26603233970244777 0 -0.033110376280382901 0.26603233970244777 0 -0.038659995814612318 0.25501501086960582 0 -0.024465366376561999 0.25025365184763543 0 -0.046853307711298579 0.25653683229774388 0 -0.038659995814612318 0.25501501086960582 0 -0.044892061925858907 0.24456375503149719 0 -0.045561351254967589 0.26810027393993319 0 -0.046853307711298579 0.25653683229774388 0 -0.038659995814612318 0.25501501086960582 0 -0.045561351254967589 0.26810027393993319 0 -0.033110376280382901 0.26603233970244777 0 -0.038659995814612318 0.25501501086960582 0 -0.038659995814612318 0.25501501086960582 0 -0.024465366376561999 0.25025365184763543 0 -0.024465366376561999 0.25025365184763543 0 -0.015729268081106241 0.27558749495993962 0 -0.033110376280382901 0.26603233970244777 0 -0.024465366376561999 0.25025365184763543 0 -0.015729268081106241 0.27558749495993962 0 -0.024465366376561999 0.25025365184763543 0 -0.015729268081106241 0.27558749495993962 0 -0.0068442732680598682 0.25889238487297322 0 -0.041135899874665871 0.28120526689512709 0 -0.033110376280382901 0.26603233970244777 0 -0.015729268081106241 0.27558749495993962 0 -0.041135899874665871 0.28120526689512709 0 -0.015729268081106241 0.27558749495993962 0 -0.015729268081106241 0.27558749495993962 0 0.0050476956563778666 0.27099340926092869 0 -0.015729268081106241 0.27558749495993962 0 -0.0068442732680598682 0.25889238487297322 0 0.0050476956563778666 0.27099340926092869 0 -0.015729268081106241 0.27558749495993962 0 -0.0015968096670608981 0.28409336910615418 0 0.0050476956563778666 0.27099340926092869 0 -0.024465366376561999 0.25025365184763543 0 -0.0068442732680598682 0.25889238487297322 0 -0.0016943515121305051 0.24261548295161911 0 -0.0061577787836646402 0.30334389146692581 0 -0.023646839329165979 0.29227457918102773 0 -0.0061577787836646402 0.30334389146692581 0 -0.01817368168394282 0.30639406906600142 0 -0.01218415074956964 0.3156944671292089 0 -0.015729268081106241 0.27558749495993962 0 -0.0061577787836646402 0.30334389146692581 0 -0.023646839329165979 0.29227457918102773 0 -0.015729268081106241 0.27558749495993962 0 -0.0061577787836646402 0.30334389146692581 0 -0.0015968096670608981 0.28409336910615418 0 -0.015729268081106241 0.27558749495993962 0 -0.0061577787836646402 0.30334389146692581 0 -0.041135899874665871 0.28120526689512709 0 -0.015729268081106241 0.27558749495993962 0 -0.023646839329165979 0.29227457918102773 0 -0.01817368168394282 0.30639406906600142 0 -0.029214851351332109 0.31274534671167831 0 -0.01218415074956964 0.3156944671292089 0 -0.023646839329165979 0.29227457918102773 0 -0.01817368168394282 0.30639406906600142 0 -0.029214851351332109 0.31274534671167831 0 -0.0061577787836646402 0.30334389146692581 0 -0.023646839329165979 0.29227457918102773 0 -0.01817368168394282 0.30639406906600142 0 -0.023646839329165979 0.29227457918102773 0 -0.036138837393203282 0.294721099363149 0 -0.029214851351332109 0.31274534671167831 0 -0.050557759017647787 0.29265920466476092 0 -0.029214851351332109 0.31274534671167831 0 -0.046292902515910873 0.30511450045719241 0 -0.040558308507263899 0.31683591709170211 0 -0.029214851351332109 0.31274534671167831 0 -0.046292902515910873 0.30511450045719241 0 -0.050557759017647787 0.29265920466476092 0 -0.029214851351332109 0.31274534671167831 0 -0.036138837393203282 0.294721099363149 0 -0.050557759017647787 0.29265920466476092 0 -0.029214851351332109 0.31274534671167831 0 -0.046292902515910873 0.30511450045719241 0 -0.051200844485970232 0.31388163799133018 0 -0.040558308507263899 0.31683591709170211 0 -0.041135899874665871 0.28120526689512709 0 -0.023646839329165979 0.29227457918102773 0 -0.041135899874665871 0.28120526689512709 0 -0.023646839329165979 0.29227457918102773 0 -0.036138837393203282 0.294721099363149 0 -0.041135899874665871 0.28120526689512709 0 -0.036138837393203282 0.294721099363149 0 -0.050557759017647787 0.29265920466476092 0 -0.041135899874665871 0.28120526689512709 0 -0.051336649199088223 0.28346079937728341 0 -0.068502971550993663 0.29544254761577998 0 -0.067923421047586557 0.2856016801063358 0 -0.050557759017647787 0.29265920466476092 0 -0.071900666683963249 0.2725730626178432 0 -0.050557759017647787 0.29265920466476092 0 -0.041135899874665871 0.28120526689512709 0 -0.051336649199088223 0.28346079937728341 0 -0.050557759017647787 0.29265920466476092 0 -0.057451273277745907 0.27844192583535621 0 -0.051336649199088223 0.28346079937728341 0 -0.050557759017647787 0.29265920466476092 0 -0.058089830928088587 0.30333851896369718 0 -0.051200844485970232 0.31388163799133018 0 -0.069430116299575059 0.31375417513175091 0 -0.068502971550993663 0.29544254761577998 0 -0.050557759017647787 0.29265920466476092 0 -0.058089830928088587 0.30333851896369718 0 -0.046292902515910873 0.30511450045719241 0 -0.058089830928088587 0.30333851896369718 0 -0.051200844485970232 0.31388163799133018 0 -0.046292902515910873 0.30511450045719241 0 -0.050557759017647787 0.29265920466476092 0 -0.058089830928088587 0.30333851896369718 0 -0.059798842925392698 0.32285217784933501 0 -0.051200844485970232 0.31388163799133018 0 -0.069430116299575059 0.31375417513175091 0 -0.059798842925392698 0.32285217784933501 0 -0.055015542538150448 0.3347956546812425 0 -0.044284817400067518 0.32514804328789709 0 -0.059798842925392698 0.32285217784933501 0 -0.051200844485970232 0.31388163799133018 0 -0.044284817400067518 0.32514804328789709 0 -0.055015542538150448 0.3347956546812425 0 -0.027943954633428459 0.34042608679942338 0 -0.055015542538150448 0.3347956546812425 0 -0.044284817400067518 0.32514804328789709 0 -0.027943954633428459 0.34042608679942338 0 -0.055015542538150448 0.3347956546812425 0 -0.027943954633428459 0.34042608679942338 0 -0.039873019528380002 0.34944766097257129 0 -0.044284817400067518 0.32514804328789709 0 -0.031798126783038748 0.32729005701041231 0 -0.027943954633428459 0.34042608679942338 0 -0.051200844485970232 0.31388163799133018 0 -0.040558308507263899 0.31683591709170211 0 -0.044284817400067518 0.32514804328789709 0 -0.040558308507263899 0.31683591709170211 0 -0.044284817400067518 0.32514804328789709 0 -0.031798126783038748 0.32729005701041231 0 -0.040558308507263899 0.31683591709170211 0 -0.031798126783038748 0.32729005701041231 0 -0.029214851351332109 0.31274534671167831 0 -0.029214851351332109 0.31274534671167831 0 -0.0078719436850164318 0.33283148875859558 0 -0.01218415074956964 0.3156944671292089 0 -0.029214851351332109 0.31274534671167831 0 -0.01219148677394615 0.33499707161792591 0 -0.0078719436850164318 0.33283148875859558 0 -0.031798126783038748 0.32729005701041231 0 -0.029214851351332109 0.31274534671167831 0 -0.01219148677394615 0.33499707161792591 0 -0.029214851351332109 0.31274534671167831 0 -0.0078719436850164318 0.33283148875859558 0 -0.031798126783038748 0.32729005701041231 0 -0.027943954633428459 0.34042608679942338 0 -0.01219148677394615 0.33499707161792591 0 -0.027943954633428459 0.34042608679942338 0 -0.01219148677394615 0.33499707161792591 0 -0.018152401783724591 0.34417859738586448 0 -0.031798126783038748 0.32729005701041231 0 -0.01219148677394615 0.33499707161792591 0 -0.01219148677394615 0.33499707161792591 0 -0.0078719436850164318 0.33283148875859558 0 0.0074151532351464664 0.34270408622543969 0 -0.01219148677394615 0.33499707161792591 0 -0.0049384562616072219 0.34533851368489599 0 0.0074151532351464664 0.34270408622543969 0 -0.01219148677394615 0.33499707161792591 0 0.0074151532351464664 0.34270408622543969 0 -0.01219148677394615 0.33499707161792591 0 -0.01197437040200474 0.34348471000948388 0 -0.018152401783724591 0.34417859738586448 0 -0.01219148677394615 0.33499707161792591 0 -0.01197437040200474 0.34348471000948388 0 -0.0049384562616072219 0.34533851368489599 0 -0.0078719436850164318 0.33283148875859558 0 -0.01218415074956964 0.3156944671292089 0 0.0006286872257408628 0.32302398884618277 0 -0.0061577787836646402 0.30334389146692581 0 -0.01218415074956964 0.3156944671292089 0 0.0006286872257408628 0.32302398884618277 0 -0.0061577787836646402 0.30334389146692581 0 0.0006286872257408628 0.32302398884618277 0 -0.01150740996854363 0.36305364278945901 0 -0.0040951106288660676 0.37133614209651378 0 -0.017453099586887101 0.3712797226141723 0 -0.01150740996854363 0.36305364278945901 0 -0.0040951106288660676 0.37133614209651378 0 -0.0026597542472774969 0.35654079684266787 0 -0.0026597542472774969 0.35654079684266787 0 -0.0049384562616072219 0.34533851368489599 0 -0.01391785513377084 0.35181947144254 0 -0.0026597542472774969 0.35654079684266787 0 -0.0049384562616072219 0.34533851368489599 0 0.0074151532351464664 0.34270408622543969 0 -0.01197437040200474 0.34348471000948388 0 -0.01391785513377084 0.35181947144254 0 -0.018152401783724591 0.34417859738586448 0 -0.01197437040200474 0.34348471000948388 0 -0.0049384562616072219 0.34533851368489599 0 -0.01391785513377084 0.35181947144254 0 -0.01150740996854363 0.36305364278945901 0 -0.0026597542472774969 0.35654079684266787 0 -0.01391785513377084 0.35181947144254 0 -0.01391785513377084 0.35181947144254 0 -0.02554854094111637 0.35166240586825581 0 -0.021714093392445809 0.36130974813692968 0 -0.01150740996854363 0.36305364278945901 0 -0.01391785513377084 0.35181947144254 0 -0.021714093392445809 0.36130974813692968 0 -0.01391785513377084 0.35181947144254 0 -0.018152401783724591 0.34417859738586448 0 -0.02554854094111637 0.35166240586825581 0 -0.027943954633428459 0.34042608679942338 0 -0.018152401783724591 0.34417859738586448 0 -0.02554854094111637 0.35166240586825581 0 -0.027943954633428459 0.34042608679942338 0 -0.02554854094111637 0.35166240586825581 0 -0.039873019528380002 0.34944766097257129 0 -0.02554854094111637 0.35166240586825581 0 -0.021714093392445809 0.36130974813692968 0 -0.033651762035849922 0.35920031016003212 0 -0.021714093392445809 0.36130974813692968 0 -0.029156257091195431 0.36935742413824751 0 -0.033651762035849922 0.35920031016003212 0 -0.01150740996854363 0.36305364278945901 0 -0.021714093392445809 0.36130974813692968 0 -0.017453099586887101 0.3712797226141723 0 -0.021714093392445809 0.36130974813692968 0 -0.017453099586887101 0.3712797226141723 0 -0.029156257091195431 0.36935742413824751 0 -0.017453099586887101 0.3712797226141723 0 -0.029156257091195431 0.36935742413824751 0 -0.023493358364835348 0.38091550949724451 0 -0.029156257091195431 0.36935742413824751 0 -0.041316285290137728 0.36865424108912542 0 -0.033202260816497353 0.37946580127792612 0 -0.029156257091195431 0.36935742413824751 0 -0.041316285290137728 0.36865424108912542 0 -0.033651762035849922 0.35920031016003212 0 -0.041316285290137728 0.36865424108912542 0 -0.04251499531287338 0.35751757360504299 0 -0.053470667228420837 0.35361035559307902 0 -0.041316285290137728 0.36865424108912542 0 -0.033651762035849922 0.35920031016003212 0 -0.04251499531287338 0.35751757360504299 0 -0.033651762035849922 0.35920031016003212 0 -0.04251499531287338 0.35751757360504299 0 -0.039873019528380002 0.34944766097257129 0 -0.02554854094111637 0.35166240586825581 0 -0.033651762035849922 0.35920031016003212 0 -0.039873019528380002 0.34944766097257129 0 -0.04251499531287338 0.35751757360504299 0 -0.039873019528380002 0.34944766097257129 0 -0.053470667228420837 0.35361035559307902 0 -0.055015542538150448 0.3347956546812425 0 -0.039873019528380002 0.34944766097257129 0 -0.053470667228420837 0.35361035559307902 0 -0.055015542538150448 0.3347956546812425 0 -0.053470667228420837 0.35361035559307902 0 -0.06794504310396085 0.34995998420417918 0 -0.053470667228420837 0.35361035559307902 0 -0.064328335524305211 0.36713464483317609 0 -0.06794504310396085 0.34995998420417918 0 -0.053470667228420837 0.35361035559307902 0 -0.064328335524305211 0.36713464483317609 0 -0.050425100696065553 0.37674066391385952 0 -0.041316285290137728 0.36865424108912542 0 -0.053470667228420837 0.35361035559307902 0 -0.050425100696065553 0.37674066391385952 0 -0.053470667228420837 0.35361035559307902 0 -0.050425100696065553 0.37674066391385952 0 -0.064328335524305211 0.36713464483317609 0 -0.076978665238896002 0.36490093296821152 0 -0.06794504310396085 0.34995998420417918 0 -0.064328335524305211 0.36713464483317609 0 -0.076978665238896002 0.36490093296821152 0 -0.074893732698437993 0.38005898358831569 0 -0.076978665238896002 0.36490093296821152 0 -0.085197551863877036 0.37033863689534569 0 -0.074893732698437993 0.38005898358831569 0 -0.085197551863877036 0.37033863689534569 0 -0.091003525474818242 0.35735973456781739 0 -0.097914284043355906 0.37903489645703842 0 -0.076978665238896002 0.36490093296821152 0 -0.085197551863877036 0.37033863689534569 0 -0.091003525474818242 0.35735973456781739 0 -0.091003525474818242 0.35735973456781739 0 -0.076723506685270615 0.34168337130962911 0 -0.088943786943345551 0.34267908382904833 0 -0.091003525474818242 0.35735973456781739 0 -0.06794504310396085 0.34995998420417918 0 -0.091003525474818242 0.35735973456781739 0 -0.06794504310396085 0.34995998420417918 0 -0.076723506685270615 0.34168337130962911 0 -0.076978665238896002 0.36490093296821152 0 -0.091003525474818242 0.35735973456781739 0 -0.06794504310396085 0.34995998420417918 0 -0.055015542538150448 0.3347956546812425 0 -0.082087130442872414 0.32916522256306158 0 -0.055015542538150448 0.3347956546812425 0 -0.06794504310396085 0.34995998420417918 0 -0.076723506685270615 0.34168337130962911 0 -0.055015542538150448 0.3347956546812425 0 -0.076723506685270615 0.34168337130962911 0 -0.082087130442872414 0.32916522256306158 0 -0.059798842925392698 0.32285217784933501 0 -0.055015542538150448 0.3347956546812425 0 -0.082087130442872414 0.32916522256306158 0 -0.059798842925392698 0.32285217784933501 0 -0.069430116299575059 0.31375417513175091 0 -0.082087130442872414 0.32916522256306158 0 -0.069430116299575059 0.31375417513175091 0 -0.081701408254608282 0.31567987905924672 0 -0.082087130442872414 0.32916522256306158 0 -0.081701408254608282 0.31567987905924672 0 -0.093463513036548915 0.3159673763270946 0 -0.082087130442872414 0.32916522256306158 0 -0.082087130442872414 0.32916522256306158 0 -0.088943786943345551 0.34267908382904833 0 -0.10086189491088721 0.33501883894804507 0 -0.076723506685270615 0.34168337130962911 0 -0.082087130442872414 0.32916522256306158 0 -0.088943786943345551 0.34267908382904833 0 -0.088943786943345551 0.34267908382904833 0 -0.1116061272731196 0.34425367084198261 0 -0.088943786943345551 0.34267908382904833 0 -0.10086189491088721 0.33501883894804507 0 -0.1116061272731196 0.34425367084198261 0 -0.082087130442872414 0.32916522256306158 0 -0.10086189491088721 0.33501883894804507 0 -0.10915871834759421 0.32353479044488059 0 -0.10086189491088721 0.33501883894804507 0 -0.10915871834759421 0.32353479044488059 0 -0.1097331637300632 0.33300611617011561 0 -0.10086189491088721 0.33501883894804507 0 -0.1097331637300632 0.33300611617011561 0 -0.1116061272731196 0.34425367084198261 0 -0.082087130442872414 0.32916522256306158 0 -0.10915871834759421 0.32353479044488059 0 -0.093463513036548915 0.3159673763270946 0 -0.10915871834759421 0.32353479044488059 0 -0.10375535698213249 0.31468160148898439 0 -0.093463513036548915 0.3159673763270946 0 -0.082087130442872414 0.32916522256306158 0 -0.10915871834759421 0.32353479044488059 0 -0.10915871834759421 0.32353479044488059 0 -0.10375535698213249 0.31468160148898439 0 -0.1140091935094968 0.31624176340514909 0 -0.13623030625231569 0.31790435832669828 0 -0.10915871834759421 0.32353479044488059 0 -0.1140091935094968 0.31624176340514909 0 -0.13623030625231569 0.31790435832669828 0 -0.10915871834759421 0.32353479044488059 0 -0.13623030625231569 0.31790435832669828 0 -0.1242508066889408 0.30716123372168158 0 -0.1140091935094968 0.31624176340514909 0 -0.1342684676028936 0.34582825785491689 0 -0.1189291387869567 0.33399533644656082 0 -0.1116061272731196 0.34425367084198261 0 -0.13138353846333151 0.32894467408798761 0 -0.10915871834759421 0.32353479044488059 0 -0.1189291387869567 0.33399533644656082 0 -0.1097331637300632 0.33300611617011561 0 -0.1189291387869567 0.33399533644656082 0 -0.1116061272731196 0.34425367084198261 0 -0.10915871834759421 0.32353479044488059 0 -0.1097331637300632 0.33300611617011561 0 -0.1189291387869567 0.33399533644656082 0 -0.1342684676028936 0.34582825785491689 0 -0.1116061272731196 0.34425367084198261 0 -0.12848952486178769 0.35915399149691962 0 -0.1116061272731196 0.34425367084198261 0 -0.11406200784567561 0.36475948493145582 0 -0.1342684676028936 0.34582825785491689 0 -0.12848952486178769 0.35915399149691962 0 -0.1116061272731196 0.34425367084198261 0 -0.13712049021653289 0.37215923529509443 0 -0.11406200784567561 0.36475948493145582 0 -0.12095524285709421 0.37693910849459628 0 -0.11406200784567561 0.36475948493145582 0 -0.097914284043355906 0.37903489645703842 0 -0.12095524285709421 0.37693910849459628 0 -0.091003525474818242 0.35735973456781739 0 -0.11406200784567561 0.36475948493145582 0 -0.097914284043355906 0.37903489645703842 0 -0.091003525474818242 0.35735973456781739 0 -0.11406200784567561 0.36475948493145582 0 -0.091003525474818242 0.35735973456781739 0 -0.088943786943345551 0.34267908382904833 0 -0.1116061272731196 0.34425367084198261 0 -0.091003525474818242 0.35735973456781739 0 -0.1116061272731196 0.34425367084198261 0 -0.11406200784567561 0.36475948493145582 0 -0.10601002142482829 0.40104061055430218 0 -0.097914284043355906 0.37903489645703842 0 -0.089105108865143889 0.40050962393224537 0 -0.10601002142482829 0.40104061055430218 0 -0.097914284043355906 0.37903489645703842 0 -0.12134371811491849 0.39187501852612899 0 -0.097914284043355906 0.37903489645703842 0 -0.12095524285709421 0.37693910849459628 0 -0.12134371811491849 0.39187501852612899 0 -0.10601002142482829 0.40104061055430218 0 -0.12134371811491849 0.39187501852612899 0 -0.11837051106887329 0.412823249579923 0 -0.13455873223935641 0.40552006203737279 0 -0.12134371811491849 0.39187501852612899 0 -0.11837051106887329 0.412823249579923 0 -0.13319822975466461 0.42136570043816263 0 -0.11837051106887329 0.412823249579923 0 -0.1175278611985557 0.4414109046201049 0 -0.1033164850318498 0.42096026427617522 0 -0.1175278611985557 0.4414109046201049 0 -0.11837051106887329 0.412823249579923 0 -0.1033164850318498 0.42096026427617522 0 -0.1175278611985557 0.4414109046201049 0 -0.1033164850318498 0.42096026427617522 0 -0.089870512359892352 0.433370358028003 0 -0.1175278611985557 0.4414109046201049 0 -0.10601002142482829 0.40104061055430218 0 -0.1033164850318498 0.42096026427617522 0 -0.089105108865143889 0.40050962393224537 0 -0.10601002142482829 0.40104061055430218 0 -0.11837051106887329 0.412823249579923 0 -0.1033164850318498 0.42096026427617522 0 -0.1033164850318498 0.42096026427617522 0 -0.089105108865143889 0.40050962393224537 0 -0.082240009705167316 0.41886864915647343 0 -0.075476201693077768 0.40595760849680668 0 -0.089105108865143889 0.40050962393224537 0 -0.1033164850318498 0.42096026427617522 0 -0.082240009705167316 0.41886864915647343 0 -0.089105108865143889 0.40050962393224537 0 -0.082240009705167316 0.41886864915647343 0 -0.089870512359892352 0.433370358028003 0 -0.069109660277526422 0.43106743025469879 0 -0.1033164850318498 0.42096026427617522 0 -0.082240009705167316 0.41886864915647343 0 -0.089870512359892352 0.433370358028003 0 -0.089870512359892352 0.433370358028003 0 -0.069109660277526422 0.43106743025469879 0 -0.077913462099598249 0.44765212887725458 0 -0.082240009705167316 0.41886864915647343 0 -0.069109660277526422 0.43106743025469879 0 -0.065444464613106906 0.41636926626404258 0 -0.069109660277526422 0.43106743025469879 0 -0.065444464613106906 0.41636926626404258 0 -0.057171356976643557 0.42371005131023332 0 -0.082240009705167316 0.41886864915647343 0 -0.065444464613106906 0.41636926626404258 0 -0.075476201693077768 0.40595760849680668 0 -0.065444464613106906 0.41636926626404258 0 -0.075476201693077768 0.40595760849680668 0 -0.059863154064763349 0.40405847321909738 0 -0.069066470696477408 0.39464204112102169 0 -0.075476201693077768 0.40595760849680668 0 -0.089105108865143889 0.40050962393224537 0 -0.069066470696477408 0.39464204112102169 0 -0.075476201693077768 0.40595760849680668 0 -0.059863154064763349 0.40405847321909738 0 -0.069066470696477408 0.39464204112102169 0 -0.089105108865143889 0.40050962393224537 0 -0.074893732698437993 0.38005898358831569 0 -0.097914284043355906 0.37903489645703842 0 -0.089105108865143889 0.40050962393224537 0 -0.074893732698437993 0.38005898358831569 0 -0.089105108865143889 0.40050962393224537 0 -0.074893732698437993 0.38005898358831569 0 -0.085197551863877036 0.37033863689534569 0 -0.097914284043355906 0.37903489645703842 0 -0.074893732698437993 0.38005898358831569 0 -0.069066470696477408 0.39464204112102169 0 -0.063280169545429574 0.38205047833469119 0 -0.057687208111861787 0.39167605821708268 0 -0.069066470696477408 0.39464204112102169 0 -0.074893732698437993 0.38005898358831569 0 -0.063280169545429574 0.38205047833469119 0 -0.064328335524305211 0.36713464483317609 0 -0.074893732698437993 0.38005898358831569 0 -0.063280169545429574 0.38205047833469119 0 -0.050425100696065553 0.37674066391385952 0 -0.047379534163710241 0.39987097223464019 0 -0.042904939144900102 0.38381305785791869 0 -0.064328335524305211 0.36713464483317609 0 -0.063280169545429574 0.38205047833469119 0 -0.050425100696065553 0.37674066391385952 0 -0.050425100696065553 0.37674066391385952 0 -0.057687208111861787 0.39167605821708268 0 -0.047379534163710241 0.39987097223464019 0 -0.050425100696065553 0.37674066391385952 0 -0.047379534163710241 0.39987097223464019 0 -0.063280169545429574 0.38205047833469119 0 -0.050425100696065553 0.37674066391385952 0 -0.057687208111861787 0.39167605821708268 0 -0.059863154064763349 0.40405847321909738 0 -0.057687208111861787 0.39167605821708268 0 -0.047379534163710241 0.39987097223464019 0 -0.069066470696477408 0.39464204112102169 0 -0.059863154064763349 0.40405847321909738 0 -0.057687208111861787 0.39167605821708268 0 -0.059863154064763349 0.40405847321909738 0 -0.047379534163710241 0.39987097223464019 0 -0.054838495489915783 0.41340200871668681 0 -0.047379534163710241 0.39987097223464019 0 -0.041941013417537892 0.39409130834366402 0 -0.042904939144900102 0.38381305785791869 0 -0.047379534163710241 0.39987097223464019 0 -0.041941013417537892 0.39409130834366402 0 -0.044333967631354852 0.42300128055542069 0 -0.041941013417537892 0.39409130834366402 0 -0.0321512849889449 0.38798128927479469 0 -0.030346270368169909 0.397341035026267 0 -0.041941013417537892 0.39409130834366402 0 -0.030346270368169909 0.397341035026267 0 -0.032676501402447773 0.40892561308024111 0 -0.041316285290137728 0.36865424108912542 0 -0.050425100696065553 0.37674066391385952 0 -0.042904939144900102 0.38381305785791869 0 -0.041316285290137728 0.36865424108912542 0 -0.042904939144900102 0.38381305785791869 0 -0.033202260816497353 0.37946580127792612 0 -0.042904939144900102 0.38381305785791869 0 -0.0321512849889449 0.38798128927479469 0 -0.033202260816497353 0.37946580127792612 0 -0.041941013417537892 0.39409130834366402 0 -0.042904939144900102 0.38381305785791869 0 -0.0321512849889449 0.38798128927479469 0 -0.029156257091195431 0.36935742413824751 0 -0.033202260816497353 0.37946580127792612 0 -0.023493358364835348 0.38091550949724451 0 -0.0321512849889449 0.38798128927479469 0 -0.033202260816497353 0.37946580127792612 0 -0.023493358364835348 0.38091550949724451 0 -0.017453099586887101 0.3712797226141723 0 -0.023493358364835348 0.38091550949724451 0 -0.011818213619636459 0.38342806084431269 0 -0.023493358364835348 0.38091550949724451 0 -0.021826765665400691 0.39189973474065071 0 -0.011818213619636459 0.38342806084431269 0 -0.0321512849889449 0.38798128927479469 0 -0.023493358364835348 0.38091550949724451 0 -0.021826765665400691 0.39189973474065071 0 -0.0321512849889449 0.38798128927479469 0 -0.030346270368169909 0.397341035026267 0 -0.021826765665400691 0.39189973474065071 0 -0.030346270368169909 0.397341035026267 0 -0.02158487318609709 0.40356320756430791 0 -0.021826765665400691 0.39189973474065071 0 -0.030346270368169909 0.397341035026267 0 -0.02158487318609709 0.40356320756430791 0 -0.032676501402447773 0.40892561308024111 0 -0.02158487318609709 0.40356320756430791 0 -0.021826765665400691 0.39189973474065071 0 -0.0099595351147708355 0.39681772437228241 0 -0.021826765665400691 0.39189973474065071 0 -0.0099595351147708355 0.39681772437228241 0 -0.011818213619636459 0.38342806084431269 0 -0.02158487318609709 0.40356320756430791 0 -0.0099595351147708355 0.39681772437228241 0 -0.01128960274838442 0.41073484605788119 0 -0.0099595351147708355 0.39681772437228241 0 -0.01128960274838442 0.41073484605788119 0 0.0015547186551458239 0.40285050976993431 0 -0.0099595351147708355 0.39681772437228241 0 0.0050432354589277101 0.3876212825422774 0 0.0015547186551458239 0.40285050976993431 0 -0.0040951106288660676 0.37133614209651378 0 -0.011818213619636459 0.38342806084431269 0 0.0050432354589277101 0.3876212825422774 0 -0.0099595351147708355 0.39681772437228241 0 -0.011818213619636459 0.38342806084431269 0 0.0050432354589277101 0.3876212825422774 0 -0.0040951106288660676 0.37133614209651378 0 -0.017453099586887101 0.3712797226141723 0 -0.011818213619636459 0.38342806084431269 0 -0.0091592468632384835 0.42554395646719212 0 -0.00084691739483921545 0.4408673733694996 0 0.0076792313090766938 0.42012187637586351 0 -0.0091592468632384835 0.42554395646719212 0 -0.016376465166445409 0.43373577637477112 0 -0.00084691739483921545 0.4408673733694996 0 -0.0091592468632384835 0.42554395646719212 0 -0.01128960274838442 0.41073484605788119 0 0.0076792313090766938 0.42012187637586351 0 -0.01128960274838442 0.41073484605788119 0 0.0076792313090766938 0.42012187637586351 0 0.0015547186551458239 0.40285050976993431 0 -0.0091592468632384835 0.42554395646719212 0 -0.01128960274838442 0.41073484605788119 0 -0.021400028338415259 0.41600239549301171 0 -0.02158487318609709 0.40356320756430791 0 -0.01128960274838442 0.41073484605788119 0 -0.021400028338415259 0.41600239549301171 0 -0.02158487318609709 0.40356320756430791 0 -0.021400028338415259 0.41600239549301171 0 -0.032676501402447773 0.40892561308024111 0 -0.021400028338415259 0.41600239549301171 0 -0.0309587753365623 0.42136361695438418 0 -0.02273117049376153 0.42588313283406382 0 -0.021400028338415259 0.41600239549301171 0 -0.0309587753365623 0.42136361695438418 0 -0.032676501402447773 0.40892561308024111 0 -0.0309587753365623 0.42136361695438418 0 -0.02273117049376153 0.42588313283406382 0 -0.031573218997496669 0.43368472649130768 0 -0.0091592468632384835 0.42554395646719212 0 -0.021400028338415259 0.41600239549301171 0 -0.02273117049376153 0.42588313283406382 0 -0.0091592468632384835 0.42554395646719212 0 -0.02273117049376153 0.42588313283406382 0 -0.016376465166445409 0.43373577637477112 0 -0.016376465166445409 0.43373577637477112 0 -0.031573218997496669 0.43368472649130768 0 -0.020210208904485931 0.44413547107738521 0 -0.02273117049376153 0.42588313283406382 0 -0.016376465166445409 0.43373577637477112 0 -0.031573218997496669 0.43368472649130768 0 -0.044333967631354852 0.42300128055542069 0 -0.046458429608278562 0.44866752037028013 0 -0.044333967631354852 0.42300128055542069 0 -0.042298351411919267 0.43846127142349622 0 -0.046458429608278562 0.44866752037028013 0 -0.0309587753365623 0.42136361695438418 0 -0.031573218997496669 0.43368472649130768 0 -0.044333967631354852 0.42300128055542069 0 -0.044333967631354852 0.42300128055542069 0 -0.042298351411919267 0.43846127142349622 0 -0.031573218997496669 0.43368472649130768 0 -0.044333967631354852 0.42300128055542069 0 -0.042298351411919267 0.43846127142349622 0 -0.047379534163710241 0.39987097223464019 0 -0.044333967631354852 0.42300128055542069 0 -0.041941013417537892 0.39409130834366402 0 -0.044333967631354852 0.42300128055542069 0 -0.041941013417537892 0.39409130834366402 0 -0.044333967631354852 0.42300128055542069 0 -0.032676501402447773 0.40892561308024111 0 -0.0309587753365623 0.42136361695438418 0 -0.044333967631354852 0.42300128055542069 0 -0.032676501402447773 0.40892561308024111 0 -0.047379534163710241 0.39987097223464019 0 -0.044333967631354852 0.42300128055542069 0 -0.054838495489915783 0.41340200871668681 0 -0.044333967631354852 0.42300128055542069 0 -0.054838495489915783 0.41340200871668681 0 -0.057171356976643557 0.42371005131023332 0 -0.065444464613106906 0.41636926626404258 0 -0.054838495489915783 0.41340200871668681 0 -0.057171356976643557 0.42371005131023332 0 -0.065444464613106906 0.41636926626404258 0 -0.059863154064763349 0.40405847321909738 0 -0.054838495489915783 0.41340200871668681 0 -0.044333967631354852 0.42300128055542069 0 -0.055583136046256192 0.43453567924055098 0 -0.046458429608278562 0.44866752037028013 0 -0.044333967631354852 0.42300128055542069 0 -0.057171356976643557 0.42371005131023332 0 -0.055583136046256192 0.43453567924055098 0 -0.069109660277526422 0.43106743025469879 0 -0.057171356976643557 0.42371005131023332 0 -0.055583136046256192 0.43453567924055098 0 -0.069109660277526422 0.43106743025469879 0 -0.055583136046256192 0.43453567924055098 0 -0.061521057125454782 0.44593011816145262 0 -0.061521057125454782 0.44593011816145262 0 -0.057358268953790502 0.46068635563573718 0 -0.046458429608278562 0.44866752037028013 0 -0.055583136046256192 0.43453567924055098 0 -0.061521057125454782 0.44593011816145262 0 -0.046458429608278562 0.44866752037028013 0 -0.057358268953790502 0.46068635563573718 0 -0.046458429608278562 0.44866752037028013 0 -0.048582891585202369 0.47433376018513929 0 -0.046458429608278562 0.44866752037028013 0 -0.048582891585202369 0.47433376018513929 0 -0.057358268953790502 0.46068635563573718 0 -0.058049415295551597 0.4718062458497424 0 -0.066712950110910954 0.46611603341811197 0 -0.061521057125454782 0.44593011816145262 0 -0.057358268953790502 0.46068635563573718 0 -0.066408536622156039 0.45560232473913032 0 -0.040671440250566897 0.46246388529265692 0 -0.046458429608278562 0.44866752037028013 0 -0.048582891585202369 0.47433376018513929 0 -0.040671440250566897 0.46246388529265692 0 -0.040262735192483613 0.45392126229157159 0 -0.046458429608278562 0.44866752037028013 0 -0.040262735192483613 0.45392126229157159 0 -0.034492966035142993 0.46045637123896471 0 -0.02673204504120829 0.45648573018124922 0 -0.040671440250566897 0.46246388529265692 0 -0.040262735192483613 0.45392126229157159 0 -0.034492966035142993 0.46045637123896471 0 -0.040671440250566897 0.46246388529265692 0 -0.034492966035142993 0.46045637123896471 0 -0.03127786019287386 0.46948540849011139 0 -0.040262735192483613 0.45392126229157159 0 -0.042298351411919267 0.43846127142349622 0 -0.040262735192483613 0.45392126229157159 0 -0.042298351411919267 0.43846127142349622 0 -0.046458429608278562 0.44866752037028013 0 -0.040262735192483613 0.45392126229157159 0 -0.032305656270306703 0.44538735992539902 0 -0.02673204504120829 0.45648573018124922 0 -0.040262735192483613 0.45392126229157159 0 -0.042298351411919267 0.43846127142349622 0 -0.032305656270306703 0.44538735992539902 0 -0.031573218997496669 0.43368472649130768 0 -0.042298351411919267 0.43846127142349622 0 -0.032305656270306703 0.44538735992539902 0 -0.020210208904485931 0.44413547107738521 0 -0.02673204504120829 0.45648573018124922 0 -0.01104422018460607 0.45437077053857911 0 -0.031573218997496669 0.43368472649130768 0 -0.032305656270306703 0.44538735992539902 0 -0.020210208904485931 0.44413547107738521 0 -0.032305656270306703 0.44538735992539902 0 -0.020210208904485931 0.44413547107738521 0 -0.02673204504120829 0.45648573018124922 0 -0.02673204504120829 0.45648573018124922 0 -0.013307687077326869 0.4692768327355169 0 -0.03127786019287386 0.46948540849011139 0 -0.02673204504120829 0.45648573018124922 0 -0.01104422018460607 0.45437077053857911 0 -0.013307687077326869 0.4692768327355169 0 -0.034492966035142993 0.46045637123896471 0 -0.02673204504120829 0.45648573018124922 0 -0.03127786019287386 0.46948540849011139 0 -0.01104422018460607 0.45437077053857911 0 -0.013307687077326869 0.4692768327355169 0 0.0058757574948299484 0.46108844532924459 0 -0.020210208904485931 0.44413547107738521 0 -0.01104422018460607 0.45437077053857911 0 -0.00084691739483921545 0.4408673733694996 0 -0.016376465166445409 0.43373577637477112 0 -0.020210208904485931 0.44413547107738521 0 -0.00084691739483921545 0.4408673733694996 0 -0.01104422018460607 0.45437077053857911 0 -0.00084691739483921545 0.4408673733694996 0 0.0058757574948299484 0.46108844532924459 0 -0.0090117406405110234 0.5 0 -0.020377105194307719 0.48476543392050642 0 0.001477654177906258 0.48188859204321582 0 -0.013307687077326869 0.4692768327355169 0 0.001477654177906258 0.48188859204321582 0 0.0058757574948299484 0.46108844532924459 0 -0.013307687077326869 0.4692768327355169 0 -0.020377105194307719 0.48476543392050642 0 0.001477654177906258 0.48188859204321582 0 -0.020377105194307719 0.48476543392050642 0 -0.036160951527165711 0.48571692051915138 0 -0.03127786019287386 0.46948540849011139 0 -0.013307687077326869 0.4692768327355169 0 -0.020377105194307719 0.48476543392050642 0 -0.03127786019287386 0.46948540849011139 0 -0.029859547101318551 0.5 0 -0.020377105194307719 0.48476543392050642 0 -0.036160951527165711 0.48571692051915138 0 -0.0090117406405110234 0.5 0 -0.029859547101318551 0.5 0 -0.020377105194307719 0.48476543392050642 0 -0.029859547101318551 0.5 0 -0.036160951527165711 0.48571692051915138 0 -0.050707353562126078 0.49999999999999872 0 -0.036160951527165711 0.48571692051915138 0 -0.048582891585202369 0.47433376018513929 0 -0.050707353562126078 0.49999999999999872 0 -0.036160951527165711 0.48571692051915138 0 -0.03127786019287386 0.46948540849011139 0 -0.048582891585202369 0.47433376018513929 0 -0.040671440250566897 0.46246388529265692 0 -0.03127786019287386 0.46948540849011139 0 -0.048582891585202369 0.47433376018513929 0 -0.057358268953790502 0.46068635563573718 0 -0.048582891585202369 0.47433376018513929 0 -0.058049415295551597 0.4718062458497424 0 -0.048582891585202369 0.47433376018513929 0 -0.058049415295551597 0.4718062458497424 0 -0.053704641902912478 0.4872055579001332 0 -0.058049415295551597 0.4718062458497424 0 -0.053704641902912478 0.4872055579001332 0 -0.0666637030430699 0.47742032421934261 0 -0.048582891585202369 0.47433376018513929 0 -0.050707353562126078 0.49999999999999872 0 -0.050707353562126078 0.49999999999999872 0 -0.053704641902912478 0.4872055579001332 0 -0.079800565407624591 0.5 0 -0.048582891585202369 0.47433376018513929 0 -0.050707353562126078 0.49999999999999872 0 -0.053704641902912478 0.4872055579001332 0 -0.053704641902912478 0.4872055579001332 0 -0.077655370498033879 0.4881543766640899 0 -0.053704641902912478 0.4872055579001332 0 -0.077655370498033879 0.4881543766640899 0 -0.079800565407624591 0.5 0 -0.077655370498033879 0.4881543766640899 0 -0.090028969794470198 0.47967397118892868 0 -0.10160609909315529 0.48910319542804659 0 -0.077655370498033879 0.4881543766640899 0 -0.079800565407624591 0.5 0 -0.10160609909315529 0.48910319542804659 0 -0.077655370498033879 0.4881543766640899 0 -0.10160609909315529 0.48910319542804659 0 -0.090775970390008356 0.47124748580582981 0 -0.090028969794470198 0.47967397118892868 0 -0.07862610992420839 0.47306901335557211 0 -0.077655370498033879 0.4881543766640899 0 -0.090028969794470198 0.47967397118892868 0 -0.07862610992420839 0.47306901335557211 0 -0.07862610992420839 0.47306901335557211 0 -0.0666637030430699 0.47742032421934261 0 -0.066712950110910954 0.46611603341811197 0 -0.053704641902912478 0.4872055579001332 0 -0.077655370498033879 0.4881543766640899 0 -0.0666637030430699 0.47742032421934261 0 -0.077655370498033879 0.4881543766640899 0 -0.07862610992420839 0.47306901335557211 0 -0.0666637030430699 0.47742032421934261 0 -0.058049415295551597 0.4718062458497424 0 -0.0666637030430699 0.47742032421934261 0 -0.066712950110910954 0.46611603341811197 0 -0.066712950110910954 0.46611603341811197 0 -0.066408536622156039 0.45560232473913032 0 -0.075121693438213469 0.46001081860804388 0 -0.057358268953790502 0.46068635563573718 0 -0.066712950110910954 0.46611603341811197 0 -0.066408536622156039 0.45560232473913032 0 -0.066408536622156039 0.45560232473913032 0 -0.075121693438213469 0.46001081860804388 0 -0.077913462099598249 0.44765212887725458 0 -0.07862610992420839 0.47306901335557211 0 -0.066712950110910954 0.46611603341811197 0 -0.075121693438213469 0.46001081860804388 0 -0.061521057125454782 0.44593011816145262 0 -0.066408536622156039 0.45560232473913032 0 -0.077913462099598249 0.44765212887725458 0 -0.069109660277526422 0.43106743025469879 0 -0.061521057125454782 0.44593011816145262 0 -0.077913462099598249 0.44765212887725458 0 -0.077913462099598249 0.44765212887725458 0 -0.086843044204485839 0.46022852823053928 0 -0.097952392471788996 0.44922419379675371 0 -0.089870512359892352 0.433370358028003 0 -0.077913462099598249 0.44765212887725458 0 -0.097952392471788996 0.44922419379675371 0 -0.07862610992420839 0.47306901335557211 0 -0.075121693438213469 0.46001081860804388 0 -0.086843044204485839 0.46022852823053928 0 -0.090775970390008356 0.47124748580582981 0 -0.07862610992420839 0.47306901335557211 0 -0.086843044204485839 0.46022852823053928 0 -0.075121693438213469 0.46001081860804388 0 -0.077913462099598249 0.44765212887725458 0 -0.086843044204485839 0.46022852823053928 0 -0.090775970390008356 0.47124748580582981 0 -0.086843044204485839 0.46022852823053928 0 -0.1008146509200961 0.46346090066412082 0 -0.086843044204485839 0.46022852823053928 0 -0.1008146509200961 0.46346090066412082 0 -0.097952392471788996 0.44922419379675371 0 -0.1008146509200961 0.46346090066412082 0 -0.097952392471788996 0.44922419379675371 0 -0.1131194325163646 0.45631275054256232 0 -0.1008146509200961 0.46346090066412082 0 -0.1131194325163646 0.45631275054256232 0 -0.11404333904963081 0.46904539662814981 0 -0.089870512359892352 0.433370358028003 0 -0.097952392471788996 0.44922419379675371 0 -0.1175278611985557 0.4414109046201049 0 -0.097952392471788996 0.44922419379675371 0 -0.1175278611985557 0.4414109046201049 0 -0.1131194325163646 0.45631275054256232 0 -0.1317392373652615 0.46186154496403459 0 -0.1175278611985557 0.4414109046201049 0 -0.1317392373652615 0.46186154496403459 0 -0.1175278611985557 0.4414109046201049 0 -0.1131194325163646 0.45631275054256232 0 -0.1317392373652615 0.46186154496403459 0 -0.1131194325163646 0.45631275054256232 0 -0.11404333904963081 0.46904539662814981 0 -0.1317392373652615 0.46186154496403459 0 -0.123806867802781 0.4760718409820987 0 -0.11404333904963081 0.46904539662814981 0 -0.11404333904963081 0.46904539662814981 0 -0.1131340972568312 0.48004591957323639 0 -0.101481299066945 0.47679578469110517 0 -0.123806867802781 0.4760718409820987 0 -0.11404333904963081 0.46904539662814981 0 -0.1131340972568312 0.48004591957323639 0 -0.12555682768827681 0.49005201419200328 0 -0.123806867802781 0.4760718409820987 0 -0.1131340972568312 0.48004591957323639 0 -0.12555682768827681 0.49005201419200328 0 -0.1131340972568312 0.48004591957323639 0 -0.10160609909315529 0.48910319542804659 0 -0.12555682768827681 0.49005201419200328 0 -0.1088937772531231 0.5 0 -0.10160609909315529 0.48910319542804659 0 -0.12555682768827681 0.49005201419200328 0 -0.10160609909315529 0.48910319542804659 0 -0.13798698909862159 0.5 0 -0.12555682768827681 0.49005201419200328 0 -0.1088937772531231 0.5 0 -0.079800565407624591 0.5 0 -0.1088937772531231 0.5 0 -0.10160609909315529 0.48910319542804659 0 -0.090028969794470198 0.47967397118892868 0 -0.10160609909315529 0.48910319542804659 0 -0.101481299066945 0.47679578469110517 0 -0.090775970390008356 0.47124748580582981 0 -0.1008146509200961 0.46346090066412082 0 -0.101481299066945 0.47679578469110517 0 -0.090775970390008356 0.47124748580582981 0 -0.090028969794470198 0.47967397118892868 0 -0.101481299066945 0.47679578469110517 0 -0.1008146509200961 0.46346090066412082 0 -0.11404333904963081 0.46904539662814981 0 -0.101481299066945 0.47679578469110517 0 -0.1131340972568312 0.48004591957323639 0 -0.10160609909315529 0.48910319542804659 0 -0.101481299066945 0.47679578469110517 0 -0.15893672766059891 0.081002415957317872 0 -0.1834719835649799 0.094039725009003955 0 -0.1550696317465656 0.099903497063514854 0 -0.15893672766059891 0.081002415957317872 0 -0.18101806657996769 0.068461102892013154 0 -0.15893672766059891 0.081002415957317872 0 -0.18101806657996769 0.068461102892013154 0 -0.15632353554356751 0.061822292454904823 0 -0.18101806657996769 0.068461102892013154 0 -0.1834719835649799 0.094039725009003955 0 -0.1978583999423312 0.073978744574475758 0 -0.15893672766059891 0.081002415957317872 0 -0.18101806657996769 0.068461102892013154 0 -0.1834719835649799 0.094039725009003955 0 -0.1834719835649799 0.094039725009003955 0 -0.16863157973025461 0.11256549434853839 0 -0.19465408951905891 0.1227150321092394 0 -0.16863157973025461 0.11256549434853839 0 -0.19465408951905891 0.1227150321092394 0 -0.16669483789776851 0.1310181808584352 0 -0.16863157973025461 0.11256549434853839 0 -0.14423480217978241 0.11586632156452741 0 -0.16669483789776851 0.1310181808584352 0 -0.1834719835649799 0.094039725009003955 0 -0.16863157973025461 0.11256549434853839 0 -0.1550696317465656 0.099903497063514854 0 -0.1550696317465656 0.099903497063514854 0 -0.14423480217978241 0.11586632156452741 0 -0.1368553887412301 0.093543729022622604 0 -0.16863157973025461 0.11256549434853839 0 -0.1550696317465656 0.099903497063514854 0 -0.14423480217978241 0.11586632156452741 0 -0.14423480217978241 0.11586632156452741 0 -0.12578778327086221 0.11214915239271379 0 -0.12680750173299621 0.1280196635453191 0 -0.14423480217978241 0.11586632156452741 0 -0.126845164628859 0.09474383118281135 0 -0.14423480217978241 0.11586632156452741 0 -0.12578778327086221 0.11214915239271379 0 -0.126845164628859 0.09474383118281135 0 -0.14423480217978241 0.11586632156452741 0 -0.126845164628859 0.09474383118281135 0 -0.1368553887412301 0.093543729022622604 0 -0.126845164628859 0.09474383118281135 0 -0.128183722873703 0.082113680407344514 0 -0.1368553887412301 0.093543729022622604 0 -0.128183722873703 0.082113680407344514 0 -0.1368553887412301 0.093543729022622604 0 -0.14249587348566831 0.078116534296629167 0 -0.15893672766059891 0.081002415957317872 0 -0.1550696317465656 0.099903497063514854 0 -0.1368553887412301 0.093543729022622604 0 -0.15893672766059891 0.081002415957317872 0 -0.1368553887412301 0.093543729022622604 0 -0.14249587348566831 0.078116534296629167 0 -0.15893672766059891 0.081002415957317872 0 -0.1368553887412301 0.093543729022622604 0 -0.15893672766059891 0.081002415957317872 0 -0.14249587348566831 0.078116534296629167 0 -0.15632353554356751 0.061822292454904823 0 -0.14249587348566831 0.078116534296629167 0 -0.13332120089659441 0.056566317059718783 0 -0.15632353554356751 0.061822292454904823 0 -0.128183722873703 0.082113680407344514 0 -0.14249587348566831 0.078116534296629167 0 -0.1252666604348221 0.070542966733564166 0 -0.14249587348566831 0.078116534296629167 0 -0.1252666604348221 0.070542966733564166 0 -0.13332120089659441 0.056566317059718783 0 -0.12626498513147269 0.036105804423548202 0 -0.1483348865387247 0.041312776747306483 0 -0.13963819918012241 0.0233285368401406 0 -0.13332120089659441 0.056566317059718783 0 -0.12626498513147269 0.036105804423548202 0 -0.1483348865387247 0.041312776747306483 0 -0.13332120089659441 0.056566317059718783 0 -0.12626498513147269 0.036105804423548202 0 -0.1194515709790074 0.047893840922291472 0 -0.13332120089659441 0.056566317059718783 0 -0.1483348865387247 0.041312776747306483 0 -0.15632353554356751 0.061822292454904823 0 -0.14047016804945769 -0.0074758196315650666 0 -0.13963819918012241 0.0233285368401406 0 -0.1244915024809136 0.0055457178453759536 0 -0.12626498513147269 0.036105804423548202 0 -0.13963819918012241 0.0233285368401406 0 -0.1157699872922227 0.02087568816518905 0 -0.13963819918012241 0.0233285368401406 0 -0.1244915024809136 0.0055457178453759536 0 -0.1157699872922227 0.02087568816518905 0 -0.13963819918012241 0.0233285368401406 0 -0.1157699872922227 0.02087568816518905 0 -0.13963819918012241 0.0233285368401406 0 -0.16350641106802191 0.025781385515092139 0 -0.13963819918012241 0.0233285368401406 0 -0.15807057612040709 0.0056900254344090127 0 -0.16350641106802191 0.025781385515092139 0 -0.1483348865387247 0.041312776747306483 0 -0.13963819918012241 0.0233285368401406 0 -0.16350641106802191 0.025781385515092139 0 -0.14047016804945769 -0.0074758196315650666 0 -0.13963819918012241 0.0233285368401406 0 -0.15807057612040709 0.0056900254344090127 0 -0.15807057612040709 0.0056900254344090127 0 -0.16350641106802191 0.025781385515092139 0 -0.1813814781297714 0.0029488196851056702 0 -0.16350641106802191 0.025781385515092139 0 -0.18737462295592139 0.028234234190043669 0 -0.1813814781297714 0.0029488196851056702 0 -0.16350641106802191 0.025781385515092139 0 -0.18737462295592139 0.028234234190043669 0 -0.18101806657996769 0.068461102892013154 0 -0.15632353554356751 0.061822292454904823 0 -0.17095498741256929 0.044272324190434392 0 -0.1483348865387247 0.041312776747306483 0 -0.15632353554356751 0.061822292454904823 0 -0.17095498741256929 0.044272324190434392 0 -0.1483348865387247 0.041312776747306483 0 -0.16350641106802191 0.025781385515092139 0 -0.17095498741256929 0.044272324190434392 0 -0.18737462295592139 0.028234234190043669 0 -0.17095498741256929 0.044272324190434392 0 -0.1882373863639607 0.046570297124538362 0 -0.16350641106802191 0.025781385515092139 0 -0.18737462295592139 0.028234234190043669 0 -0.17095498741256929 0.044272324190434392 0 -0.18101806657996769 0.068461102892013154 0 -0.17095498741256929 0.044272324190434392 0 -0.1882373863639607 0.046570297124538362 0 -0.18101806657996769 0.068461102892013154 0 -0.20309940549933639 0.055919789826708519 0 -0.18101806657996769 0.068461102892013154 0 -0.20309940549933639 0.055919789826708519 0 -0.1882373863639607 0.046570297124538362 0 -0.20309940549933639 0.055919789826708519 0 -0.1882373863639607 0.046570297124538362 0 -0.19873984937200881 0.035964034523492019 0 -0.18737462295592139 0.028234234190043669 0 -0.1882373863639607 0.046570297124538362 0 -0.19873984937200881 0.035964034523492019 0 -0.20309940549933639 0.055919789826708519 0 -0.2144378319107127 0.032037508478086368 0 -0.225180744418705 0.04337847676140387 0 -0.20309940549933639 0.055919789826708519 0 -0.19873984937200881 0.035964034523492019 0 -0.2144378319107127 0.032037508478086368 0 -0.20309940549933639 0.055919789826708519 0 -0.22855197990594131 0.057388979601981291 0 -0.21502266637022219 0.070566193672109034 0 -0.20309940549933639 0.055919789826708519 0 -0.225180744418705 0.04337847676140387 0 -0.20983365931182629 -0.00016337988532852399 0 -0.1813814781297714 0.0029488196851056702 0 -0.20117472954161161 0.020721930540142722 0 -0.1813814781297714 0.0029488196851056702 0 -0.20117472954161161 0.020721930540142722 0 -0.18737462295592139 0.028234234190043669 0 -0.1813814781297714 0.0029488196851056702 0 -0.20117472954161161 0.020721930540142722 0 -0.18737462295592139 0.028234234190043669 0 -0.19873984937200881 0.035964034523492019 0 -0.20117472954161161 0.020721930540142722 0 -0.19873984937200881 0.035964034523492019 0 -0.2144378319107127 0.032037508478086368 0 -0.20117472954161161 0.020721930540142722 0 -0.2144378319107127 0.032037508478086368 0 -0.20117472954161161 0.020721930540142722 0 -0.21275723036643909 0.017875608728573932 0 -0.2144378319107127 0.032037508478086368 0 -0.21275723036643909 0.017875608728573932 0 -0.2255827007016056 0.01890637578139517 0 -0.20983365931182629 -0.00016337988532852399 0 -0.21275723036643909 0.017875608728573932 0 -0.2255827007016056 0.01890637578139517 0 -0.20983365931182629 -0.00016337988532852399 0 -0.20117472954161161 0.020721930540142722 0 -0.21275723036643909 0.017875608728573932 0 -0.20983365931182629 -0.00016337988532852399 0 -0.2336961667985625 0.0057026258542819371 0 -0.2255827007016056 0.01890637578139517 0 -0.2336961667985625 0.0057026258542819371 0 -0.2255827007016056 0.01890637578139517 0 -0.24111857080777729 0.018963391924903261 0 -0.2144378319107127 0.032037508478086368 0 -0.2255827007016056 0.01890637578139517 0 -0.23239240689500251 0.031517243477729148 0 -0.2255827007016056 0.01890637578139517 0 -0.24111857080777729 0.018963391924903261 0 -0.23239240689500251 0.031517243477729148 0 -0.25920250293703168 0.018615480554748091 0 -0.24111857080777729 0.018963391924903261 0 -0.24701164898211991 0.03155230310963332 0 -0.24111857080777729 0.018963391924903261 0 -0.23239240689500251 0.031517243477729148 0 -0.24701164898211991 0.03155230310963332 0 -0.25920250293703168 0.018615480554748091 0 -0.24111857080777729 0.018963391924903261 0 -0.248825998532342 0.0074863227716318844 0 -0.2336961667985625 0.0057026258542819371 0 -0.24111857080777729 0.018963391924903261 0 -0.248825998532342 0.0074863227716318844 0 -0.2470035725250225 -0.0060353005064712022 0 -0.2336961667985625 0.0057026258542819371 0 -0.248825998532342 0.0074863227716318844 0 -0.20309940549933639 0.055919789826708519 0 -0.22855197990594131 0.057388979601981291 0 -0.225180744418705 0.04337847676140387 0 -0.22855197990594131 0.057388979601981291 0 -0.225180744418705 0.04337847676140387 0 -0.24110745163309169 0.04678577748804634 0 -0.225180744418705 0.04337847676140387 0 -0.23239240689500251 0.031517243477729148 0 -0.24110745163309169 0.04678577748804634 0 -0.2144378319107127 0.032037508478086368 0 -0.225180744418705 0.04337847676140387 0 -0.23239240689500251 0.031517243477729148 0 -0.23239240689500251 0.031517243477729148 0 -0.24110745163309169 0.04678577748804634 0 -0.24701164898211991 0.03155230310963332 0 -0.25574481582809111 0.044318768053857253 0 -0.24110745163309169 0.04678577748804634 0 -0.24701164898211991 0.03155230310963332 0 -0.25360119246043211 0.057810151226187878 0 -0.24110745163309169 0.04678577748804634 0 -0.24275588052096311 0.063339426952843059 0 -0.22855197990594131 0.057388979601981291 0 -0.24110745163309169 0.04678577748804634 0 -0.24275588052096311 0.063339426952843059 0 -0.25346816626772828 0.074268162720198885 0 -0.25360119246043211 0.057810151226187878 0 -0.24275588052096311 0.063339426952843059 0 -0.22855197990594131 0.057388979601981291 0 -0.24275588052096311 0.063339426952843059 0 -0.23956228633379059 0.081748857106415496 0 -0.25346816626772828 0.074268162720198885 0 -0.24275588052096311 0.063339426952843059 0 -0.23956228633379059 0.081748857106415496 0 -0.25678594610201788 0.09122962197432663 0 -0.25346816626772828 0.074268162720198885 0 -0.23956228633379059 0.081748857106415496 0 -0.25057259276164001 0.10610873461084951 0 -0.25678594610201788 0.09122962197432663 0 -0.23956228633379059 0.081748857106415496 0 -0.23956228633379059 0.081748857106415496 0 -0.22181225204340291 0.087349643486723472 0 -0.21502266637022219 0.070566193672109034 0 -0.23956228633379059 0.081748857106415496 0 -0.22181225204340291 0.087349643486723472 0 -0.2306217984555641 0.097429770326439097 0 -0.22855197990594131 0.057388979601981291 0 -0.23956228633379059 0.081748857106415496 0 -0.22855197990594131 0.057388979601981291 0 -0.23956228633379059 0.081748857106415496 0 -0.21502266637022219 0.070566193672109034 0 -0.21502266637022219 0.070566193672109034 0 -0.20651058002786979 0.088801411575366446 0 -0.1978583999423312 0.073978744574475758 0 -0.20309940549933639 0.055919789826708519 0 -0.21502266637022219 0.070566193672109034 0 -0.1978583999423312 0.073978744574475758 0 -0.22181225204340291 0.087349643486723472 0 -0.21502266637022219 0.070566193672109034 0 -0.20651058002786979 0.088801411575366446 0 -0.22181225204340291 0.087349643486723472 0 -0.20651058002786979 0.088801411575366446 0 -0.21734392902956809 0.0982019847532873 0 -0.1834719835649799 0.094039725009003955 0 -0.20651058002786979 0.088801411575366446 0 -0.1978583999423312 0.073978744574475758 0 -0.18101806657996769 0.068461102892013154 0 -0.20309940549933639 0.055919789826708519 0 -0.1978583999423312 0.073978744574475758 0 -0.1834719835649799 0.094039725009003955 0 -0.19465408951905891 0.1227150321092394 0 -0.20509224221924169 0.1056182335550629 0 -0.1834719835649799 0.094039725009003955 0 -0.20651058002786979 0.088801411575366446 0 -0.20509224221924169 0.1056182335550629 0 -0.20651058002786979 0.088801411575366446 0 -0.20509224221924169 0.1056182335550629 0 -0.21734392902956809 0.0982019847532873 0 -0.20509224221924169 0.1056182335550629 0 -0.21734392902956809 0.0982019847532873 0 -0.2226133411403492 0.1144118833600437 0 -0.19465408951905891 0.1227150321092394 0 -0.2226133411403492 0.1144118833600437 0 -0.19465408951905891 0.1227150321092394 0 -0.20509224221924169 0.1056182335550629 0 -0.2226133411403492 0.1144118833600437 0 -0.21734392902956809 0.0982019847532873 0 -0.2226133411403492 0.1144118833600437 0 -0.2306217984555641 0.097429770326439097 0 -0.22181225204340291 0.087349643486723472 0 -0.21734392902956809 0.0982019847532873 0 -0.2306217984555641 0.097429770326439097 0 -0.25057259276164001 0.10610873461084951 0 -0.23956228633379059 0.081748857106415496 0 -0.2306217984555641 0.097429770326439097 0 -0.25057259276164001 0.10610873461084951 0 -0.2226133411403492 0.1144118833600437 0 -0.2306217984555641 0.097429770326439097 0 -0.25057259276164001 0.10610873461084951 0 -0.23956228633379059 0.081748857106415496 0 -0.25057259276164001 0.10610873461084951 0 -0.2495549461829274 0.12227365389669689 0 -0.23374792117513379 0.12580610070876849 0 -0.25057259276164001 0.10610873461084951 0 -0.2226133411403492 0.1144118833600437 0 -0.25057259276164001 0.10610873461084951 0 -0.2226133411403492 0.1144118833600437 0 -0.23374792117513379 0.12580610070876849 0 -0.2495549461829274 0.12227365389669689 0 -0.24500914916079031 0.13067006386991159 0 -0.23374792117513379 0.12580610070876849 0 -0.25294579802062023 0.13047377132861721 0 -0.2495549461829274 0.12227365389669689 0 -0.24500914916079031 0.13067006386991159 0 -0.25485797146470862 0.136760960293178 0 -0.24500914916079031 0.13067006386991159 0 -0.24555459179943939 0.14020245409129439 0 -0.24500914916079031 0.13067006386991159 0 -0.24555459179943939 0.14020245409129439 0 -0.23405432609566321 0.14088287319408629 0 -0.24500914916079031 0.13067006386991159 0 -0.23374792117513379 0.12580610070876849 0 -0.23405432609566321 0.14088287319408629 0 -0.23374792117513379 0.12580610070876849 0 -0.23405432609566321 0.14088287319408629 0 -0.21444061095135411 0.14040500511930021 0 -0.23374792117513379 0.12580610070876849 0 -0.21444061095135411 0.14040500511930021 0 -0.2226133411403492 0.1144118833600437 0 -0.23374792117513379 0.12580610070876849 0 -0.21444061095135411 0.14040500511930021 0 -0.2298258824284696 0.1556883959581232 0 -0.23405432609566321 0.14088287319408629 0 -0.21444061095135411 0.14040500511930021 0 -0.2298258824284696 0.1556883959581232 0 -0.2120028372714669 0.1673156314177637 0 -0.21444061095135411 0.14040500511930021 0 -0.2298258824284696 0.1556883959581232 0 -0.23405432609566321 0.14088287319408629 0 -0.2454743413834497 0.15244065546323851 0 -0.24555459179943939 0.14020245409129439 0 -0.23405432609566321 0.14088287319408629 0 -0.2454743413834497 0.15244065546323851 0 -0.25654721185358698 0.14564582788204219 0 -0.24555459179943939 0.14020245409129439 0 -0.2454743413834497 0.15244065546323851 0 -0.2298258824284696 0.1556883959581232 0 -0.2454743413834497 0.15244065546323851 0 -0.24314242389584911 0.1755453200112668 0 -0.25935500801854661 0.15810676857067549 0 -0.2454743413834497 0.15244065546323851 0 -0.24314242389584911 0.1755453200112668 0 -0.24314242389584911 0.1755453200112668 0 -0.22430729415029141 0.1953024745289883 0 -0.24314242389584911 0.1755453200112668 0 -0.2120028372714669 0.1673156314177637 0 -0.22430729415029141 0.1953024745289883 0 -0.2298258824284696 0.1556883959581232 0 -0.24314242389584911 0.1755453200112668 0 -0.2120028372714669 0.1673156314177637 0 -0.2120028372714669 0.1673156314177637 0 -0.196319788281685 0.18225232462418051 0 -0.22430729415029141 0.1953024745289883 0 -0.2120028372714669 0.1673156314177637 0 -0.196319788281685 0.18225232462418051 0 -0.1951333007275744 0.1550039095298319 0 -0.196319788281685 0.18225232462418051 0 -0.1951333007275744 0.1550039095298319 0 -0.1758259905037946 0.16960281394036369 0 -0.19465408951905891 0.1227150321092394 0 -0.1951333007275744 0.1550039095298319 0 -0.21444061095135411 0.14040500511930021 0 -0.19465408951905891 0.1227150321092394 0 -0.1951333007275744 0.1550039095298319 0 -0.176947038050452 0.1471601344755506 0 -0.19465408951905891 0.1227150321092394 0 -0.2226133411403492 0.1144118833600437 0 -0.21444061095135411 0.14040500511930021 0 -0.2120028372714669 0.1673156314177637 0 -0.1951333007275744 0.1550039095298319 0 -0.21444061095135411 0.14040500511930021 0 -0.1951333007275744 0.1550039095298319 0 -0.21444061095135411 0.14040500511930021 0 -0.25297644052139662 0.20692629817911529 0 -0.25139107931202842 0.23933388103135719 0 -0.23070875804988761 0.22312503100630199 0 -0.23327168792548991 0.24619043079746261 0 -0.23070875804988761 0.22312503100630199 0 -0.2168338819853857 0.23593747245417859 0 -0.21927137818392051 0.25958132121049199 0 -0.23327168792548991 0.24619043079746261 0 -0.2168338819853857 0.23593747245417859 0 -0.25139107931202842 0.23933388103135719 0 -0.23327168792548991 0.24619043079746261 0 -0.23070875804988761 0.22312503100630199 0 -0.25297644052139662 0.20692629817911529 0 -0.24314242389584911 0.1755453200112668 0 -0.22430729415029141 0.1953024745289883 0 -0.23070875804988761 0.22312503100630199 0 -0.22430729415029141 0.1953024745289883 0 -0.2054721644047337 0.21505962904670969 0 -0.25297644052139662 0.20692629817911529 0 -0.23070875804988761 0.22312503100630199 0 -0.22430729415029141 0.1953024745289883 0 -0.196319788281685 0.18225232462418051 0 -0.22430729415029141 0.1953024745289883 0 -0.20345136702172689 0.19926637739426781 0 -0.196319788281685 0.18225232462418051 0 -0.20345136702172689 0.19926637739426781 0 -0.18419770566352359 0.19974608576513089 0 -0.20345136702172689 0.19926637739426781 0 -0.19208255061017851 0.2104135937831712 0 -0.2054721644047337 0.21505962904670969 0 -0.20345136702172689 0.19926637739426781 0 -0.19208255061017851 0.2104135937831712 0 -0.18419770566352359 0.19974608576513089 0 -0.22430729415029141 0.1953024745289883 0 -0.20345136702172689 0.19926637739426781 0 -0.2054721644047337 0.21505962904670969 0 -0.22430729415029141 0.1953024745289883 0 -0.2054721644047337 0.21505962904670969 0 -0.23070875804988761 0.22312503100630199 0 -0.2054721644047337 0.21505962904670969 0 -0.2168338819853857 0.23593747245417859 0 -0.2054721644047337 0.21505962904670969 0 -0.20191551192009111 0.23052560226174809 0 -0.2168338819853857 0.23593747245417859 0 -0.19208255061017851 0.2104135937831712 0 -0.2054721644047337 0.21505962904670969 0 -0.18663703465917589 0.23481678356443131 0 -0.2054721644047337 0.21505962904670969 0 -0.20191551192009111 0.23052560226174809 0 -0.18663703465917589 0.23481678356443131 0 -0.2054721644047337 0.21505962904670969 0 -0.18663703465917589 0.23481678356443131 0 -0.20191551192009111 0.23052560226174809 0 -0.1959140480586069 0.2472216879876257 0 -0.18663703465917589 0.23481678356443131 0 -0.1959140480586069 0.2472216879876257 0 -0.18181835984643899 0.2483739062922746 0 -0.18663703465917589 0.23481678356443131 0 -0.21927137818392051 0.25958132121049199 0 -0.1959140480586069 0.2472216879876257 0 -0.2168338819853857 0.23593747245417859 0 -0.20191551192009111 0.23052560226174809 0 -0.1959140480586069 0.2472216879876257 0 -0.2168338819853857 0.23593747245417859 0 -0.15917047785687771 0.2480966498047488 0 -0.16345509225485941 0.23957957728665191 0 -0.15574999588366439 0.24175902805814531 0 -0.15917047785687771 0.2480966498047488 0 -0.16345509225485941 0.23957957728665191 0 -0.16703766058109179 0.2477291540734885 0 -0.16345509225485941 0.23957957728665191 0 -0.1525809073324195 0.22925168545202179 0 -0.15574999588366439 0.24175902805814531 0 -0.16345509225485941 0.23957957728665191 0 -0.16703766058109179 0.2477291540734885 0 -0.1710563371633165 0.23249811323276021 0 -0.16703766058109179 0.2477291540734885 0 -0.18663703465917589 0.23481678356443131 0 -0.1710563371633165 0.23249811323276021 0 -0.1678019049136181 0.2545739380821529 0 -0.18181835984643899 0.2483739062922746 0 -0.18663703465917589 0.23481678356443131 0 -0.1678019049136181 0.2545739380821529 0 -0.18663703465917589 0.23481678356443131 0 -0.1678019049136181 0.2545739380821529 0 -0.16703766058109179 0.2477291540734885 0 -0.18663703465917589 0.23481678356443131 0 -0.19208255061017851 0.2104135937831712 0 -0.18663703465917589 0.23481678356443131 0 -0.17906371419467759 0.22015163775029259 0 -0.18663703465917589 0.23481678356443131 0 -0.17906371419467759 0.22015163775029259 0 -0.1710563371633165 0.23249811323276021 0 -0.17906371419467759 0.22015163775029259 0 -0.16803991838809371 0.2212384624611021 0 -0.1710563371633165 0.23249811323276021 0 -0.16803991838809371 0.2212384624611021 0 -0.1710563371633165 0.23249811323276021 0 -0.1525809073324195 0.22925168545202179 0 -0.16345509225485941 0.23957957728665191 0 -0.1710563371633165 0.23249811323276021 0 -0.1525809073324195 0.22925168545202179 0 -0.16803991838809371 0.2212384624611021 0 -0.1593339522308119 0.2147887930074954 0 -0.1525809073324195 0.22925168545202179 0 -0.1593339522308119 0.2147887930074954 0 -0.17200417083606859 0.20616419291141369 0 -0.15192579106196011 0.20191479203965029 0 -0.17200417083606859 0.20616419291141369 0 -0.15192579106196011 0.20191479203965029 0 -0.16803991838809371 0.2212384624611021 0 -0.1593339522308119 0.2147887930074954 0 -0.17200417083606859 0.20616419291141369 0 -0.17906371419467759 0.22015163775029259 0 -0.16803991838809371 0.2212384624611021 0 -0.17200417083606859 0.20616419291141369 0 -0.19208255061017851 0.2104135937831712 0 -0.17200417083606859 0.20616419291141369 0 -0.19208255061017851 0.2104135937831712 0 -0.17906371419467759 0.22015163775029259 0 -0.17200417083606859 0.20616419291141369 0 -0.19208255061017851 0.2104135937831712 0 -0.17200417083606859 0.20616419291141369 0 -0.18419770566352359 0.19974608576513089 0 -0.17200417083606859 0.20616419291141369 0 -0.18419770566352359 0.19974608576513089 0 -0.1731829360092593 0.19385546565709089 0 -0.196319788281685 0.18225232462418051 0 -0.18419770566352359 0.19974608576513089 0 -0.17965269113495089 0.18771146504571051 0 -0.1731829360092593 0.19385546565709089 0 -0.17965269113495089 0.18771146504571051 0 -0.16920597090304099 0.1854563122569941 0 -0.18419770566352359 0.19974608576513089 0 -0.1731829360092593 0.19385546565709089 0 -0.17965269113495089 0.18771146504571051 0 -0.1731829360092593 0.19385546565709089 0 -0.1608495565871855 0.19191009829090991 0 -0.16920597090304099 0.1854563122569941 0 -0.17200417083606859 0.20616419291141369 0 -0.1608495565871855 0.19191009829090991 0 -0.15192579106196011 0.20191479203965029 0 -0.1608495565871855 0.19191009829090991 0 -0.15192579106196011 0.20191479203965029 0 -0.15651868028001481 0.18420171835089549 0 -0.17200417083606859 0.20616419291141369 0 -0.1731829360092593 0.19385546565709089 0 -0.1608495565871855 0.19191009829090991 0 -0.1608495565871855 0.19191009829090991 0 -0.15192579106196011 0.20191479203965029 0 -0.15192579106196011 0.20191479203965029 0 -0.1372113700562351 0.1988006227614276 0 -0.15651868028001481 0.18420171835089549 0 -0.1372113700562351 0.1988006227614276 0 -0.15651868028001481 0.18420171835089549 0 -0.1372113700562351 0.1988006227614276 0 -0.15651868028001481 0.18420171835089549 0 -0.14130070430457969 0.183010448028749 0 -0.15192579106196011 0.20191479203965029 0 -0.1372113700562351 0.1988006227614276 0 -0.1372113700562351 0.1988006227614276 0 -0.12775212998471661 0.18489249106963321 0 -0.1201898175162119 0.19519817072017781 0 -0.1372113700562351 0.1988006227614276 0 -0.1201898175162119 0.19519817072017781 0 -0.1372113700562351 0.1988006227614276 0 -0.1198255824499438 0.21194659951449379 0 -0.1201898175162119 0.19519817072017781 0 -0.1372113700562351 0.1988006227614276 0 -0.14130070430457969 0.183010448028749 0 -0.12775212998471661 0.18489249106963321 0 -0.15192579106196011 0.20191479203965029 0 -0.13232270331365559 0.21040476895327331 0 -0.1331456825975833 0.22296971926992809 0 -0.1372113700562351 0.1988006227614276 0 -0.1198255824499438 0.21194659951449379 0 -0.15192579106196011 0.20191479203965029 0 -0.1372113700562351 0.1988006227614276 0 -0.13232270331365559 0.21040476895327331 0 -0.1372113700562351 0.1988006227614276 0 -0.13232270331365559 0.21040476895327331 0 -0.1198255824499438 0.21194659951449379 0 -0.13232270331365559 0.21040476895327331 0 -0.13031468481674671 0.22476153641386201 0 -0.1198255824499438 0.21194659951449379 0 -0.13031468481674671 0.22476153641386201 0 -0.1198255824499438 0.21194659951449379 0 -0.15192579106196011 0.20191479203965029 0 -0.1331456825975833 0.22296971926992809 0 -0.15192579106196011 0.20191479203965029 0 -0.14245915453294611 0.21707496414284169 0 -0.1331456825975833 0.22296971926992809 0 -0.1593339522308119 0.2147887930074954 0 -0.15192579106196011 0.20191479203965029 0 -0.14245915453294611 0.21707496414284169 0 -0.1525809073324195 0.22925168545202179 0 -0.14098364172090891 0.22769864143346791 0 -0.14582786243402859 0.24371457789654891 0 -0.1593339522308119 0.2147887930074954 0 -0.14245915453294611 0.21707496414284169 0 -0.1525809073324195 0.22925168545202179 0 -0.1593339522308119 0.2147887930074954 0 -0.1525809073324195 0.22925168545202179 0 -0.14245915453294611 0.21707496414284169 0 -0.1525809073324195 0.22925168545202179 0 -0.14098364172090891 0.22769864143346791 0 -0.14098364172090891 0.22769864143346791 0 -0.1331456825975833 0.22296971926992809 0 -0.13031468481674671 0.22476153641386201 0 -0.14245915453294611 0.21707496414284169 0 -0.1331456825975833 0.22296971926992809 0 -0.13031468481674671 0.22476153641386201 0 -0.14582786243402859 0.24371457789654891 0 -0.14098364172090891 0.22769864143346791 0 -0.13031468481674671 0.22476153641386201 0 -0.14582786243402859 0.24371457789654891 0 -0.14245915453294611 0.21707496414284169 0 -0.14098364172090891 0.22769864143346791 0 -0.1331456825975833 0.22296971926992809 0 -0.13232270331365559 0.21040476895327331 0 -0.1331456825975833 0.22296971926992809 0 -0.13031468481674671 0.22476153641386201 0 -0.1331456825975833 0.22296971926992809 0 -0.13031468481674671 0.22476153641386201 0 -0.13031468481674671 0.22476153641386201 0 -0.12996334138022009 0.24147623535299501 0 -0.14582786243402859 0.24371457789654891 0 -0.1244451796721414 0.25644565112192769 0 -0.12996334138022009 0.24147623535299501 0 -0.14582786243402859 0.24371457789654891 0 -0.1525809073324195 0.22925168545202179 0 -0.14582786243402859 0.24371457789654891 0 -0.15574999588366439 0.24175902805814531 0 -0.1525809073324195 0.22925168545202179 0 -0.14582786243402859 0.24371457789654891 0 -0.15190739204803849 0.25114217137947081 0 -0.15917047785687771 0.2480966498047488 0 -0.15574999588366439 0.24175902805814531 0 -0.15190739204803849 0.25114217137947081 0 -0.14582786243402859 0.24371457789654891 0 -0.15574999588366439 0.24175902805814531 0 -0.15190739204803849 0.25114217137947081 0 -0.14582786243402859 0.24371457789654891 0 -0.16669483789776851 0.1310181808584352 0 -0.176947038050452 0.1471601344755506 0 -0.15242697160406349 0.15746073593988261 0 -0.19465408951905891 0.1227150321092394 0 -0.16669483789776851 0.1310181808584352 0 -0.176947038050452 0.1471601344755506 0 -0.19465408951905891 0.1227150321092394 0 -0.16669483789776851 0.1310181808584352 0 -0.1951333007275744 0.1550039095298319 0 -0.176947038050452 0.1471601344755506 0 -0.1758259905037946 0.16960281394036369 0 -0.1951333007275744 0.1550039095298319 0 -0.1758259905037946 0.16960281394036369 0 -0.17965269113495089 0.18771146504571051 0 -0.1758259905037946 0.16960281394036369 0 -0.16920597090304099 0.1854563122569941 0 -0.196319788281685 0.18225232462418051 0 -0.17965269113495089 0.18771146504571051 0 -0.1758259905037946 0.16960281394036369 0 -0.1758259905037946 0.16960281394036369 0 -0.15651868028001481 0.18420171835089549 0 -0.14841073093139329 0.17300710837561811 0 -0.1758259905037946 0.16960281394036369 0 -0.15651868028001481 0.18420171835089549 0 -0.1758259905037946 0.16960281394036369 0 -0.16920597090304099 0.1854563122569941 0 -0.15651868028001481 0.18420171835089549 0 -0.1608495565871855 0.19191009829090991 0 -0.16920597090304099 0.1854563122569941 0 -0.15651868028001481 0.18420171835089549 0 -0.176947038050452 0.1471601344755506 0 -0.1758259905037946 0.16960281394036369 0 -0.15242697160406349 0.15746073593988261 0 -0.1758259905037946 0.16960281394036369 0 -0.15242697160406349 0.15746073593988261 0 -0.14841073093139329 0.17300710837561811 0 -0.15242697160406349 0.15746073593988261 0 -0.14841073093139329 0.17300710837561811 0 -0.13501030122009419 0.17292314550931029 0 -0.15651868028001481 0.18420171835089549 0 -0.14841073093139329 0.17300710837561811 0 -0.14130070430457969 0.183010448028749 0 -0.14841073093139329 0.17300710837561811 0 -0.14130070430457969 0.183010448028749 0 -0.13501030122009419 0.17292314550931029 0 -0.13501030122009419 0.17292314550931029 0 -0.12775212998471661 0.18489249106963321 0 -0.1177664891263846 0.1746343253368785 0 -0.14130070430457969 0.183010448028749 0 -0.13501030122009419 0.17292314550931029 0 -0.12775212998471661 0.18489249106963321 0 -0.15242697160406349 0.15746073593988261 0 -0.13501030122009419 0.17292314550931029 0 -0.12442353201667961 0.15949567190961991 0 -0.13501030122009419 0.17292314550931029 0 -0.12442353201667961 0.15949567190961991 0 -0.1177664891263846 0.1746343253368785 0 -0.15242697160406349 0.15746073593988261 0 -0.13873558627647811 0.13932132960763091 0 -0.12442353201667961 0.15949567190961991 0 -0.16669483789776851 0.1310181808584352 0 -0.15242697160406349 0.15746073593988261 0 -0.13873558627647811 0.13932132960763091 0 -0.14423480217978241 0.11586632156452741 0 -0.16669483789776851 0.1310181808584352 0 -0.13873558627647811 0.13932132960763091 0 -0.16669483789776851 0.1310181808584352 0 -0.13873558627647811 0.13932132960763091 0 -0.13873558627647811 0.13932132960763091 0 -0.12680750173299621 0.1280196635453191 0 -0.1107763346551878 0.14762447835682671 0 -0.14423480217978241 0.11586632156452741 0 -0.13873558627647811 0.13932132960763091 0 -0.12680750173299621 0.1280196635453191 0 -0.12680750173299621 0.1280196635453191 0 -0.1107763346551878 0.14762447835682671 0 -0.1141156269855213 0.1183021147213059 0 -0.1107763346551878 0.14762447835682671 0 -0.1141156269855213 0.1183021147213059 0 -0.097669041225090319 0.1203247116941496 0 -0.1107763346551878 0.14762447835682671 0 -0.090593189533779983 0.13377521462400269 0 -0.097669041225090319 0.1203247116941496 0 -0.1107763346551878 0.14762447835682671 0 -0.08281708303389744 0.15592762710602251 0 -0.1107763346551878 0.14762447835682671 0 -0.1052126554409739 0.16468750845179431 0 -0.08281708303389744 0.15592762710602251 0 -0.1107763346551878 0.14762447835682671 0 -0.090596522887275655 0.14465247877874421 0 -0.08281708303389744 0.15592762710602251 0 -0.1107763346551878 0.14762447835682671 0 -0.090593189533779983 0.13377521462400269 0 -0.090596522887275655 0.14465247877874421 0 -0.13873558627647811 0.13932132960763091 0 -0.1107763346551878 0.14762447835682671 0 -0.12442353201667961 0.15949567190961991 0 -0.13873558627647811 0.13932132960763091 0 -0.1107763346551878 0.14762447835682671 0 -0.12442353201667961 0.15949567190961991 0 -0.1177664891263846 0.1746343253368785 0 -0.1052126554409739 0.16468750845179431 0 -0.1107763346551878 0.14762447835682671 0 -0.12442353201667961 0.15949567190961991 0 -0.1052126554409739 0.16468750845179431 0 -0.12775212998471661 0.18489249106963321 0 -0.1177664891263846 0.1746343253368785 0 -0.1146528036212397 0.18476393990069551 0 -0.1177664891263846 0.1746343253368785 0 -0.1146528036212397 0.18476393990069551 0 -0.1043873165026966 0.1774989936978606 0 -0.093120292990044401 0.17931972761065171 0 -0.103168264976189 0.19159571867892561 0 -0.085706560965123885 0.1879001127046511 0 -0.1146528036212397 0.18476393990069551 0 -0.1043873165026966 0.1774989936978606 0 -0.103168264976189 0.19159571867892561 0 -0.1177664891263846 0.1746343253368785 0 -0.1043873165026966 0.1774989936978606 0 -0.1052126554409739 0.16468750845179431 0 -0.1043873165026966 0.1774989936978606 0 -0.092464579794385965 0.1696891557304144 0 -0.093120292990044401 0.17931972761065171 0 -0.1043873165026966 0.1774989936978606 0 -0.093120292990044401 0.17931972761065171 0 -0.103168264976189 0.19159571867892561 0 -0.093120292990044401 0.17931972761065171 0 -0.103168264976189 0.19159571867892561 0 -0.1043873165026966 0.1774989936978606 0 -0.1052126554409739 0.16468750845179431 0 -0.092464579794385965 0.1696891557304144 0 -0.1052126554409739 0.16468750845179431 0 -0.092464579794385965 0.1696891557304144 0 -0.08281708303389744 0.15592762710602251 0 -0.092464579794385965 0.1696891557304144 0 -0.083072321003898775 0.1670437365423787 0 -0.08281708303389744 0.15592762710602251 0 -0.083072321003898775 0.1670437365423787 0 -0.071504817272512539 0.1696676470778086 0 -0.08281708303389744 0.15592762710602251 0 -0.083072321003898775 0.1670437365423787 0 -0.080329769837127807 0.17762714613317279 0 -0.071504817272512539 0.1696676470778086 0 -0.093120292990044401 0.17931972761065171 0 -0.080329769837127807 0.17762714613317279 0 -0.085706560965123885 0.1879001127046511 0 -0.083072321003898775 0.1670437365423787 0 -0.093120292990044401 0.17931972761065171 0 -0.092464579794385965 0.1696891557304144 0 -0.083072321003898775 0.1670437365423787 0 -0.093120292990044401 0.17931972761065171 0 -0.083072321003898775 0.1670437365423787 0 -0.093120292990044401 0.17931972761065171 0 -0.080329769837127807 0.17762714613317279 0 -0.080329769837127807 0.17762714613317279 0 -0.06824485695405913 0.18420450673037411 0 -0.085706560965123885 0.1879001127046511 0 -0.06824485695405913 0.18420450673037411 0 -0.085706560965123885 0.1879001127046511 0 -0.06824485695405913 0.18420450673037411 0 -0.071504817272512539 0.1696676470778086 0 -0.054857831412607652 0.16423077585522 0 -0.080329769837127807 0.17762714613317279 0 -0.06824485695405913 0.18420450673037411 0 -0.071504817272512539 0.1696676470778086 0 -0.071504817272512539 0.1696676470778086 0 -0.08281708303389744 0.15592762710602251 0 -0.054857831412607652 0.16423077585522 0 -0.08281708303389744 0.15592762710602251 0 -0.054857831412607652 0.16423077585522 0 -0.064522586805696863 0.14837539208521491 0 -0.062758672737250637 0.1322380899330528 0 -0.078199484326237384 0.1412825950281249 0 -0.064522586805696863 0.14837539208521491 0 -0.08281708303389744 0.15592762710602251 0 -0.054857831412607652 0.16423077585522 0 -0.064522586805696863 0.14837539208521491 0 -0.08281708303389744 0.15592762710602251 0 -0.078199484326237384 0.1412825950281249 0 -0.062758672737250637 0.1322380899330528 0 -0.080133902659946604 0.1250935708699461 0 -0.078199484326237384 0.1412825950281249 0 -0.080133902659946604 0.1250935708699461 0 -0.090593189533779983 0.13377521462400269 0 -0.097669041225090319 0.1203247116941496 0 -0.080133902659946604 0.1250935708699461 0 -0.090593189533779983 0.13377521462400269 0 -0.078199484326237384 0.1412825950281249 0 -0.090593189533779983 0.13377521462400269 0 -0.090596522887275655 0.14465247877874421 0 -0.078199484326237384 0.1412825950281249 0 -0.090596522887275655 0.14465247877874421 0 -0.08281708303389744 0.15592762710602251 0 -0.078199484326237384 0.1412825950281249 0 -0.087044737653767065 0.25214828806328349 0 -0.1086797112352569 0.23845491223857271 0 -0.096737990099558066 0.2359085100788601 0 -0.1086797112352569 0.23845491223857271 0 -0.091863016694785596 0.24036001037872351 0 -0.087044737653767065 0.25214828806328349 0 -0.1086797112352569 0.23845491223857271 0 -0.091863016694785596 0.24036001037872351 0 -0.097456391861015401 0.26298202381997121 0 -0.1086797112352569 0.23845491223857271 0 -0.1141804967842906 0.24423214211298441 0 -0.096737990099558066 0.2359085100788601 0 -0.097933203883153741 0.22850016074655269 0 -0.091863016694785596 0.24036001037872351 0 -0.096737990099558066 0.2359085100788601 0 -0.1086797112352569 0.23845491223857271 0 -0.1028930414292905 0.2330407883334647 0 -0.13031468481674671 0.22476153641386201 0 -0.1086797112352569 0.23845491223857271 0 -0.1141804967842906 0.24423214211298441 0 -0.13031468481674671 0.22476153641386201 0 -0.12996334138022009 0.24147623535299501 0 -0.1141804967842906 0.24423214211298441 0 -0.1244451796721414 0.25644565112192769 0 -0.12996334138022009 0.24147623535299501 0 -0.1141804967842906 0.24423214211298441 0 -0.13031468481674671 0.22476153641386201 0 -0.1141804967842906 0.24423214211298441 0 -0.1166188546067395 0.2261719531274495 0 -0.10748744680896059 0.2282047044151824 0 -0.1198255824499438 0.21194659951449379 0 -0.1086797112352569 0.23845491223857271 0 -0.1166188546067395 0.2261719531274495 0 -0.10748744680896059 0.2282047044151824 0 -0.13031468481674671 0.22476153641386201 0 -0.1086797112352569 0.23845491223857271 0 -0.1166188546067395 0.2261719531274495 0 -0.13031468481674671 0.22476153641386201 0 -0.1086797112352569 0.23845491223857271 0 -0.13031468481674671 0.22476153641386201 0 -0.1166188546067395 0.2261719531274495 0 -0.1198255824499438 0.21194659951449379 0 -0.10748744680896059 0.2282047044151824 0 -0.097933203883153741 0.22850016074655269 0 -0.1198255824499438 0.21194659951449379 0 -0.097933203883153741 0.22850016074655269 0 -0.1198255824499438 0.21194659951449379 0 -0.10748744680896059 0.2282047044151824 0 -0.1028930414292905 0.2330407883334647 0 -0.097933203883153741 0.22850016074655269 0 -0.1086797112352569 0.23845491223857271 0 -0.10748744680896059 0.2282047044151824 0 -0.1028930414292905 0.2330407883334647 0 -0.096737990099558066 0.2359085100788601 0 -0.1028930414292905 0.2330407883334647 0 -0.097933203883153741 0.22850016074655269 0 -0.097933203883153741 0.22850016074655269 0 -0.1010918201653898 0.20974425568160199 0 -0.1198255824499438 0.21194659951449379 0 -0.097933203883153741 0.22850016074655269 0 -0.1010918201653898 0.20974425568160199 0 -0.083089030418606533 0.20635233373846329 0 -0.1010918201653898 0.20974425568160199 0 -0.1198255824499438 0.21194659951449379 0 -0.103168264976189 0.19159571867892561 0 -0.1201898175162119 0.19519817072017781 0 -0.103168264976189 0.19159571867892561 0 -0.1146528036212397 0.18476393990069551 0 -0.1201898175162119 0.19519817072017781 0 -0.103168264976189 0.19159571867892561 0 -0.1198255824499438 0.21194659951449379 0 -0.1201898175162119 0.19519817072017781 0 -0.103168264976189 0.19159571867892561 0 -0.1198255824499438 0.21194659951449379 0 -0.103168264976189 0.19159571867892561 0 -0.12775212998471661 0.18489249106963321 0 -0.1146528036212397 0.18476393990069551 0 -0.1201898175162119 0.19519817072017781 0 -0.103168264976189 0.19159571867892561 0 -0.085706560965123885 0.1879001127046511 0 -0.1010918201653898 0.20974425568160199 0 -0.103168264976189 0.19159571867892561 0 -0.083089030418606533 0.20635233373846329 0 -0.06824485695405913 0.18420450673037411 0 -0.085706560965123885 0.1879001127046511 0 -0.083089030418606533 0.20635233373846329 0 -0.103168264976189 0.19159571867892561 0 -0.085706560965123885 0.1879001127046511 0 -0.083089030418606533 0.20635233373846329 0 -0.06824485695405913 0.18420450673037411 0 -0.083089030418606533 0.20635233373846329 0 -0.06824485695405913 0.18420450673037411 0 -0.083089030418606533 0.20635233373846329 0 -0.06180443077561807 0.20529845095402979 0 -0.083089030418606533 0.20635233373846329 0 -0.067370125458824384 0.22343781935903251 0 -0.06180443077561807 0.20529845095402979 0 -0.097933203883153741 0.22850016074655269 0 -0.083089030418606533 0.20635233373846329 0 -0.097933203883153741 0.22850016074655269 0 -0.083089030418606533 0.20635233373846329 0 -0.067370125458824384 0.22343781935903251 0 -0.097933203883153741 0.22850016074655269 0 -0.067370125458824384 0.22343781935903251 0 -0.078116512866455143 0.24348422504824679 0 -0.058299821849755483 0.25846828934993937 0 -0.078116512866455143 0.24348422504824679 0 -0.060621335048244587 0.24106931181807439 0 -0.067370125458824384 0.22343781935903251 0 -0.078116512866455143 0.24348422504824679 0 -0.060621335048244587 0.24106931181807439 0 -0.097933203883153741 0.22850016074655269 0 -0.078116512866455143 0.24348422504824679 0 -0.091863016694785596 0.24036001037872351 0 -0.097933203883153741 0.22850016074655269 0 -0.078116512866455143 0.24348422504824679 0 -0.087044737653767065 0.25214828806328349 0 -0.078116512866455143 0.24348422504824679 0 -0.091863016694785596 0.24036001037872351 0 -0.038659995814612318 0.25501501086960582 0 -0.024465366376561999 0.25025365184763543 0 -0.033647253438448002 0.24370576564798799 0 -0.044892061925858907 0.24456375503149719 0 -0.031250136829621508 0.23057847141837151 0 -0.033647253438448002 0.24370576564798799 0 -0.044892061925858907 0.24456375503149719 0 -0.03045299643650606 0.2328901017337241 0 -0.044892061925858907 0.24456375503149719 0 -0.031250136829621508 0.23057847141837151 0 -0.03045299643650606 0.2328901017337241 0 -0.044892061925858907 0.24456375503149719 0 -0.041966226091053979 0.23281559837806051 0 -0.031250136829621508 0.23057847141837151 0 -0.044892061925858907 0.24456375503149719 0 -0.050501852540945122 0.23080838816227281 0 -0.041966226091053979 0.23281559837806051 0 -0.038659995814612318 0.25501501086960582 0 -0.033647253438448002 0.24370576564798799 0 -0.044892061925858907 0.24456375503149719 0 -0.044892061925858907 0.24456375503149719 0 -0.060621335048244587 0.24106931181807439 0 -0.050501852540945122 0.23080838816227281 0 -0.058299821849755483 0.25846828934993937 0 -0.044892061925858907 0.24456375503149719 0 -0.060621335048244587 0.24106931181807439 0 -0.067370125458824384 0.22343781935903251 0 -0.060621335048244587 0.24106931181807439 0 -0.050501852540945122 0.23080838816227281 0 -0.067370125458824384 0.22343781935903251 0 -0.050501852540945122 0.23080838816227281 0 -0.049257131976494332 0.21501194997800849 0 -0.050501852540945122 0.23080838816227281 0 -0.040986687895449563 0.22523102960541699 0 -0.049257131976494332 0.21501194997800849 0 -0.050501852540945122 0.23080838816227281 0 -0.040986687895449563 0.22523102960541699 0 -0.041966226091053979 0.23281559837806051 0 -0.040986687895449563 0.22523102960541699 0 -0.041966226091053979 0.23281559837806051 0 -0.031250136829621508 0.23057847141837151 0 -0.031250136829621508 0.23057847141837151 0 -0.036440626496450162 0.21552655161981271 0 -0.040986687895449563 0.22523102960541699 0 -0.031250136829621508 0.23057847141837151 0 -0.036440626496450162 0.21552655161981271 0 -0.031250136829621508 0.23057847141837151 0 -0.036440626496450162 0.21552655161981271 0 -0.027931959335135179 0.22422874399265219 0 -0.036440626496450162 0.21552655161981271 0 -0.049257131976494332 0.21501194997800849 0 -0.041954871668018742 0.19826503338212209 0 -0.036440626496450162 0.21552655161981271 0 -0.041954871668018742 0.19826503338212209 0 -0.026572798647845581 0.208971020698522 0 -0.040986687895449563 0.22523102960541699 0 -0.036440626496450162 0.21552655161981271 0 -0.049257131976494332 0.21501194997800849 0 -0.049257131976494332 0.21501194997800849 0 -0.06180443077561807 0.20529845095402979 0 -0.041954871668018742 0.19826503338212209 0 -0.067370125458824384 0.22343781935903251 0 -0.049257131976494332 0.21501194997800849 0 -0.06180443077561807 0.20529845095402979 0 -0.06824485695405913 0.18420450673037411 0 -0.06180443077561807 0.20529845095402979 0 -0.041954871668018742 0.19826503338212209 0 -0.041954871668018742 0.19826503338212209 0 -0.024617916760890309 0.1948437618256601 0 -0.044701141609717721 0.17922170006797361 0 -0.041954871668018742 0.19826503338212209 0 -0.024617916760890309 0.1948437618256601 0 -0.026572798647845581 0.208971020698522 0 -0.024617916760890309 0.1948437618256601 0 -0.005007363463149549 0.19606497879233981 0 -0.021157426265377189 0.17423889340556889 0 -0.024617916760890309 0.1948437618256601 0 -0.005007363463149549 0.19606497879233981 0 -0.0093825633464828494 0.21280007032764339 0 -0.005007363463149549 0.19606497879233981 0 -0.0093825633464828494 0.21280007032764339 0 0.01177387100339692 0.20685907706766299 0 -0.024617916760890309 0.1948437618256601 0 -0.0093825633464828494 0.21280007032764339 0 -0.026572798647845581 0.208971020698522 0 -0.0093825633464828494 0.21280007032764339 0 -0.026572798647845581 0.208971020698522 0 -0.02295159947225554 0.21943771392931841 0 -0.036440626496450162 0.21552655161981271 0 -0.026572798647845581 0.208971020698522 0 -0.02295159947225554 0.21943771392931841 0 -0.036440626496450162 0.21552655161981271 0 -0.027931959335135179 0.22422874399265219 0 -0.02295159947225554 0.21943771392931841 0 -0.027931959335135179 0.22422874399265219 0 -0.021882614935328958 0.2290606086877538 0 -0.02295159947225554 0.21943771392931841 0 -0.031250136829621508 0.23057847141837151 0 -0.027931959335135179 0.22422874399265219 0 -0.03045299643650606 0.2328901017337241 0 -0.03045299643650606 0.2328901017337241 0 -0.021882614935328958 0.2290606086877538 0 -0.020714539197624029 0.23881236467327799 0 -0.027931959335135179 0.22422874399265219 0 -0.03045299643650606 0.2328901017337241 0 -0.021882614935328958 0.2290606086877538 0 -0.031250136829621508 0.23057847141837151 0 -0.03045299643650606 0.2328901017337241 0 -0.021882614935328958 0.2290606086877538 0 -0.01295241989697375 0.23287059893299439 0 -0.020714539197624029 0.23881236467327799 0 -0.021882614935328958 0.2290606086877538 0 -0.01439547600373158 0.22433415129540349 0 -0.01295241989697375 0.23287059893299439 0 -0.021882614935328958 0.2290606086877538 0 -0.02295159947225554 0.21943771392931841 0 -0.01439547600373158 0.22433415129540349 0 -0.0093825633464828494 0.21280007032764339 0 -0.01439547600373158 0.22433415129540349 0 -0.0048081823676168122 0.2275017645993074 0 -0.0093825633464828494 0.21280007032764339 0 -0.0048081823676168122 0.2275017645993074 0 0.0077324718411750622 0.22384322027559239 0 -0.0093825633464828494 0.21280007032764339 0 -0.02295159947225554 0.21943771392931841 0 -0.01439547600373158 0.22433415129540349 0 -0.0048081823676168122 0.2275017645993074 0 -0.01295241989697375 0.23287059893299439 0 -0.0016943515121305051 0.24261548295161911 0 -0.01439547600373158 0.22433415129540349 0 -0.0048081823676168122 0.2275017645993074 0 -0.01295241989697375 0.23287059893299439 0 -0.024465366376561999 0.25025365184763543 0 -0.0016943515121305051 0.24261548295161911 0 -0.020714539197624029 0.23881236467327799 0 -0.024465366376561999 0.25025365184763543 0 -0.0016943515121305051 0.24261548295161911 0 -0.01295241989697375 0.23287059893299439 0 -0.0016943515121305051 0.24261548295161911 0 -0.020714539197624029 0.23881236467327799 0 -0.024465366376561999 0.25025365184763543 0 -0.03045299643650606 0.2328901017337241 0 -0.020714539197624029 0.23881236467327799 0 -0.024465366376561999 0.25025365184763543 0 -0.033647253438448002 0.24370576564798799 0 -0.03045299643650606 0.2328901017337241 0 -0.024465366376561999 0.25025365184763543 0 -0.03045299643650606 0.2328901017337241 0 -0.041344382652303502 0.144068418810505 0 -0.038007628838991718 0.16923483463039199 0 -0.024505269107434269 0.15464017567828989 0 -0.041344382652303502 0.144068418810505 0 -0.027830933891999851 0.1239060617657898 0 -0.041344382652303502 0.144068418810505 0 -0.027830933891999851 0.1239060617657898 0 -0.045818378965959153 0.1208251469539086 0 -0.062758672737250637 0.1322380899330528 0 -0.041344382652303502 0.144068418810505 0 -0.045818378965959153 0.1208251469539086 0 -0.064522586805696863 0.14837539208521491 0 -0.041344382652303502 0.144068418810505 0 -0.054857831412607652 0.16423077585522 0 -0.064522586805696863 0.14837539208521491 0 -0.062758672737250637 0.1322380899330528 0 -0.041344382652303502 0.144068418810505 0 -0.041344382652303502 0.144068418810505 0 -0.054857831412607652 0.16423077585522 0 -0.06824485695405913 0.18420450673037411 0 -0.044701141609717721 0.17922170006797361 0 -0.06824485695405913 0.18420450673037411 0 -0.054857831412607652 0.16423077585522 0 -0.044701141609717721 0.17922170006797361 0 -0.06824485695405913 0.18420450673037411 0 -0.041954871668018742 0.19826503338212209 0 -0.044701141609717721 0.17922170006797361 0 -0.06824485695405913 0.18420450673037411 0 -0.054857831412607652 0.16423077585522 0 -0.044701141609717721 0.17922170006797361 0 -0.021157426265377189 0.17423889340556889 0 -0.044701141609717721 0.17922170006797361 0 -0.038007628838991718 0.16923483463039199 0 -0.021157426265377189 0.17423889340556889 0 -0.054857831412607652 0.16423077585522 0 -0.044701141609717721 0.17922170006797361 0 -0.038007628838991718 0.16923483463039199 0 -0.041344382652303502 0.144068418810505 0 -0.054857831412607652 0.16423077585522 0 -0.038007628838991718 0.16923483463039199 0 -0.054857831412607652 0.16423077585522 0 -0.038007628838991718 0.16923483463039199 0 -0.038007628838991718 0.16923483463039199 0 -0.021157426265377189 0.17423889340556889 0 -0.024505269107434269 0.15464017567828989 0 -0.021157426265377189 0.17423889340556889 0 -0.01184530413844872 0.16059936474634731 0 -0.024505269107434269 0.15464017567828989 0 -0.038007628838991718 0.16923483463039199 0 -0.021157426265377189 0.17423889340556889 0 -0.024617916760890309 0.1948437618256601 0 -0.044701141609717721 0.17922170006797361 0 -0.021157426265377189 0.17423889340556889 0 -0.021157426265377189 0.17423889340556889 0 0.0058333321409043681 0.18225442561424271 0 -0.021157426265377189 0.17423889340556889 0 0.0053262060744851819 0.16863388086878259 0 0.0058333321409043681 0.18225442561424271 0 -0.005007363463149549 0.19606497879233981 0 -0.021157426265377189 0.17423889340556889 0 0.0058333321409043681 0.18225442561424271 0 -0.01184530413844872 0.16059936474634731 0 -0.0070447272554695342 0.1448845090327511 0 0.0053262060744851819 0.16863388086878259 0 -0.021157426265377189 0.17423889340556889 0 0.0053262060744851819 0.16863388086878259 0 -0.021157426265377189 0.17423889340556889 0 -0.01184530413844872 0.16059936474634731 0 0.0053262060744851819 0.16863388086878259 0 -0.01184530413844872 0.16059936474634731 0 -0.0070447272554695342 0.1448845090327511 0 -0.024505269107434269 0.15464017567828989 0 -0.041344382652303502 0.144068418810505 0 -0.024505269107434269 0.15464017567828989 0 -0.027830933891999851 0.1239060617657898 0 -0.0070447272554695342 0.1448845090327511 0 -0.024505269107434269 0.15464017567828989 0 -0.027830933891999851 0.1239060617657898 0 -0.0070447272554695342 0.1448845090327511 0 -0.00234923473668735 0.126013591710122 0 -0.027830933891999851 0.1239060617657898 0 -0.00234923473668735 0.126013591710122 0 -0.01262523929061626 0.1132272638014033 0 0.0043827495876789559 0.1080538155758828 0 -0.00234923473668735 0.126013591710122 0 -0.01262523929061626 0.1132272638014033 0 -0.027830933891999851 0.1239060617657898 0 -0.01262523929061626 0.1132272638014033 0 -0.01230642451065894 0.1026195056747507 0 0.0043827495876789559 0.1080538155758828 0 -0.0082569075506830486 0.09157210276227154 0 0.0043827495876789559 0.1080538155758828 0 -0.01230642451065894 0.1026195056747507 0 -0.0082569075506830486 0.09157210276227154 0 0.0043827495876789559 0.1080538155758828 0 -0.01230642451065894 0.1026195056747507 0 -0.019458462906977361 0.094827895271056811 0 -0.0082569075506830486 0.09157210276227154 0 -0.01262523929061626 0.1132272638014033 0 -0.01230642451065894 0.1026195056747507 0 -0.027475210142874639 0.1070410266531074 0 -0.01230642451065894 0.1026195056747507 0 -0.019458462906977361 0.094827895271056811 0 -0.027475210142874639 0.1070410266531074 0 -0.019458462906977361 0.094827895271056811 0 -0.027475210142874639 0.1070410266531074 0 -0.029119122579259499 0.09318957721682547 0 -0.01262523929061626 0.1132272638014033 0 -0.027475210142874639 0.1070410266531074 0 -0.027830933891999851 0.1239060617657898 0 -0.010720384199255939 0.078752651868210011 0 -0.01705402154331934 0.061950629191034431 0 0.00071743071421113101 0.082996049882538545 0 -0.01705402154331934 0.061950629191034431 0 0.00071743071421113101 0.082996049882538545 0 -0.010720384199255939 0.078752651868210011 0 -0.018288038417232221 0.078491825636994805 0 -0.01705402154331934 0.061950629191034431 0 -0.01705402154331934 0.061950629191034431 0 0.00071743071421113101 0.082996049882538545 0 0.01024020443259166 0.063630945254506757 0 -0.0082569075506830486 0.09157210276227154 0 -0.018288038417232221 0.078491825636994805 0 -0.010720384199255939 0.078752651868210011 0 -0.0082569075506830486 0.09157210276227154 0 -0.018288038417232221 0.078491825636994805 0 -0.010720384199255939 0.078752651868210011 0 -0.0082569075506830486 0.09157210276227154 0 0.00071743071421113101 0.082996049882538545 0 -0.019458462906977361 0.094827895271056811 0 -0.0082569075506830486 0.09157210276227154 0 -0.024187835525003091 0.084144818071322666 0 -0.0082569075506830486 0.09157210276227154 0 -0.024187835525003091 0.084144818071322666 0 -0.0082569075506830486 0.09157210276227154 0 -0.024187835525003091 0.084144818071322666 0 -0.018288038417232221 0.078491825636994805 0 -0.019458462906977361 0.094827895271056811 0 -0.024187835525003091 0.084144818071322666 0 -0.019458462906977361 0.094827895271056811 0 -0.029119122579259499 0.09318957721682547 0 -0.024187835525003091 0.084144818071322666 0 -0.029119122579259499 0.09318957721682547 0 -0.024187835525003091 0.084144818071322666 0 -0.03083531514346477 0.081045643705382503 0 -0.024187835525003091 0.084144818071322666 0 -0.03083531514346477 0.081045643705382503 0 -0.024187835525003091 0.084144818071322666 0 -0.03083531514346477 0.081045643705382503 0 -0.027565504159088171 0.076515075674730287 0 -0.03083531514346477 0.081045643705382503 0 -0.027565504159088171 0.076515075674730287 0 -0.024187835525003091 0.084144818071322666 0 -0.027565504159088171 0.076515075674730287 0 -0.024187835525003091 0.084144818071322666 0 -0.018288038417232221 0.078491825636994805 0 -0.027565504159088171 0.076515075674730287 0 -0.018288038417232221 0.078491825636994805 0 -0.027565504159088171 0.076515075674730287 0 -0.01705402154331934 0.061950629191034431 0 -0.027565504159088171 0.076515075674730287 0 -0.01705402154331934 0.061950629191034431 0 -0.021841986545648558 0.056280595236013913 0 -0.03083531514346477 0.081045643705382503 0 -0.027565504159088171 0.076515075674730287 0 -0.034193918662048163 0.074491953501348157 0 -0.027565504159088171 0.076515075674730287 0 -0.01705402154331934 0.061950629191034431 0 -0.03083531514346477 0.081045643705382503 0 -0.038928994005400022 0.071759025550859501 0 -0.051245506604646919 0.071530045943380388 0 -0.027565504159088171 0.076515075674730287 0 -0.040954791503196392 0.064930635826137839 0 -0.039433996195167777 0.049705596509888268 0 -0.027565504159088171 0.076515075674730287 0 -0.039433996195167777 0.049705596509888268 0 -0.03083531514346477 0.081045643705382503 0 -0.051245506604646919 0.071530045943380388 0 -0.045499819874481789 0.066345848240130692 0 -0.040954791503196392 0.064930635826137839 0 -0.050255006666763163 0.063058482648281372 0 -0.045499819874481789 0.066345848240130692 0 -0.038928994005400022 0.071759025550859501 0 -0.051245506604646919 0.071530045943380388 0 -0.045499819874481789 0.066345848240130692 0 -0.040954791503196392 0.064930635826137839 0 -0.038928994005400022 0.071759025550859501 0 -0.040954791503196392 0.064930635826137839 0 -0.038928994005400022 0.071759025550859501 0 -0.034193918662048163 0.074491953501348157 0 -0.027565504159088171 0.076515075674730287 0 -0.040954791503196392 0.064930635826137839 0 -0.034193918662048163 0.074491953501348157 0 -0.03083531514346477 0.081045643705382503 0 -0.038928994005400022 0.071759025550859501 0 -0.034193918662048163 0.074491953501348157 0 -0.03083531514346477 0.081045643705382503 0 -0.046955627808730818 0.085277561412526792 0 -0.043519666704100339 0.098620762862048919 0 -0.029119122579259499 0.09318957721682547 0 -0.03083531514346477 0.081045643705382503 0 -0.043519666704100339 0.098620762862048919 0 -0.03083531514346477 0.081045643705382503 0 -0.046955627808730818 0.085277561412526792 0 -0.051245506604646919 0.071530045943380388 0 -0.03083531514346477 0.081045643705382503 0 -0.043519666704100339 0.098620762862048919 0 -0.046955627808730818 0.085277561412526792 0 -0.043519666704100339 0.098620762862048919 0 -0.060934674973441461 0.0954241644125986 0 -0.058749351031305297 0.083082137596051819 0 -0.046955627808730818 0.085277561412526792 0 -0.060934674973441461 0.0954241644125986 0 -0.058749351031305297 0.083082137596051819 0 -0.046955627808730818 0.085277561412526792 0 -0.051245506604646919 0.071530045943380388 0 -0.051245506604646919 0.071530045943380388 0 -0.07165569806582929 0.062014448181378683 0 -0.060388926253016943 0.059940429059534443 0 -0.051245506604646919 0.071530045943380388 0 -0.07165569806582929 0.062014448181378683 0 -0.058749351031305297 0.083082137596051819 0 -0.051245506604646919 0.071530045943380388 0 -0.065905024564218373 0.076251268684977225 0 -0.051245506604646919 0.071530045943380388 0 -0.050255006666763163 0.063058482648281372 0 -0.060388926253016943 0.059940429059534443 0 -0.045499819874481789 0.066345848240130692 0 -0.051245506604646919 0.071530045943380388 0 -0.050255006666763163 0.063058482648281372 0 -0.027475210142874639 0.1070410266531074 0 -0.027830933891999851 0.1239060617657898 0 -0.045818378965959153 0.1208251469539086 0 -0.027475210142874639 0.1070410266531074 0 -0.045818378965959153 0.1208251469539086 0 -0.043519666704100339 0.098620762862048919 0 -0.027475210142874639 0.1070410266531074 0 -0.029119122579259499 0.09318957721682547 0 -0.043519666704100339 0.098620762862048919 0 -0.043519666704100339 0.098620762862048919 0 -0.060934674973441461 0.0954241644125986 0 -0.065744489205689746 0.1121566956086604 0 -0.045818378965959153 0.1208251469539086 0 -0.043519666704100339 0.098620762862048919 0 -0.065744489205689746 0.1121566956086604 0 -0.062758672737250637 0.1322380899330528 0 -0.045818378965959153 0.1208251469539086 0 -0.065744489205689746 0.1121566956086604 0 -0.062758672737250637 0.1322380899330528 0 -0.080133902659946604 0.1250935708699461 0 -0.065744489205689746 0.1121566956086604 0 -0.080133902659946604 0.1250935708699461 0 -0.065744489205689746 0.1121566956086604 0 -0.085838538931631611 0.1107841183316865 0 -0.080133902659946604 0.1250935708699461 0 -0.085838538931631611 0.1107841183316865 0 -0.097669041225090319 0.1203247116941496 0 -0.085838538931631611 0.1107841183316865 0 -0.0776034872924386 0.0993131373363558 0 -0.089058950117302166 0.090270675594790503 0 -0.085838538931631611 0.1107841183316865 0 -0.089058950117302166 0.090270675594790503 0 -0.1040009851069383 0.1012563865690491 0 -0.065744489205689746 0.1121566956086604 0 -0.085838538931631611 0.1107841183316865 0 -0.0776034872924386 0.0993131373363558 0 -0.060934674973441461 0.0954241644125986 0 -0.065744489205689746 0.1121566956086604 0 -0.0776034872924386 0.0993131373363558 0 -0.060934674973441461 0.0954241644125986 0 -0.0776034872924386 0.0993131373363558 0 -0.071573670332393799 0.088485413293678067 0 -0.058749351031305297 0.083082137596051819 0 -0.060934674973441461 0.0954241644125986 0 -0.071573670332393799 0.088485413293678067 0 -0.058749351031305297 0.083082137596051819 0 -0.071573670332393799 0.088485413293678067 0 -0.065905024564218373 0.076251268684977225 0 -0.071573670332393799 0.088485413293678067 0 -0.065905024564218373 0.076251268684977225 0 -0.076581791645042988 0.076588398208552927 0 -0.051245506604646919 0.071530045943380388 0 -0.065905024564218373 0.076251268684977225 0 -0.07165569806582929 0.062014448181378683 0 -0.065905024564218373 0.076251268684977225 0 -0.076581791645042988 0.076588398208552927 0 -0.07165569806582929 0.062014448181378683 0 -0.076581791645042988 0.076588398208552927 0 -0.088706569289731363 0.072229955220136199 0 -0.07165569806582929 0.062014448181378683 0 -0.076581791645042988 0.076588398208552927 0 -0.088706569289731363 0.072229955220136199 0 -0.089058950117302166 0.090270675594790503 0 -0.071573670332393799 0.088485413293678067 0 -0.076581791645042988 0.076588398208552927 0 -0.089058950117302166 0.090270675594790503 0 -0.0776034872924386 0.0993131373363558 0 -0.071573670332393799 0.088485413293678067 0 -0.089058950117302166 0.090270675594790503 0 -0.089058950117302166 0.090270675594790503 0 -0.1094555270779356 0.073621340801095281 0 -0.1040009851069383 0.1012563865690491 0 -0.088706569289731363 0.072229955220136199 0 -0.089058950117302166 0.090270675594790503 0 -0.1094555270779356 0.073621340801095281 0 -0.1094555270779356 0.073621340801095281 0 -0.114359566732239 0.093311859576068468 0 -0.1040009851069383 0.1012563865690491 0 -0.088706569289731363 0.072229955220136199 0 -0.1094555270779356 0.073621340801095281 0 -0.092065889527012612 0.052498850419378892 0 -0.1094555270779356 0.073621340801095281 0 -0.092065889527012612 0.052498850419378892 0 -0.1252666604348221 0.070542966733564166 0 -0.1094555270779356 0.073621340801095281 0 -0.1090011903632037 0.057364445806786207 0 -0.128183722873703 0.082113680407344514 0 -0.1252666604348221 0.070542966733564166 0 -0.1094555270779356 0.073621340801095281 0 -0.126845164628859 0.09474383118281135 0 -0.1094555270779356 0.073621340801095281 0 -0.126845164628859 0.09474383118281135 0 -0.128183722873703 0.082113680407344514 0 -0.1094555270779356 0.073621340801095281 0 -0.126845164628859 0.09474383118281135 0 -0.1094555270779356 0.073621340801095281 0 -0.114359566732239 0.093311859576068468 0 -0.126845164628859 0.09474383118281135 0 -0.114359566732239 0.093311859576068468 0 -0.1171365901152232 0.10362587975131821 0 -0.12578778327086221 0.11214915239271379 0 -0.126845164628859 0.09474383118281135 0 -0.1171365901152232 0.10362587975131821 0 -0.1171365901152232 0.10362587975131821 0 -0.1141156269855213 0.1183021147213059 0 -0.1040009851069383 0.1012563865690491 0 -0.114359566732239 0.093311859576068468 0 -0.1171365901152232 0.10362587975131821 0 -0.1040009851069383 0.1012563865690491 0 -0.12578778327086221 0.11214915239271379 0 -0.12680750173299621 0.1280196635453191 0 -0.1141156269855213 0.1183021147213059 0 -0.12578778327086221 0.11214915239271379 0 -0.1171365901152232 0.10362587975131821 0 -0.1141156269855213 0.1183021147213059 0 -0.1141156269855213 0.1183021147213059 0 -0.097669041225090319 0.1203247116941496 0 -0.1040009851069383 0.1012563865690491 0 -0.085838538931631611 0.1107841183316865 0 -0.097669041225090319 0.1203247116941496 0 -0.1040009851069383 0.1012563865690491 0 -0.1157699872922227 0.02087568816518905 0 -0.095637027429161373 0.034963303176015308 0 -0.091901775404322872 0.018422839490239859 0 -0.1157699872922227 0.02087568816518905 0 -0.091901775404322872 0.018422839490239859 0 -0.106160311095697 0.00314100778111923 0 -0.091901775404322872 0.018422839490239859 0 -0.106160311095697 0.00314100778111923 0 -0.1157699872922227 0.02087568816518905 0 -0.091901775404322872 0.018422839490239859 0 -0.106160311095697 0.00314100778111923 0 -0.091901775404322872 0.018422839490239859 0 -0.088794869956502889 0.0020774473534828988 0 -0.106160311095697 0.00314100778111923 0 -0.1244915024809136 0.0055457178453759536 0 -0.1157699872922227 0.02087568816518905 0 -0.12626498513147269 0.036105804423548202 0 -0.1157699872922227 0.02087568816518905 0 -0.1092189075247587 0.041538796399112697 0 -0.12626498513147269 0.036105804423548202 0 -0.1194515709790074 0.047893840922291472 0 -0.1092189075247587 0.041538796399112697 0 -0.13332120089659441 0.056566317059718783 0 -0.1194515709790074 0.047893840922291472 0 -0.1090011903632037 0.057364445806786207 0 -0.1194515709790074 0.047893840922291472 0 -0.1090011903632037 0.057364445806786207 0 -0.1092189075247587 0.041538796399112697 0 -0.1252666604348221 0.070542966733564166 0 -0.13332120089659441 0.056566317059718783 0 -0.1090011903632037 0.057364445806786207 0 -0.1094555270779356 0.073621340801095281 0 -0.1090011903632037 0.057364445806786207 0 -0.092065889527012612 0.052498850419378892 0 -0.1090011903632037 0.057364445806786207 0 -0.10110010377319641 0.047964258620723267 0 -0.1092189075247587 0.041538796399112697 0 -0.1090011903632037 0.057364445806786207 0 -0.093751459120111305 0.051713007607549273 0 -0.092065889527012612 0.052498850419378892 0 -0.1090011903632037 0.057364445806786207 0 -0.10110010377319641 0.047964258620723267 0 -0.093751459120111305 0.051713007607549273 0 -0.10110010377319641 0.047964258620723267 0 -0.093751459120111305 0.051713007607549273 0 -0.09451393343256001 0.046072903374024067 0 -0.1157699872922227 0.02087568816518905 0 -0.1092189075247587 0.041538796399112697 0 -0.095637027429161373 0.034963303176015308 0 -0.10110010377319641 0.047964258620723267 0 -0.1092189075247587 0.041538796399112697 0 -0.099015028425348248 0.043132139916144133 0 -0.1092189075247587 0.041538796399112697 0 -0.099015028425348248 0.043132139916144133 0 -0.095637027429161373 0.034963303176015308 0 -0.099015028425348248 0.043132139916144133 0 -0.093772291365881499 0.041086389332022022 0 -0.095637027429161373 0.034963303176015308 0 -0.10110010377319641 0.047964258620723267 0 -0.099015028425348248 0.043132139916144133 0 -0.09451393343256001 0.046072903374024067 0 -0.099015028425348248 0.043132139916144133 0 -0.09451393343256001 0.046072903374024067 0 -0.093772291365881499 0.041086389332022022 0 -0.095637027429161373 0.034963303176015308 0 -0.089669329557222371 0.035858518634648548 0 -0.087494017763772053 0.031054662872551819 0 -0.092065889527012612 0.052498850419378892 0 -0.077085352196237467 0.034302596773746051 0 -0.087881711089013728 0.042803868538093648 0 -0.092065889527012612 0.052498850419378892 0 -0.077085352196237467 0.034302596773746051 0 -0.092065889527012612 0.052498850419378892 0 -0.077099255282502124 0.049051490024252978 0 -0.077085352196237467 0.034302596773746051 0 -0.089669329557222371 0.035858518634648548 0 -0.08622181499586673 0.036799018616376113 0 -0.087494017763772053 0.031054662872551819 0 -0.089669329557222371 0.035858518634648548 0 -0.08622181499586673 0.036799018616376113 0 -0.088978664373088059 0.039975446262840483 0 -0.093772291365881499 0.041086389332022022 0 -0.095637027429161373 0.034963303176015308 0 -0.089669329557222371 0.035858518634648548 0 -0.093772291365881499 0.041086389332022022 0 -0.089669329557222371 0.035858518634648548 0 -0.088978664373088059 0.039975446262840483 0 -0.093772291365881499 0.041086389332022022 0 -0.090688344203067234 0.042890443239779197 0 -0.088978664373088059 0.039975446262840483 0 -0.09451393343256001 0.046072903374024067 0 -0.093772291365881499 0.041086389332022022 0 -0.090688344203067234 0.042890443239779197 0 -0.091222948274561885 0.045667969446343749 0 -0.087881711089013728 0.042803868538093648 0 -0.091921827639420972 0.048057620711693977 0 -0.09451393343256001 0.046072903374024067 0 -0.091222948274561885 0.045667969446343749 0 -0.091921827639420972 0.048057620711693977 0 -0.09451393343256001 0.046072903374024067 0 -0.090688344203067234 0.042890443239779197 0 -0.091222948274561885 0.045667969446343749 0 -0.090688344203067234 0.042890443239779197 0 -0.091222948274561885 0.045667969446343749 0 -0.087881711089013728 0.042803868538093648 0 -0.08622181499586673 0.036799018616376113 0 -0.088978664373088059 0.039975446262840483 0 -0.087881711089013728 0.042803868538093648 0 -0.090688344203067234 0.042890443239779197 0 -0.088978664373088059 0.039975446262840483 0 -0.087881711089013728 0.042803868538093648 0 -0.08622181499586673 0.036799018616376113 0 -0.077085352196237467 0.034302596773746051 0 -0.087494017763772053 0.031054662872551819 0 -0.08622181499586673 0.036799018616376113 0 -0.087881711089013728 0.042803868538093648 0 -0.077085352196237467 0.034302596773746051 0 -0.092065889527012612 0.052498850419378892 0 -0.07165569806582929 0.062014448181378683 0 -0.088706569289731363 0.072229955220136199 0 -0.092065889527012612 0.052498850419378892 0 -0.07165569806582929 0.062014448181378683 0 -0.092065889527012612 0.052498850419378892 0 -0.07165569806582929 0.062014448181378683 0 -0.077099255282502124 0.049051490024252978 0 -0.087881711089013728 0.042803868538093648 0 -0.092065889527012612 0.052498850419378892 0 -0.091921827639420972 0.048057620711693977 0 -0.093751459120111305 0.051713007607549273 0 -0.092065889527012612 0.052498850419378892 0 -0.093751459120111305 0.051713007607549273 0 -0.092065889527012612 0.052498850419378892 0 -0.091921827639420972 0.048057620711693977 0 -0.093751459120111305 0.051713007607549273 0 -0.09451393343256001 0.046072903374024067 0 -0.091921827639420972 0.048057620711693977 0 -0.07165569806582929 0.062014448181378683 0 -0.077099255282502124 0.049051490024252978 0 -0.06367017943150044 0.048680539711013777 0 -0.07165569806582929 0.062014448181378683 0 -0.06367017943150044 0.048680539711013777 0 -0.060388926253016943 0.059940429059534443 0 -0.077085352196237467 0.034302596773746051 0 -0.068001512625911933 0.02439993496091377 0 -0.061067303098935329 0.0378714777260757 0 -0.06367017943150044 0.048680539711013777 0 -0.077085352196237467 0.034302596773746051 0 -0.061067303098935329 0.0378714777260757 0 -0.06367017943150044 0.048680539711013777 0 -0.077085352196237467 0.034302596773746051 0 -0.077099255282502124 0.049051490024252978 0 -0.06367017943150044 0.048680539711013777 0 -0.077085352196237467 0.034302596773746051 0 -0.068001512625911933 0.02439993496091377 0 -0.068200505723698457 0.011022737329371131 0 -0.051302488231243872 0.022896117345044951 0 -0.068001512625911933 0.02439993496091377 0 -0.074775162122397321 0.01666280020064681 0 -0.068200505723698457 0.011022737329371131 0 -0.068001512625911933 0.02439993496091377 0 -0.074775162122397321 0.01666280020064681 0 -0.077577774164575258 0.025384870069374191 0 -0.077085352196237467 0.034302596773746051 0 -0.068001512625911933 0.02439993496091377 0 -0.077577774164575258 0.025384870069374191 0 -0.095637027429161373 0.034963303176015308 0 -0.091901775404322872 0.018422839490239859 0 -0.087494017763772053 0.031054662872551819 0 -0.077085352196237467 0.034302596773746051 0 -0.091901775404322872 0.018422839490239859 0 -0.087494017763772053 0.031054662872551819 0 -0.074775162122397321 0.01666280020064681 0 -0.077577774164575258 0.025384870069374191 0 -0.091901775404322872 0.018422839490239859 0 -0.074775162122397321 0.01666280020064681 0 -0.091901775404322872 0.018422839490239859 0 -0.077085352196237467 0.034302596773746051 0 -0.091901775404322872 0.018422839490239859 0 -0.077085352196237467 0.034302596773746051 0 -0.077577774164575258 0.025384870069374191 0 -0.091901775404322872 0.018422839490239859 0 -0.074775162122397321 0.01666280020064681 0 -0.091901775404322872 0.018422839490239859 0 -0.079109531595708799 0.0067983992113995828 0 -0.072614617322450503 -0.0017986499446109509 0 -0.088794869956502889 0.0020774473534828988 0 -0.079109531595708799 0.0067983992113995828 0 -0.091901775404322872 0.018422839490239859 0 -0.088794869956502889 0.0020774473534828988 0 -0.079109531595708799 0.0067983992113995828 0 -0.072614617322450503 -0.0017986499446109509 0 -0.079109531595708799 0.0067983992113995828 0 -0.068200505723698457 0.011022737329371131 0 -0.074775162122397321 0.01666280020064681 0 -0.079109531595708799 0.0067983992113995828 0 -0.068200505723698457 0.011022737329371131 0 -0.063170980267319959 -0.0039133618197983722 0 -0.072614617322450503 -0.0017986499446109509 0 -0.068200505723698457 0.011022737329371131 0 -0.063170980267319959 -0.0039133618197983722 0 -0.051302488231243872 0.022896117345044951 0 -0.063170980267319959 -0.0039133618197983722 0 -0.048166481511877079 -0.0026666811730515108 0 -0.051302488231243872 0.022896117345044951 0 -0.063170980267319959 -0.0039133618197983722 0 -0.068200505723698457 0.011022737329371131 0 -0.051302488231243872 0.022896117345044951 0 -0.068001512625911933 0.02439993496091377 0 -0.051302488231243872 0.022896117345044951 0 -0.061067303098935329 0.0378714777260757 0 -0.051302488231243872 0.022896117345044951 0 -0.033279244125856672 0.01789472771413823 0 -0.02819371544160354 0.031206582740240199 0 -0.048166481511877079 -0.0026666811730515108 0 -0.051302488231243872 0.022896117345044951 0 -0.036644324012998372 0.0044976539374149303 0 -0.051302488231243872 0.022896117345044951 0 -0.033279244125856672 0.01789472771413823 0 -0.036644324012998372 0.0044976539374149303 0 -0.040954791503196392 0.064930635826137839 0 -0.050255006666763163 0.063058482648281372 0 -0.051199251522696762 0.051670387082652133 0 -0.050255006666763163 0.063058482648281372 0 -0.06367017943150044 0.048680539711013777 0 -0.050255006666763163 0.063058482648281372 0 -0.06367017943150044 0.048680539711013777 0 -0.060388926253016943 0.059940429059534443 0 -0.050255006666763163 0.063058482648281372 0 -0.06367017943150044 0.048680539711013777 0 -0.051199251522696762 0.051670387082652133 0 -0.051199251522696762 0.051670387082652133 0 -0.061067303098935329 0.0378714777260757 0 -0.039433996195167777 0.049705596509888268 0 -0.051302488231243872 0.022896117345044951 0 -0.061067303098935329 0.0378714777260757 0 -0.039433996195167777 0.049705596509888268 0 -0.06367017943150044 0.048680539711013777 0 -0.051199251522696762 0.051670387082652133 0 -0.061067303098935329 0.0378714777260757 0 -0.039433996195167777 0.049705596509888268 0 -0.02773255349440883 0.045219331454174193 0 -0.02819371544160354 0.031206582740240199 0 -0.051302488231243872 0.022896117345044951 0 -0.039433996195167777 0.049705596509888268 0 -0.051302488231243872 0.022896117345044951 0 -0.039433996195167777 0.049705596509888268 0 -0.02819371544160354 0.031206582740240199 0 -0.040954791503196392 0.064930635826137839 0 -0.051199251522696762 0.051670387082652133 0 -0.039433996195167777 0.049705596509888268 0 -0.027565504159088171 0.076515075674730287 0 -0.039433996195167777 0.049705596509888268 0 -0.021841986545648558 0.056280595236013913 0 -0.021841986545648558 0.056280595236013913 0 -0.02773255349440883 0.045219331454174193 0 -0.0016232171473519049 0.040570093919217613 0 -0.039433996195167777 0.049705596509888268 0 -0.021841986545648558 0.056280595236013913 0 -0.02773255349440883 0.045219331454174193 0 -0.01705402154331934 0.061950629191034431 0 -0.021841986545648558 0.056280595236013913 0 -0.02773255349440883 0.045219331454174193 0 -0.0016232171473519049 0.040570093919217613 0 -0.02819371544160354 0.031206582740240199 0 -0.01705402154331934 0.061950629191034431 0 -0.0016232171473519049 0.040570093919217613 0 0.01024020443259166 0.063630945254506757 0 -0.01705402154331934 0.061950629191034431 0 -0.0016232171473519049 0.040570093919217613 0 -0.01705402154331934 0.061950629191034431 0 -0.021841986545648558 0.056280595236013913 0 -0.0016232171473519049 0.040570093919217613 0 -0.033279244125856672 0.01789472771413823 0 -0.036644324012998372 0.0044976539374149303 0 -0.015373309173201819 0.01024062691627557 0 -0.031623919045595528 -0.012385244062267931 0 -0.036644324012998372 0.0044976539374149303 0 -0.015373309173201819 0.01024062691627557 0 -0.033279244125856672 0.01789472771413823 0 -0.02819371544160354 0.031206582740240199 0 -0.015373309173201819 0.01024062691627557 0 -0.0016232171473519049 0.040570093919217613 0 -0.015373309173201819 0.01024062691627557 0 0.013807587248616219 0.019189558647401319 0 -0.0016232171473519049 0.040570093919217613 0 -0.02819371544160354 0.031206582740240199 0 -0.015373309173201819 0.01024062691627557 0 -0.015373309173201819 0.01024062691627557 0 0.013807587248616219 0.019189558647401319 0 0.010138315020404831 -0.0065203858659953822 0 -0.0016232171473519049 0.040570093919217613 0 0.013807587248616219 0.019189558647401319 0 -0.0016232171473519049 0.040570093919217613 0 0.013807587248616219 0.019189558647401319 0 0.02738060838540227 0.032398256387425557 0 0.013807587248616219 0.019189558647401319 0 0.02738060838540227 0.032398256387425557 0 0.036481334193032601 0.014519958560285481 0 0.013807587248616219 0.019189558647401319 0 0.029238391644584319 -0.0021909766244149272 0 0.010138315020404831 -0.0065203858659953822 0 0.013807587248616219 0.019189558647401319 0 0.029238391644584319 -0.0021909766244149272 0 0.013807587248616219 0.019189558647401319 0 0.036481334193032601 0.014519958560285481 0 0.029238391644584319 -0.0021909766244149272 0 -0.0016232171473519049 0.040570093919217613 0 0.027139557347436359 0.051540677462093863 0 0.01024020443259166 0.063630945254506757 0 -0.0016232171473519049 0.040570093919217613 0 0.02738060838540227 0.032398256387425557 0 0.027139557347436359 0.051540677462093863 0 0.027139557347436359 0.051540677462093863 0 0.032895189947601017 0.066292115738055157 0 0.01024020443259166 0.063630945254506757 0 0.027139557347436359 0.051540677462093863 0 0.043382459766843358 0.04803136776020682 0 0.032895189947601017 0.066292115738055157 0 0.043382459766843358 0.04803136776020682 0 0.049237672797565128 0.072972527439686796 0 0.032895189947601017 0.066292115738055157 0 0.02738060838540227 0.032398256387425557 0 0.043382459766843358 0.04803136776020682 0 0.04527243209404655 0.026873942325822141 0 0.02738060838540227 0.032398256387425557 0 0.027139557347436359 0.051540677462093863 0 0.043382459766843358 0.04803136776020682 0 0.043382459766843358 0.04803136776020682 0 0.061182198733424453 0.031987338853874933 0 0.060029897190512063 0.053288682904415269 0 0.043382459766843358 0.04803136776020682 0 0.061182198733424453 0.031987338853874933 0 0.04527243209404655 0.026873942325822141 0 0.043382459766843358 0.04803136776020682 0 0.060029897190512063 0.053288682904415269 0 0.049237672797565128 0.072972527439686796 0 0.036481334193032601 0.014519958560285481 0 0.045576029056321993 0.002793119374080871 0 0.05450724502495348 0.01255240386668972 0 0.036481334193032601 0.014519958560285481 0 0.045576029056321993 0.002793119374080871 0 0.029238391644584319 -0.0021909766244149272 0 0.036481334193032601 0.014519958560285481 0 0.04527243209404655 0.026873942325822141 0 0.05450724502495348 0.01255240386668972 0 0.02738060838540227 0.032398256387425557 0 0.036481334193032601 0.014519958560285481 0 0.04527243209404655 0.026873942325822141 0 0.061182198733424453 0.031987338853874933 0 0.04527243209404655 0.026873942325822141 0 0.05450724502495348 0.01255240386668972 0 0.061182198733424453 0.031987338853874933 0 0.05450724502495348 0.01255240386668972 0 0.07163786968568911 0.016479956826439109 0 0.05450724502495348 0.01255240386668972 0 0.068147151578279469 0.0024892700255923841 0 0.056449116712804587 -0.0042863267219035439 0 0.045576029056321993 0.002793119374080871 0 0.05450724502495348 0.01255240386668972 0 0.056449116712804587 -0.0042863267219035439 0 0.05450724502495348 0.01255240386668972 0 0.068147151578279469 0.0024892700255923841 0 0.07163786968568911 0.016479956826439109 0 0.068147151578279469 0.0024892700255923841 0 0.081657630785721871 0.0011819917310352389 0 0.07163786968568911 0.016479956826439109 0 0.081657630785721871 0.0011819917310352389 0 0.09104488390540888 0.01747598043039714 0 0.097757553091398872 0.0052071033216778426 0 0.081657630785721871 0.0011819917310352389 0 0.09104488390540888 0.01747598043039714 0 0.07163786968568911 0.016479956826439109 0 0.09104488390540888 0.01747598043039714 0 0.079154989101507173 0.029340829122650559 0 0.097553124149889966 0.037517195580911433 0 0.09104488390540888 0.01747598043039714 0 0.079154989101507173 0.029340829122650559 0 0.07163786968568911 0.016479956826439109 0 0.061182198733424453 0.031987338853874933 0 0.079154989101507173 0.029340829122650559 0 0.07163786968568911 0.016479956826439109 0 0.061182198733424453 0.031987338853874933 0 0.060029897190512063 0.053288682904415269 0 0.077682694377965336 0.047442707169799557 0 0.061182198733424453 0.031987338853874933 0 0.079154989101507173 0.029340829122650559 0 0.077682694377965336 0.047442707169799557 0 0.060029897190512063 0.053288682904415269 0 0.077682694377965336 0.047442707169799557 0 0.072309969918045031 0.068854872809975071 0 0.077682694377965336 0.047442707169799557 0 0.097553124149889966 0.037517195580911433 0 0.096039541050050692 0.064137609229820661 0 0.077682694377965336 0.047442707169799557 0 0.096039541050050692 0.064137609229820661 0 0.072309969918045031 0.068854872809975071 0 0.079154989101507173 0.029340829122650559 0 0.077682694377965336 0.047442707169799557 0 0.097553124149889966 0.037517195580911433 0 0.097553124149889966 0.037517195580911433 0 0.1153188607323171 0.051243140683538323 0 0.096039541050050692 0.064137609229820661 0 0.1153188607323171 0.051243140683538323 0 0.1137583228970012 0.071172367495504804 0 0.096039541050050692 0.064137609229820661 0 0.1153188607323171 0.051243140683538323 0 0.1213157555966709 0.021115722371991719 0 0.13688591060685279 0.045750729231458287 0 0.097553124149889966 0.037517195580911433 0 0.1153188607323171 0.051243140683538323 0 0.1213157555966709 0.021115722371991719 0 0.1213157555966709 0.021115722371991719 0 0.12525309040336591 0.004296458316585686 0 0.10574560058648989 -0.003519284487475583 0 0.1213157555966709 0.021115722371991719 0 0.10574560058648989 -0.003519284487475583 0 0.12525309040336591 0.004296458316585686 0 0.10574560058648989 -0.003519284487475583 0 0.1213157555966709 0.021115722371991719 0 0.097757553091398872 0.0052071033216778426 0 0.10574560058648989 -0.003519284487475583 0 0.09104488390540888 0.01747598043039714 0 0.1213157555966709 0.021115722371991719 0 0.097757553091398872 0.0052071033216778426 0 0.09104488390540888 0.01747598043039714 0 0.097553124149889966 0.037517195580911433 0 0.1213157555966709 0.021115722371991719 0 0.096495084031902462 0.096046645312897541 0 0.1106777727675963 0.1009964126244058 0 0.083789742712786761 0.11150343754034819 0 0.1061826749312398 0.11468834119212371 0 0.1106777727675963 0.1009964126244058 0 0.083789742712786761 0.11150343754034819 0 0.1106777727675963 0.1009964126244058 0 0.083789742712786761 0.11150343754034819 0 0.096495084031902462 0.096046645312897541 0 0.1106777727675963 0.1009964126244058 0 0.1050171647887358 0.08601013003527308 0 0.1061826749312398 0.11468834119212371 0 0.083789742712786761 0.11150343754034819 0 0.1010617263854434 0.12932622443728839 0 0.1061826749312398 0.11468834119212371 0 0.1010617263854434 0.12932622443728839 0 0.1145731893853288 0.12574967003580509 0 0.1061826749312398 0.11468834119212371 0 0.11725305373706139 0.1082188650046616 0 0.1145731893853288 0.12574967003580509 0 0.11725305373706139 0.1082188650046616 0 0.13092519822255391 0.13160956931678069 0 0.11725305373706139 0.1082188650046616 0 0.1145731893853288 0.12574967003580509 0 0.13092519822255391 0.13160956931678069 0 0.11725305373706139 0.1082188650046616 0 0.1106777727675963 0.1009964126244058 0 0.12942052170595519 0.1035899573597841 0 0.1106777727675963 0.1009964126244058 0 0.13756580282240569 0.090489387708463556 0 0.1061826749312398 0.11468834119212371 0 0.11725305373706139 0.1082188650046616 0 0.1106777727675963 0.1009964126244058 0 0.1106777727675963 0.1009964126244058 0 0.1201320266132096 0.084500948092776612 0 0.1050171647887358 0.08601013003527308 0 0.1106777727675963 0.1009964126244058 0 0.1201320266132096 0.084500948092776612 0 0.13756580282240569 0.090489387708463556 0 0.1201320266132096 0.084500948092776612 0 0.1137583228970012 0.071172367495504804 0 0.1050171647887358 0.08601013003527308 0 0.1201320266132096 0.084500948092776612 0 0.1137583228970012 0.071172367495504804 0 0.13049657748916521 0.067865433904593361 0 0.1153188607323171 0.051243140683538323 0 0.1137583228970012 0.071172367495504804 0 0.13049657748916521 0.067865433904593361 0 0.1137583228970012 0.071172367495504804 0 0.096039541050050692 0.064137609229820661 0 0.1050171647887358 0.08601013003527308 0 0.096039541050050692 0.064137609229820661 0 0.1050171647887358 0.08601013003527308 0 0.086495655858491005 0.085676601051563078 0 0.096495084031902462 0.096046645312897541 0 0.1050171647887358 0.08601013003527308 0 0.086495655858491005 0.085676601051563078 0 0.096039541050050692 0.064137609229820661 0 0.086495655858491005 0.085676601051563078 0 0.072309969918045031 0.068854872809975071 0 0.072309969918045031 0.068854872809975071 0 0.066530464028072014 0.090501410707532814 0 0.049237672797565128 0.072972527439686796 0 0.086495655858491005 0.085676601051563078 0 0.072309969918045031 0.068854872809975071 0 0.066530464028072014 0.090501410707532814 0 0.066530464028072014 0.090501410707532814 0 0.083789742712786761 0.11150343754034819 0 0.059025044763030173 0.1087518526021421 0 0.096495084031902462 0.096046645312897541 0 0.086495655858491005 0.085676601051563078 0 0.083789742712786761 0.11150343754034819 0 0.086495655858491005 0.085676601051563078 0 0.066530464028072014 0.090501410707532814 0 0.083789742712786761 0.11150343754034819 0 0.083789742712786761 0.11150343754034819 0 0.084237679108802713 0.1341028262238593 0 0.1010617263854434 0.12932622443728839 0 0.083789742712786761 0.11150343754034819 0 0.084237679108802713 0.1341028262238593 0 0.070703689912959042 0.1272305434108828 0 0.083789742712786761 0.11150343754034819 0 0.056901712657977457 0.12201046245629039 0 0.083789742712786761 0.11150343754034819 0 0.056901712657977457 0.12201046245629039 0 0.059025044763030173 0.1087518526021421 0 0.083789742712786761 0.11150343754034819 0 0.056901712657977457 0.12201046245629039 0 0.070703689912959042 0.1272305434108828 0 0.051735259188989587 0.1195415281668001 0 0.047411723439462983 0.1175258181632768 0 0.046677117918780139 0.13545024371480571 0 0.056901712657977457 0.12201046245629039 0 0.051735259188989587 0.1195415281668001 0 0.055127891437249443 0.1300929474650683 0 0.051735259188989587 0.1195415281668001 0 0.047411723439462983 0.1175258181632768 0 0.051735259188989587 0.1195415281668001 0 0.047411723439462983 0.1175258181632768 0 0.059025044763030173 0.1087518526021421 0 0.056901712657977457 0.12201046245629039 0 0.051735259188989587 0.1195415281668001 0 0.059025044763030173 0.1087518526021421 0 0.047411723439462983 0.1175258181632768 0 0.059025044763030173 0.1087518526021421 0 0.048324698118514073 0.095249172801481763 0 0.047411723439462983 0.1175258181632768 0 0.048324698118514073 0.095249172801481763 0 0.066530464028072014 0.090501410707532814 0 0.059025044763030173 0.1087518526021421 0 0.048324698118514073 0.095249172801481763 0 0.048324698118514073 0.095249172801481763 0 0.032950303205601952 0.1107836443686601 0 0.031103707109760861 0.097678651938610098 0 0.047411723439462983 0.1175258181632768 0 0.048324698118514073 0.095249172801481763 0 0.032950303205601952 0.1107836443686601 0 0.047411723439462983 0.1175258181632768 0 0.032950303205601952 0.1107836443686601 0 0.03295414962720461 0.12117161940867251 0 0.047411723439462983 0.1175258181632768 0 0.03295414962720461 0.12117161940867251 0 0.04151058727913895 0.12567718140468501 0 0.047411723439462983 0.1175258181632768 0 0.032950303205601952 0.1107836443686601 0 0.060029897190512063 0.053288682904415269 0 0.072309969918045031 0.068854872809975071 0 0.049237672797565128 0.072972527439686796 0 0.048324698118514073 0.095249172801481763 0 0.049237672797565128 0.072972527439686796 0 0.066530464028072014 0.090501410707532814 0 0.048324698118514073 0.095249172801481763 0 0.049237672797565128 0.072972527439686796 0 0.048324698118514073 0.095249172801481763 0 0.049237672797565128 0.072972527439686796 0 0.026808539517389981 0.08298046092504896 0 0.048324698118514073 0.095249172801481763 0 0.026808539517389981 0.08298046092504896 0 0.031103707109760861 0.097678651938610098 0 0.049237672797565128 0.072972527439686796 0 0.032895189947601017 0.066292115738055157 0 0.026808539517389981 0.08298046092504896 0 0.032895189947601017 0.066292115738055157 0 0.026808539517389981 0.08298046092504896 0 0.01024020443259166 0.063630945254506757 0 -0.0082569075506830486 0.09157210276227154 0 0.00071743071421113101 0.082996049882538545 0 0.018488882971741141 0.104041470574043 0 0.026808539517389981 0.08298046092504896 0 0.00071743071421113101 0.082996049882538545 0 0.018488882971741141 0.104041470574043 0 0.00071743071421113101 0.082996049882538545 0 0.018488882971741141 0.104041470574043 0 0.026808539517389981 0.08298046092504896 0 0.00071743071421113101 0.082996049882538545 0 0.01024020443259166 0.063630945254506757 0 0.03295414962720461 0.12117161940867251 0 0.0170224067260401 0.1245355283894948 0 0.018488882971741141 0.104041470574043 0 0.03295414962720461 0.12117161940867251 0 0.018488882971741141 0.104041470574043 0 0.032950303205601952 0.1107836443686601 0 0.03295414962720461 0.12117161940867251 0 0.018488882971741141 0.104041470574043 0 0.032950303205601952 0.1107836443686601 0 0.018488882971741141 0.104041470574043 0 0.032950303205601952 0.1107836443686601 0 0.031103707109760861 0.097678651938610098 0 0.018488882971741141 0.104041470574043 0 0.026808539517389981 0.08298046092504896 0 0.031103707109760861 0.097678651938610098 0 0.018488882971741141 0.104041470574043 0 -0.0082569075506830486 0.09157210276227154 0 0.018488882971741141 0.104041470574043 0 0.0043827495876789559 0.1080538155758828 0 -0.0082569075506830486 0.09157210276227154 0 0.018488882971741141 0.104041470574043 0 -0.00234923473668735 0.126013591710122 0 0.0170224067260401 0.1245355283894948 0 0.0043827495876789559 0.1080538155758828 0 0.0170224067260401 0.1245355283894948 0 0.018488882971741141 0.104041470574043 0 0.0043827495876789559 0.1080538155758828 0 0.0170224067260401 0.1245355283894948 0 0.0043827495876789559 0.1080538155758828 0 -0.0070447272554695342 0.1448845090327511 0 -0.00234923473668735 0.126013591710122 0 0.010625184268196921 0.143007445643483 0 -0.00234923473668735 0.126013591710122 0 0.0170224067260401 0.1245355283894948 0 0.010625184268196921 0.143007445643483 0 0.0170224067260401 0.1245355283894948 0 0.029662063864401251 0.1410172412031068 0 0.0170224067260401 0.1245355283894948 0 0.029662063864401251 0.1410172412031068 0 0.010625184268196921 0.143007445643483 0 0.03295414962720461 0.12117161940867251 0 0.0170224067260401 0.1245355283894948 0 0.033042098076225372 0.13138207300264351 0 0.0170224067260401 0.1245355283894948 0 0.029662063864401251 0.1410172412031068 0 0.033042098076225372 0.13138207300264351 0 0.021691959360828 0.15277568619503989 0 0.029662063864401251 0.1410172412031068 0 0.03895843635681398 0.1455733632814124 0 0.021691959360828 0.15277568619503989 0 0.031809838414346828 0.1630288683319927 0 0.03895843635681398 0.1455733632814124 0 0.021691959360828 0.15277568619503989 0 0.029662063864401251 0.1410172412031068 0 0.010625184268196921 0.143007445643483 0 0.021691959360828 0.15277568619503989 0 0.010625184268196921 0.143007445643483 0 0.0053262060744851819 0.16863388086878259 0 -0.0070447272554695342 0.1448845090327511 0 0.010625184268196921 0.143007445643483 0 0.0053262060744851819 0.16863388086878259 0 0.0053262060744851819 0.16863388086878259 0 0.0058333321409043681 0.18225442561424271 0 0.017485622034909179 0.17767519418941979 0 0.0058333321409043681 0.18225442561424271 0 0.017485622034909179 0.17767519418941979 0 0.01591896669443776 0.19151074894618911 0 0.017485622034909179 0.17767519418941979 0 0.028539766850371771 0.18294804718589189 0 0.031809838414346828 0.1630288683319927 0 0.017485622034909179 0.17767519418941979 0 0.028539766850371771 0.18294804718589189 0 0.01591896669443776 0.19151074894618911 0 0.021691959360828 0.15277568619503989 0 0.0053262060744851819 0.16863388086878259 0 0.031809838414346828 0.1630288683319927 0 0.0053262060744851819 0.16863388086878259 0 0.031809838414346828 0.1630288683319927 0 0.0053262060744851819 0.16863388086878259 0 0.017485622034909179 0.17767519418941979 0 0.031809838414346828 0.1630288683319927 0 0.031809838414346828 0.1630288683319927 0 0.058293470754208751 0.15742385579520371 0 0.031809838414346828 0.1630288683319927 0 0.058293470754208751 0.15742385579520371 0 0.045856116705355783 0.15548273014921041 0 0.031809838414346828 0.1630288683319927 0 0.046643596219139258 0.18461170369016511 0 0.051924580516547969 0.17103819708983409 0 0.028539766850371771 0.18294804718589189 0 0.031809838414346828 0.1630288683319927 0 0.046643596219139258 0.18461170369016511 0 0.046643596219139258 0.18461170369016511 0 0.051924580516547969 0.17103819708983409 0 0.062783318359261098 0.18312326552021771 0 0.046643596219139258 0.18461170369016511 0 0.057748249796153409 0.19203447624069589 0 0.062783318359261098 0.18312326552021771 0 0.051924580516547969 0.17103819708983409 0 0.062783318359261098 0.18312326552021771 0 0.066253483840850044 0.17248109813268789 0 0.031809838414346828 0.1630288683319927 0 0.051924580516547969 0.17103819708983409 0 0.058293470754208751 0.15742385579520371 0 0.058293470754208751 0.15742385579520371 0 0.066253483840850044 0.17248109813268789 0 0.051924580516547969 0.17103819708983409 0 0.058293470754208751 0.15742385579520371 0 0.066253483840850044 0.17248109813268789 0 0.058293470754208751 0.15742385579520371 0 0.046677117918780139 0.13545024371480571 0 0.065354722970161899 0.13905044467713429 0 0.058293470754208751 0.15742385579520371 0 0.046677117918780139 0.13545024371480571 0 0.058293470754208751 0.15742385579520371 0 0.046677117918780139 0.13545024371480571 0 0.045856116705355783 0.15548273014921041 0 0.062220002843372473 0.12966179059502911 0 0.055127891437249443 0.1300929474650683 0 0.065354722970161899 0.13905044467713429 0 0.047411723439462983 0.1175258181632768 0 0.046677117918780139 0.13545024371480571 0 0.051735259188989587 0.1195415281668001 0 0.055127891437249443 0.1300929474650683 0 0.046677117918780139 0.13545024371480571 0 0.055127891437249443 0.1300929474650683 0 0.046677117918780139 0.13545024371480571 0 0.065354722970161899 0.13905044467713429 0 0.056901712657977457 0.12201046245629039 0 0.062220002843372473 0.12966179059502911 0 0.055127891437249443 0.1300929474650683 0 0.047411723439462983 0.1175258181632768 0 0.046677117918780139 0.13545024371480571 0 0.04151058727913895 0.12567718140468501 0 0.046677117918780139 0.13545024371480571 0 0.033042098076225372 0.13138207300264351 0 0.03895843635681398 0.1455733632814124 0 0.046677117918780139 0.13545024371480571 0 0.04151058727913895 0.12567718140468501 0 0.046677117918780139 0.13545024371480571 0 0.04151058727913895 0.12567718140468501 0 0.033042098076225372 0.13138207300264351 0 0.03295414962720461 0.12117161940867251 0 0.04151058727913895 0.12567718140468501 0 0.033042098076225372 0.13138207300264351 0 0.029662063864401251 0.1410172412031068 0 0.033042098076225372 0.13138207300264351 0 0.03895843635681398 0.1455733632814124 0 0.046677117918780139 0.13545024371480571 0 0.03895843635681398 0.1455733632814124 0 0.045856116705355783 0.15548273014921041 0 0.046677117918780139 0.13545024371480571 0 0.045856116705355783 0.15548273014921041 0 0.031809838414346828 0.1630288683319927 0 0.03895843635681398 0.1455733632814124 0 0.045856116705355783 0.15548273014921041 0 0.021076663352301048 0.23497731405560299 0 0.038667251123650659 0.24964961311431011 0 0.01367960745766687 0.25392125463622539 0 -0.0016943515121305051 0.24261548295161911 0 0.021076663352301048 0.23497731405560299 0 0.01367960745766687 0.25392125463622539 0 -0.0016943515121305051 0.24261548295161911 0 0.021076663352301048 0.23497731405560299 0 -0.0016943515121305051 0.24261548295161911 0 0.021076663352301048 0.23497731405560299 0 0.0077324718411750622 0.22384322027559239 0 -0.0048081823676168122 0.2275017645993074 0 -0.0016943515121305051 0.24261548295161911 0 0.0077324718411750622 0.22384322027559239 0 0.021076663352301048 0.23497731405560299 0 0.028102373977874351 0.21816074300557231 0 0.043847678216732522 0.227339145159587 0 0.021076663352301048 0.23497731405560299 0 0.0077324718411750622 0.22384322027559239 0 0.028102373977874351 0.21816074300557231 0 0.0077324718411750622 0.22384322027559239 0 0.028102373977874351 0.21816074300557231 0 0.01177387100339692 0.20685907706766299 0 0.028102373977874351 0.21816074300557231 0 0.01177387100339692 0.20685907706766299 0 0.032679232054599189 0.20051959673270939 0 -0.0093825633464828494 0.21280007032764339 0 0.0077324718411750622 0.22384322027559239 0 0.01177387100339692 0.20685907706766299 0 -0.005007363463149549 0.19606497879233981 0 0.01177387100339692 0.20685907706766299 0 0.01591896669443776 0.19151074894618911 0 -0.005007363463149549 0.19606497879233981 0 0.0058333321409043681 0.18225442561424271 0 0.01591896669443776 0.19151074894618911 0 0.01177387100339692 0.20685907706766299 0 0.01591896669443776 0.19151074894618911 0 0.032679232054599189 0.20051959673270939 0 0.028539766850371771 0.18294804718589189 0 0.01591896669443776 0.19151074894618911 0 0.032679232054599189 0.20051959673270939 0 0.046643596219139258 0.18461170369016511 0 0.032679232054599189 0.20051959673270939 0 0.049201872718999611 0.1975147753559697 0 0.032679232054599189 0.20051959673270939 0 0.049201872718999611 0.1975147753559697 0 0.048515833318913348 0.20833489447589981 0 0.028539766850371771 0.18294804718589189 0 0.046643596219139258 0.18461170369016511 0 0.032679232054599189 0.20051959673270939 0 0.046643596219139258 0.18461170369016511 0 0.057748249796153409 0.19203447624069589 0 0.049201872718999611 0.1975147753559697 0 0.057748249796153409 0.19203447624069589 0 0.060422452206192828 0.20207320564037809 0 0.049201872718999611 0.1975147753559697 0 0.057748249796153409 0.19203447624069589 0 0.060422452206192828 0.20207320564037809 0 0.069002004355649613 0.1926778860800239 0 0.060422452206192828 0.20207320564037809 0 0.049201872718999611 0.1975147753559697 0 0.048515833318913348 0.20833489447589981 0 0.060422452206192828 0.20207320564037809 0 0.048515833318913348 0.20833489447589981 0 0.064352434583226523 0.2161501922190921 0 0.048515833318913348 0.20833489447589981 0 0.064352434583226523 0.2161501922190921 0 0.048515833318913348 0.20833489447589981 0 0.051576657341063988 0.22074241819339399 0 0.064352434583226523 0.2161501922190921 0 0.048515833318913348 0.20833489447589981 0 0.040944354981836677 0.21501935951343251 0 0.051576657341063988 0.22074241819339399 0 0.028102373977874351 0.21816074300557231 0 0.032679232054599189 0.20051959673270939 0 0.040944354981836677 0.21501935951343251 0 0.032679232054599189 0.20051959673270939 0 0.048515833318913348 0.20833489447589981 0 0.032679232054599189 0.20051959673270939 0 0.048515833318913348 0.20833489447589981 0 0.040944354981836677 0.21501935951343251 0 0.028102373977874351 0.21816074300557231 0 0.040944354981836677 0.21501935951343251 0 0.043847678216732522 0.227339145159587 0 0.021076663352301048 0.23497731405560299 0 0.043847678216732522 0.227339145159587 0 0.040944354981836677 0.21501935951343251 0 0.043847678216732522 0.227339145159587 0 0.051576657341063988 0.22074241819339399 0 0.051576657341063988 0.22074241819339399 0 0.051509842853438778 0.23289990266670119 0 0.064352434583226523 0.2161501922190921 0 0.051509842853438778 0.23289990266670119 0 0.063378756877538939 0.22893907340749661 0 0.064352434583226523 0.2161501922190921 0 0.051509842853438778 0.23289990266670119 0 0.064352434583226523 0.2161501922190921 0 0.051509842853438778 0.23289990266670119 0 0.060231806579804051 0.23709291779405339 0 0.063378756877538939 0.22893907340749661 0 0.043847678216732522 0.227339145159587 0 0.051576657341063988 0.22074241819339399 0 0.051509842853438778 0.23289990266670119 0 0.051509842853438778 0.23289990266670119 0 0.052378546889065347 0.24328072172038209 0 0.038667251123650659 0.24964961311431011 0 0.060231806579804051 0.23709291779405339 0 0.059269032206190578 0.24545283954995639 0 0.067210777492009807 0.2430324280245108 0 0.051509842853438778 0.23289990266670119 0 0.060231806579804051 0.23709291779405339 0 0.052378546889065347 0.24328072172038209 0 0.060231806579804051 0.23709291779405339 0 0.059269032206190578 0.24545283954995639 0 0.052378546889065347 0.24328072172038209 0 0.052378546889065347 0.24328072172038209 0 0.038667251123650659 0.24964961311431011 0 0.05221480168224267 0.25130833547688952 0 0.059269032206190578 0.24545283954995639 0 0.052378546889065347 0.24328072172038209 0 0.05221480168224267 0.25130833547688952 0 0.043847678216732522 0.227339145159587 0 0.051509842853438778 0.23289990266670119 0 0.038667251123650659 0.24964961311431011 0 0.051509842853438778 0.23289990266670119 0 0.038667251123650659 0.24964961311431011 0 0.021076663352301048 0.23497731405560299 0 0.043847678216732522 0.227339145159587 0 0.038667251123650659 0.24964961311431011 0 0.086294388966266247 0.2351734404859924 0 0.086386752426791419 0.25300817319846558 0 0.086294388966266247 0.2351734404859924 0 0.076796372185302691 0.24414023484413139 0 0.086386752426791419 0.25300817319846558 0 0.086294388966266247 0.2351734404859924 0 0.094307836819438551 0.24420522135148229 0 0.086386752426791419 0.25300817319846558 0 0.094307836819438551 0.24420522135148229 0 0.093740385013940566 0.25138217920187811 0 0.086386752426791419 0.25300817319846558 0 0.086294388966266247 0.2351734404859924 0 0.094193188673080991 0.2363372370710243 0 0.094307836819438551 0.24420522135148229 0 0.086294388966266247 0.2351734404859924 0 0.076796372185302691 0.24414023484413139 0 0.077807035056159574 0.2320782349990145 0 0.059269032206190578 0.24545283954995639 0 0.067210777492009807 0.2430324280245108 0 0.0661993880824812 0.25747188998628112 0 0.076796372185302691 0.24414023484413139 0 0.067210777492009807 0.2430324280245108 0 0.0661993880824812 0.25747188998628112 0 0.060231806579804051 0.23709291779405339 0 0.067210777492009807 0.2430324280245108 0 0.068922950669515717 0.2337179050917505 0 0.076796372185302691 0.24414023484413139 0 0.077807035056159574 0.2320782349990145 0 0.068922950669515717 0.2337179050917505 0 0.076796372185302691 0.24414023484413139 0 0.067210777492009807 0.2430324280245108 0 0.068922950669515717 0.2337179050917505 0 0.084630337808275405 0.22615725425635061 0 0.077326785179477914 0.21560778613482959 0 0.064352434583226523 0.2161501922190921 0 0.084630337808275405 0.22615725425635061 0 0.064352434583226523 0.2161501922190921 0 0.077807035056159574 0.2320782349990145 0 0.071818302998943234 0.2274085319947409 0 0.084630337808275405 0.22615725425635061 0 0.071818302998943234 0.2274085319947409 0 0.084630337808275405 0.22615725425635061 0 0.064352434583226523 0.2161501922190921 0 0.077807035056159574 0.2320782349990145 0 0.071818302998943234 0.2274085319947409 0 0.068922950669515717 0.2337179050917505 0 0.060231806579804051 0.23709291779405339 0 0.063378756877538939 0.22893907340749661 0 0.068922950669515717 0.2337179050917505 0 0.071818302998943234 0.2274085319947409 0 0.063378756877538939 0.22893907340749661 0 0.068922950669515717 0.2337179050917505 0 0.071818302998943234 0.2274085319947409 0 0.063378756877538939 0.22893907340749661 0 0.064352434583226523 0.2161501922190921 0 0.086294388966266247 0.2351734404859924 0 0.077807035056159574 0.2320782349990145 0 0.084630337808275405 0.22615725425635061 0 0.086294388966266247 0.2351734404859924 0 0.084630337808275405 0.22615725425635061 0 0.094193188673080991 0.2363372370710243 0 0.084630337808275405 0.22615725425635061 0 0.095020243483968841 0.22209546451315371 0 0.098917926321668209 0.22770877959535191 0 0.084630337808275405 0.22615725425635061 0 0.088235844163933569 0.21406315621875241 0 0.095020243483968841 0.22209546451315371 0 0.088235844163933569 0.21406315621875241 0 0.077326785179477914 0.21560778613482959 0 0.072088524162476214 0.20606054184512321 0 0.084630337808275405 0.22615725425635061 0 0.088235844163933569 0.21406315621875241 0 0.077326785179477914 0.21560778613482959 0 0.077326785179477914 0.21560778613482959 0 0.064352434583226523 0.2161501922190921 0 0.072088524162476214 0.20606054184512321 0 0.064352434583226523 0.2161501922190921 0 0.072088524162476214 0.20606054184512321 0 0.060422452206192828 0.20207320564037809 0 0.064352434583226523 0.2161501922190921 0 0.072088524162476214 0.20606054184512321 0 0.072088524162476214 0.20606054184512321 0 0.069002004355649613 0.1926778860800239 0 0.074213496927491907 0.1875383404701717 0 0.060422452206192828 0.20207320564037809 0 0.072088524162476214 0.20606054184512321 0 0.069002004355649613 0.1926778860800239 0 0.069002004355649613 0.1926778860800239 0 0.074213496927491907 0.1875383404701717 0 0.062783318359261098 0.18312326552021771 0 0.057748249796153409 0.19203447624069589 0 0.069002004355649613 0.1926778860800239 0 0.062783318359261098 0.18312326552021771 0 0.069002004355649613 0.1926778860800239 0 0.074213496927491907 0.1875383404701717 0 0.088235844163933569 0.21406315621875241 0 0.074213496927491907 0.1875383404701717 0 0.088235844163933569 0.21406315621875241 0 0.072088524162476214 0.20606054184512321 0 0.074213496927491907 0.1875383404701717 0 0.088235844163933569 0.21406315621875241 0 0.074213496927491907 0.1875383404701717 0 0.094363950061514268 0.2025333293367905 0 0.074213496927491907 0.1875383404701717 0 0.092358880407763563 0.18922969976025319 0 0.094363950061514268 0.2025333293367905 0 0.092358880407763563 0.18922969976025319 0 0.1034864586619072 0.19598482937565809 0 0.1024473199117768 0.18027499804503849 0 0.1034864586619072 0.19598482937565809 0 0.11256030128921241 0.19198112412852669 0 0.1024473199117768 0.18027499804503849 0 0.092358880407763563 0.18922969976025319 0 0.094363950061514268 0.2025333293367905 0 0.1034864586619072 0.19598482937565809 0 0.094363950061514268 0.2025333293367905 0 0.1034864586619072 0.19598482937565809 0 0.107700605867283 0.20948693144920369 0 0.1034864586619072 0.19598482937565809 0 0.1149444945443959 0.2013663972508804 0 0.107700605867283 0.20948693144920369 0 0.11256030128921241 0.19198112412852669 0 0.1221678421140763 0.19220506243095539 0 0.1127398698511806 0.18173785630590469 0 0.11256030128921241 0.19198112412852669 0 0.1221678421140763 0.19220506243095539 0 0.1149444945443959 0.2013663972508804 0 0.1221678421140763 0.19220506243095539 0 0.1149444945443959 0.2013663972508804 0 0.1242632625630455 0.20336060772865219 0 0.1034864586619072 0.19598482937565809 0 0.11256030128921241 0.19198112412852669 0 0.1149444945443959 0.2013663972508804 0 0.1149444945443959 0.2013663972508804 0 0.1187646787292337 0.20996571643394599 0 0.107700605867283 0.20948693144920369 0 0.1242632625630455 0.20336060772865219 0 0.1187646787292337 0.20996571643394599 0 0.12644912683104489 0.2130628739079603 0 0.1149444945443959 0.2013663972508804 0 0.1242632625630455 0.20336060772865219 0 0.1187646787292337 0.20996571643394599 0 0.1187646787292337 0.20996571643394599 0 0.12142948527772481 0.21847444014561021 0 0.1137681013180098 0.21707748705812821 0 0.1187646787292337 0.20996571643394599 0 0.12142948527772481 0.21847444014561021 0 0.12644912683104489 0.2130628739079603 0 0.1137681013180098 0.21707748705812821 0 0.1068418846253664 0.21806490346018731 0 0.107700605867283 0.20948693144920369 0 0.1187646787292337 0.20996571643394599 0 0.1137681013180098 0.21707748705812821 0 0.107700605867283 0.20948693144920369 0 0.1068418846253664 0.21806490346018731 0 0.107700605867283 0.20948693144920369 0 0.099242511126846858 0.2161240697917422 0 0.088235844163933569 0.21406315621875241 0 0.094363950061514268 0.2025333293367905 0 0.099242511126846858 0.2161240697917422 0 0.094363950061514268 0.2025333293367905 0 0.107700605867283 0.20948693144920369 0 0.099242511126846858 0.2161240697917422 0 0.088235844163933569 0.21406315621875241 0 0.099242511126846858 0.2161240697917422 0 0.095020243483968841 0.22209546451315371 0 0.084630337808275405 0.22615725425635061 0 0.1049082410333233 0.23616431629361101 0 0.084630337808275405 0.22615725425635061 0 0.1049082410333233 0.23616431629361101 0 0.094193188673080991 0.2363372370710243 0 0.084630337808275405 0.22615725425635061 0 0.098917926321668209 0.22770877959535191 0 0.1049082410333233 0.23616431629361101 0 0.099242511126846858 0.2161240697917422 0 0.095020243483968841 0.22209546451315371 0 0.1030344358543179 0.2239831982785408 0 0.095020243483968841 0.22209546451315371 0 0.098917926321668209 0.22770877959535191 0 0.1030344358543179 0.2239831982785408 0 0.098917926321668209 0.22770877959535191 0 0.1069963734284555 0.2301436646351035 0 0.1030344358543179 0.2239831982785408 0 0.098917926321668209 0.22770877959535191 0 0.1069963734284555 0.2301436646351035 0 0.1049082410333233 0.23616431629361101 0 0.1069963734284555 0.2301436646351035 0 0.10866213154585649 0.23536127808719851 0 0.1049082410333233 0.23616431629361101 0 0.1068418846253664 0.21806490346018731 0 0.099242511126846858 0.2161240697917422 0 0.1030344358543179 0.2239831982785408 0 0.1069963734284555 0.2301436646351035 0 0.1030344358543179 0.2239831982785408 0 0.1104637689603747 0.22365283072332179 0 0.1068418846253664 0.21806490346018731 0 0.1030344358543179 0.2239831982785408 0 0.1104637689603747 0.22365283072332179 0 0.1069963734284555 0.2301436646351035 0 0.11428781252174181 0.22894533259234809 0 0.1226590949404056 0.23717354926369011 0 0.1137681013180098 0.21707748705812821 0 0.1104637689603747 0.22365283072332179 0 0.1183661674027241 0.2254100931271972 0 0.1137681013180098 0.21707748705812821 0 0.1068418846253664 0.21806490346018731 0 0.1104637689603747 0.22365283072332179 0 0.1104637689603747 0.22365283072332179 0 0.1183661674027241 0.2254100931271972 0 0.11428781252174181 0.22894533259234809 0 0.1069963734284555 0.2301436646351035 0 0.1226590949404056 0.23717354926369011 0 0.12142948527772481 0.21847444014561021 0 0.1137681013180098 0.21707748705812821 0 0.1183661674027241 0.2254100931271972 0 0.12142948527772481 0.21847444014561021 0 0.1183661674027241 0.2254100931271972 0 0.1297993521076114 0.22685603020081921 0 0.1183661674027241 0.2254100931271972 0 0.1226590949404056 0.23717354926369011 0 0.1297993521076114 0.22685603020081921 0 0.1183661674027241 0.2254100931271972 0 0.11428781252174181 0.22894533259234809 0 0.1226590949404056 0.23717354926369011 0 0.1069963734284555 0.2301436646351035 0 0.1104637689603747 0.22365283072332179 0 0.11428781252174181 0.22894533259234809 0 0.1069963734284555 0.2301436646351035 0 0.11312631240678669 0.23598066707468929 0 0.10866213154585649 0.23536127808719851 0 0.11312631240678669 0.23598066707468929 0 0.10961759931486049 0.23915646434539031 0 0.10866213154585649 0.23536127808719851 0 0.1226590949404056 0.23717354926369011 0 0.1106309893471563 0.25455390487868651 0 0.12575341305293899 0.25323418257057778 0 0.1069963734284555 0.2301436646351035 0 0.11312631240678669 0.23598066707468929 0 0.1226590949404056 0.23717354926369011 0 0.1226590949404056 0.23717354926369011 0 0.10700587554075321 0.25299627826930687 0 0.1226590949404056 0.23717354926369011 0 0.1106309893471563 0.25455390487868651 0 0.10700587554075321 0.25299627826930687 0 0.11276201210550579 0.24148477968174431 0 0.1226590949404056 0.23717354926369011 0 0.10700587554075321 0.25299627826930687 0 0.11312631240678669 0.23598066707468929 0 0.11276201210550579 0.24148477968174431 0 0.1226590949404056 0.23717354926369011 0 0.1226590949404056 0.23717354926369011 0 0.1106309893471563 0.25455390487868651 0 0.11312631240678669 0.23598066707468929 0 0.10961759931486049 0.23915646434539031 0 0.11276201210550579 0.24148477968174431 0 0.10961759931486049 0.23915646434539031 0 0.11276201210550579 0.24148477968174431 0 0.108816048347102 0.2444162847690666 0 0.11276201210550579 0.24148477968174431 0 0.108816048347102 0.2444162847690666 0 0.10700587554075321 0.25299627826930687 0 0.1054161287471154 0.24704672322414239 0 0.108816048347102 0.2444162847690666 0 0.10700587554075321 0.25299627826930687 0 0.1054161287471154 0.24704672322414239 0 0.10128889761642219 0.24570430056913081 0 0.10349276209515069 0.25044513433366439 0 0.1052034928752707 0.24208257993585611 0 0.09998033140350715 0.24089873104422091 0 0.10128889761642219 0.24570430056913081 0 0.1054161287471154 0.24704672322414239 0 0.1052034928752707 0.24208257993585611 0 0.10128889761642219 0.24570430056913081 0 0.1054161287471154 0.24704672322414239 0 0.108816048347102 0.2444162847690666 0 0.1052034928752707 0.24208257993585611 0 0.10961759931486049 0.23915646434539031 0 0.108816048347102 0.2444162847690666 0 0.1052034928752707 0.24208257993585611 0 0.10961759931486049 0.23915646434539031 0 0.1049082410333233 0.23616431629361101 0 0.1052034928752707 0.24208257993585611 0 0.10961759931486049 0.23915646434539031 0 0.10866213154585649 0.23536127808719851 0 0.1049082410333233 0.23616431629361101 0 0.1049082410333233 0.23616431629361101 0 0.1052034928752707 0.24208257993585611 0 0.09998033140350715 0.24089873104422091 0 0.1049082410333233 0.23616431629361101 0 0.094193188673080991 0.2363372370710243 0 0.09998033140350715 0.24089873104422091 0 0.094193188673080991 0.2363372370710243 0 0.09998033140350715 0.24089873104422091 0 0.094307836819438551 0.24420522135148229 0 0.094307836819438551 0.24420522135148229 0 0.097252548718931506 0.2481992205224095 0 0.10128889761642219 0.24570430056913081 0 0.094307836819438551 0.24420522135148229 0 0.097252548718931506 0.2481992205224095 0 0.093740385013940566 0.25138217920187811 0 0.10128889761642219 0.24570430056913081 0 0.10349276209515069 0.25044513433366439 0 0.099673075425924712 0.25150518096714669 0 0.097252548718931506 0.2481992205224095 0 0.10128889761642219 0.24570430056913081 0 0.099673075425924712 0.25150518096714669 0 0.09998033140350715 0.24089873104422091 0 0.094307836819438551 0.24420522135148229 0 0.10128889761642219 0.24570430056913081 0 0.07801007838625458 0.15325102060619261 0 0.097726686018300618 0.1490781854171824 0 0.07801007838625458 0.15325102060619261 0 0.1030333614093927 0.15911634697550089 0 0.097726686018300618 0.1490781854171824 0 0.084237679108802713 0.1341028262238593 0 0.07801007838625458 0.15325102060619261 0 0.097726686018300618 0.1490781854171824 0 0.084237679108802713 0.1341028262238593 0 0.070703689912959042 0.1272305434108828 0 0.065354722970161899 0.13905044467713429 0 0.056901712657977457 0.12201046245629039 0 0.062220002843372473 0.12966179059502911 0 0.070703689912959042 0.1272305434108828 0 0.062220002843372473 0.12966179059502911 0 0.070703689912959042 0.1272305434108828 0 0.065354722970161899 0.13905044467713429 0 0.058293470754208751 0.15742385579520371 0 0.07801007838625458 0.15325102060619261 0 0.058293470754208751 0.15742385579520371 0 0.065354722970161899 0.13905044467713429 0 0.07801007838625458 0.15325102060619261 0 0.084237679108802713 0.1341028262238593 0 0.065354722970161899 0.13905044467713429 0 0.07801007838625458 0.15325102060619261 0 0.07801007838625458 0.15325102060619261 0 0.066253483840850044 0.17248109813268789 0 0.088623429168442763 0.17332734372283681 0 0.058293470754208751 0.15742385579520371 0 0.07801007838625458 0.15325102060619261 0 0.066253483840850044 0.17248109813268789 0 0.074213496927491907 0.1875383404701717 0 0.066253483840850044 0.17248109813268789 0 0.088623429168442763 0.17332734372283681 0 0.074213496927491907 0.1875383404701717 0 0.066253483840850044 0.17248109813268789 0 0.074213496927491907 0.1875383404701717 0 0.062783318359261098 0.18312326552021771 0 0.066253483840850044 0.17248109813268789 0 0.074213496927491907 0.1875383404701717 0 0.092358880407763563 0.18922969976025319 0 0.088623429168442763 0.17332734372283681 0 0.074213496927491907 0.1875383404701717 0 0.088623429168442763 0.17332734372283681 0 0.07801007838625458 0.15325102060619261 0 0.088623429168442763 0.17332734372283681 0 0.1030333614093927 0.15911634697550089 0 0.088623429168442763 0.17332734372283681 0 0.1030333614093927 0.15911634697550089 0 0.1024473199117768 0.18027499804503849 0 0.1030333614093927 0.15911634697550089 0 0.1024473199117768 0.18027499804503849 0 0.1143081801951159 0.16766895474676921 0 0.088623429168442763 0.17332734372283681 0 0.1030333614093927 0.15911634697550089 0 0.092358880407763563 0.18922969976025319 0 0.088623429168442763 0.17332734372283681 0 0.1024473199117768 0.18027499804503849 0 0.11256030128921241 0.19198112412852669 0 0.1024473199117768 0.18027499804503849 0 0.1127398698511806 0.18173785630590469 0 0.1024473199117768 0.18027499804503849 0 0.1127398698511806 0.18173785630590469 0 0.1143081801951159 0.16766895474676921 0 0.1127398698511806 0.18173785630590469 0 0.1247437651960184 0.17797662604796821 0 0.1143081801951159 0.16766895474676921 0 0.1221678421140763 0.19220506243095539 0 0.1127398698511806 0.18173785630590469 0 0.1247437651960184 0.17797662604796821 0 0.1030333614093927 0.15911634697550089 0 0.1143081801951159 0.16766895474676921 0 0.1174432936503458 0.14490535022816839 0 0.1143081801951159 0.16766895474676921 0 0.1174432936503458 0.14490535022816839 0 0.13112411854065489 0.1627759699915414 0 0.1247437651960184 0.17797662604796821 0 0.1143081801951159 0.16766895474676921 0 0.13112411854065489 0.1627759699915414 0 0.1030333614093927 0.15911634697550089 0 0.1174432936503458 0.14490535022816839 0 0.1030333614093927 0.15911634697550089 0 0.1174432936503458 0.14490535022816839 0 0.097726686018300618 0.1490781854171824 0 0.1174432936503458 0.14490535022816839 0 0.097726686018300618 0.1490781854171824 0 0.1010617263854434 0.12932622443728839 0 0.1174432936503458 0.14490535022816839 0 0.097726686018300618 0.1490781854171824 0 0.084237679108802713 0.1341028262238593 0 0.097726686018300618 0.1490781854171824 0 0.1010617263854434 0.12932622443728839 0 0.1174432936503458 0.14490535022816839 0 0.1145731893853288 0.12574967003580509 0 0.13092519822255391 0.13160956931678069 0 0.1174432936503458 0.14490535022816839 0 0.1010617263854434 0.12932622443728839 0 0.1145731893853288 0.12574967003580509 0 0.1174432936503458 0.14490535022816839 0 0.13092519822255391 0.13160956931678069 0 0.1174432936503458 0.14490535022816839 0 0.13092519822255391 0.13160956931678069 0 0.13635699326083109 0.14090244299575591 0 0.13092519822255391 0.13160956931678069 0 0.1464310167377528 0.128780145426176 0 0.13635699326083109 0.14090244299575591 0 0.13092519822255391 0.13160956931678069 0 0.13635699326083109 0.14090244299575591 0 0.1464310167377528 0.128780145426176 0 0.13635699326083109 0.14090244299575591 0 0.16311212406357939 0.1352399703542255 0 0.1464310167377528 0.128780145426176 0 0.16311212406357939 0.1352399703542255 0 0.1494757094248855 0.1133151561335861 0 0.13635699326083109 0.14090244299575591 0 0.16311212406357939 0.1352399703542255 0 0.13635699326083109 0.14090244299575591 0 0.16311212406357939 0.1352399703542255 0 0.16404751874146739 0.15266529828830711 0 0.13635699326083109 0.14090244299575591 0 0.15008030201598471 0.1643806806355278 0 0.13635699326083109 0.14090244299575591 0 0.15008030201598471 0.1643806806355278 0 0.16404751874146739 0.15266529828830711 0 0.1174432936503458 0.14490535022816839 0 0.13635699326083109 0.14090244299575591 0 0.13112411854065489 0.1627759699915414 0 0.13635699326083109 0.14090244299575591 0 0.13112411854065489 0.1627759699915414 0 0.15008030201598471 0.1643806806355278 0 0.1174432936503458 0.14490535022816839 0 0.13635699326083109 0.14090244299575591 0 0.1247437651960184 0.17797662604796821 0 0.1446767136715453 0.1812202931444658 0 0.1330675605727169 0.188648110532082 0 0.1247437651960184 0.17797662604796821 0 0.13112411854065489 0.1627759699915414 0 0.1446767136715453 0.1812202931444658 0 0.1221678421140763 0.19220506243095539 0 0.1247437651960184 0.17797662604796821 0 0.1330675605727169 0.188648110532082 0 0.1446767136715453 0.1812202931444658 0 0.1555700384610724 0.18961793898244089 0 0.16380361077113689 0.1878589182753006 0 0.1446767136715453 0.1812202931444658 0 0.15008030201598471 0.1643806806355278 0 0.16380361077113689 0.1878589182753006 0 0.13112411854065489 0.1627759699915414 0 0.1446767136715453 0.1812202931444658 0 0.15008030201598471 0.1643806806355278 0 0.15008030201598471 0.1643806806355278 0 0.17072007283131349 0.16961995031998639 0 0.16404751874146739 0.15266529828830711 0 0.15008030201598471 0.1643806806355278 0 0.17072007283131349 0.16961995031998639 0 0.1684280319927087 0.18255549220290629 0 0.15008030201598471 0.1643806806355278 0 0.16380361077113689 0.1878589182753006 0 0.15008030201598471 0.1643806806355278 0 0.1684280319927087 0.18255549220290629 0 0.16380361077113689 0.1878589182753006 0 0.17072007283131349 0.16961995031998639 0 0.1684280319927087 0.18255549220290629 0 0.17388036709168461 0.1780192010614953 0 0.1684280319927087 0.18255549220290629 0 0.1763368776307955 0.1845900085861866 0 0.16380361077113689 0.1878589182753006 0 0.1684280319927087 0.18255549220290629 0 0.16380361077113689 0.1878589182753006 0 0.1684280319927087 0.18255549220290629 0 0.1763368776307955 0.1845900085861866 0 0.17388036709168461 0.1780192010614953 0 0.17072007283131349 0.16961995031998639 0 0.17388036709168461 0.1780192010614953 0 0.18003648591192081 0.1753113531369018 0 0.1763368776307955 0.1845900085861866 0 0.17388036709168461 0.1780192010614953 0 0.18003648591192081 0.1753113531369018 0 0.18003648591192081 0.1753113531369018 0 0.18513836991390401 0.18318803831117059 0 0.1897173437354428 0.17355699698783361 0 0.1763368776307955 0.1845900085861866 0 0.18513836991390401 0.18318803831117059 0 0.1806737314052019 0.1929533298830173 0 0.1763368776307955 0.1845900085861866 0 0.18003648591192081 0.1753113531369018 0 0.18513836991390401 0.18318803831117059 0 0.17072007283131349 0.16961995031998639 0 0.18394811479834691 0.1619759457237091 0 0.16404751874146739 0.15266529828830711 0 0.17072007283131349 0.16961995031998639 0 0.18003648591192081 0.1753113531369018 0 0.18394811479834691 0.1619759457237091 0 0.18003648591192081 0.1753113531369018 0 0.18394811479834691 0.1619759457237091 0 0.1897173437354428 0.17355699698783361 0 0.18394811479834691 0.1619759457237091 0 0.18077539057140241 0.14593192237429931 0 0.16404751874146739 0.15266529828830711 0 0.18077539057140241 0.14593192237429931 0 0.16311212406357939 0.1352399703542255 0 0.18986725486633199 0.12957749771271571 0 0.16311212406357939 0.1352399703542255 0 0.18986725486633199 0.12957749771271571 0 0.17894673774677089 0.1122991203315556 0 0.16311212406357939 0.1352399703542255 0 0.18986725486633199 0.12957749771271571 0 0.18077539057140241 0.14593192237429931 0 0.16311212406357939 0.1352399703542255 0 0.16404751874146739 0.15266529828830711 0 0.14567732839943601 0.24750480143129461 0 0.15573518100234399 0.23228100806784319 0 0.14567732839943601 0.24750480143129461 0 0.1418338151678416 0.2340311798219398 0 0.15573518100234399 0.23228100806784319 0 0.1226590949404056 0.23717354926369011 0 0.14567732839943601 0.24750480143129461 0 0.1418338151678416 0.2340311798219398 0 0.1226590949404056 0.23717354926369011 0 0.14567732839943601 0.24750480143129461 0 0.1226590949404056 0.23717354926369011 0 0.14567732839943601 0.24750480143129461 0 0.12575341305293899 0.25323418257057778 0 0.1226590949404056 0.23717354926369011 0 0.1297993521076114 0.22685603020081921 0 0.1418338151678416 0.2340311798219398 0 0.1297993521076114 0.22685603020081921 0 0.1418338151678416 0.2340311798219398 0 0.14680148143937291 0.20735747423805881 0 0.1226590949404056 0.23717354926369011 0 0.1297993521076114 0.22685603020081921 0 0.12142948527772481 0.21847444014561021 0 0.1297993521076114 0.22685603020081921 0 0.12644912683104489 0.2130628739079603 0 0.1418338151678416 0.2340311798219398 0 0.15573518100234399 0.23228100806784319 0 0.14680148143937291 0.20735747423805881 0 0.1297993521076114 0.22685603020081921 0 0.12644912683104489 0.2130628739079603 0 0.13317983557871119 0.20944410465578769 0 0.1297993521076114 0.22685603020081921 0 0.14680148143937291 0.20735747423805881 0 0.1297993521076114 0.22685603020081921 0 0.14268469528434191 0.20823698459163001 0 0.1297993521076114 0.22685603020081921 0 0.14268469528434191 0.20823698459163001 0 0.13317983557871119 0.20944410465578769 0 0.1297993521076114 0.22685603020081921 0 0.14680148143937291 0.20735747423805881 0 0.14268469528434191 0.20823698459163001 0 0.1242632625630455 0.20336060772865219 0 0.12644912683104489 0.2130628739079603 0 0.13317983557871119 0.20944410465578769 0 0.1242632625630455 0.20336060772865219 0 0.13317983557871119 0.20944410465578769 0 0.13341997623670751 0.20073988457878719 0 0.14268469528434191 0.20823698459163001 0 0.13317983557871119 0.20944410465578769 0 0.13719401934078021 0.20521399549449471 0 0.13317983557871119 0.20944410465578769 0 0.13719401934078021 0.20521399549449471 0 0.13341997623670751 0.20073988457878719 0 0.14268469528434191 0.20823698459163001 0 0.13719401934078021 0.20521399549449471 0 0.1394915702633604 0.20243500815177401 0 0.1394915702633604 0.20243500815177401 0 0.13341997623670751 0.20073988457878719 0 0.14331866330730311 0.19490753829454499 0 0.13719401934078021 0.20521399549449471 0 0.1394915702633604 0.20243500815177401 0 0.13341997623670751 0.20073988457878719 0 0.1221678421140763 0.19220506243095539 0 0.1242632625630455 0.20336060772865219 0 0.13341997623670751 0.20073988457878719 0 0.1221678421140763 0.19220506243095539 0 0.13341997623670751 0.20073988457878719 0 0.1330675605727169 0.188648110532082 0 0.1446767136715453 0.1812202931444658 0 0.1330675605727169 0.188648110532082 0 0.14331866330730311 0.19490753829454499 0 0.13341997623670751 0.20073988457878719 0 0.1330675605727169 0.188648110532082 0 0.14331866330730311 0.19490753829454499 0 0.14268469528434191 0.20823698459163001 0 0.14331866330730311 0.19490753829454499 0 0.1555700384610724 0.18961793898244089 0 0.14680148143937291 0.20735747423805881 0 0.1555700384610724 0.18961793898244089 0 0.16380361077113689 0.1878589182753006 0 0.14680148143937291 0.20735747423805881 0 0.14268469528434191 0.20823698459163001 0 0.1555700384610724 0.18961793898244089 0 0.14268469528434191 0.20823698459163001 0 0.1555700384610724 0.18961793898244089 0 0.14680148143937291 0.20735747423805881 0 0.16380361077113689 0.1878589182753006 0 0.1446767136715453 0.1812202931444658 0 0.14331866330730311 0.19490753829454499 0 0.1555700384610724 0.18961793898244089 0 0.14268469528434191 0.20823698459163001 0 0.1394915702633604 0.20243500815177401 0 0.14331866330730311 0.19490753829454499 0 0.14680148143937291 0.20735747423805881 0 0.16380361077113689 0.1878589182753006 0 0.17486067445722719 0.2067756659381127 0 0.16380361077113689 0.1878589182753006 0 0.17486067445722719 0.2067756659381127 0 0.1763368776307955 0.1845900085861866 0 0.16380361077113689 0.1878589182753006 0 0.1806737314052019 0.1929533298830173 0 0.1806737314052019 0.1929533298830173 0 0.17486067445722719 0.2067756659381127 0 0.1917461420533548 0.2023404835004525 0 0.16380361077113689 0.1878589182753006 0 0.1806737314052019 0.1929533298830173 0 0.17486067445722719 0.2067756659381127 0 0.18513836991390401 0.18318803831117059 0 0.1806737314052019 0.1929533298830173 0 0.19049480950589601 0.19040296553440411 0 0.17486067445722719 0.2067756659381127 0 0.1859177381433165 0.22569241360092551 0 0.1917461420533548 0.2023404835004525 0 0.17486067445722719 0.2067756659381127 0 0.1859177381433165 0.22569241360092551 0 0.17486067445722719 0.2067756659381127 0 0.16881873232230751 0.22255762406508739 0 0.1859177381433165 0.22569241360092551 0 0.14680148143937291 0.20735747423805881 0 0.17486067445722719 0.2067756659381127 0 0.16881873232230751 0.22255762406508739 0 0.15573518100234399 0.23228100806784319 0 0.16881873232230751 0.22255762406508739 0 0.17195523320373471 0.23959456595950521 0 0.15573518100234399 0.23228100806784319 0 0.14680148143937291 0.20735747423805881 0 0.16881873232230751 0.22255762406508739 0 0.16881873232230751 0.22255762406508739 0 0.1859177381433165 0.22569241360092551 0 0.17195523320373471 0.23959456595950521 0 0.1859177381433165 0.22569241360092551 0 0.17195523320373471 0.23959456595950521 0 0.18482953203369201 0.2481549504366409 0 0.17195523320373471 0.23959456595950521 0 0.18482953203369201 0.2481549504366409 0 0.17020281383279251 0.25851255209104379 0 0.14567732839943601 0.24750480143129461 0 0.15573518100234399 0.23228100806784319 0 0.17195523320373471 0.23959456595950521 0 0.14567732839943601 0.24750480143129461 0 0.17195523320373471 0.23959456595950521 0 0.17020281383279251 0.25851255209104379 0 0.20999203949281631 0.23905357322453799 0 0.2231606649769067 0.2331194382950364 0 0.2193213415590301 0.25380783574640242 0 0.20999203949281631 0.23905357322453799 0 0.20628582782127011 0.2541842705972992 0 0.2193213415590301 0.25380783574640242 0 0.20999203949281631 0.23905357322453799 0 0.19697480182940591 0.24460916126373819 0 0.20628582782127011 0.2541842705972992 0 0.1859177381433165 0.22569241360092551 0 0.18482953203369201 0.2481549504366409 0 0.19697480182940591 0.24460916126373819 0 0.20999203949281631 0.23905357322453799 0 0.19697480182940591 0.24460916126373819 0 0.20092210110870409 0.2285361555027336 0 0.1859177381433165 0.22569241360092551 0 0.19697480182940591 0.24460916126373819 0 0.18482953203369201 0.2481549504366409 0 0.19697480182940591 0.24460916126373819 0 0.19634051797857349 0.25555210822485153 0 0.1859177381433165 0.22569241360092551 0 0.19697480182940591 0.24460916126373819 0 0.20092210110870409 0.2285361555027336 0 0.1859177381433165 0.22569241360092551 0 0.20092210110870409 0.2285361555027336 0 0.20102059909131301 0.21452916420070639 0 0.20999203949281631 0.23905357322453799 0 0.20092210110870409 0.2285361555027336 0 0.21373972352964241 0.22012002269784109 0 0.20999203949281631 0.23905357322453799 0 0.21373972352964241 0.22012002269784109 0 0.2231606649769067 0.2331194382950364 0 0.20092210110870409 0.2285361555027336 0 0.21373972352964241 0.22012002269784109 0 0.20102059909131301 0.21452916420070639 0 0.21373972352964241 0.22012002269784109 0 0.21117162294788699 0.20870087163742501 0 0.21971640782111651 0.20908647079998191 0 0.21117162294788699 0.20870087163742501 0 0.21506762835090729 0.20095958122829921 0 0.21971640782111651 0.20908647079998191 0 0.21117162294788699 0.20870087163742501 0 0.20449750778450279 0.20187876487762471 0 0.21506762835090729 0.20095958122829921 0 0.21117162294788699 0.20870087163742501 0 0.20102059909131301 0.21452916420070639 0 0.20449750778450279 0.20187876487762471 0 0.21373972352964241 0.22012002269784109 0 0.21117162294788699 0.20870087163742501 0 0.20102059909131301 0.21452916420070639 0 0.1859177381433165 0.22569241360092551 0 0.20102059909131301 0.21452916420070639 0 0.1917461420533548 0.2023404835004525 0 0.20102059909131301 0.21452916420070639 0 0.1917461420533548 0.2023404835004525 0 0.20449750778450279 0.20187876487762471 0 0.1917461420533548 0.2023404835004525 0 0.20078046574725369 0.18990754494837181 0 0.20449750778450279 0.20187876487762471 0 0.1806737314052019 0.1929533298830173 0 0.1917461420533548 0.2023404835004525 0 0.19049480950589601 0.19040296553440411 0 0.1917461420533548 0.2023404835004525 0 0.19049480950589601 0.19040296553440411 0 0.20078046574725369 0.18990754494837181 0 0.19049480950589601 0.19040296553440411 0 0.20078046574725369 0.18990754494837181 0 0.193570971294167 0.18231357573868071 0 0.20078046574725369 0.18990754494837181 0 0.20983095968010701 0.1930622736131879 0 0.20449750778450279 0.20187876487762471 0 0.20078046574725369 0.18990754494837181 0 0.20983095968010701 0.1930622736131879 0 0.208916671229263 0.18636052917554591 0 0.20983095968010701 0.1930622736131879 0 0.208916671229263 0.18636052917554591 0 0.21384002899965099 0.1855783224549287 0 0.20983095968010701 0.1930622736131879 0 0.20449750778450279 0.20187876487762471 0 0.21506762835090729 0.20095958122829921 0 0.20983095968010701 0.1930622736131879 0 0.21766717170263691 0.1917848235089277 0 0.21384002899965099 0.1855783224549287 0 0.20983095968010701 0.1930622736131879 0 0.21506762835090729 0.20095958122829921 0 0.21766717170263691 0.1917848235089277 0 0.21766717170263691 0.1917848235089277 0 0.2275221001691935 0.20124428293264829 0 0.21769606926995319 0.1752279869874761 0 0.2289713114292283 0.19144770395216501 0 0.2275221001691935 0.20124428293264829 0 0.2420059969501959 0.2120711060319799 0 0.2289713114292283 0.19144770395216501 0 0.2275221001691935 0.20124428293264829 0 0.21769606926995319 0.1752279869874761 0 0.2275221001691935 0.20124428293264829 0 0.21769606926995319 0.1752279869874761 0 0.21506762835090729 0.20095958122829921 0 0.21766717170263691 0.1917848235089277 0 0.2275221001691935 0.20124428293264829 0 0.2289713114292283 0.19144770395216501 0 0.2420059969501959 0.2120711060319799 0 0.2289713114292283 0.19144770395216501 0 0.2420059969501959 0.2120711060319799 0 0.25183515894752267 0.18980965306798631 0 0.2275221001691935 0.20124428293264829 0 0.2420059969501959 0.2120711060319799 0 0.23734813106843389 0.22726057887782039 0 0.2275221001691935 0.20124428293264829 0 0.23734813106843389 0.22726057887782039 0 0.2275221001691935 0.20124428293264829 0 0.22577883567850171 0.21694555914931951 0 0.23734813106843389 0.22726057887782039 0 0.2275221001691935 0.20124428293264829 0 0.21971640782111651 0.20908647079998191 0 0.22577883567850171 0.21694555914931951 0 0.21506762835090729 0.20095958122829921 0 0.2275221001691935 0.20124428293264829 0 0.21971640782111651 0.20908647079998191 0 0.21373972352964241 0.22012002269784109 0 0.21971640782111651 0.20908647079998191 0 0.22577883567850171 0.21694555914931951 0 0.21373972352964241 0.22012002269784109 0 0.22577883567850171 0.21694555914931951 0 0.2231606649769067 0.2331194382950364 0 0.22577883567850171 0.21694555914931951 0 0.2231606649769067 0.2331194382950364 0 0.23734813106843389 0.22726057887782039 0 0.2420059969501959 0.2120711060319799 0 0.25504068247116718 0.2326945081117926 0 0.2420059969501959 0.2120711060319799 0 0.24595262936391729 0.23126172995815339 0 0.23734813106843389 0.22726057887782039 0 0.2420059969501959 0.2120711060319799 0 0.24595262936391729 0.23126172995815339 0 0.25504068247116718 0.2326945081117926 0 0.24595262936391729 0.23126172995815339 0 0.23734813106843389 0.22726057887782039 0 0.2479419989342759 0.23795440543455501 0 0.24595262936391729 0.23126172995815339 0 0.2479419989342759 0.23795440543455501 0 0.25504068247116718 0.2326945081117926 0 0.23734813106843389 0.22726057887782039 0 0.23306095573090471 0.24374352430596849 0 0.247174161967674 0.25327687482299249 0 0.23734813106843389 0.22726057887782039 0 0.247174161967674 0.25327687482299249 0 0.23734813106843389 0.22726057887782039 0 0.2479419989342759 0.23795440543455501 0 0.247174161967674 0.25327687482299249 0 0.2479419989342759 0.23795440543455501 0 0.247174161967674 0.25327687482299249 0 0.2541943898001906 0.2452783354020138 0 0.2231606649769067 0.2331194382950364 0 0.23734813106843389 0.22726057887782039 0 0.23306095573090471 0.24374352430596849 0 0.2231606649769067 0.2331194382950364 0 0.23306095573090471 0.24374352430596849 0 0.2193213415590301 0.25380783574640242 0 0.20290194038729301 0.15020089979253479 0 0.21593662590826071 0.1708243018723499 0 0.23161773857873191 0.14619005367716639 0 0.20290194038729301 0.15020089979253479 0 0.23161773857873191 0.14619005367716639 0 0.21547360964072371 0.1241581527493536 0 0.18986725486633199 0.12957749771271571 0 0.21547360964072371 0.1241581527493536 0 0.18986725486633199 0.12957749771271571 0 0.20290194038729301 0.15020089979253479 0 0.21547360964072371 0.1241581527493536 0 0.18986725486633199 0.12957749771271571 0 0.20290194038729301 0.15020089979253479 0 0.18077539057140241 0.14593192237429931 0 0.18986725486633199 0.12957749771271571 0 0.20290194038729301 0.15020089979253479 0 0.18394811479834691 0.1619759457237091 0 0.18077539057140241 0.14593192237429931 0 0.20290194038729301 0.15020089979253479 0 0.20290194038729301 0.15020089979253479 0 0.19654177356561359 0.16659859083943299 0 0.2054101329277683 0.17044437593973749 0 0.18394811479834691 0.1619759457237091 0 0.20290194038729301 0.15020089979253479 0 0.19654177356561359 0.16659859083943299 0 0.18394811479834691 0.1619759457237091 0 0.19654177356561359 0.16659859083943299 0 0.1897173437354428 0.17355699698783361 0 0.19654177356561359 0.16659859083943299 0 0.1992180910623402 0.175729479251095 0 0.2054101329277683 0.17044437593973749 0 0.18513836991390401 0.18318803831117059 0 0.19049480950589601 0.19040296553440411 0 0.193570971294167 0.18231357573868071 0 0.18513836991390401 0.18318803831117059 0 0.193570971294167 0.18231357573868071 0 0.1897173437354428 0.17355699698783361 0 0.19654177356561359 0.16659859083943299 0 0.1897173437354428 0.17355699698783361 0 0.1992180910623402 0.175729479251095 0 0.193570971294167 0.18231357573868071 0 0.1897173437354428 0.17355699698783361 0 0.1992180910623402 0.175729479251095 0 0.1992180910623402 0.175729479251095 0 0.19995166080611959 0.18219412707060639 0 0.20623711512071749 0.18082590834427831 0 0.20078046574725369 0.18990754494837181 0 0.19995166080611959 0.18219412707060639 0 0.20623711512071749 0.18082590834427831 0 0.193570971294167 0.18231357573868071 0 0.1992180910623402 0.175729479251095 0 0.19995166080611959 0.18219412707060639 0 0.20078046574725369 0.18990754494837181 0 0.193570971294167 0.18231357573868071 0 0.19995166080611959 0.18219412707060639 0 0.21766717170263691 0.1917848235089277 0 0.21769606926995319 0.1752279869874761 0 0.21384002899965099 0.1855783224549287 0 0.208916671229263 0.18636052917554591 0 0.20623711512071749 0.18082590834427831 0 0.21162525152238459 0.17848707553873419 0 0.20078046574725369 0.18990754494837181 0 0.208916671229263 0.18636052917554591 0 0.20623711512071749 0.18082590834427831 0 0.20623711512071749 0.18082590834427831 0 0.21162525152238459 0.17848707553873419 0 0.2054101329277683 0.17044437593973749 0 0.1992180910623402 0.175729479251095 0 0.20623711512071749 0.18082590834427831 0 0.2054101329277683 0.17044437593973749 0 0.21162525152238459 0.17848707553873419 0 0.2054101329277683 0.17044437593973749 0 0.21593662590826071 0.1708243018723499 0 0.21769606926995319 0.1752279869874761 0 0.21162525152238459 0.17848707553873419 0 0.21593662590826071 0.1708243018723499 0 0.208916671229263 0.18636052917554591 0 0.21162525152238459 0.17848707553873419 0 0.21384002899965099 0.1855783224549287 0 0.21769606926995319 0.1752279869874761 0 0.21162525152238459 0.17848707553873419 0 0.21384002899965099 0.1855783224549287 0 0.20290194038729301 0.15020089979253479 0 0.2054101329277683 0.17044437593973749 0 0.21593662590826071 0.1708243018723499 0 0.20290194038729301 0.15020089979253479 0 0.21593662590826071 0.1708243018723499 0 0.21593662590826071 0.1708243018723499 0 0.2380956498889244 0.17040420080034629 0 0.23161773857873191 0.14619005367716639 0 0.2289713114292283 0.19144770395216501 0 0.21593662590826071 0.1708243018723499 0 0.2380956498889244 0.17040420080034629 0 0.2289713114292283 0.19144770395216501 0 0.21593662590826071 0.1708243018723499 0 0.2289713114292283 0.19144770395216501 0 0.21769606926995319 0.1752279869874761 0 0.21593662590826071 0.1708243018723499 0 0.2289713114292283 0.19144770395216501 0 0.2380956498889244 0.17040420080034629 0 0.25183515894752267 0.18980965306798631 0 0.2380956498889244 0.17040420080034629 0 0.25617531802924359 0.16904272042763169 0 0.25183515894752267 0.18980965306798631 0 0.2380956498889244 0.17040420080034629 0 0.2501475770428227 0.15355955282086889 0 0.25617531802924359 0.16904272042763169 0 0.2380956498889244 0.17040420080034629 0 0.23161773857873191 0.14619005367716639 0 0.2501475770428227 0.15355955282086889 0 0.23161773857873191 0.14619005367716639 0 0.25769185503794811 0.13402527007805121 0 0.2501475770428227 0.15355955282086889 0 0.23161773857873191 0.14619005367716639 0 0.24107996441511989 0.11873880778601351 0 0.21547360964072371 0.1241581527493536 0 0.23161773857873191 0.14619005367716639 0 0.24107996441511989 0.11873880778601351 0 0.25769185503794811 0.13402527007805121 0 0.24595688857296499 0.10331232191528909 0 0.2234484413438963 0.099412956658839674 0 0.2413447267616817 0.086240021604593986 0 0.24107996441511989 0.11873880778601351 0 0.24595688857296499 0.10331232191528909 0 0.2234484413438963 0.099412956658839674 0 0.24595688857296499 0.10331232191528909 0 0.2413447267616817 0.086240021604593986 0 0.26064685825983119 0.10044674649503681 0 0.24107996441511989 0.11873880778601351 0 0.21547360964072371 0.1241581527493536 0 0.24107996441511989 0.11873880778601351 0 0.2234484413438963 0.099412956658839674 0 0.21547360964072371 0.1241581527493536 0 0.2234484413438963 0.099412956658839674 0 0.21547360964072371 0.1241581527493536 0 0.20416754268061549 0.1054274024158867 0 0.21547360964072371 0.1241581527493536 0 0.20416754268061549 0.1054274024158867 0 0.19385203064153089 0.1148460625549209 0 0.2234484413438963 0.099412956658839674 0 0.20416754268061549 0.1054274024158867 0 0.2019385349305643 0.090339987978926617 0 0.20416754268061549 0.1054274024158867 0 0.19385203064153089 0.1148460625549209 0 0.1873790764595788 0.097543456770218917 0 0.20416754268061549 0.1054274024158867 0 0.2019385349305643 0.090339987978926617 0 0.1873790764595788 0.097543456770218917 0 0.18986725486633199 0.12957749771271571 0 0.21547360964072371 0.1241581527493536 0 0.19385203064153089 0.1148460625549209 0 0.18986725486633199 0.12957749771271571 0 0.19385203064153089 0.1148460625549209 0 0.17894673774677089 0.1122991203315556 0 0.20519529677344689 0.058364802354469142 0 0.17388834768531611 0.054632587280032077 0 0.18661075870033239 0.076692772652430768 0 0.20347727564061499 0.075405927754228858 0 0.20519529677344689 0.058364802354469142 0 0.18661075870033239 0.076692772652430768 0 0.20519529677344689 0.058364802354469142 0 0.18661075870033239 0.076692772652430768 0 0.2019385349305643 0.090339987978926617 0 0.1873790764595788 0.097543456770218917 0 0.18661075870033239 0.076692772652430768 0 0.2019385349305643 0.090339987978926617 0 0.20347727564061499 0.075405927754228858 0 0.18661075870033239 0.076692772652430768 0 0.2019385349305643 0.090339987978926617 0 0.21261911662905561 0.081988362636879961 0 0.20347727564061499 0.075405927754228858 0 0.2234484413438963 0.099412956658839674 0 0.2019385349305643 0.090339987978926617 0 0.21261911662905561 0.081988362636879961 0 0.20347727564061499 0.075405927754228858 0 0.20954133186767451 0.067243361133586407 0 0.20519529677344689 0.058364802354469142 0 0.21261911662905561 0.081988362636879961 0 0.21262709719985351 0.073094959238491325 0 0.2220425952635319 0.072033296714151374 0 0.21262709719985351 0.073094959238491325 0 0.21463271343848639 0.066579486984941511 0 0.2220425952635319 0.072033296714151374 0 0.21261911662905561 0.081988362636879961 0 0.2220425952635319 0.072033296714151374 0 0.21262709719985351 0.073094959238491325 0 0.20347727564061499 0.075405927754228858 0 0.20954133186767451 0.067243361133586407 0 0.21261911662905561 0.081988362636879961 0 0.21262709719985351 0.073094959238491325 0 0.20347727564061499 0.075405927754228858 0 0.20954133186767451 0.067243361133586407 0 0.21185454429474529 0.064534703240304914 0 0.20519529677344689 0.058364802354469142 0 0.20954133186767451 0.067243361133586407 0 0.21185454429474529 0.064534703240304914 0 0.21463271343848639 0.066579486984941511 0 0.21185454429474529 0.064534703240304914 0 0.21463271343848639 0.066579486984941511 0 0.21680510490425209 0.061122158216342079 0 0.21185454429474529 0.064534703240304914 0 0.21463271343848639 0.066579486984941511 0 0.20954133186767451 0.067243361133586407 0 0.21463271343848639 0.066579486984941511 0 0.21262709719985351 0.073094959238491325 0 0.20954133186767451 0.067243361133586407 0 0.21463271343848639 0.066579486984941511 0 0.21463271343848639 0.066579486984941511 0 0.2220425952635319 0.072033296714151374 0 0.21463271343848639 0.066579486984941511 0 0.22897549389522881 0.064709306753409968 0 0.21463271343848639 0.066579486984941511 0 0.22897549389522881 0.064709306753409968 0 0.21680510490425209 0.061122158216342079 0 0.2220425952635319 0.072033296714151374 0 0.2413447267616817 0.086240021604593986 0 0.23642251912990009 0.073991567944099404 0 0.21463271343848639 0.066579486984941511 0 0.2220425952635319 0.072033296714151374 0 0.22897549389522881 0.064709306753409968 0 0.2220425952635319 0.072033296714151374 0 0.22897549389522881 0.064709306753409968 0 0.2220425952635319 0.072033296714151374 0 0.22897549389522881 0.064709306753409968 0 0.23642251912990009 0.073991567944099404 0 0.2220425952635319 0.072033296714151374 0 0.22671808067305521 0.085896789079129746 0 0.2413447267616817 0.086240021604593986 0 0.2234484413438963 0.099412956658839674 0 0.21261911662905561 0.081988362636879961 0 0.22671808067305521 0.085896789079129746 0 0.2234484413438963 0.099412956658839674 0 0.22671808067305521 0.085896789079129746 0 0.2413447267616817 0.086240021604593986 0 0.2220425952635319 0.072033296714151374 0 0.2413447267616817 0.086240021604593986 0 0.21261911662905561 0.081988362636879961 0 0.2220425952635319 0.072033296714151374 0 0.22671808067305521 0.085896789079129746 0 0.2413447267616817 0.086240021604593986 0 0.24427161277514831 0.078571961896947734 0 0.23642251912990009 0.073991567944099404 0 0.2413447267616817 0.086240021604593986 0 0.24427161277514831 0.078571961896947734 0 0.25332202115628072 0.084834334844711534 0 0.22897549389522881 0.064709306753409968 0 0.24599718405273061 0.069221923194386026 0 0.2572380023210904 0.0610241088441935 0 0.22897549389522881 0.064709306753409968 0 0.2572380023210904 0.0610241088441935 0 0.22897549389522881 0.064709306753409968 0 0.23642251912990009 0.073991567944099404 0 0.24599718405273061 0.069221923194386026 0 0.24427161277514831 0.078571961896947734 0 0.24599718405273061 0.069221923194386026 0 0.25332202115628072 0.084834334844711534 0 0.24599718405273061 0.069221923194386026 0 0.25332202115628072 0.084834334844711534 0 0.24427161277514831 0.078571961896947734 0 0.23642251912990009 0.073991567944099404 0 0.24599718405273061 0.069221923194386026 0 0.22897549389522881 0.064709306753409968 0 0.24217974669535719 0.050760189640248837 0 0.2572380023210904 0.0610241088441935 0 0.22897549389522881 0.064709306753409968 0 0.24217974669535719 0.050760189640248837 0 0.24217974669535719 0.050760189640248837 0 0.24092698848926991 0.037329238995597327 0 0.25538399949548529 0.036811072527087263 0 0.24092698848926991 0.037329238995597327 0 0.2237798348465615 0.040036832056507508 0 0.24236437291967591 0.021708861758545649 0 0.24217974669535719 0.050760189640248837 0 0.25538399949548529 0.036811072527087263 0 0.24217974669535719 0.050760189640248837 0 0.24092698848926991 0.037329238995597327 0 0.2237798348465615 0.040036832056507508 0 0.24092698848926991 0.037329238995597327 0 0.24236437291967591 0.021708861758545649 0 0.25538399949548529 0.036811072527087263 0 0.22897549389522881 0.064709306753409968 0 0.24217974669535719 0.050760189640248837 0 0.22338665552826939 0.054918474708778267 0 0.24217974669535719 0.050760189640248837 0 0.2237798348465615 0.040036832056507508 0 0.22338665552826939 0.054918474708778267 0 0.22897549389522881 0.064709306753409968 0 0.22338665552826939 0.054918474708778267 0 0.21680510490425209 0.061122158216342079 0 0.24052444875147541 0.0021151433797810659 0 0.23397056215302359 0.011972399763179089 0 0.23259522781614611 -0.0042850683870557004 0 0.24052444875147541 0.0021151433797810659 0 0.2489958954423413 0.0052657469981983581 0 0.24415737850802199 0.0110024034029468 0 0.24052444875147541 0.0021151433797810659 0 0.2489958954423413 0.0052657469981983581 0 0.24602769701305291 -0.0025229196648674178 0 0.24415737850802199 0.0110024034029468 0 0.24487377703114591 0.01923410108170533 0 0.2479130724691154 0.01623676446269981 0 0.2489958954423413 0.0052657469981983581 0 0.24415737850802199 0.0110024034029468 0 0.24870792610036541 0.010971647391229239 0 0.24415737850802199 0.0110024034029468 0 0.24870792610036541 0.010971647391229239 0 0.2479130724691154 0.01623676446269981 0 0.24487377703114591 0.01923410108170533 0 0.23397056215302359 0.011972399763179089 0 0.24415737850802199 0.0110024034029468 0 0.24487377703114591 0.01923410108170533 0 0.23397056215302359 0.011972399763179089 0 0.24052444875147541 0.0021151433797810659 0 0.24415737850802199 0.0110024034029468 0 0.23397056215302359 0.011972399763179089 0 0.24487377703114591 0.01923410108170533 0 0.24236437291967591 0.021708861758545649 0 0.25538399949548529 0.036811072527087263 0 0.24236437291967591 0.021708861758545649 0 0.23397056215302359 0.011972399763179089 0 0.24487377703114591 0.01923410108170533 0 0.24236437291967591 0.021708861758545649 0 0.23397056215302359 0.011972399763179089 0 0.24487377703114591 0.01923410108170533 0 0.2479130724691154 0.01623676446269981 0 0.25396901421177859 0.018141355361768269 0 0.24487377703114591 0.01923410108170533 0 0.2479130724691154 0.01623676446269981 0 0.24487377703114591 0.01923410108170533 0 0.24236437291967591 0.021708861758545649 0 0.24236437291967591 0.021708861758545649 0 0.25538399949548529 0.036811072527087263 0 0.2237798348465615 0.040036832056507508 0 0.24236437291967591 0.021708861758545649 0 0.22559102600044781 0.02219132279055553 0 0.2237798348465615 0.040036832056507508 0 0.22559102600044781 0.02219132279055553 0 0.21278289816002799 0.023607481132867002 0 0.22559102600044781 0.02219132279055553 0 0.23397056215302359 0.011972399763179089 0 0.21825126350003479 0.01293721135805237 0 0.2237798348465615 0.040036832056507508 0 0.24236437291967591 0.021708861758545649 0 0.24236437291967591 0.021708861758545649 0 0.22559102600044781 0.02219132279055553 0 0.23397056215302359 0.011972399763179089 0 0.22559102600044781 0.02219132279055553 0 0.21825126350003479 0.01293721135805237 0 0.21278289816002799 0.023607481132867002 0 0.23397056215302359 0.011972399763179089 0 0.21176508007571301 -0.0028167775833045599 0 0.23397056215302359 0.011972399763179089 0 0.21767752011173419 -0.0069268331399713542 0 0.23397056215302359 0.011972399763179089 0 0.2274796899857203 -0.003119021826325822 0 0.23259522781614611 -0.0042850683870557004 0 0.23397056215302359 0.011972399763179089 0 0.21825126350003479 0.01293721135805237 0 0.21176508007571301 -0.0028167775833045599 0 0.23397056215302359 0.011972399763179089 0 0.21767752011173419 -0.0069268331399713542 0 0.2274796899857203 -0.003119021826325822 0 0.23397056215302359 0.011972399763179089 0 0.21767752011173419 -0.0069268331399713542 0 0.21176508007571301 -0.0028167775833045599 0 0.21825126350003479 0.01293721135805237 0 0.20714675111096201 0.0097316306869645527 0 0.21176508007571301 -0.0028167775833045599 0 0.20714675111096201 0.0097316306869645527 0 0.21176508007571301 -0.0028167775833045599 0 0.19785943878921189 -0.00072667358910256344 0 0.21825126350003479 0.01293721135805237 0 0.20714675111096201 0.0097316306869645527 0 0.21278289816002799 0.023607481132867002 0 0.20714675111096201 0.0097316306869645527 0 0.21278289816002799 0.023607481132867002 0 0.19913382636544349 0.021991218917545088 0 0.21278289816002799 0.023607481132867002 0 0.19913382636544349 0.021991218917545088 0 0.20081677430645389 0.036265891577931003 0 0.19913382636544349 0.021991218917545088 0 0.20081677430645389 0.036265891577931003 0 0.1836289123612356 0.024321812041103719 0 0.19913382636544349 0.021991218917545088 0 0.19426100634571641 0.0099536677606766339 0 0.1836289123612356 0.024321812041103719 0 0.20714675111096201 0.0097316306869645527 0 0.19913382636544349 0.021991218917545088 0 0.19426100634571641 0.0099536677606766339 0 0.19426100634571641 0.0099536677606766339 0 0.1836450372417304 -0.0021006598367706371 0 0.19785943878921189 -0.00072667358910256344 0 0.20714675111096201 0.0097316306869645527 0 0.19426100634571641 0.0099536677606766339 0 0.19785943878921189 -0.00072667358910256344 0 0.20519529677344689 0.058364802354469142 0 0.17388834768531611 0.054632587280032077 0 0.18474653975735841 0.040617574089927867 0 0.2237798348465615 0.040036832056507508 0 0.22338665552826939 0.054918474708778267 0 0.20519529677344689 0.058364802354469142 0 0.2237798348465615 0.040036832056507508 0 0.20519529677344689 0.058364802354469142 0 0.22338665552826939 0.054918474708778267 0 0.20519529677344689 0.058364802354469142 0 0.21680510490425209 0.061122158216342079 0 0.21185454429474529 0.064534703240304914 0 0.20519529677344689 0.058364802354469142 0 0.21680510490425209 0.061122158216342079 0 0.2237798348465615 0.040036832056507508 0 0.20519529677344689 0.058364802354469142 0 0.20081677430645389 0.036265891577931003 0 0.2237798348465615 0.040036832056507508 0 0.21278289816002799 0.023607481132867002 0 0.20081677430645389 0.036265891577931003 0 0.20081677430645389 0.036265891577931003 0 0.18474653975735841 0.040617574089927867 0 0.1836289123612356 0.024321812041103719 0 0.20519529677344689 0.058364802354469142 0 0.20081677430645389 0.036265891577931003 0 0.18474653975735841 0.040617574089927867 0 0.17388834768531611 0.054632587280032077 0 0.18474653975735841 0.040617574089927867 0 0.16033524644263669 0.034096346154144488 0 0.18474653975735841 0.040617574089927867 0 0.16033524644263669 0.034096346154144488 0 0.1836289123612356 0.024321812041103719 0 0.17388834768531611 0.054632587280032077 0 0.16033524644263669 0.034096346154144488 0 0.15589139258796 0.051216349689139913 0 0.17388834768531611 0.054632587280032077 0 0.15589139258796 0.051216349689139913 0 0.15245606561703459 0.0703857360909248 0 0.17876115926956759 0.01037332939126674 0 0.16599750063566851 0.0024328087246573622 0 0.1836450372417304 -0.0021006598367706371 0 0.19426100634571641 0.0099536677606766339 0 0.17876115926956759 0.01037332939126674 0 0.1836450372417304 -0.0021006598367706371 0 0.19426100634571641 0.0099536677606766339 0 0.17876115926956759 0.01037332939126674 0 0.1836289123612356 0.024321812041103719 0 0.17876115926956759 0.01037332939126674 0 0.1836289123612356 0.024321812041103719 0 0.16627333976348699 0.017259018266666641 0 0.16033524644263669 0.034096346154144488 0 0.16627333976348699 0.017259018266666641 0 0.14476058022024141 0.01211220112064822 0 0.16033524644263669 0.034096346154144488 0 0.1836289123612356 0.024321812041103719 0 0.16627333976348699 0.017259018266666641 0 0.16627333976348699 0.017259018266666641 0 0.16599750063566851 0.0024328087246573622 0 0.14476058022024141 0.01211220112064822 0 0.17876115926956759 0.01037332939126674 0 0.16627333976348699 0.017259018266666641 0 0.16599750063566851 0.0024328087246573622 0 0.16599750063566851 0.0024328087246573622 0 0.14476058022024141 0.01211220112064822 0 0.1516265686228995 -0.0064385710098799759 0 0.16033524644263669 0.034096346154144488 0 0.14476058022024141 0.01211220112064822 0 0.14082437321660041 0.028268749719560681 0 0.1213157555966709 0.021115722371991719 0 0.14476058022024141 0.01211220112064822 0 0.14082437321660041 0.028268749719560681 0 0.14476058022024141 0.01211220112064822 0 0.12525309040336591 0.004296458316585686 0 0.13717412293123951 -0.0069479265305107136 0 0.1213157555966709 0.021115722371991719 0 0.14476058022024141 0.01211220112064822 0 0.12525309040336591 0.004296458316585686 0 0.14476058022024141 0.01211220112064822 0 0.12525309040336591 0.004296458316585686 0 0.13688591060685279 0.045750729231458287 0 0.15245606561703459 0.0703857360909248 0 0.15589139258796 0.051216349689139913 0 0.13688591060685279 0.045750729231458287 0 0.15245606561703459 0.0703857360909248 0 0.16033524644263669 0.034096346154144488 0 0.14082437321660041 0.028268749719560681 0 0.13688591060685279 0.045750729231458287 0 0.16033524644263669 0.034096346154144488 0 0.15589139258796 0.051216349689139913 0 0.13688591060685279 0.045750729231458287 0 0.1213157555966709 0.021115722371991719 0 0.13688591060685279 0.045750729231458287 0 0.1213157555966709 0.021115722371991719 0 0.14082437321660041 0.028268749719560681 0 0.13688591060685279 0.045750729231458287 0 0.13688591060685279 0.045750729231458287 0 0.13049657748916521 0.067865433904593361 0 0.15245606561703459 0.0703857360909248 0 0.1153188607323171 0.051243140683538323 0 0.13688591060685279 0.045750729231458287 0 0.13049657748916521 0.067865433904593361 0 0.13049657748916521 0.067865433904593361 0 0.15245606561703459 0.0703857360909248 0 0.13756580282240569 0.090489387708463556 0 0.15245606561703459 0.0703857360909248 0 0.13756580282240569 0.090489387708463556 0 0.1680262206272167 0.095020742950391132 0 0.1201320266132096 0.084500948092776612 0 0.13049657748916521 0.067865433904593361 0 0.13756580282240569 0.090489387708463556 0 0.13756580282240569 0.090489387708463556 0 0.12942052170595519 0.1035899573597841 0 0.1494757094248855 0.1133151561335861 0 0.1106777727675963 0.1009964126244058 0 0.13756580282240569 0.090489387708463556 0 0.12942052170595519 0.1035899573597841 0 0.11725305373706139 0.1082188650046616 0 0.12942052170595519 0.1035899573597841 0 0.1327151057691611 0.1148722295217305 0 0.13092519822255391 0.13160956931678069 0 0.1494757094248855 0.1133151561335861 0 0.12942052170595519 0.1035899573597841 0 0.1327151057691611 0.1148722295217305 0 0.1494757094248855 0.1133151561335861 0 0.13092519822255391 0.13160956931678069 0 0.1327151057691611 0.1148722295217305 0 0.1494757094248855 0.1133151561335861 0 0.11725305373706139 0.1082188650046616 0 0.13092519822255391 0.13160956931678069 0 0.1327151057691611 0.1148722295217305 0 0.13092519822255391 0.13160956931678069 0 0.1464310167377528 0.128780145426176 0 0.1494757094248855 0.1133151561335861 0 0.13756580282240569 0.090489387708463556 0 0.1494757094248855 0.1133151561335861 0 0.1680262206272167 0.095020742950391132 0 0.1494757094248855 0.1133151561335861 0 0.1680262206272167 0.095020742950391132 0 0.1494757094248855 0.1133151561335861 0 0.1680262206272167 0.095020742950391132 0 0.17894673774677089 0.1122991203315556 0 0.16311212406357939 0.1352399703542255 0 0.1494757094248855 0.1133151561335861 0 0.17894673774677089 0.1122991203315556 0 0.18986725486633199 0.12957749771271571 0 0.17894673774677089 0.1122991203315556 0 0.1680262206272167 0.095020742950391132 0 0.17894673774677089 0.1122991203315556 0 0.1873790764595788 0.097543456770218917 0 0.1680262206272167 0.095020742950391132 0 0.17894673774677089 0.1122991203315556 0 0.19385203064153089 0.1148460625549209 0 0.17894673774677089 0.1122991203315556 0 0.1873790764595788 0.097543456770218917 0 0.15245606561703459 0.0703857360909248 0 0.1680262206272167 0.095020742950391132 0 0.18661075870033239 0.076692772652430768 0 0.17388834768531611 0.054632587280032077 0 0.15245606561703459 0.0703857360909248 0 0.18661075870033239 0.076692772652430768 0 0.1680262206272167 0.095020742950391132 0 0.1873790764595788 0.097543456770218917 0 0.18661075870033239 0.076692772652430768 0 0.1680262206272167 0.095020742950391132 0 0.18661075870033239 0.076692772652430768 0 0.15245606561703459 0.0703857360909248 0 0.1680262206272167 0.095020742950391132 0 0.095341198168811675 0.47796800728027222 0 0.122871034471811 0.47417060450941428 0 0.1045787672149551 0.45854016109186652 0 0.095341198168811675 0.47796800728027222 0 0.11513856376418539 0.5 0 0.089312939278213321 0.5 0 0.095341198168811675 0.47796800728027222 0 0.11513856376418539 0.5 0 0.122871034471811 0.47417060450941428 0 0.122871034471811 0.47417060450941428 0 0.118552124991678 0.45182725604044088 0 0.13305363810752949 0.4543061017311858 0 0.122871034471811 0.47417060450941428 0 0.118552124991678 0.45182725604044088 0 0.1045787672149551 0.45854016109186652 0 0.118552124991678 0.45182725604044088 0 0.1045787672149551 0.45854016109186652 0 0.11117658030694701 0.43690881779852608 0 0.118552124991678 0.45182725604044088 0 0.11117658030694701 0.43690881779852608 0 0.12981196250140459 0.43938730915494478 0 0.1045787672149551 0.45854016109186652 0 0.087876266084761984 0.43643790350681461 0 0.11117658030694701 0.43690881779852608 0 0.095341198168811675 0.47796800728027222 0 0.1045787672149551 0.45854016109186652 0 0.086541983170282138 0.45783355497213318 0 0.095341198168811675 0.47796800728027222 0 0.086541983170282138 0.45783355497213318 0 0.071899740979435189 0.4681177148719402 0 0.086541983170282138 0.45783355497213318 0 0.073013943403446815 0.4481039881097727 0 0.087876266084761984 0.43643790350681461 0 0.1045787672149551 0.45854016109186652 0 0.086541983170282138 0.45783355497213318 0 0.087876266084761984 0.43643790350681461 0 0.073013943403446815 0.4481039881097727 0 0.058228719250060401 0.43399370169888929 0 0.087876266084761984 0.43643790350681461 0 0.086541983170282138 0.45783355497213318 0 0.073013943403446815 0.4481039881097727 0 0.071899740979435189 0.4681177148719402 0 0.073013943403446815 0.4481039881097727 0 0.071899740979435189 0.4681177148719402 0 0.042764501440139747 0.45599580113259469 0 0.071899740979435189 0.4681177148719402 0 0.076400127035227236 0.48675855393710488 0 0.052366735020405078 0.48028779156265489 0 0.095341198168811675 0.47796800728027222 0 0.071899740979435189 0.4681177148719402 0 0.076400127035227236 0.48675855393710488 0 0.095341198168811675 0.47796800728027222 0 0.089312939278213321 0.5 0 0.076400127035227236 0.48675855393710488 0 0.089312939278213321 0.5 0 0.076400127035227236 0.48675855393710488 0 0.063487314792241123 0.5 0 0.076400127035227236 0.48675855393710488 0 0.063487314792241123 0.5 0 0.052366735020405078 0.48028779156265489 0 0.063487314792241123 0.5 0 0.052366735020405078 0.48028779156265489 0 0.037661690306268807 0.5 0 0.052366735020405078 0.48028779156265489 0 0.02730028363021909 0.47799790056629998 0 0.042764501440139747 0.45599580113259469 0 0.052366735020405078 0.48028779156265489 0 0.037661690306268807 0.5 0 0.02730028363021909 0.47799790056629998 0 0.02730028363021909 0.47799790056629998 0 0.011836065820296509 0.500000000000004 0 0.037661690306268807 0.5 0 0.02730028363021909 0.47799790056629998 0 0.011836065820296509 0.500000000000004 0 0.02730028363021909 0.47799790056629998 0 0.001477654177906258 0.48188859204321582 0 0.0058757574948299484 0.46108844532924459 0 0.02730028363021909 0.47799790056629998 0 0.001477654177906258 0.48188859204321582 0 0.011836065820296509 0.500000000000004 0 -0.0090117406405110234 0.5 0 0.001477654177906258 0.48188859204321582 0 0.011836065820296509 0.500000000000004 0 -0.00084691739483921545 0.4408673733694996 0 0.011922394885765261 0.44793278725217017 0 0.01952960818491456 0.43570858237323651 0 -0.00084691739483921545 0.4408673733694996 0 0.011922394885765261 0.44793278725217017 0 0.0058757574948299484 0.46108844532924459 0 0.011922394885765261 0.44793278725217017 0 0.0058757574948299484 0.46108844532924459 0 0.024804716974525739 0.45293005536463321 0 0.02730028363021909 0.47799790056629998 0 0.0058757574948299484 0.46108844532924459 0 0.024804716974525739 0.45293005536463321 0 0.024804716974525739 0.45293005536463321 0 0.038401085847399999 0.43515957120455379 0 0.01952960818491456 0.43570858237323651 0 0.011922394885765261 0.44793278725217017 0 0.024804716974525739 0.45293005536463321 0 0.01952960818491456 0.43570858237323651 0 0.042764501440139747 0.45599580113259469 0 0.058228719250060401 0.43399370169888929 0 0.038401085847399999 0.43515957120455379 0 0.024804716974525739 0.45293005536463321 0 0.042764501440139747 0.45599580113259469 0 0.038401085847399999 0.43515957120455379 0 0.02730028363021909 0.47799790056629998 0 0.024804716974525739 0.45293005536463321 0 0.042764501440139747 0.45599580113259469 0 0.02730028363021909 0.47799790056629998 0 0.042764501440139747 0.45599580113259469 0 0.071899740979435189 0.4681177148719402 0 0.052366735020405078 0.48028779156265489 0 0.042764501440139747 0.45599580113259469 0 0.073013943403446815 0.4481039881097727 0 0.042764501440139747 0.45599580113259469 0 0.058228719250060401 0.43399370169888929 0 0.042764501440139747 0.45599580113259469 0 0.058228719250060401 0.43399370169888929 0 0.058228719250060401 0.43399370169888929 0 0.052132574886742188 0.41558706178743221 0 0.038401085847399999 0.43515957120455379 0 0.058228719250060401 0.43399370169888929 0 0.052132574886742188 0.41558706178743221 0 0.073692937059981117 0.41199160226518389 0 0.052132574886742188 0.41558706178743221 0 0.032946394348017348 0.41674222487053691 0 0.046526594412722833 0.39861572401799811 0 0.052132574886742188 0.41558706178743221 0 0.032946394348017348 0.41674222487053691 0 0.038401085847399999 0.43515957120455379 0 0.032946394348017348 0.41674222487053691 0 0.01952960818491456 0.43570858237323651 0 0.0076792313090766938 0.42012187637586351 0 0.032946394348017348 0.41674222487053691 0 0.038401085847399999 0.43515957120455379 0 0.01952960818491456 0.43570858237323651 0 0.032946394348017348 0.41674222487053691 0 0.0076792313090766938 0.42012187637586351 0 0.014331912082978911 0.40387974777615671 0 0.0076792313090766938 0.42012187637586351 0 0.014331912082978911 0.40387974777615671 0 0.0015547186551458239 0.40285050976993431 0 -0.00084691739483921545 0.4408673733694996 0 0.01952960818491456 0.43570858237323651 0 0.0076792313090766938 0.42012187637586351 0 -0.0040951106288660676 0.37133614209651378 0 0.0050432354589277101 0.3876212825422774 0 0.015925566939436579 0.36738346577380537 0 0.0050432354589277101 0.3876212825422774 0 0.02443598064372696 0.39206284532217123 0 0.015925566939436579 0.36738346577380537 0 0.0050432354589277101 0.3876212825422774 0 0.014331912082978911 0.40387974777615671 0 0.02443598064372696 0.39206284532217123 0 0.0050432354589277101 0.3876212825422774 0 0.014331912082978911 0.40387974777615671 0 0.0015547186551458239 0.40285050976993431 0 0.032946394348017348 0.41674222487053691 0 0.02443598064372696 0.39206284532217123 0 0.032946394348017348 0.41674222487053691 0 0.014331912082978911 0.40387974777615671 0 0.02443598064372696 0.39206284532217123 0 0.02443598064372696 0.39206284532217123 0 0.030212641940850441 0.37665148269706972 0 0.015925566939436579 0.36738346577380537 0 0.02443598064372696 0.39206284532217123 0 0.015925566939436579 0.36738346577380537 0 0.02443598064372696 0.39206284532217123 0 0.044682733424545831 0.38116973429555662 0 0.046526594412722833 0.39861572401799811 0 0.02443598064372696 0.39206284532217123 0 0.030212641940850441 0.37665148269706972 0 0.044682733424545831 0.38116973429555662 0 0.032946394348017348 0.41674222487053691 0 0.02443598064372696 0.39206284532217123 0 0.046526594412722833 0.39861572401799811 0 0.052132574886742188 0.41558706178743221 0 0.046526594412722833 0.39861572401799811 0 0.061909725470612458 0.40077308728483119 0 0.046526594412722833 0.39861572401799811 0 0.061909725470612458 0.40077308728483119 0 0.060673435965297173 0.38638611445110199 0 0.044682733424545831 0.38116973429555662 0 0.046526594412722833 0.39861572401799811 0 0.060673435965297173 0.38638611445110199 0 0.044682733424545831 0.38116973429555662 0 0.060673435965297173 0.38638611445110199 0 0.05972041616269514 0.37199297175364893 0 0.060673435965297173 0.38638611445110199 0 0.070445174715900588 0.37856339757945751 0 0.076523085028319004 0.39128493390244018 0 0.060673435965297173 0.38638611445110199 0 0.070445174715900588 0.37856339757945751 0 0.05972041616269514 0.37199297175364893 0 0.070445174715900588 0.37856339757945751 0 0.078272534204885544 0.37781323472085959 0 0.071733268764686553 0.37000528267934751 0 0.070445174715900588 0.37856339757945751 0 0.078272534204885544 0.37781323472085959 0 0.076523085028319004 0.39128493390244018 0 0.078272534204885544 0.37781323472085959 0 0.09190719026118474 0.38253304660170762 0 0.079948545184952771 0.36743865731496461 0 0.078272534204885544 0.37781323472085959 0 0.09190719026118474 0.38253304660170762 0 0.076523085028319004 0.39128493390244018 0 0.076523085028319004 0.39128493390244018 0 0.073692937059981117 0.41199160226518389 0 0.096875393615468208 0.40165634448141452 0 0.09190719026118474 0.38253304660170762 0 0.076523085028319004 0.39128493390244018 0 0.096875393615468208 0.40165634448141452 0 0.061909725470612458 0.40077308728483119 0 0.060673435965297173 0.38638611445110199 0 0.076523085028319004 0.39128493390244018 0 0.061909725470612458 0.40077308728483119 0 0.076523085028319004 0.39128493390244018 0 0.073692937059981117 0.41199160226518389 0 0.052132574886742188 0.41558706178743221 0 0.061909725470612458 0.40077308728483119 0 0.073692937059981117 0.41199160226518389 0 0.058228719250060401 0.43399370169888929 0 0.073692937059981117 0.41199160226518389 0 0.058228719250060401 0.43399370169888929 0 0.073692937059981117 0.41199160226518389 0 0.087876266084761984 0.43643790350681461 0 0.073692937059981117 0.41199160226518389 0 0.087876266084761984 0.43643790350681461 0 0.095029844527876661 0.42031922419109252 0 0.073692937059981117 0.41199160226518389 0 0.095029844527876661 0.42031922419109252 0 0.096875393615468208 0.40165634448141452 0 0.109125093601701 0.41599890509448589 0 0.1162148387670216 0.40572431133377163 0 0.096875393615468208 0.40165634448141452 0 0.109125093601701 0.41599890509448589 0 0.095029844527876661 0.42031922419109252 0 0.096875393615468208 0.40165634448141452 0 0.109125093601701 0.41599890509448589 0 0.095029844527876661 0.42031922419109252 0 0.11117658030694701 0.43690881779852608 0 0.087876266084761984 0.43643790350681461 0 0.095029844527876661 0.42031922419109252 0 0.11117658030694701 0.43690881779852608 0 0.109125093601701 0.41599890509448589 0 0.11117658030694701 0.43690881779852608 0 0.12669497787103051 0.42191638777909052 0 0.11117658030694701 0.43690881779852608 0 0.12669497787103051 0.42191638777909052 0 0.12981196250140459 0.43938730915494478 0 0.1162148387670216 0.40572431133377163 0 0.1307527135473153 0.40766617930322968 0 0.12669497787103051 0.42191638777909052 0 0.109125093601701 0.41599890509448589 0 0.1162148387670216 0.40572431133377163 0 0.12669497787103051 0.42191638777909052 0 0.109125093601701 0.41599890509448589 0 0.12669497787103051 0.42191638777909052 0 0.1172405649542701 0.38749848814276477 0 0.1307527135473153 0.40766617930322968 0 0.1162148387670216 0.40572431133377163 0 0.1172405649542701 0.38749848814276477 0 0.1307527135473153 0.40766617930322968 0 0.1162148387670216 0.40572431133377163 0 0.1172405649542701 0.38749848814276477 0 0.096875393615468208 0.40165634448141452 0 0.1172405649542701 0.38749848814276477 0 0.12561379413615131 0.36723152966037881 0 0.12813287545214749 0.38633686803880413 0 0.1172405649542701 0.38749848814276477 0 0.103728416361225 0.36733079698229992 0 0.1172405649542701 0.38749848814276477 0 0.12813287545214749 0.38633686803880413 0 0.12835864593072041 0.39728861753096728 0 0.09190719026118474 0.38253304660170762 0 0.1172405649542701 0.38749848814276477 0 0.103728416361225 0.36733079698229992 0 0.09190719026118474 0.38253304660170762 0 0.1172405649542701 0.38749848814276477 0 0.096875393615468208 0.40165634448141452 0 0.1062617731770627 0.34978118091798033 0 0.103728416361225 0.36733079698229992 0 0.11578358308669549 0.35769099077609678 0 0.103728416361225 0.36733079698229992 0 0.091476539725654657 0.34904413720936939 0 0.1062617731770627 0.34978118091798033 0 0.103728416361225 0.36733079698229992 0 0.091476539725654657 0.34904413720936939 0 0.1062617731770627 0.34978118091798033 0 0.096807399561237781 0.33512736597815862 0 0.091476539725654657 0.34904413720936939 0 0.103728416361225 0.36733079698229992 0 0.12561379413615131 0.36723152966037881 0 0.103728416361225 0.36733079698229992 0 0.11578358308669549 0.35769099077609678 0 0.12561379413615131 0.36723152966037881 0 0.1172405649542701 0.38749848814276477 0 0.103728416361225 0.36733079698229992 0 0.12561379413615131 0.36723152966037881 0 0.11578358308669549 0.35769099077609678 0 0.12629900759887139 0.35499332130261052 0 0.12561379413615131 0.36723152966037881 0 0.11578358308669549 0.35769099077609678 0 0.11701492416016709 0.3491181250172144 0 0.12629900759887139 0.35499332130261052 0 0.1062617731770627 0.34978118091798033 0 0.11578358308669549 0.35769099077609678 0 0.11701492416016709 0.3491181250172144 0 0.1062617731770627 0.34978118091798033 0 0.11701492416016709 0.3491181250172144 0 0.1121166939514345 0.33653835279593869 0 0.11701492416016709 0.3491181250172144 0 0.1247957178816298 0.34184621835209011 0 0.12629900759887139 0.35499332130261052 0 0.11701492416016709 0.3491181250172144 0 0.1247957178816298 0.34184621835209011 0 0.1121166939514345 0.33653835279593869 0 0.1247957178816298 0.34184621835209011 0 0.1237066903191336 0.32857137817879889 0 0.1121166939514345 0.33653835279593869 0 0.1237066903191336 0.32857137817879889 0 0.1121166939514345 0.33653835279593869 0 0.113063823747118 0.32272327196243361 0 0.1121166939514345 0.33653835279593869 0 0.113063823747118 0.32272327196243361 0 0.105243980230526 0.32888037102460688 0 0.1237066903191336 0.32857137817879889 0 0.1230793352486496 0.31507520913168152 0 0.113063823747118 0.32272327196243361 0 0.1230793352486496 0.31507520913168152 0 0.113063823747118 0.32272327196243361 0 0.1138661760770721 0.31257358324979562 0 0.09721349787415963 0.32555971835744218 0 0.10066955361407889 0.31562958811616931 0 0.086677450626524738 0.30913994503456738 0 0.113063823747118 0.32272327196243361 0 0.1138661760770721 0.31257358324979562 0 0.10066955361407889 0.31562958811616931 0 0.113063823747118 0.32272327196243361 0 0.10066955361407889 0.31562958811616931 0 0.105243980230526 0.32888037102460688 0 0.09721349787415963 0.32555971835744218 0 0.10066955361407889 0.31562958811616931 0 0.105243980230526 0.32888037102460688 0 0.1062617731770627 0.34978118091798033 0 0.1121166939514345 0.33653835279593869 0 0.096807399561237781 0.33512736597815862 0 0.1121166939514345 0.33653835279593869 0 0.105243980230526 0.32888037102460688 0 0.096807399561237781 0.33512736597815862 0 0.09721349787415963 0.32555971835744218 0 0.105243980230526 0.32888037102460688 0 0.096807399561237781 0.33512736597815862 0 0.096807399561237781 0.33512736597815862 0 0.07922466309008433 0.33075747743643891 0 0.086768741431752547 0.32676755557530762 0 0.07922466309008433 0.33075747743643891 0 0.091476539725654657 0.34904413720936939 0 0.07922466309008433 0.33075747743643891 0 0.077557239679975271 0.34512228066205808 0 0.091476539725654657 0.34904413720936939 0 0.096807399561237781 0.33512736597815862 0 0.07922466309008433 0.33075747743643891 0 0.091476539725654657 0.34904413720936939 0 0.09721349787415963 0.32555971835744218 0 0.096807399561237781 0.33512736597815862 0 0.086768741431752547 0.32676755557530762 0 0.086768741431752547 0.32676755557530762 0 0.078884886282582736 0.32012526011847131 0 0.086677450626524738 0.30913994503456738 0 0.09721349787415963 0.32555971835744218 0 0.086768741431752547 0.32676755557530762 0 0.086677450626524738 0.30913994503456738 0 0.086768741431752547 0.32676755557530762 0 0.086677450626524738 0.30913994503456738 0 0.07922466309008433 0.33075747743643891 0 0.086768741431752547 0.32676755557530762 0 0.078884886282582736 0.32012526011847131 0 0.078884886282582736 0.32012526011847131 0 0.077562082065394125 0.31091653430901289 0 0.086677450626524738 0.30913994503456738 0 0.078884886282582736 0.32012526011847131 0 0.070406940467487966 0.31661870075825033 0 0.077562082065394125 0.31091653430901289 0 0.07922466309008433 0.33075747743643891 0 0.078884886282582736 0.32012526011847131 0 0.070541143189390143 0.32588850215987081 0 0.078884886282582736 0.32012526011847131 0 0.070406940467487966 0.31661870075825033 0 0.070541143189390143 0.32588850215987081 0 0.070406940467487966 0.31661870075825033 0 0.070541143189390143 0.32588850215987081 0 0.061691976554995122 0.32132218337059848 0 0.070541143189390143 0.32588850215987081 0 0.062547535945643037 0.33069945621673169 0 0.061691976554995122 0.32132218337059848 0 0.070406940467487966 0.31661870075825033 0 0.061691976554995122 0.32132218337059848 0 0.057746796409356767 0.31093571676153431 0 0.070490856795547716 0.3358079350587343 0 0.077557239679975271 0.34512228066205808 0 0.057149856865371267 0.34341305282970169 0 0.07922466309008433 0.33075747743643891 0 0.070490856795547716 0.3358079350587343 0 0.077557239679975271 0.34512228066205808 0 0.07922466309008433 0.33075747743643891 0 0.070541143189390143 0.32588850215987081 0 0.070490856795547716 0.3358079350587343 0 0.070541143189390143 0.32588850215987081 0 0.070490856795547716 0.3358079350587343 0 0.062547535945643037 0.33069945621673169 0 0.070490856795547716 0.3358079350587343 0 0.062547535945643037 0.33069945621673169 0 0.057149856865371267 0.34341305282970169 0 0.081727778917292326 0.35896910249991482 0 0.057149856865371267 0.34341305282970169 0 0.081727778917292326 0.35896910249991482 0 0.06676735386848516 0.36024796816160243 0 0.060203000445224489 0.35407639362711801 0 0.081727778917292326 0.35896910249991482 0 0.060203000445224489 0.35407639362711801 0 0.057149856865371267 0.34341305282970169 0 0.077557239679975271 0.34512228066205808 0 0.081727778917292326 0.35896910249991482 0 0.057149856865371267 0.34341305282970169 0 0.103728416361225 0.36733079698229992 0 0.081727778917292326 0.35896910249991482 0 0.091476539725654657 0.34904413720936939 0 0.077557239679975271 0.34512228066205808 0 0.081727778917292326 0.35896910249991482 0 0.091476539725654657 0.34904413720936939 0 0.09190719026118474 0.38253304660170762 0 0.103728416361225 0.36733079698229992 0 0.079948545184952771 0.36743865731496461 0 0.103728416361225 0.36733079698229992 0 0.081727778917292326 0.35896910249991482 0 0.079948545184952771 0.36743865731496461 0 0.103728416361225 0.36733079698229992 0 0.079948545184952771 0.36743865731496461 0 0.081727778917292326 0.35896910249991482 0 0.079948545184952771 0.36743865731496461 0 0.075245588451200204 0.36397546654555241 0 0.078272534204885544 0.37781323472085959 0 0.079948545184952771 0.36743865731496461 0 0.071733268764686553 0.37000528267934751 0 0.081727778917292326 0.35896910249991482 0 0.075245588451200204 0.36397546654555241 0 0.06676735386848516 0.36024796816160243 0 0.071733268764686553 0.37000528267934751 0 0.075245588451200204 0.36397546654555241 0 0.06676735386848516 0.36024796816160243 0 0.079948545184952771 0.36743865731496461 0 0.071733268764686553 0.37000528267934751 0 0.075245588451200204 0.36397546654555241 0 0.070445174715900588 0.37856339757945751 0 0.071733268764686553 0.37000528267934751 0 0.05972041616269514 0.37199297175364893 0 0.071733268764686553 0.37000528267934751 0 0.06676735386848516 0.36024796816160243 0 0.05972041616269514 0.37199297175364893 0 0.06676735386848516 0.36024796816160243 0 0.05972041616269514 0.37199297175364893 0 0.054514622350534968 0.36106362646651891 0 0.054514622350534968 0.36106362646651891 0 0.047713414260710151 0.36923302471920139 0 0.04303421847445945 0.35670529479447821 0 0.044682733424545831 0.38116973429555662 0 0.05972041616269514 0.37199297175364893 0 0.047713414260710151 0.36923302471920139 0 0.05972041616269514 0.37199297175364893 0 0.054514622350534968 0.36106362646651891 0 0.047713414260710151 0.36923302471920139 0 0.060203000445224489 0.35407639362711801 0 0.051516739613000143 0.35234793599572573 0 0.057149856865371267 0.34341305282970169 0 0.054514622350534968 0.36106362646651891 0 0.060203000445224489 0.35407639362711801 0 0.051516739613000143 0.35234793599572573 0 0.06676735386848516 0.36024796816160243 0 0.054514622350534968 0.36106362646651891 0 0.060203000445224489 0.35407639362711801 0 0.054514622350534968 0.36106362646651891 0 0.051516739613000143 0.35234793599572573 0 0.04303421847445945 0.35670529479447821 0 0.051516739613000143 0.35234793599572573 0 0.043946961388961613 0.34681042045897131 0 0.057149856865371267 0.34341305282970169 0 0.051516739613000143 0.35234793599572573 0 0.043946961388961613 0.34681042045897131 0 0.04303421847445945 0.35670529479447821 0 0.043946961388961613 0.34681042045897131 0 0.04303421847445945 0.35670529479447821 0 0.035462057178526907 0.35372881551546231 0 0.04303421847445945 0.35670529479447821 0 0.035462057178526907 0.35372881551546231 0 0.04303421847445945 0.35670529479447821 0 0.035462057178526907 0.35372881551546231 0 0.036948539513013308 0.36703551577598842 0 0.044682733424545831 0.38116973429555662 0 0.047713414260710151 0.36923302471920139 0 0.036948539513013308 0.36703551577598842 0 0.047713414260710151 0.36923302471920139 0 0.04303421847445945 0.35670529479447821 0 0.036948539513013308 0.36703551577598842 0 0.035462057178526907 0.35372881551546231 0 0.036948539513013308 0.36703551577598842 0 0.035462057178526907 0.35372881551546231 0 0.036948539513013308 0.36703551577598842 0 0.02552121989370711 0.36149589671245758 0 0.030212641940850441 0.37665148269706972 0 0.044682733424545831 0.38116973429555662 0 0.036948539513013308 0.36703551577598842 0 0.030212641940850441 0.37665148269706972 0 0.015925566939436579 0.36738346577380537 0 0.02552121989370711 0.36149589671245758 0 0.030212641940850441 0.37665148269706972 0 0.036948539513013308 0.36703551577598842 0 0.02552121989370711 0.36149589671245758 0 0.015925566939436579 0.36738346577380537 0 0.02552121989370711 0.36149589671245758 0 0.0074151532351464664 0.34270408622543969 0 0.035462057178526907 0.35372881551546231 0 0.02552121989370711 0.36149589671245758 0 0.0074151532351464664 0.34270408622543969 0 0.035462057178526907 0.35372881551546231 0 0.0074151532351464664 0.34270408622543969 0 0.015925566939436579 0.36738346577380537 0 0.0074151532351464664 0.34270408622543969 0 -0.0026597542472774969 0.35654079684266787 0 0.015925566939436579 0.36738346577380537 0 0.0074151532351464664 0.34270408622543969 0 -0.0040951106288660676 0.37133614209651378 0 -0.0026597542472774969 0.35654079684266787 0 0.015925566939436579 0.36738346577380537 0 0.0006286872257408628 0.32302398884618277 0 0.0132070780148927 0.31560044731320741 0 0.017856982093551452 0.33258286821195598 0 -0.0061577787836646402 0.30334389146692581 0 0.0006286872257408628 0.32302398884618277 0 0.0132070780148927 0.31560044731320741 0 0.0006286872257408628 0.32302398884618277 0 0.0074151532351464664 0.34270408622543969 0 0.017856982093551452 0.33258286821195598 0 0.0006286872257408628 0.32302398884618277 0 0.0074151532351464664 0.34270408622543969 0 -0.0078719436850164318 0.33283148875859558 0 0.0006286872257408628 0.32302398884618277 0 0.0074151532351464664 0.34270408622543969 0 0.035462057178526907 0.35372881551546231 0 0.017856982093551452 0.33258286821195598 0 0.032571934813450339 0.32785700315948851 0 0.035462057178526907 0.35372881551546231 0 0.0074151532351464664 0.34270408622543969 0 0.017856982093551452 0.33258286821195598 0 0.0132070780148927 0.31560044731320741 0 0.032571934813450339 0.32785700315948851 0 0.03046303935155039 0.30897858184143118 0 0.0132070780148927 0.31560044731320741 0 0.032571934813450339 0.32785700315948851 0 0.0132070780148927 0.31560044731320741 0 0.017856982093551452 0.33258286821195598 0 0.032571934813450339 0.32785700315948851 0 0.032571934813450339 0.32785700315948851 0 0.04416824766991833 0.31246743903271801 0 0.03046303935155039 0.30897858184143118 0 0.032571934813450339 0.32785700315948851 0 0.051653895743553092 0.32463115996074798 0 0.04416824766991833 0.31246743903271801 0 0.032571934813450339 0.32785700315948851 0 0.03046303935155039 0.30897858184143118 0 0.043946961388961613 0.34681042045897131 0 0.032571934813450339 0.32785700315948851 0 0.057149856865371267 0.34341305282970169 0 0.035462057178526907 0.35372881551546231 0 0.032571934813450339 0.32785700315948851 0 0.032571934813450339 0.32785700315948851 0 0.057149856865371267 0.34341305282970169 0 0.043946961388961613 0.34681042045897131 0 0.035462057178526907 0.35372881551546231 0 0.032571934813450339 0.32785700315948851 0 0.062547535945643037 0.33069945621673169 0 0.057149856865371267 0.34341305282970169 0 0.051653895743553092 0.32463115996074798 0 0.032571934813450339 0.32785700315948851 0 0.057149856865371267 0.34341305282970169 0 0.051653895743553092 0.32463115996074798 0 0.051653895743553092 0.32463115996074798 0 0.057746796409356767 0.31093571676153431 0 0.04416824766991833 0.31246743903271801 0 0.062547535945643037 0.33069945621673169 0 0.051653895743553092 0.32463115996074798 0 0.061691976554995122 0.32132218337059848 0 0.051653895743553092 0.32463115996074798 0 0.061691976554995122 0.32132218337059848 0 0.057746796409356767 0.31093571676153431 0 0.057746796409356767 0.31093571676153431 0 0.061541984325237553 0.29702285322213479 0 0.045656078500483387 0.29772437559717863 0 0.057746796409356767 0.31093571676153431 0 0.04416824766991833 0.31246743903271801 0 0.045656078500483387 0.29772437559717863 0 0.061541984325237553 0.29702285322213479 0 0.045656078500483387 0.29772437559717863 0 0.061767279144834208 0.28046530807627018 0 0.041387175607263883 0.28396787494093823 0 0.045656078500483387 0.29772437559717863 0 0.061767279144834208 0.28046530807627018 0 0.041387175607263883 0.28396787494093823 0 0.045656078500483387 0.29772437559717863 0 0.02835414388965022 0.2901001605233739 0 0.041387175607263883 0.28396787494093823 0 0.02835414388965022 0.2901001605233739 0 0.028827590656067891 0.27937114930096141 0 0.045656078500483387 0.29772437559717863 0 0.03046303935155039 0.30897858184143118 0 0.02835414388965022 0.2901001605233739 0 0.04416824766991833 0.31246743903271801 0 0.045656078500483387 0.29772437559717863 0 0.03046303935155039 0.30897858184143118 0 0.03046303935155039 0.30897858184143118 0 0.02835414388965022 0.2901001605233739 0 0.01526371900251563 0.30089435237635231 0 0.03046303935155039 0.30897858184143118 0 0.02835414388965022 0.2901001605233739 0 0.0132070780148927 0.31560044731320741 0 0.03046303935155039 0.30897858184143118 0 0.01526371900251563 0.30089435237635231 0 0.02835414388965022 0.2901001605233739 0 0.010452112540149361 0.28644868073682339 0 0.028827590656067891 0.27937114930096141 0 0.02835414388965022 0.2901001605233739 0 0.010452112540149361 0.28644868073682339 0 0.01526371900251563 0.30089435237635231 0 -0.0061577787836646402 0.30334389146692581 0 -0.0015968096670608981 0.28409336910615418 0 0.010452112540149361 0.28644868073682339 0 -0.0061577787836646402 0.30334389146692581 0 0.0132070780148927 0.31560044731320741 0 0.01526371900251563 0.30089435237635231 0 -0.0061577787836646402 0.30334389146692581 0 0.010452112540149361 0.28644868073682339 0 0.01526371900251563 0.30089435237635231 0 -0.0061577787836646402 0.30334389146692581 0 0.0132070780148927 0.31560044731320741 0 -0.0068442732680598682 0.25889238487297322 0 0.01367960745766687 0.25392125463622539 0 0.0050476956563778666 0.27099340926092869 0 0.01367960745766687 0.25392125463622539 0 0.0050476956563778666 0.27099340926092869 0 0.025824659393862109 0.26639932356191859 0 -0.0068442732680598682 0.25889238487297322 0 -0.0016943515121305051 0.24261548295161911 0 0.01367960745766687 0.25392125463622539 0 0.0050476956563778666 0.27099340926092869 0 0.025824659393862109 0.26639932356191859 0 0.010452112540149361 0.28644868073682339 0 0.0050476956563778666 0.27099340926092869 0 0.025824659393862109 0.26639932356191859 0 -0.0015968096670608981 0.28409336910615418 0 0.010452112540149361 0.28644868073682339 0 0.0050476956563778666 0.27099340926092869 0 0.010452112540149361 0.28644868073682339 0 0.025824659393862109 0.26639932356191859 0 0.010452112540149361 0.28644868073682339 0 0.028827590656067891 0.27937114930096141 0 0.025824659393862109 0.26639932356191859 0 0.028827590656067891 0.27937114930096141 0 0.025824659393862109 0.26639932356191859 0 0.038119861849413933 0.26993970674175283 0 0.038667251123650659 0.24964961311431011 0 0.01367960745766687 0.25392125463622539 0 0.025824659393862109 0.26639932356191859 0 0.038667251123650659 0.24964961311431011 0 0.025824659393862109 0.26639932356191859 0 0.038667251123650659 0.24964961311431011 0 0.025824659393862109 0.26639932356191859 0 0.04601202373817162 0.26193560677409972 0 0.025824659393862109 0.26639932356191859 0 0.04601202373817162 0.26193560677409972 0 0.038667251123650659 0.24964961311431011 0 0.04601202373817162 0.26193560677409972 0 0.05221480168224267 0.25130833547688952 0 0.025824659393862109 0.26639932356191859 0 0.04601202373817162 0.26193560677409972 0 0.038119861849413933 0.26993970674175283 0 0.041387175607263883 0.28396787494093823 0 0.028827590656067891 0.27937114930096141 0 0.038119861849413933 0.26993970674175283 0 0.041387175607263883 0.28396787494093823 0 0.038119861849413933 0.26993970674175283 0 0.061767279144834208 0.28046530807627018 0 0.04601202373817162 0.26193560677409972 0 0.038119861849413933 0.26993970674175283 0 0.057894798095549198 0.26779500002214268 0 0.038119861849413933 0.26993970674175283 0 0.057894798095549198 0.26779500002214268 0 0.061767279144834208 0.28046530807627018 0 0.038119861849413933 0.26993970674175283 0 0.061767279144834208 0.28046530807627018 0 0.04601202373817162 0.26193560677409972 0 0.057894798095549198 0.26779500002214268 0 0.0661993880824812 0.25747188998628112 0 0.04601202373817162 0.26193560677409972 0 0.0661993880824812 0.25747188998628112 0 0.04601202373817162 0.26193560677409972 0 0.05221480168224267 0.25130833547688952 0 0.0661993880824812 0.25747188998628112 0 0.059269032206190578 0.24545283954995639 0 0.05221480168224267 0.25130833547688952 0 0.0661993880824812 0.25747188998628112 0 0.076796372185302691 0.24414023484413139 0 0.0661993880824812 0.25747188998628112 0 0.086386752426791419 0.25300817319846558 0 0.0661993880824812 0.25747188998628112 0 0.086386752426791419 0.25300817319846558 0 0.086386752426791419 0.25300817319846558 0 0.086480765293725198 0.2711613946535727 0 0.0661993880824812 0.25747188998628112 0 0.086386752426791419 0.25300817319846558 0 0.086480765293725198 0.2711613946535727 0 0.092435739743307141 0.25955464834039088 0 0.086386752426791419 0.25300817319846558 0 0.086480765293725198 0.2711613946535727 0 0.092435739743307141 0.25955464834039088 0 0.086480765293725198 0.2711613946535727 0 0.093959506351554992 0.2661034890816194 0 0.092435739743307141 0.25955464834039088 0 0.093740385013940566 0.25138217920187811 0 0.086386752426791419 0.25300817319846558 0 0.093740385013940566 0.25138217920187811 0 0.086386752426791419 0.25300817319846558 0 0.086480765293725198 0.2711613946535727 0 0.086574778160658283 0.2893146161086797 0 0.098602883753907286 0.27193426049368308 0 0.086574778160658283 0.2893146161086797 0 0.098602883753907286 0.27193426049368308 0 0.086480765293725198 0.2711613946535727 0 0.086574778160658283 0.2893146161086797 0 0.086480765293725198 0.2711613946535727 0 0.075810671610387487 0.28029350766812688 0 0.086574778160658283 0.2893146161086797 0 0.086480765293725198 0.2711613946535727 0 0.093959506351554992 0.2661034890816194 0 0.098602883753907286 0.27193426049368308 0 0.057894798095549198 0.26779500002214268 0 0.061767279144834208 0.28046530807627018 0 0.075810671610387487 0.28029350766812688 0 0.0661993880824812 0.25747188998628112 0 0.086480765293725198 0.2711613946535727 0 0.075810671610387487 0.28029350766812688 0 0.057894798095549198 0.26779500002214268 0 0.0661993880824812 0.25747188998628112 0 0.075810671610387487 0.28029350766812688 0 0.061767279144834208 0.28046530807627018 0 0.075810671610387487 0.28029350766812688 0 0.086586159821298248 0.2915123344938273 0 0.061541984325237553 0.29702285322213479 0 0.061767279144834208 0.28046530807627018 0 0.071862871446925575 0.29213313388480822 0 0.061767279144834208 0.28046530807627018 0 0.086586159821298248 0.2915123344938273 0 0.061767279144834208 0.28046530807627018 0 0.071862871446925575 0.29213313388480822 0 0.086586159821298248 0.2915123344938273 0 0.071862871446925575 0.29213313388480822 0 0.076681749995421017 0.297271875586406 0 0.083749686875258203 0.29339681266111428 0 0.070406940467487966 0.31661870075825033 0 0.057746796409356767 0.31093571676153431 0 0.070676896124587815 0.30385573179088271 0 0.057746796409356767 0.31093571676153431 0 0.061541984325237553 0.29702285322213479 0 0.070676896124587815 0.30385573179088271 0 0.061541984325237553 0.29702285322213479 0 0.071862871446925575 0.29213313388480822 0 0.070676896124587815 0.30385573179088271 0 0.071862871446925575 0.29213313388480822 0 0.070676896124587815 0.30385573179088271 0 0.076681749995421017 0.297271875586406 0 0.070676896124587815 0.30385573179088271 0 0.076681749995421017 0.297271875586406 0 0.08098839824745252 0.30205413740906301 0 0.070676896124587815 0.30385573179088271 0 0.077562082065394125 0.31091653430901289 0 0.08098839824745252 0.30205413740906301 0 0.070406940467487966 0.31661870075825033 0 0.070676896124587815 0.30385573179088271 0 0.077562082065394125 0.31091653430901289 0 0.086677450626524738 0.30913994503456738 0 0.086586159821298248 0.2915123344938273 0 0.086677450626524738 0.30913994503456738 0 0.086586159821298248 0.2915123344938273 0 0.095928771454804301 0.30452969226921772 0 0.08098839824745252 0.30205413740906301 0 0.086677450626524738 0.30913994503456738 0 0.086586159821298248 0.2915123344938273 0 0.077562082065394125 0.31091653430901289 0 0.08098839824745252 0.30205413740906301 0 0.086677450626524738 0.30913994503456738 0 0.076681749995421017 0.297271875586406 0 0.08098839824745252 0.30205413740906301 0 0.083749686875258203 0.29339681266111428 0 0.086574778160658283 0.2893146161086797 0 0.086586159821298248 0.2915123344938273 0 0.10253265023190659 0.2875060758743595 0 0.075810671610387487 0.28029350766812688 0 0.086574778160658283 0.2893146161086797 0 0.086586159821298248 0.2915123344938273 0 0.08098839824745252 0.30205413740906301 0 0.083749686875258203 0.29339681266111428 0 0.086586159821298248 0.2915123344938273 0 0.071862871446925575 0.29213313388480822 0 0.083749686875258203 0.29339681266111428 0 0.086586159821298248 0.2915123344938273 0 0.083749686875258203 0.29339681266111428 0 0.086586159821298248 0.2915123344938273 0 0.086574778160658283 0.2893146161086797 0 0.086586159821298248 0.2915123344938273 0 0.086574778160658283 0.2893146161086797 0 0.10253265023190659 0.2875060758743595 0 0.098602883753907286 0.27193426049368308 0 0.086586159821298248 0.2915123344938273 0 0.10253265023190659 0.2875060758743595 0 0.1097819217573139 0.30183690143231012 0 0.086586159821298248 0.2915123344938273 0 0.1097819217573139 0.30183690143231012 0 0.086586159821298248 0.2915123344938273 0 0.095928771454804301 0.30452969226921772 0 0.1097819217573139 0.30183690143231012 0 0.10066955361407889 0.31562958811616931 0 0.086677450626524738 0.30913994503456738 0 0.095928771454804301 0.30452969226921772 0 0.10066955361407889 0.31562958811616931 0 0.1097819217573139 0.30183690143231012 0 0.10066955361407889 0.31562958811616931 0 0.095928771454804301 0.30452969226921772 0 0.1097819217573139 0.30183690143231012 0 0.1138661760770721 0.31257358324979562 0 0.10066955361407889 0.31562958811616931 0 0.1097819217573139 0.30183690143231012 0 0.1097819217573139 0.30183690143231012 0 0.12273624601819989 0.30760294560638363 0 0.1217470573046892 0.28372620143197252 0 0.1097819217573139 0.30183690143231012 0 0.12273624601819989 0.30760294560638363 0 0.1138661760770721 0.31257358324979562 0 0.1097819217573139 0.30183690143231012 0 0.12273624601819989 0.30760294560638363 0 0.1230793352486496 0.31507520913168152 0 0.1138661760770721 0.31257358324979562 0 0.12273624601819989 0.30760294560638363 0 0.1097819217573139 0.30183690143231012 0 0.1217470573046892 0.28372620143197252 0 0.10253265023190659 0.2875060758743595 0 0.1097819217573139 0.30183690143231012 0 0.1217470573046892 0.28372620143197252 0 0.10253265023190659 0.2875060758743595 0 0.1217470573046892 0.28372620143197252 0 0.11469517105688599 0.26966378532887242 0 0.1217470573046892 0.28372620143197252 0 0.11469517105688599 0.26966378532887242 0 0.13371219285206259 0.26561550143163348 0 0.11469517105688599 0.26966378532887242 0 0.1106309893471563 0.25455390487868651 0 0.12575341305293899 0.25323418257057778 0 0.11469517105688599 0.26966378532887242 0 0.12575341305293899 0.25323418257057778 0 0.13371219285206259 0.26561550143163348 0 0.1106309893471563 0.25455390487868651 0 0.098602883753907286 0.27193426049368308 0 0.11469517105688599 0.26966378532887242 0 0.1106309893471563 0.25455390487868651 0 0.098602883753907286 0.27193426049368308 0 0.1106309893471563 0.25455390487868651 0 0.099311362443466056 0.26091537908549489 0 0.098602883753907286 0.27193426049368308 0 0.1106309893471563 0.25455390487868651 0 0.1029204472395044 0.2550633416045473 0 0.099311362443466056 0.26091537908549489 0 0.1106309893471563 0.25455390487868651 0 0.10700587554075321 0.25299627826930687 0 0.1029204472395044 0.2550633416045473 0 0.1054161287471154 0.24704672322414239 0 0.10700587554075321 0.25299627826930687 0 0.10349276209515069 0.25044513433366439 0 0.1029204472395044 0.2550633416045473 0 0.10349276209515069 0.25044513433366439 0 0.099673075425924712 0.25150518096714669 0 0.10700587554075321 0.25299627826930687 0 0.1029204472395044 0.2550633416045473 0 0.10349276209515069 0.25044513433366439 0 0.092435739743307141 0.25955464834039088 0 0.093740385013940566 0.25138217920187811 0 0.097616201973228595 0.25568414583989157 0 0.1029204472395044 0.2550633416045473 0 0.099673075425924712 0.25150518096714669 0 0.097616201973228595 0.25568414583989157 0 0.1029204472395044 0.2550633416045473 0 0.097616201973228595 0.25568414583989157 0 0.099311362443466056 0.26091537908549489 0 0.093740385013940566 0.25138217920187811 0 0.099673075425924712 0.25150518096714669 0 0.097616201973228595 0.25568414583989157 0 0.097252548718931506 0.2481992205224095 0 0.093740385013940566 0.25138217920187811 0 0.099673075425924712 0.25150518096714669 0 0.092435739743307141 0.25955464834039088 0 0.097616201973228595 0.25568414583989157 0 0.099311362443466056 0.26091537908549489 0 0.092435739743307141 0.25955464834039088 0 0.099311362443466056 0.26091537908549489 0 0.093959506351554992 0.2661034890816194 0 0.10253265023190659 0.2875060758743595 0 0.11469517105688599 0.26966378532887242 0 0.098602883753907286 0.27193426049368308 0 0.099311362443466056 0.26091537908549489 0 0.093959506351554992 0.2661034890816194 0 0.098602883753907286 0.27193426049368308 0 0.15407879440076089 0.26855304984998268 0 0.13371219285206259 0.26561550143163348 0 0.14619449809238971 0.28552697246855541 0 0.15407879440076089 0.26855304984998268 0 0.14619449809238971 0.28552697246855541 0 0.16353634228828251 0.28527322396873422 0 0.14567732839943601 0.24750480143129461 0 0.15407879440076089 0.26855304984998268 0 0.13371219285206259 0.26561550143163348 0 0.14567732839943601 0.24750480143129461 0 0.12575341305293899 0.25323418257057778 0 0.13371219285206259 0.26561550143163348 0 0.14567732839943601 0.24750480143129461 0 0.13371219285206259 0.26561550143163348 0 0.1217470573046892 0.28372620143197252 0 0.13371219285206259 0.26561550143163348 0 0.1217470573046892 0.28372620143197252 0 0.13371219285206259 0.26561550143163348 0 0.14619449809238971 0.28552697246855541 0 0.12273624601819989 0.30760294560638363 0 0.1217470573046892 0.28372620143197252 0 0.13350665042773541 0.29585650354785609 0 0.1217470573046892 0.28372620143197252 0 0.13350665042773541 0.29585650354785609 0 0.14619449809238971 0.28552697246855541 0 0.12273624601819989 0.30760294560638363 0 0.13350665042773541 0.29585650354785609 0 0.14263019255154941 0.30912879441290292 0 0.1230793352486496 0.31507520913168152 0 0.14263019255154941 0.30912879441290292 0 0.1230793352486496 0.31507520913168152 0 0.12273624601819989 0.30760294560638363 0 0.14263019255154941 0.30912879441290292 0 0.14263019255154941 0.30912879441290292 0 0.14619449809238971 0.28552697246855541 0 0.16218104985444909 0.30318237969412432 0 0.14263019255154941 0.30912879441290292 0 0.16218104985444909 0.30318237969412432 0 0.14263019255154941 0.30912879441290292 0 0.16218104985444909 0.30318237969412432 0 0.15388472472409839 0.31737079040325261 0 0.13350665042773541 0.29585650354785609 0 0.14263019255154941 0.30912879441290292 0 0.14619449809238971 0.28552697246855541 0 0.16353634228828251 0.28527322396873422 0 0.16218104985444909 0.30318237969412432 0 0.1739463675375412 0.2925540433685922 0 0.14619449809238971 0.28552697246855541 0 0.16353634228828251 0.28527322396873422 0 0.16218104985444909 0.30318237969412432 0 0.16353634228828251 0.28527322396873422 0 0.1735048312338098 0.28531313748475617 0 0.1739463675375412 0.2925540433685922 0 0.16353634228828251 0.28527322396873422 0 0.1735048312338098 0.28531313748475617 0 0.17079252976839979 0.27554917332116402 0 0.16218104985444909 0.30318237969412432 0 0.17421752125596909 0.31050195626994159 0 0.16549120766728101 0.31889067382691971 0 0.1817319071573488 0.29723596497534571 0 0.18561029256813361 0.30554179465352982 0 0.18223315461283829 0.32184112522777197 0 0.16218104985444909 0.30318237969412432 0 0.17421752125596909 0.31050195626994159 0 0.1817319071573488 0.29723596497534571 0 0.1817319071573488 0.29723596497534571 0 0.18223315461283829 0.32184112522777197 0 0.16218104985444909 0.30318237969412432 0 0.1817319071573488 0.29723596497534571 0 0.16218104985444909 0.30318237969412432 0 0.1817319071573488 0.29723596497534571 0 0.1739463675375412 0.2925540433685922 0 0.17421752125596909 0.31050195626994159 0 0.1817319071573488 0.29723596497534571 0 0.18223315461283829 0.32184112522777197 0 0.1817319071573488 0.29723596497534571 0 0.18738483246933779 0.30130380599805662 0 0.18561029256813361 0.30554179465352982 0 0.1817319071573488 0.29723596497534571 0 0.18738483246933779 0.30130380599805662 0 0.19160284036956429 0.29862390924808663 0 0.18561029256813361 0.30554179465352982 0 0.18889395778334339 0.31133502484735109 0 0.187222097287849 0.31546837473075201 0 0.1735048312338098 0.28531313748475617 0 0.17982264934534839 0.28862866089159489 0 0.1809679662528895 0.28188057383619791 0 0.1735048312338098 0.28531313748475617 0 0.1739463675375412 0.2925540433685922 0 0.17982264934534839 0.28862866089159489 0 0.1817319071573488 0.29723596497534571 0 0.1739463675375412 0.2925540433685922 0 0.18165346652438169 0.293385482896445 0 0.1739463675375412 0.2925540433685922 0 0.18165346652438169 0.293385482896445 0 0.17982264934534839 0.28862866089159489 0 0.1817319071573488 0.29723596497534571 0 0.1849034024876603 0.29092683113344658 0 0.1903102273451481 0.29103730597540012 0 0.18165346652438169 0.293385482896445 0 0.1849034024876603 0.29092683113344658 0 0.17982264934534839 0.28862866089159489 0 0.1817319071573488 0.29723596497534571 0 0.18165346652438169 0.293385482896445 0 0.1849034024876603 0.29092683113344658 0 0.1817319071573488 0.29723596497534571 0 0.18165346652438169 0.293385482896445 0 0.1849034024876603 0.29092683113344658 0 0.18466618385497061 0.28712513627072761 0 0.18898325473331631 0.28677113619634242 0 0.18466618385497061 0.28712513627072761 0 0.1863237685648331 0.28330546448185628 0 0.18898325473331631 0.28677113619634242 0 0.1849034024876603 0.29092683113344658 0 0.18466618385497061 0.28712513627072761 0 0.17982264934534839 0.28862866089159489 0 0.18466618385497061 0.28712513627072761 0 0.17982264934534839 0.28862866089159489 0 0.1809679662528895 0.28188057383619791 0 0.18466618385497061 0.28712513627072761 0 0.1809679662528895 0.28188057383619791 0 0.1863237685648331 0.28330546448185628 0 0.1809679662528895 0.28188057383619791 0 0.1863237685648331 0.28330546448185628 0 0.18680591541561109 0.27890905445381792 0 0.1809679662528895 0.28188057383619791 0 0.18680591541561109 0.27890905445381792 0 0.1824415580962801 0.27275960387214532 0 0.1824415580962801 0.27275960387214532 0 0.17020281383279251 0.25851255209104379 0 0.19472829926614971 0.26952030275079158 0 0.1824415580962801 0.27275960387214532 0 0.17079252976839979 0.27554917332116402 0 0.17020281383279251 0.25851255209104379 0 0.18680591541561109 0.27890905445381792 0 0.1824415580962801 0.27275960387214532 0 0.18957492652777369 0.27472840055520598 0 0.1735048312338098 0.28531313748475617 0 0.1809679662528895 0.28188057383619791 0 0.17079252976839979 0.27554917332116402 0 0.1809679662528895 0.28188057383619791 0 0.1824415580962801 0.27275960387214532 0 0.17079252976839979 0.27554917332116402 0 0.15407879440076089 0.26855304984998268 0 0.17079252976839979 0.27554917332116402 0 0.17020281383279251 0.25851255209104379 0 0.15407879440076089 0.26855304984998268 0 0.16353634228828251 0.28527322396873422 0 0.17079252976839979 0.27554917332116402 0 0.14567732839943601 0.24750480143129461 0 0.17020281383279251 0.25851255209104379 0 0.14567732839943601 0.24750480143129461 0 0.15407879440076089 0.26855304984998268 0 0.17020281383279251 0.25851255209104379 0 0.17020281383279251 0.25851255209104379 0 0.19301052992418399 0.26568982721454731 0 0.19472829926614971 0.26952030275079158 0 0.17020281383279251 0.25851255209104379 0 0.19472829926614971 0.26952030275079158 0 0.18482953203369201 0.2481549504366409 0 0.17020281383279251 0.25851255209104379 0 0.19301052992418399 0.26568982721454731 0 0.18482953203369201 0.2481549504366409 0 0.19634051797857349 0.25555210822485153 0 0.19301052992418399 0.26568982721454731 0 0.2004786674069067 0.26464115834865459 0 0.19634051797857349 0.25555210822485153 0 0.20628582782127011 0.2541842705972992 0 0.2004786674069067 0.26464115834865459 0 0.19634051797857349 0.25555210822485153 0 0.19301052992418399 0.26568982721454731 0 0.19697480182940591 0.24460916126373819 0 0.19634051797857349 0.25555210822485153 0 0.20628582782127011 0.2541842705972992 0 0.19472829926614971 0.26952030275079158 0 0.1961353044097692 0.27922826397776063 0 0.2054817210195482 0.29349949364155259 0 0.19472829926614971 0.26952030275079158 0 0.2038757056158704 0.27880863626568553 0 0.2054817210195482 0.29349949364155259 0 0.19309628523788791 0.27551073766982043 0 0.19472829926614971 0.26952030275079158 0 0.1961353044097692 0.27922826397776063 0 0.19194661074785921 0.27856598339552358 0 0.1961353044097692 0.27922826397776063 0 0.19533928311716381 0.28533663431315093 0 0.19194661074785921 0.27856598339552358 0 0.19309628523788791 0.27551073766982043 0 0.1961353044097692 0.27922826397776063 0 0.18680591541561109 0.27890905445381792 0 0.19194661074785921 0.27856598339552358 0 0.18958066230403131 0.28221430058197838 0 0.18680591541561109 0.27890905445381792 0 0.19194661074785921 0.27856598339552358 0 0.18957492652777369 0.27472840055520598 0 0.19194661074785921 0.27856598339552358 0 0.18957492652777369 0.27472840055520598 0 0.19309628523788791 0.27551073766982043 0 0.1824415580962801 0.27275960387214532 0 0.18957492652777369 0.27472840055520598 0 0.19472829926614971 0.26952030275079158 0 0.18957492652777369 0.27472840055520598 0 0.19309628523788791 0.27551073766982043 0 0.19472829926614971 0.26952030275079158 0 0.19301052992418399 0.26568982721454731 0 0.19472829926614971 0.26952030275079158 0 0.2004786674069067 0.26464115834865459 0 0.2006552602762969 0.27218049511057429 0 0.20799857900439481 0.27363559193439568 0 0.2004786674069067 0.26464115834865459 0 0.19301052992418399 0.26568982721454731 0 0.19472829926614971 0.26952030275079158 0 0.2004786674069067 0.26464115834865459 0 0.19472829926614971 0.26952030275079158 0 0.2006552602762969 0.27218049511057429 0 0.19472829926614971 0.26952030275079158 0 0.2006552602762969 0.27218049511057429 0 0.19472829926614971 0.26952030275079158 0 0.2006552602762969 0.27218049511057429 0 0.2038757056158704 0.27880863626568553 0 0.21026604068934771 0.28031191304474012 0 0.2038757056158704 0.27880863626568553 0 0.20799857900439481 0.27363559193439568 0 0.2006552602762969 0.27218049511057429 0 0.2038757056158704 0.27880863626568553 0 0.20799857900439481 0.27363559193439568 0 0.21026604068934771 0.28031191304474012 0 0.20799857900439481 0.27363559193439568 0 0.21428544653505671 0.27644128202842883 0 0.2004786674069067 0.26464115834865459 0 0.20799857900439481 0.27363559193439568 0 0.2146075986608881 0.26744178677561048 0 0.20799857900439481 0.27363559193439568 0 0.2146075986608881 0.26744178677561048 0 0.21428544653505671 0.27644128202842883 0 0.21428544653505671 0.27644128202842883 0 0.22234642884982159 0.27796600512050001 0 0.21620858547083099 0.28285111326689771 0 0.2146075986608881 0.26744178677561048 0 0.21428544653505671 0.27644128202842883 0 0.22234642884982159 0.27796600512050001 0 0.21026604068934771 0.28031191304474012 0 0.21428544653505671 0.27644128202842883 0 0.21620858547083099 0.28285111326689771 0 0.2004786674069067 0.26464115834865459 0 0.2146075986608881 0.26744178677561048 0 0.20628582782127011 0.2541842705972992 0 0.2146075986608881 0.26744178677561048 0 0.20628582782127011 0.2541842705972992 0 0.2193213415590301 0.25380783574640242 0 0.2193213415590301 0.25380783574640242 0 0.247174161967674 0.25327687482299249 0 0.2193213415590301 0.25380783574640242 0 0.22734294487929599 0.26798305232063252 0 0.23500888932936931 0.26097919902229261 0 0.23306095573090471 0.24374352430596849 0 0.2193213415590301 0.25380783574640242 0 0.247174161967674 0.25327687482299249 0 0.2193213415590301 0.25380783574640242 0 0.247174161967674 0.25327687482299249 0 0.23500888932936931 0.26097919902229261 0 0.2146075986608881 0.26744178677561048 0 0.2193213415590301 0.25380783574640242 0 0.22734294487929599 0.26798305232063252 0 0.2146075986608881 0.26744178677561048 0 0.22234642884982159 0.27796600512050001 0 0.22734294487929599 0.26798305232063252 0 0.22234642884982159 0.27796600512050001 0 0.23243294101216169 0.27744459014776779 0 0.22734294487929599 0.26798305232063252 0 0.22234642884982159 0.27796600512050001 0 0.23243294101216169 0.27744459014776779 0 0.22789000567247361 0.28339631237501811 0 0.22734294487929599 0.26798305232063252 0 0.2396402898319433 0.27097770966845469 0 0.23500888932936931 0.26097919902229261 0 0.23243294101216169 0.27744459014776779 0 0.22734294487929599 0.26798305232063252 0 0.2396402898319433 0.27097770966845469 0 0.23243294101216169 0.27744459014776779 0 0.24103329640426141 0.2809833449387914 0 0.23412223926786391 0.28488099531944222 0 0.23243294101216169 0.27744459014776779 0 0.2396402898319433 0.27097770966845469 0 0.24103329640426141 0.2809833449387914 0 0.24103329640426141 0.2809833449387914 0 0.24759894069174429 0.2763035394253518 0 0.24939431258866271 0.28461400175342061 0 0.2396402898319433 0.27097770966845469 0 0.24103329640426141 0.2809833449387914 0 0.24759894069174429 0.2763035394253518 0 0.2396402898319433 0.27097770966845469 0 0.24759894069174429 0.2763035394253518 0 0.24753658922345059 0.268384782251544 0 0.2396402898319433 0.27097770966845469 0 0.24753658922345059 0.268384782251544 0 0.24310804793139729 0.26331875263014248 0 0.24753658922345059 0.268384782251544 0 0.24310804793139729 0.26331875263014248 0 0.24922855084631021 0.25871626226245159 0 0.24310804793139729 0.26331875263014248 0 0.24362991251868771 0.25907277218446978 0 0.24922855084631021 0.25871626226245159 0 0.24922855084631021 0.25871626226245159 0 0.247174161967674 0.25327687482299249 0 0.24362991251868771 0.25907277218446978 0 0.24922855084631021 0.25871626226245159 0 0.247174161967674 0.25327687482299249 0 0.24362991251868771 0.25907277218446978 0 0.247174161967674 0.25327687482299249 0 0.23500888932936931 0.26097919902229261 0 0.24310804793139729 0.26331875263014248 0 0.24362991251868771 0.25907277218446978 0 0.23500888932936931 0.26097919902229261 0 0.2396402898319433 0.27097770966845469 0 0.24310804793139729 0.26331875263014248 0 0.23500888932936931 0.26097919902229261 0 0.23978490516398171 0.30540010652643468 0 0.23979917037144649 0.29154426956958651 0 0.23225706977266261 0.29881476465912099 0 0.23978490516398171 0.30540010652643468 0 0.2433419919794062 0.31972344149318871 0 0.2513892096621308 0.30951532069811499 0 0.23978490516398171 0.30540010652643468 0 0.25068914906869572 0.29780768713734018 0 0.2513892096621308 0.30951532069811499 0 0.23978490516398171 0.30540010652643468 0 0.23979917037144649 0.29154426956958651 0 0.25068914906869572 0.29780768713734018 0 0.24939431258866271 0.28461400175342061 0 0.23979917037144649 0.29154426956958651 0 0.25068914906869572 0.29780768713734018 0 0.24103329640426141 0.2809833449387914 0 0.24939431258866271 0.28461400175342061 0 0.23979917037144649 0.29154426956958651 0 0.24103329640426141 0.2809833449387914 0 0.23979917037144649 0.29154426956958651 0 0.23412223926786391 0.28488099531944222 0 0.23979917037144649 0.29154426956958651 0 0.2271670501617585 0.29119426071467158 0 0.23412223926786391 0.28488099531944222 0 0.23979917037144649 0.29154426956958651 0 0.2271670501617585 0.29119426071467158 0 0.23225706977266261 0.29881476465912099 0 0.2271670501617585 0.29119426071467158 0 0.22465815681190959 0.30011213175115248 0 0.23225706977266261 0.29881476465912099 0 0.23243294101216169 0.27744459014776779 0 0.23412223926786391 0.28488099531944222 0 0.22789000567247361 0.28339631237501811 0 0.2271670501617585 0.29119426071467158 0 0.23412223926786391 0.28488099531944222 0 0.22789000567247361 0.28339631237501811 0 0.2271670501617585 0.29119426071467158 0 0.2222973508924376 0.28508516801045641 0 0.21733267521814051 0.28981287729406868 0 0.22234642884982159 0.27796600512050001 0 0.22789000567247361 0.28339631237501811 0 0.2222973508924376 0.28508516801045641 0 0.2271670501617585 0.29119426071467158 0 0.22789000567247361 0.28339631237501811 0 0.2222973508924376 0.28508516801045641 0 0.22234642884982159 0.27796600512050001 0 0.2222973508924376 0.28508516801045641 0 0.21620858547083099 0.28285111326689771 0 0.2271670501617585 0.29119426071467158 0 0.2191864619396752 0.29574839506535322 0 0.22465815681190959 0.30011213175115248 0 0.2271670501617585 0.29119426071467158 0 0.2191864619396752 0.29574839506535322 0 0.21733267521814051 0.28981287729406868 0 0.2191864619396752 0.29574839506535322 0 0.21918415775190009 0.3015668286108496 0 0.22465815681190959 0.30011213175115248 0 0.21918415775190009 0.3015668286108496 0 0.22465815681190959 0.30011213175115248 0 0.2229147739994575 0.30666472794823679 0 0.22465815681190959 0.30011213175115248 0 0.2299788634291853 0.30547080082260358 0 0.2229147739994575 0.30666472794823679 0 0.23978490516398171 0.30540010652643468 0 0.23225706977266261 0.29881476465912099 0 0.2299788634291853 0.30547080082260358 0 0.22465815681190959 0.30011213175115248 0 0.23225706977266261 0.29881476465912099 0 0.2299788634291853 0.30547080082260358 0 0.2299788634291853 0.30547080082260358 0 0.2229147739994575 0.30666472794823679 0 0.23117580189164399 0.31329061912279349 0 0.23978490516398171 0.30540010652643468 0 0.2299788634291853 0.30547080082260358 0 0.23117580189164399 0.31329061912279349 0 0.2229147739994575 0.30666472794823679 0 0.222542167937192 0.31301437336310328 0 0.23117580189164399 0.31329061912279349 0 0.2229147739994575 0.30666472794823679 0 0.2164685959739242 0.30608476323094608 0 0.222542167937192 0.31301437336310328 0 0.21918415775190009 0.3015668286108496 0 0.2229147739994575 0.30666472794823679 0 0.2164685959739242 0.30608476323094608 0 0.2054817210195482 0.29349949364155259 0 0.21623514277294609 0.31747868453231382 0 0.2164685959739242 0.30608476323094608 0 0.2054817210195482 0.29349949364155259 0 0.21623514277294609 0.31747868453231382 0 0.2164685959739242 0.30608476323094608 0 0.21623514277294609 0.31747868453231382 0 0.222542167937192 0.31301437336310328 0 0.20798393232363499 0.30677815285789539 0 0.2054817210195482 0.29349949364155259 0 0.21623514277294609 0.31747868453231382 0 0.2164685959739242 0.30608476323094608 0 0.21375817762319391 0.29879941858406373 0 0.2054817210195482 0.29349949364155259 0 0.21918415775190009 0.3015668286108496 0 0.2164685959739242 0.30608476323094608 0 0.21375817762319391 0.29879941858406373 0 0.2191864619396752 0.29574839506535322 0 0.21918415775190009 0.3015668286108496 0 0.21375817762319391 0.29879941858406373 0 0.2040065676984068 0.30046617893752747 0 0.20798393232363499 0.30677815285789539 0 0.2054817210195482 0.29349949364155259 0 0.2040065676984068 0.30046617893752747 0 0.20400731541809261 0.30423603514617831 0 0.20798393232363499 0.30677815285789539 0 0.20400731541809261 0.30423603514617831 0 0.20798393232363499 0.30677815285789539 0 0.20117398944013301 0.30791410026975691 0 0.2058559097827917 0.31200751698273649 0 0.20798393232363499 0.30677815285789539 0 0.20117398944013301 0.30791410026975691 0 0.2058559097827917 0.31200751698273649 0 0.20798393232363499 0.30677815285789539 0 0.21001577058160961 0.31412861503051909 0 0.21026604068934771 0.28031191304474012 0 0.21620858547083099 0.28285111326689771 0 0.21039911214384679 0.28673937612703482 0 0.2222973508924376 0.28508516801045641 0 0.21620858547083099 0.28285111326689771 0 0.21733267521814051 0.28981287729406868 0 0.21620858547083099 0.28285111326689771 0 0.21733267521814051 0.28981287729406868 0 0.21039911214384679 0.28673937612703482 0 0.21733267521814051 0.28981287729406868 0 0.21301855407114889 0.29300485343731369 0 0.21039911214384679 0.28673937612703482 0 0.2191864619396752 0.29574839506535322 0 0.21733267521814051 0.28981287729406868 0 0.21301855407114889 0.29300485343731369 0 0.2191864619396752 0.29574839506535322 0 0.21375817762319391 0.29879941858406373 0 0.21301855407114889 0.29300485343731369 0 0.21375817762319391 0.29879941858406373 0 0.21301855407114889 0.29300485343731369 0 0.2054817210195482 0.29349949364155259 0 0.2040065676984068 0.30046617893752747 0 0.2054817210195482 0.29349949364155259 0 0.20173247057285279 0.29652551697606011 0 0.21301855407114889 0.29300485343731369 0 0.2054817210195482 0.29349949364155259 0 0.21039911214384679 0.28673937612703482 0 0.21026604068934771 0.28031191304474012 0 0.2038757056158704 0.27880863626568553 0 0.21039911214384679 0.28673937612703482 0 0.2038757056158704 0.27880863626568553 0 0.2054817210195482 0.29349949364155259 0 0.21039911214384679 0.28673937612703482 0 0.1817319071573488 0.29723596497534571 0 0.1992630332529769 0.29190385372126038 0 0.1903102273451481 0.29103730597540012 0 0.1817319071573488 0.29723596497534571 0 0.1992630332529769 0.29190385372126038 0 0.19160284036956429 0.29862390924808663 0 0.1817319071573488 0.29723596497534571 0 0.1992630332529769 0.29190385372126038 0 0.19472829926614971 0.26952030275079158 0 0.2054817210195482 0.29349949364155259 0 0.1961353044097692 0.27922826397776063 0 0.2054817210195482 0.29349949364155259 0 0.19533928311716381 0.28533663431315093 0 0.19533928311716381 0.28533663431315093 0 0.1992630332529769 0.29190385372126038 0 0.19321475115228379 0.28731847887577022 0 0.2054817210195482 0.29349949364155259 0 0.19533928311716381 0.28533663431315093 0 0.1992630332529769 0.29190385372126038 0 0.2054817210195482 0.29349949364155259 0 0.1992630332529769 0.29190385372126038 0 0.20173247057285279 0.29652551697606011 0 0.1992630332529769 0.29190385372126038 0 0.20173247057285279 0.29652551697606011 0 0.19785109588737759 0.29821460437434211 0 0.1992630332529769 0.29190385372126038 0 0.19785109588737759 0.29821460437434211 0 0.19160284036956429 0.29862390924808663 0 0.1992630332529769 0.29190385372126038 0 0.1903102273451481 0.29103730597540012 0 0.19321475115228379 0.28731847887577022 0 0.1849034024876603 0.29092683113344658 0 0.1903102273451481 0.29103730597540012 0 0.18898325473331631 0.28677113619634242 0 0.19533928311716381 0.28533663431315093 0 0.19321475115228379 0.28731847887577022 0 0.191752898933678 0.28462606599821089 0 0.19321475115228379 0.28731847887577022 0 0.18898325473331631 0.28677113619634242 0 0.191752898933678 0.28462606599821089 0 0.1903102273451481 0.29103730597540012 0 0.19321475115228379 0.28731847887577022 0 0.18898325473331631 0.28677113619634242 0 0.18898325473331631 0.28677113619634242 0 0.18958066230403131 0.28221430058197838 0 0.191752898933678 0.28462606599821089 0 0.1863237685648331 0.28330546448185628 0 0.18680591541561109 0.27890905445381792 0 0.18958066230403131 0.28221430058197838 0 0.1863237685648331 0.28330546448185628 0 0.18898325473331631 0.28677113619634242 0 0.18958066230403131 0.28221430058197838 0 0.19194661074785921 0.27856598339552358 0 0.19533928311716381 0.28533663431315093 0 0.18958066230403131 0.28221430058197838 0 0.19533928311716381 0.28533663431315093 0 0.18958066230403131 0.28221430058197838 0 0.191752898933678 0.28462606599821089 0 0.20117398944013301 0.30791410026975691 0 0.1958936611720411 0.30283905246937942 0 0.19368056090444599 0.30781584781086968 0 0.20117398944013301 0.30791410026975691 0 0.19368056090444599 0.30781584781086968 0 0.19623676586923669 0.31339684012543079 0 0.20117398944013301 0.30791410026975691 0 0.2022515651512885 0.31471343430121629 0 0.19623676586923669 0.31339684012543079 0 0.2058559097827917 0.31200751698273649 0 0.20117398944013301 0.30791410026975691 0 0.2022515651512885 0.31471343430121629 0 0.20117398944013301 0.30791410026975691 0 0.2008273991579051 0.30129169606595102 0 0.1958936611720411 0.30283905246937942 0 0.20400731541809261 0.30423603514617831 0 0.20117398944013301 0.30791410026975691 0 0.2008273991579051 0.30129169606595102 0 0.2040065676984068 0.30046617893752747 0 0.20400731541809261 0.30423603514617831 0 0.2008273991579051 0.30129169606595102 0 0.20173247057285279 0.29652551697606011 0 0.2008273991579051 0.30129169606595102 0 0.19785109588737759 0.29821460437434211 0 0.2040065676984068 0.30046617893752747 0 0.20173247057285279 0.29652551697606011 0 0.2008273991579051 0.30129169606595102 0 0.2008273991579051 0.30129169606595102 0 0.19785109588737759 0.29821460437434211 0 0.1958936611720411 0.30283905246937942 0 0.1958936611720411 0.30283905246937942 0 0.19160284036956429 0.29862390924808663 0 0.1905942897823048 0.30381355511526448 0 0.19785109588737759 0.29821460437434211 0 0.1958936611720411 0.30283905246937942 0 0.19160284036956429 0.29862390924808663 0 0.18738483246933779 0.30130380599805662 0 0.19160284036956429 0.29862390924808663 0 0.1905942897823048 0.30381355511526448 0 0.18738483246933779 0.30130380599805662 0 0.18561029256813361 0.30554179465352982 0 0.1905942897823048 0.30381355511526448 0 0.18561029256813361 0.30554179465352982 0 0.1905942897823048 0.30381355511526448 0 0.18969477525955691 0.30712655560675378 0 0.18561029256813361 0.30554179465352982 0 0.18969477525955691 0.30712655560675378 0 0.18889395778334339 0.31133502484735109 0 0.1905942897823048 0.30381355511526448 0 0.18969477525955691 0.30712655560675378 0 0.19368056090444599 0.30781584781086968 0 0.1958936611720411 0.30283905246937942 0 0.1905942897823048 0.30381355511526448 0 0.19368056090444599 0.30781584781086968 0 0.19368056090444599 0.30781584781086968 0 0.18889395778334339 0.31133502484735109 0 0.19623676586923669 0.31339684012543079 0 0.18969477525955691 0.30712655560675378 0 0.19368056090444599 0.30781584781086968 0 0.18889395778334339 0.31133502484735109 0 0.18889395778334339 0.31133502484735109 0 0.19173824167788719 0.31728777451842571 0 0.187222097287849 0.31546837473075201 0 0.18889395778334339 0.31133502484735109 0 0.19173824167788719 0.31728777451842571 0 0.19623676586923669 0.31339684012543079 0 0.19173824167788719 0.31728777451842571 0 0.1945437047608673 0.32338501707104522 0 0.19826133572934471 0.31843444822051648 0 0.19173824167788719 0.31728777451842571 0 0.1892273116494271 0.32153411693604028 0 0.187222097287849 0.31546837473075201 0 0.1945437047608673 0.32338501707104522 0 0.19039935990769341 0.3296882931322066 0 0.19857824437697311 0.32837720632305489 0 0.1892273116494271 0.32153411693604028 0 0.1945437047608673 0.32338501707104522 0 0.19039935990769341 0.3296882931322066 0 0.19173824167788719 0.31728777451842571 0 0.1892273116494271 0.32153411693604028 0 0.1945437047608673 0.32338501707104522 0 0.1945437047608673 0.32338501707104522 0 0.20008667250089399 0.3233881603926258 0 0.19826133572934471 0.31843444822051648 0 0.1945437047608673 0.32338501707104522 0 0.20008667250089399 0.3233881603926258 0 0.19857824437697311 0.32837720632305489 0 0.19857824437697311 0.32837720632305489 0 0.2058702986568697 0.33122386458255382 0 0.20460871999673061 0.32462637301193659 0 0.20008667250089399 0.3233881603926258 0 0.19857824437697311 0.32837720632305489 0 0.20460871999673061 0.32462637301193659 0 0.20008667250089399 0.3233881603926258 0 0.20351680147007309 0.31989640562583771 0 0.20460871999673061 0.32462637301193659 0 0.20008667250089399 0.3233881603926258 0 0.19826133572934471 0.31843444822051648 0 0.20351680147007309 0.31989640562583771 0 0.2022515651512885 0.31471343430121629 0 0.19826133572934471 0.31843444822051648 0 0.20351680147007309 0.31989640562583771 0 0.19173824167788719 0.31728777451842571 0 0.19623676586923669 0.31339684012543079 0 0.19826133572934471 0.31843444822051648 0 0.2022515651512885 0.31471343430121629 0 0.19623676586923669 0.31339684012543079 0 0.19826133572934471 0.31843444822051648 0 0.19039935990769341 0.3296882931322066 0 0.19596071043878341 0.33795152974796211 0 0.18273440206832781 0.34644628548019818 0 0.19039935990769341 0.3296882931322066 0 0.19857824437697311 0.32837720632305489 0 0.19596071043878341 0.33795152974796211 0 0.19857824437697311 0.32837720632305489 0 0.19596071043878341 0.33795152974796211 0 0.2058702986568697 0.33122386458255382 0 0.19596071043878341 0.33795152974796211 0 0.203970733240567 0.34330484938651518 0 0.19333374123622599 0.34786808298467592 0 0.19596071043878341 0.33795152974796211 0 0.203970733240567 0.34330484938651518 0 0.2058702986568697 0.33122386458255382 0 0.2159312305965809 0.34338726329275049 0 0.21653589196403919 0.32573136422366389 0 0.203970733240567 0.34330484938651518 0 0.21653589196403919 0.32573136422366389 0 0.21727234728390821 0.32284003144900197 0 0.203970733240567 0.34330484938651518 0 0.2159312305965809 0.34338726329275049 0 0.21653589196403919 0.32573136422366389 0 0.2159312305965809 0.34338726329275049 0 0.21653589196403919 0.32573136422366389 0 0.21918200859271811 0.33335413359712279 0 0.203970733240567 0.34330484938651518 0 0.21727234728390821 0.32284003144900197 0 0.203970733240567 0.34330484938651518 0 0.2058702986568697 0.33122386458255382 0 0.21727234728390821 0.32284003144900197 0 0.21046915155931981 0.31821506646202702 0 0.20705807604183851 0.3163934970325144 0 0.20821339938810071 0.32045040940589442 0 0.2058559097827917 0.31200751698273649 0 0.21001577058160961 0.31412861503051909 0 0.20705807604183851 0.3163934970325144 0 0.21046915155931981 0.31821506646202702 0 0.21001577058160961 0.31412861503051909 0 0.20705807604183851 0.3163934970325144 0 0.2058559097827917 0.31200751698273649 0 0.2022515651512885 0.31471343430121629 0 0.20705807604183851 0.3163934970325144 0 0.20705807604183851 0.3163934970325144 0 0.20351680147007309 0.31989640562583771 0 0.20821339938810071 0.32045040940589442 0 0.2022515651512885 0.31471343430121629 0 0.20705807604183851 0.3163934970325144 0 0.20351680147007309 0.31989640562583771 0 0.2058702986568697 0.33122386458255382 0 0.20460871999673061 0.32462637301193659 0 0.21082336901210399 0.3226241263088932 0 0.20351680147007309 0.31989640562583771 0 0.20460871999673061 0.32462637301193659 0 0.20821339938810071 0.32045040940589442 0 0.20460871999673061 0.32462637301193659 0 0.20821339938810071 0.32045040940589442 0 0.21082336901210399 0.3226241263088932 0 0.21046915155931981 0.31821506646202702 0 0.20821339938810071 0.32045040940589442 0 0.21082336901210399 0.3226241263088932 0 0.21653589196403919 0.32573136422366389 0 0.21727234728390821 0.32284003144900197 0 0.21918200859271811 0.33335413359712279 0 0.2058702986568697 0.33122386458255382 0 0.21082336901210399 0.3226241263088932 0 0.21727234728390821 0.32284003144900197 0 0.21082336901210399 0.3226241263088932 0 0.21727234728390821 0.32284003144900197 0 0.21623514277294609 0.31747868453231382 0 0.20798393232363499 0.30677815285789539 0 0.21001577058160961 0.31412861503051909 0 0.21623514277294609 0.31747868453231382 0 0.21046915155931981 0.31821506646202702 0 0.21001577058160961 0.31412861503051909 0 0.21623514277294609 0.31747868453231382 0 0.21046915155931981 0.31821506646202702 0 0.21082336901210399 0.3226241263088932 0 0.21623514277294609 0.31747868453231382 0 0.21623514277294609 0.31747868453231382 0 0.222542167937192 0.31301437336310328 0 0.22613212031685129 0.31837378928730231 0 0.21727234728390821 0.32284003144900197 0 0.21623514277294609 0.31747868453231382 0 0.226988564526344 0.34145787542307487 0 0.222542167937192 0.31301437336310328 0 0.22613212031685129 0.31837378928730231 0 0.23117580189164399 0.31329061912279349 0 0.22613212031685129 0.31837378928730231 0 0.23117580189164399 0.31329061912279349 0 0.2334627798068992 0.32359958405558797 0 0.22613212031685129 0.31837378928730231 0 0.2334627798068992 0.32359958405558797 0 0.22645447574853739 0.32697613794807201 0 0.21623514277294609 0.31747868453231382 0 0.22613212031685129 0.31837378928730231 0 0.22645447574853739 0.32697613794807201 0 0.21623514277294609 0.31747868453231382 0 0.22645447574853739 0.32697613794807201 0 0.226988564526344 0.34145787542307487 0 0.21727234728390821 0.32284003144900197 0 0.21918200859271811 0.33335413359712279 0 0.226988564526344 0.34145787542307487 0 0.21623514277294609 0.31747868453231382 0 0.226988564526344 0.34145787542307487 0 0.2159312305965809 0.34338726329275049 0 0.21918200859271811 0.33335413359712279 0 0.226988564526344 0.34145787542307487 0 0.226988564526344 0.34145787542307487 0 0.23193522562724081 0.33450558786056661 0 0.2326400135875577 0.34555799384798108 0 0.2334627798068992 0.32359958405558797 0 0.22645447574853739 0.32697613794807201 0 0.23193522562724081 0.33450558786056661 0 0.22645447574853739 0.32697613794807201 0 0.226988564526344 0.34145787542307487 0 0.23193522562724081 0.33450558786056661 0 0.24013029446686551 0.33493634802811678 0 0.24333253026019169 0.35004249079842281 0 0.2542846016530147 0.33409637643350631 0 0.2334627798068992 0.32359958405558797 0 0.23193522562724081 0.33450558786056661 0 0.24013029446686551 0.33493634802811678 0 0.23193522562724081 0.33450558786056661 0 0.24013029446686551 0.33493634802811678 0 0.2326400135875577 0.34555799384798108 0 0.24013029446686551 0.33493634802811678 0 0.24333253026019169 0.35004249079842281 0 0.2326400135875577 0.34555799384798108 0 0.24013029446686551 0.33493634802811678 0 0.2433419919794062 0.31972344149318871 0 0.2542846016530147 0.33409637643350631 0 0.23117580189164399 0.31329061912279349 0 0.2334627798068992 0.32359958405558797 0 0.2433419919794062 0.31972344149318871 0 0.23978490516398171 0.30540010652643468 0 0.23117580189164399 0.31329061912279349 0 0.2433419919794062 0.31972344149318871 0 0.2334627798068992 0.32359958405558797 0 0.24013029446686551 0.33493634802811678 0 0.2433419919794062 0.31972344149318871 0 0.24492426224062819 0.36837000125377167 0 0.24333253026019169 0.35004249079842281 0 0.2296081392510104 0.36118207864328677 0 0.24333253026019169 0.35004249079842281 0 0.2326400135875577 0.34555799384798108 0 0.2296081392510104 0.36118207864328677 0 0.24333253026019169 0.35004249079842281 0 0.2296081392510104 0.36118207864328677 0 0.2326400135875577 0.34555799384798108 0 0.22413511880773479 0.35145491553606772 0 0.2296081392510104 0.36118207864328677 0 0.226988564526344 0.34145787542307487 0 0.2326400135875577 0.34555799384798108 0 0.22413511880773479 0.35145491553606772 0 0.2159312305965809 0.34338726329275049 0 0.226988564526344 0.34145787542307487 0 0.22413511880773479 0.35145491553606772 0 0.22413511880773479 0.35145491553606772 0 0.2296081392510104 0.36118207864328677 0 0.21532656922912261 0.36104316236183709 0 0.24492426224062819 0.36837000125377167 0 0.2296081392510104 0.36118207864328677 0 0.228154305786262 0.37450680656446389 0 0.2296081392510104 0.36118207864328677 0 0.21588374824182999 0.37232166648815213 0 0.2296081392510104 0.36118207864328677 0 0.21588374824182999 0.37232166648815213 0 0.21532656922912261 0.36104316236183709 0 0.2296081392510104 0.36118207864328677 0 0.228154305786262 0.37450680656446389 0 0.21588374824182999 0.37232166648815213 0 0.21588374824182999 0.37232166648815213 0 0.21532656922912261 0.36104316236183709 0 0.21588374824182999 0.37232166648815213 0 0.21532656922912261 0.36104316236183709 0 0.20788322165934389 0.36412621566954928 0 0.21532656922912261 0.36104316236183709 0 0.20788322165934389 0.36412621566954928 0 0.20991659140172211 0.35730774960785028 0 0.20788322165934389 0.36412621566954928 0 0.20270625438530321 0.35772229760825508 0 0.20157616449052559 0.37013904676202253 0 0.20788322165934389 0.36412621566954928 0 0.20991659140172211 0.35730774960785028 0 0.20270625438530321 0.35772229760825508 0 0.21588374824182999 0.37232166648815213 0 0.20788322165934389 0.36412621566954928 0 0.20157616449052559 0.37013904676202253 0 0.2159312305965809 0.34338726329275049 0 0.22413511880773479 0.35145491553606772 0 0.21532656922912261 0.36104316236183709 0 0.2159312305965809 0.34338726329275049 0 0.21532656922912261 0.36104316236183709 0 0.21491857205801729 0.3527844202468628 0 0.2159312305965809 0.34338726329275049 0 0.21532656922912261 0.36104316236183709 0 0.2159312305965809 0.34338726329275049 0 0.21491857205801729 0.3527844202468628 0 0.20874833967682349 0.35086265215274731 0 0.21532656922912261 0.36104316236183709 0 0.21491857205801729 0.3527844202468628 0 0.21532656922912261 0.36104316236183709 0 0.21491857205801729 0.3527844202468628 0 0.20991659140172211 0.35730774960785028 0 0.21491857205801729 0.3527844202468628 0 0.20991659140172211 0.35730774960785028 0 0.20874833967682349 0.35086265215274731 0 0.20991659140172211 0.35730774960785028 0 0.20874833967682349 0.35086265215274731 0 0.20270625438530321 0.35772229760825508 0 0.203970733240567 0.34330484938651518 0 0.20874833967682349 0.35086265215274731 0 0.20270625438530321 0.35772229760825508 0 0.203970733240567 0.34330484938651518 0 0.2159312305965809 0.34338726329275049 0 0.20874833967682349 0.35086265215274731 0 0.203970733240567 0.34330484938651518 0 0.19066911919722571 0.36376966732402838 0 0.203970733240567 0.34330484938651518 0 0.19333374123622599 0.34786808298467592 0 0.19066911919722571 0.36376966732402838 0 0.19333374123622599 0.34786808298467592 0 0.19066911919722571 0.36376966732402838 0 0.18273440206832781 0.34644628548019818 0 0.203970733240567 0.34330484938651518 0 0.20270625438530321 0.35772229760825508 0 0.19066911919722571 0.36376966732402838 0 0.19596071043878341 0.33795152974796211 0 0.19333374123622599 0.34786808298467592 0 0.18273440206832781 0.34644628548019818 0 0.20270625438530321 0.35772229760825508 0 0.20157616449052559 0.37013904676202253 0 0.19066911919722571 0.36376966732402838 0 0.20157616449052559 0.37013904676202253 0 0.19066911919722571 0.36376966732402838 0 0.19281762042183381 0.37861104758283509 0 0.18323564952381741 0.37105144573262472 0 0.17615454523952209 0.36260041278092142 0 0.18273440206832781 0.34644628548019818 0 0.19066911919722571 0.36376966732402838 0 0.17736750515388469 0.38423448526154153 0 0.19066911919722571 0.36376966732402838 0 0.18323564952381741 0.37105144573262472 0 0.17736750515388469 0.38423448526154153 0 0.19066911919722571 0.36376966732402838 0 0.18323564952381741 0.37105144573262472 0 0.18273440206832781 0.34644628548019818 0 0.17615454523952209 0.36260041278092142 0 0.1680984708998744 0.3670388283906823 0 0.17277742880376429 0.35486691025448752 0 0.18323564952381741 0.37105144573262472 0 0.17615454523952209 0.36260041278092142 0 0.17392677490182651 0.373598594046614 0 0.17615454523952209 0.36260041278092142 0 0.17392677490182651 0.373598594046614 0 0.1680984708998744 0.3670388283906823 0 0.1680984708998744 0.3670388283906823 0 0.1474991719110777 0.36713226233845692 0 0.16288603088630321 0.37594257961130828 0 0.1680984708998744 0.3670388283906823 0 0.16232103791922781 0.34707511149871889 0 0.1474991719110777 0.36713226233845692 0 0.1680984708998744 0.3670388283906823 0 0.1474991719110777 0.36713226233845692 0 0.17392677490182651 0.373598594046614 0 0.1680984708998744 0.3670388283906823 0 0.16288603088630321 0.37594257961130828 0 0.1680984708998744 0.3670388283906823 0 0.16232103791922781 0.34707511149871889 0 0.17277742880376429 0.35486691025448752 0 0.18323564952381741 0.37105144573262472 0 0.18273440206832781 0.34644628548019818 0 0.17615454523952209 0.36260041278092142 0 0.17277742880376429 0.35486691025448752 0 0.18273440206832781 0.34644628548019818 0 0.16232103791922781 0.34707511149871889 0 0.17277742880376429 0.35486691025448752 0 0.18273440206832781 0.34644628548019818 0 0.16232103791922781 0.34707511149871889 0 0.18273440206832781 0.34644628548019818 0 0.1758830213952301 0.32702367521260739 0 0.18273440206832781 0.34644628548019818 0 0.18223315461283829 0.32184112522777197 0 0.18273440206832781 0.34644628548019818 0 0.18223315461283829 0.32184112522777197 0 0.1758830213952301 0.32702367521260739 0 0.19039935990769341 0.3296882931322066 0 0.18273440206832781 0.34644628548019818 0 0.18223315461283829 0.32184112522777197 0 0.18561029256813361 0.30554179465352982 0 0.187222097287849 0.31546837473075201 0 0.18223315461283829 0.32184112522777197 0 0.1892273116494271 0.32153411693604028 0 0.187222097287849 0.31546837473075201 0 0.18223315461283829 0.32184112522777197 0 0.1892273116494271 0.32153411693604028 0 0.19039935990769341 0.3296882931322066 0 0.18223315461283829 0.32184112522777197 0 0.1758830213952301 0.32702367521260739 0 0.1743093853538559 0.31900700861503878 0 0.16549120766728101 0.31889067382691971 0 0.18223315461283829 0.32184112522777197 0 0.1758830213952301 0.32702367521260739 0 0.1743093853538559 0.31900700861503878 0 0.17421752125596909 0.31050195626994159 0 0.18223315461283829 0.32184112522777197 0 0.1743093853538559 0.31900700861503878 0 0.16218104985444909 0.30318237969412432 0 0.16549120766728101 0.31889067382691971 0 0.15388472472409839 0.31737079040325261 0 0.17421752125596909 0.31050195626994159 0 0.1743093853538559 0.31900700861503878 0 0.16549120766728101 0.31889067382691971 0 0.1758830213952301 0.32702367521260739 0 0.16549120766728101 0.31889067382691971 0 0.1638279640321299 0.33096917976465512 0 0.16549120766728101 0.31889067382691971 0 0.15388472472409839 0.31737079040325261 0 0.15529223906970319 0.32741984996741841 0 0.16549120766728101 0.31889067382691971 0 0.1638279640321299 0.33096917976465512 0 0.15529223906970319 0.32741984996741841 0 0.16232103791922781 0.34707511149871889 0 0.1638279640321299 0.33096917976465512 0 0.15728984957957151 0.33613448270567958 0 0.16232103791922781 0.34707511149871889 0 0.1758830213952301 0.32702367521260739 0 0.16232103791922781 0.34707511149871889 0 0.1758830213952301 0.32702367521260739 0 0.1638279640321299 0.33096917976465512 0 0.1638279640321299 0.33096917976465512 0 0.15728984957957151 0.33613448270567958 0 0.15529223906970319 0.32741984996741841 0 0.16232103791922781 0.34707511149871889 0 0.15728984957957151 0.33613448270567958 0 0.1477181572972254 0.33907378959192608 0 0.15728984957957151 0.33613448270567958 0 0.1477181572972254 0.33907378959192608 0 0.15529223906970319 0.32741984996741841 0 0.1477181572972254 0.33907378959192608 0 0.15529223906970319 0.32741984996741841 0 0.1446410968504582 0.32504405640668482 0 0.1477181572972254 0.33907378959192608 0 0.1446410968504582 0.32504405640668482 0 0.13472686411733709 0.33422465574746091 0 0.14263019255154941 0.30912879441290292 0 0.15388472472409839 0.31737079040325261 0 0.1446410968504582 0.32504405640668482 0 0.15388472472409839 0.31737079040325261 0 0.15529223906970319 0.32741984996741841 0 0.1446410968504582 0.32504405640668482 0 0.1230793352486496 0.31507520913168152 0 0.14263019255154941 0.30912879441290292 0 0.1335944033428359 0.32304645831714829 0 0.14263019255154941 0.30912879441290292 0 0.1446410968504582 0.32504405640668482 0 0.1335944033428359 0.32304645831714829 0 0.1446410968504582 0.32504405640668482 0 0.1335944033428359 0.32304645831714829 0 0.13472686411733709 0.33422465574746091 0 0.1237066903191336 0.32857137817879889 0 0.1230793352486496 0.31507520913168152 0 0.1335944033428359 0.32304645831714829 0 0.1477181572972254 0.33907378959192608 0 0.13472686411733709 0.33422465574746091 0 0.1356512836315123 0.34474358754453788 0 0.1237066903191336 0.32857137817879889 0 0.1335944033428359 0.32304645831714829 0 0.13472686411733709 0.33422465574746091 0 0.1247957178816298 0.34184621835209011 0 0.1237066903191336 0.32857137817879889 0 0.13472686411733709 0.33422465574746091 0 0.1247957178816298 0.34184621835209011 0 0.13472686411733709 0.33422465574746091 0 0.1356512836315123 0.34474358754453788 0 0.1247957178816298 0.34184621835209011 0 0.1356512836315123 0.34474358754453788 0 0.12629900759887139 0.35499332130261052 0 0.12629900759887139 0.35499332130261052 0 0.1474991719110777 0.36713226233845692 0 0.14471667126249771 0.35357995272860188 0 0.1356512836315123 0.34474358754453788 0 0.12629900759887139 0.35499332130261052 0 0.14471667126249771 0.35357995272860188 0 0.12561379413615131 0.36723152966037881 0 0.1474991719110777 0.36713226233845692 0 0.12629900759887139 0.35499332130261052 0 0.12561379413615131 0.36723152966037881 0 0.1474991719110777 0.36713226233845692 0 0.12629900759887139 0.35499332130261052 0 0.1474991719110777 0.36713226233845692 0 0.12561379413615131 0.36723152966037881 0 0.1474991719110777 0.36713226233845692 0 0.1383816012747219 0.38246964574602099 0 0.1474991719110777 0.36713226233845692 0 0.1383816012747219 0.38246964574602099 0 0.1474991719110777 0.36713226233845692 0 0.15125922711370621 0.37990484802821489 0 0.16288603088630321 0.37594257961130828 0 0.1474991719110777 0.36713226233845692 0 0.16288603088630321 0.37594257961130828 0 0.16232103791922781 0.34707511149871889 0 0.1474991719110777 0.36713226233845692 0 0.16232103791922781 0.34707511149871889 0 0.1474991719110777 0.36713226233845692 0 0.14471667126249771 0.35357995272860188 0 0.16232103791922781 0.34707511149871889 0 0.1477181572972254 0.33907378959192608 0 0.14471667126249771 0.35357995272860188 0 0.1477181572972254 0.33907378959192608 0 0.1356512836315123 0.34474358754453788 0 0.14471667126249771 0.35357995272860188 0 0.14484012714548039 0.39618422784700352 0 0.1307527135473153 0.40766617930322968 0 0.1482011723162093 0.41034949266928972 0 0.14484012714548039 0.39618422784700352 0 0.1482011723162093 0.41034949266928972 0 0.16035472376988691 0.40302672034415532 0 0.14484012714548039 0.39618422784700352 0 0.16035472376988691 0.40302672034415532 0 0.15828960943027531 0.38974671245919978 0 0.14484012714548039 0.39618422784700352 0 0.15125922711370621 0.37990484802821489 0 0.1383816012747219 0.38246964574602099 0 0.14484012714548039 0.39618422784700352 0 0.15125922711370621 0.37990484802821489 0 0.15828960943027531 0.38974671245919978 0 0.1474991719110777 0.36713226233845692 0 0.15125922711370621 0.37990484802821489 0 0.1383816012747219 0.38246964574602099 0 0.1383816012747219 0.38246964574602099 0 0.12835864593072041 0.39728861753096728 0 0.12561379413615131 0.36723152966037881 0 0.1383816012747219 0.38246964574602099 0 0.12813287545214749 0.38633686803880413 0 0.1383816012747219 0.38246964574602099 0 0.12813287545214749 0.38633686803880413 0 0.12835864593072041 0.39728861753096728 0 0.14484012714548039 0.39618422784700352 0 0.12835864593072041 0.39728861753096728 0 0.1307527135473153 0.40766617930322968 0 0.1172405649542701 0.38749848814276477 0 0.12835864593072041 0.39728861753096728 0 0.1307527135473153 0.40766617930322968 0 0.14484012714548039 0.39618422784700352 0 0.1383816012747219 0.38246964574602099 0 0.12835864593072041 0.39728861753096728 0 0.1307527135473153 0.40766617930322968 0 0.14426486214036019 0.4278338704636947 0 0.1307527135473153 0.40766617930322968 0 0.12669497787103051 0.42191638777909052 0 0.14426486214036019 0.4278338704636947 0 0.12669497787103051 0.42191638777909052 0 0.14426486214036019 0.4278338704636947 0 0.12669497787103051 0.42191638777909052 0 0.14426486214036019 0.4278338704636947 0 0.12981196250140459 0.43938730915494478 0 0.14426486214036019 0.4278338704636947 0 0.1482011723162093 0.41034949266928972 0 0.16079343497800369 0.41703646538836558 0 0.1307527135473153 0.40766617930322968 0 0.14426486214036019 0.4278338704636947 0 0.1482011723162093 0.41034949266928972 0 0.1482011723162093 0.41034949266928972 0 0.16079343497800369 0.41703646538836558 0 0.16035472376988691 0.40302672034415532 0 0.16079343497800369 0.41703646538836558 0 0.17606959858463089 0.40463736029767722 0 0.16035472376988691 0.40302672034415532 0 0.16079343497800369 0.41703646538836558 0 0.17606959858463089 0.40463736029767722 0 0.16079343497800369 0.41703646538836558 0 0.16947135493510421 0.43632333928238742 0 0.17998688692853509 0.42043862880135469 0 0.14426486214036019 0.4278338704636947 0 0.16079343497800369 0.41703646538836558 0 0.16947135493510421 0.43632333928238742 0 0.14426486214036019 0.4278338704636947 0 0.16947135493510421 0.43632333928238742 0 0.16947135493510421 0.43632333928238742 0 0.18707902026680229 0.43209571084993659 0 0.17998688692853509 0.42043862880135469 0 0.18707902026680229 0.43209571084993659 0 0.17998688692853509 0.42043862880135469 0 0.19419694397168291 0.42486915356776539 0 0.17998688692853509 0.42043862880135469 0 0.18334187214822259 0.41155975760680041 0 0.17606959858463089 0.40463736029767722 0 0.16079343497800369 0.41703646538836558 0 0.17998688692853509 0.42043862880135469 0 0.17606959858463089 0.40463736029767722 0 0.17998688692853509 0.42043862880135469 0 0.18334187214822259 0.41155975760680041 0 0.1905636831520495 0.41472483185702691 0 0.18334187214822259 0.41155975760680041 0 0.17606959858463089 0.40463736029767722 0 0.18901781306045909 0.40684316126634112 0 0.17606959858463089 0.40463736029767722 0 0.19079314493566821 0.39994184118081022 0 0.18901781306045909 0.40684316126634112 0 0.17606959858463089 0.40463736029767722 0 0.19134576219125901 0.39223825520698968 0 0.17606959858463089 0.40463736029767722 0 0.19079314493566821 0.39994184118081022 0 0.19134576219125901 0.39223825520698968 0 0.17893225271258931 0.3938059965502767 0 0.17606959858463089 0.40463736029767722 0 0.19134576219125901 0.39223825520698968 0 0.17893225271258931 0.3938059965502767 0 0.17606959858463089 0.40463736029767722 0 0.1709461449205836 0.39411388543489678 0 0.17893225271258931 0.3938059965502767 0 0.1709461449205836 0.39411388543489678 0 0.17736750515388469 0.38423448526154153 0 0.17606959858463089 0.40463736029767722 0 0.1709461449205836 0.39411388543489678 0 0.16035472376988691 0.40302672034415532 0 0.1709461449205836 0.39411388543489678 0 0.16035472376988691 0.40302672034415532 0 0.15828960943027531 0.38974671245919978 0 0.1709461449205836 0.39411388543489678 0 0.16288603088630321 0.37594257961130828 0 0.17736750515388469 0.38423448526154153 0 0.1709461449205836 0.39411388543489678 0 0.16288603088630321 0.37594257961130828 0 0.15828960943027531 0.38974671245919978 0 0.15125922711370621 0.37990484802821489 0 0.16288603088630321 0.37594257961130828 0 0.15828960943027531 0.38974671245919978 0 0.17392677490182651 0.373598594046614 0 0.16288603088630321 0.37594257961130828 0 0.17736750515388469 0.38423448526154153 0 0.16288603088630321 0.37594257961130828 0 0.17736750515388469 0.38423448526154153 0 0.19066911919722571 0.36376966732402838 0 0.17736750515388469 0.38423448526154153 0 0.19281762042183381 0.37861104758283509 0 0.18323564952381741 0.37105144573262472 0 0.17392677490182651 0.373598594046614 0 0.17736750515388469 0.38423448526154153 0 0.1709461449205836 0.39411388543489678 0 0.17736750515388469 0.38423448526154153 0 0.17736750515388469 0.38423448526154153 0 0.19134576219125901 0.39223825520698968 0 0.17736750515388469 0.38423448526154153 0 0.19281762042183381 0.37861104758283509 0 0.19134576219125901 0.39223825520698968 0 0.17893225271258931 0.3938059965502767 0 0.17736750515388469 0.38423448526154153 0 0.19134576219125901 0.39223825520698968 0 0.2009378775761797 0.39012080229880358 0 0.19134576219125901 0.39223825520698968 0 0.20312955107627501 0.38267378335959218 0 0.19134576219125901 0.39223825520698968 0 0.20312955107627501 0.38267378335959218 0 0.19281762042183381 0.37861104758283509 0 0.19134576219125901 0.39223825520698968 0 0.20312955107627501 0.38267378335959218 0 0.20157616449052559 0.37013904676202253 0 0.19281762042183381 0.37861104758283509 0 0.20312955107627501 0.38267378335959218 0 0.19696957224650941 0.40216325939736719 0 0.19653113374656811 0.40928334694101842 0 0.18901781306045909 0.40684316126634112 0 0.19079314493566821 0.39994184118081022 0 0.19696957224650941 0.40216325939736719 0 0.18901781306045909 0.40684316126634112 0 0.19079314493566821 0.39994184118081022 0 0.1953430275154463 0.39815393665688759 0 0.19696957224650941 0.40216325939736719 0 0.19079314493566821 0.39994184118081022 0 0.19134576219125901 0.39223825520698968 0 0.19454126793758161 0.39406796064054589 0 0.19079314493566821 0.39994184118081022 0 0.19454126793758161 0.39406796064054589 0 0.1953430275154463 0.39815393665688759 0 0.19134576219125901 0.39223825520698968 0 0.19454126793758161 0.39406796064054589 0 0.19694676279914181 0.39307757344098992 0 0.19134576219125901 0.39223825520698968 0 0.19454126793758161 0.39406796064054589 0 0.2009378775761797 0.39012080229880358 0 0.19134576219125901 0.39223825520698968 0 0.19694676279914181 0.39307757344098992 0 0.19454126793758161 0.39406796064054589 0 0.19694676279914181 0.39307757344098992 0 0.199068124942026 0.39644268540882721 0 0.2009378775761797 0.39012080229880358 0 0.19694676279914181 0.39307757344098992 0 0.199068124942026 0.39644268540882721 0 0.2009378775761797 0.39012080229880358 0 0.199068124942026 0.39644268540882721 0 0.20446752232435711 0.39590889115663391 0 0.199068124942026 0.39644268540882721 0 0.20211083637202781 0.40018770353265298 0 0.20446752232435711 0.39590889115663391 0 0.19454126793758161 0.39406796064054589 0 0.199068124942026 0.39644268540882721 0 0.1953430275154463 0.39815393665688759 0 0.199068124942026 0.39644268540882721 0 0.1953430275154463 0.39815393665688759 0 0.19696957224650941 0.40216325939736719 0 0.199068124942026 0.39644268540882721 0 0.19696957224650941 0.40216325939736719 0 0.20211083637202781 0.40018770353265298 0 0.19696957224650941 0.40216325939736719 0 0.20211083637202781 0.40018770353265298 0 0.20363127762988781 0.40617775895847541 0 0.19696957224650941 0.40216325939736719 0 0.20363127762988781 0.40617775895847541 0 0.19653113374656811 0.40928334694101842 0 0.21721727900275131 0.39931520329869258 0 0.21413366417194199 0.39587557008968632 0 0.21335398838259201 0.4186418286671767 0 0.20881167368310161 0.40208858246149293 0 0.21413366417194199 0.39587557008968632 0 0.20916657978746789 0.40867075642184181 0 0.20363127762988781 0.40617775895847541 0 0.20881167368310161 0.40208858246149293 0 0.20916657978746789 0.40867075642184181 0 0.20363127762988781 0.40617775895847541 0 0.2055076159167088 0.40028495104564848 0 0.20881167368310161 0.40208858246149293 0 0.20211083637202781 0.40018770353265298 0 0.2055076159167088 0.40028495104564848 0 0.20446752232435711 0.39590889115663391 0 0.20211083637202781 0.40018770353265298 0 0.20363127762988781 0.40617775895847541 0 0.2055076159167088 0.40028495104564848 0 0.2055076159167088 0.40028495104564848 0 0.20881167368310161 0.40208858246149293 0 0.2085167695741697 0.39706181911898752 0 0.21413366417194199 0.39587557008968632 0 0.20986648287156179 0.38555213004556099 0 0.20728937627673841 0.39054985522077013 0 0.20881167368310161 0.40208858246149293 0 0.2085167695741697 0.39706181911898752 0 0.21413366417194199 0.39587557008968632 0 0.2055076159167088 0.40028495104564848 0 0.2085167695741697 0.39706181911898752 0 0.20446752232435711 0.39590889115663391 0 0.2009378775761797 0.39012080229880358 0 0.20446752232435711 0.39590889115663391 0 0.20728937627673841 0.39054985522077013 0 0.2085167695741697 0.39706181911898752 0 0.20446752232435711 0.39590889115663391 0 0.20728937627673841 0.39054985522077013 0 0.2085167695741697 0.39706181911898752 0 0.21413366417194199 0.39587557008968632 0 0.20728937627673841 0.39054985522077013 0 0.21588374824182999 0.37232166648815213 0 0.21413366417194199 0.39587557008968632 0 0.20986648287156179 0.38555213004556099 0 0.21588374824182999 0.37232166648815213 0 0.21413366417194199 0.39587557008968632 0 0.21588374824182999 0.37232166648815213 0 0.21721727900275131 0.39931520329869258 0 0.21413366417194199 0.39587557008968632 0 0.21588374824182999 0.37232166648815213 0 0.21721727900275131 0.39931520329869258 0 0.21588374824182999 0.37232166648815213 0 0.20312955107627501 0.38267378335959218 0 0.21588374824182999 0.37232166648815213 0 0.20312955107627501 0.38267378335959218 0 0.20986648287156179 0.38555213004556099 0 0.21588374824182999 0.37232166648815213 0 0.20157616449052559 0.37013904676202253 0 0.20312955107627501 0.38267378335959218 0 0.20312955107627501 0.38267378335959218 0 0.20986648287156179 0.38555213004556099 0 0.20728937627673841 0.39054985522077013 0 0.2009378775761797 0.39012080229880358 0 0.20312955107627501 0.38267378335959218 0 0.20728937627673841 0.39054985522077013 0 0.228154305786262 0.37450680656446389 0 0.21588374824182999 0.37232166648815213 0 0.21721727900275131 0.39931520329869258 0 0.228154305786262 0.37450680656446389 0 0.21721727900275131 0.39931520329869258 0 0.23570923548001679 0.38403182023117832 0 0.21721727900275131 0.39931520329869258 0 0.24069220996928931 0.39840631550953859 0 0.23570923548001679 0.38403182023117832 0 0.21721727900275131 0.39931520329869258 0 0.24069220996928931 0.39840631550953859 0 0.23177811089653269 0.41279648964901572 0 0.24069220996928931 0.39840631550953859 0 0.24605598307059859 0.41498601741678609 0 0.25439730631067969 0.40260326369396893 0 0.24069220996928931 0.39840631550953859 0 0.2479989471422917 0.38068262130273611 0 0.25882464977963759 0.38804851921910438 0 0.24492426224062819 0.36837000125377167 0 0.228154305786262 0.37450680656446389 0 0.23570923548001679 0.38403182023117832 0 0.24492426224062819 0.36837000125377167 0 0.23570923548001679 0.38403182023117832 0 0.2479989471422917 0.38068262130273611 0 0.24069220996928931 0.39840631550953859 0 0.23570923548001679 0.38403182023117832 0 0.2479989471422917 0.38068262130273611 0 0.23790444667704919 0.42752196462220121 0 0.24605598307059859 0.41498601741678609 0 0.25472084167293157 0.4265361068333533 0 0.23790444667704919 0.42752196462220121 0 0.2302981872408057 0.44222724193323659 0 0.24602274741775501 0.44227719179158248 0 0.23790444667704919 0.42752196462220121 0 0.24602274741775501 0.44227719179158248 0 0.25472084167293157 0.4265361068333533 0 0.24069220996928931 0.39840631550953859 0 0.24605598307059859 0.41498601741678609 0 0.23177811089653269 0.41279648964901572 0 0.23790444667704919 0.42752196462220121 0 0.24605598307059859 0.41498601741678609 0 0.23177811089653269 0.41279648964901572 0 0.21721727900275131 0.39931520329869258 0 0.23177811089653269 0.41279648964901572 0 0.2185508097636715 0.42630874010923298 0 0.23790444667704919 0.42752196462220121 0 0.2185508097636715 0.42630874010923298 0 0.2302981872408057 0.44222724193323659 0 0.23790444667704919 0.42752196462220121 0 0.23177811089653269 0.41279648964901572 0 0.2185508097636715 0.42630874010923298 0 0.2185508097636715 0.42630874010923298 0 0.21335398838259201 0.4186418286671767 0 0.21257431259324211 0.44140808724466712 0 0.21335398838259201 0.4186418286671767 0 0.21257431259324211 0.44140808724466712 0 0.20403374988283221 0.42706836797608999 0 0.21335398838259201 0.4186418286671767 0 0.21257431259324211 0.44140808724466712 0 0.20403374988283221 0.42706836797608999 0 0.19706206776884089 0.43403462449709568 0 0.21257431259324211 0.44140808724466712 0 0.21721727900275131 0.39931520329869258 0 0.2185508097636715 0.42630874010923298 0 0.21413366417194199 0.39587557008968632 0 0.21335398838259201 0.4186418286671767 0 0.21721727900275131 0.39931520329869258 0 0.2185508097636715 0.42630874010923298 0 0.21335398838259201 0.4186418286671767 0 0.21413366417194199 0.39587557008968632 0 0.21335398838259201 0.4186418286671767 0 0.20916657978746789 0.40867075642184181 0 0.21335398838259201 0.4186418286671767 0 0.20916657978746789 0.40867075642184181 0 0.2017265072648195 0.41560803783088018 0 0.20403374988283221 0.42706836797608999 0 0.21335398838259201 0.4186418286671767 0 0.2017265072648195 0.41560803783088018 0 0.20363127762988781 0.40617775895847541 0 0.20916657978746789 0.40867075642184181 0 0.2017265072648195 0.41560803783088018 0 0.19653113374656811 0.40928334694101842 0 0.2017265072648195 0.41560803783088018 0 0.1905636831520495 0.41472483185702691 0 0.20363127762988781 0.40617775895847541 0 0.19653113374656811 0.40928334694101842 0 0.2017265072648195 0.41560803783088018 0 0.2017265072648195 0.41560803783088018 0 0.1905636831520495 0.41472483185702691 0 0.19419694397168291 0.42486915356776539 0 0.17998688692853509 0.42043862880135469 0 0.1905636831520495 0.41472483185702691 0 0.19419694397168291 0.42486915356776539 0 0.19653113374656811 0.40928334694101842 0 0.1905636831520495 0.41472483185702691 0 0.18901781306045909 0.40684316126634112 0 0.18334187214822259 0.41155975760680041 0 0.1905636831520495 0.41472483185702691 0 0.18901781306045909 0.40684316126634112 0 0.20403374988283221 0.42706836797608999 0 0.19706206776884089 0.43403462449709568 0 0.19419694397168291 0.42486915356776539 0 0.20403374988283221 0.42706836797608999 0 0.2017265072648195 0.41560803783088018 0 0.19419694397168291 0.42486915356776539 0 0.18707902026680229 0.43209571084993659 0 0.19706206776884089 0.43403462449709568 0 0.1946778477298485 0.44481280810107993 0 0.18707902026680229 0.43209571084993659 0 0.19706206776884089 0.43403462449709568 0 0.19419694397168291 0.42486915356776539 0 0.19706206776884089 0.43403462449709568 0 0.1946778477298485 0.44481280810107993 0 0.21257431259324211 0.44140808724466712 0 0.1946778477298485 0.44481280810107993 0 0.19904190970960539 0.46425992845306358 0 0.1795132107185787 0.45385931021802128 0 0.19904190970960539 0.46425992845306358 0 0.2198843405245923 0.45330227691977371 0 0.22096762397892111 0.47523026887738762 0 0.1946778477298485 0.44481280810107993 0 0.19904190970960539 0.46425992845306358 0 0.2198843405245923 0.45330227691977371 0 0.1946778477298485 0.44481280810107993 0 0.21257431259324211 0.44140808724466712 0 0.2198843405245923 0.45330227691977371 0 0.1946778477298485 0.44481280810107993 0 0.2198843405245923 0.45330227691977371 0 0.2185508097636715 0.42630874010923298 0 0.21257431259324211 0.44140808724466712 0 0.2198843405245923 0.45330227691977371 0 0.2185508097636715 0.42630874010923298 0 0.2302981872408057 0.44222724193323659 0 0.2198843405245923 0.45330227691977371 0 0.2185508097636715 0.42630874010923298 0 0.2198843405245923 0.45330227691977371 0 0.2302981872408057 0.44222724193323659 0 0.23353031731273871 0.45199559099083458 0 0.2198843405245923 0.45330227691977371 0 0.2198843405245923 0.45330227691977371 0 0.2270627318379814 0.46164571154802309 0 0.22096762397892111 0.47523026887738762 0 0.2198843405245923 0.45330227691977371 0 0.22096762397892111 0.47523026887738762 0 0.2270627318379814 0.46164571154802309 0 0.23322876302582571 0.46583919895370679 0 0.22096762397892111 0.47523026887738762 0 0.23353031731273871 0.45199559099083458 0 0.2198843405245923 0.45330227691977371 0 0.2270627318379814 0.46164571154802309 0 0.23353031731273871 0.45199559099083458 0 0.2270627318379814 0.46164571154802309 0 0.23322876302582571 0.46583919895370679 0 0.23353031731273871 0.45199559099083458 0 0.23322876302582571 0.46583919895370679 0 0.24470733467208181 0.45742698419160571 0 0.23322876302582571 0.46583919895370679 0 0.24470733467208181 0.45742698419160571 0 0.24400332027395999 0.47125725341570801 0 0.24470733467208181 0.45742698419160571 0 0.24400332027395999 0.47125725341570801 0 0.25565324927513872 0.46611474622660798 0 0.2302981872408057 0.44222724193323659 0 0.23353031731273871 0.45199559099083458 0 0.24602274741775501 0.44227719179158248 0 0.24470733467208181 0.45742698419160571 0 0.24602274741775501 0.44227719179158248 0 0.25648926369675229 0.45147160939329573 0 0.23353031731273871 0.45199559099083458 0 0.24470733467208181 0.45742698419160571 0 0.24602274741775501 0.44227719179158248 0 0.24701928748210991 0.5 0 0.2358274228953762 0.48350914283894569 0 0.25270615585948458 0.48058132650313268 0 0.2358274228953762 0.48350914283894569 0 0.24400332027395999 0.47125725341570801 0 0.25270615585948458 0.48058132650313268 0 0.23322876302582571 0.46583919895370679 0 0.2358274228953762 0.48350914283894569 0 0.24400332027395999 0.47125725341570801 0 0.23322876302582571 0.46583919895370679 0 0.2358274228953762 0.48350914283894569 0 0.22096762397892111 0.47523026887738762 0 0.24701928748210991 0.5 0 0.2358274228953762 0.48350914283894569 0 0.21981736235210589 0.5 0 0.2358274228953762 0.48350914283894569 0 0.22096762397892111 0.47523026887738762 0 0.21981736235210589 0.5 0 0.22096762397892111 0.47523026887738762 0 0.21981736235210589 0.5 0 0.20178818242485119 0.48308696416366942 0 0.21981736235210589 0.5 0 0.20178818242485119 0.48308696416366942 0 0.19261543722210181 0.49999999999999728 0 0.19904190970960539 0.46425992845306358 0 0.22096762397892111 0.47523026887738762 0 0.20178818242485119 0.48308696416366942 0 0.19904190970960539 0.46425992845306358 0 0.20178818242485119 0.48308696416366942 0 0.17649857886152209 0.47594462348789579 0 0.20178818242485119 0.48308696416366942 0 0.19261543722210181 0.49999999999999728 0 0.17649857886152209 0.47594462348789579 0 0.19261543722210181 0.49999999999999728 0 0.16678981273612961 0.5 0 0.17649857886152209 0.47594462348789579 0 0.19261543722210181 0.49999999999999728 0 0.17649857886152209 0.47594462348789579 0 0.16678981273612961 0.5 0 0.17649857886152209 0.47594462348789579 0 0.14822289801727651 0.47438841317973701 0 0.19904190970960539 0.46425992845306358 0 0.17649857886152209 0.47594462348789579 0 0.1795132107185787 0.45385931021802128 0 0.17649857886152209 0.47594462348789579 0 0.1795132107185787 0.45385931021802128 0 0.16038172050094121 0.45188924697579508 0 0.16947135493510421 0.43632333928238742 0 0.1946778477298485 0.44481280810107993 0 0.16947135493510421 0.43632333928238742 0 0.1946778477298485 0.44481280810107993 0 0.1795132107185787 0.45385931021802128 0 0.16947135493510421 0.43632333928238742 0 0.18707902026680229 0.43209571084993659 0 0.1946778477298485 0.44481280810107993 0 0.14426486214036019 0.4278338704636947 0 0.16947135493510421 0.43632333928238742 0 0.16038172050094121 0.45188924697579508 0 0.16947135493510421 0.43632333928238742 0 0.1795132107185787 0.45385931021802128 0 0.16038172050094121 0.45188924697579508 0 0.17649857886152209 0.47594462348789579 0 0.16038172050094121 0.45188924697579508 0 0.14822289801727651 0.47438841317973701 0 0.17649857886152209 0.47594462348789579 0 0.16038172050094121 0.45188924697579508 0 0.16038172050094121 0.45188924697579508 0 0.14697299355342269 0.45931474092628682 0 0.14822289801727651 0.47438841317973701 0 0.14697299355342269 0.45931474092628682 0 0.13305363810752949 0.4543061017311858 0 0.14822289801727651 0.47438841317973701 0 0.14697299355342269 0.45931474092628682 0 0.1428970353607317 0.44654625385038138 0 0.13305363810752949 0.4543061017311858 0 0.16038172050094121 0.45188924697579508 0 0.14697299355342269 0.45931474092628682 0 0.1428970353607317 0.44654625385038138 0 0.14426486214036019 0.4278338704636947 0 0.16038172050094121 0.45188924697579508 0 0.1428970353607317 0.44654625385038138 0 0.14426486214036019 0.4278338704636947 0 0.16038172050094121 0.45188924697579508 0 0.14426486214036019 0.4278338704636947 0 0.1428970353607317 0.44654625385038138 0 0.12981196250140459 0.43938730915494478 0 0.1428970353607317 0.44654625385038138 0 0.12981196250140459 0.43938730915494478 0 0.13305363810752949 0.4543061017311858 0 0.118552124991678 0.45182725604044088 0 0.12981196250140459 0.43938730915494478 0 0.13305363810752949 0.4543061017311858 0 0.122871034471811 0.47417060450941428 0 0.13305363810752949 0.4543061017311858 0 0.14822289801727651 0.47438841317973701 0 0.122871034471811 0.47417060450941428 0 0.1409641882501575 0.5 0 0.14822289801727651 0.47438841317973701 0 0.11513856376418539 0.5 0 0.122871034471811 0.47417060450941428 0 0.1409641882501575 0.5 0 0.16678981273612961 0.5 0 0.1409641882501575 0.5 0 0.14822289801727651 0.47438841317973701 0 0.36270495221934451 0.48762124947871183 0 0.34645294633485368 0.46214464282274897 0 0.34024562181363488 0.48524126816232022 0 0.350448589323899 0.5 0 0.36270495221934451 0.48762124947871183 0 0.34024562181363488 0.48524126816232022 0 0.37496131511478947 0.5 0 0.36270495221934451 0.48762124947871183 0 0.38172423243540782 0.48540272737978241 0 0.350448589323899 0.5 0 0.37496131511478947 0.5 0 0.36270495221934451 0.48762124947871183 0 0.36270495221934451 0.48762124947871183 0 0.37447951493870602 0.46971809987955643 0 0.34645294633485368 0.46214464282274897 0 0.36270495221934451 0.48762124947871183 0 0.37447951493870602 0.46971809987955643 0 0.38172423243540782 0.48540272737978241 0 0.35887815121118288 0.45316889686562728 0 0.3777389976200396 0.45491873517123582 0 0.3643874025261955 0.45998759368479208 0 0.35887815121118288 0.45316889686562728 0 0.3777389976200396 0.45491873517123582 0 0.37447951493870602 0.46971809987955643 0 0.34645294633485368 0.46214464282274897 0 0.37447951493870602 0.46971809987955643 0 0.3643874025261955 0.45998759368479208 0 0.3777389976200396 0.45491873517123582 0 0.37447951493870602 0.46971809987955643 0 0.3643874025261955 0.45998759368479208 0 0.34645294633485368 0.46214464282274897 0 0.37110652529981231 0.441294084893185 0 0.35887815121118288 0.45316889686562728 0 0.35674933506204509 0.4341467369277191 0 0.37110652529981231 0.441294084893185 0 0.35887815121118288 0.45316889686562728 0 0.3777389976200396 0.45491873517123582 0 0.33758785639652328 0.44435896134683189 0 0.35674933506204509 0.4341467369277191 0 0.35887815121118288 0.45316889686562728 0 0.33758785639652328 0.44435896134683189 0 0.35674933506204509 0.4341467369277191 0 0.3643874025261955 0.45998759368479208 0 0.35887815121118288 0.45316889686562728 0 0.34645294633485368 0.46214464282274897 0 0.35887815121118288 0.45316889686562728 0 0.34645294633485368 0.46214464282274897 0 0.33758785639652328 0.44435896134683189 0 0.34645294633485368 0.46214464282274897 0 0.33758785639652328 0.44435896134683189 0 0.31842637773100102 0.45457118576594358 0 0.34645294633485368 0.46214464282274897 0 0.31842637773100102 0.45457118576594358 0 0.3197925484274316 0.47768042927392218 0 0.34645294633485368 0.46214464282274897 0 0.31842637773100102 0.45457118576594358 0 0.31842637773100102 0.45457118576594358 0 0.30648608478302908 0.44162010438455079 0 0.31588638228852911 0.42672260421039487 0 0.33758785639652328 0.44435896134683189 0 0.31842637773100102 0.45457118576594358 0 0.33758785639652328 0.44435896134683189 0 0.31842637773100102 0.45457118576594358 0 0.31588638228852911 0.42672260421039487 0 0.31842637773100102 0.45457118576594358 0 0.3197925484274316 0.47768042927392218 0 0.30137080165309149 0.46366105683201608 0 0.34645294633485368 0.46214464282274897 0 0.3197925484274316 0.47768042927392218 0 0.34024562181363488 0.48524126816232022 0 0.3197925484274316 0.47768042927392218 0 0.34024562181363488 0.48524126816232022 0 0.32593586353300852 0.5 0 0.350448589323899 0.5 0 0.34024562181363488 0.48524126816232022 0 0.32593586353300852 0.5 0 0.3197925484274316 0.47768042927392218 0 0.32593586353300852 0.5 0 0.30142313774211799 0.49999999999999972 0 0.3197925484274316 0.47768042927392218 0 0.30142313774211799 0.49999999999999972 0 0.30230292327686398 0.47899509322883732 0 0.30142313774211799 0.49999999999999972 0 0.30230292327686398 0.47899509322883732 0 0.29193670214268957 0.48528015530479779 0 0.3197925484274316 0.47768042927392218 0 0.30230292327686398 0.47899509322883732 0 0.30137080165309149 0.46366105683201608 0 0.30230292327686398 0.47899509322883732 0 0.28431522557518141 0.47275092789808748 0 0.30137080165309149 0.46366105683201608 0 0.30230292327686398 0.47899509322883732 0 0.28431522557518141 0.47275092789808748 0 0.29193670214268957 0.48528015530479779 0 0.28431522557518141 0.47275092789808748 0 0.29193670214268957 0.48528015530479779 0 0.2770646468008014 0.49029066325156612 0 0.30142313774211799 0.49999999999999972 0 0.2770646468008014 0.49029066325156612 0 0.30142313774211799 0.49999999999999972 0 0.2770646468008014 0.49029066325156612 0 0.27422121261211402 0.5 0 0.30142313774211799 0.49999999999999972 0 0.29193670214268957 0.48528015530479779 0 0.2770646468008014 0.49029066325156612 0 0.2770646468008014 0.49029066325156612 0 0.27422121261211402 0.5 0 0.25270615585948458 0.48058132650313268 0 0.28431522557518141 0.47275092789808748 0 0.26746731068907481 0.47418488870526943 0 0.26854611045947918 0.46176641515063649 0 0.28431522557518141 0.47275092789808748 0 0.2770646468008014 0.49029066325156612 0 0.26746731068907481 0.47418488870526943 0 0.2770646468008014 0.49029066325156612 0 0.26746731068907481 0.47418488870526943 0 0.25270615585948458 0.48058132650313268 0 0.26746731068907481 0.47418488870526943 0 0.25270615585948458 0.48058132650313268 0 0.25565324927513872 0.46611474622660798 0 0.24400332027395999 0.47125725341570801 0 0.25270615585948458 0.48058132650313268 0 0.25565324927513872 0.46611474622660798 0 0.2770646468008014 0.49029066325156612 0 0.25270615585948458 0.48058132650313268 0 0.24701928748210991 0.5 0 0.27422121261211402 0.5 0 0.25270615585948458 0.48058132650313268 0 0.26086930532548902 0.43901787196787728 0 0.25648926369675229 0.45147160939329573 0 0.27099298782496561 0.45098798990749522 0 0.24602274741775501 0.44227719179158248 0 0.26086930532548902 0.43901787196787728 0 0.25648926369675229 0.45147160939329573 0 0.24470733467208181 0.45742698419160571 0 0.25648926369675229 0.45147160939329573 0 0.25565324927513872 0.46611474622660798 0 0.26746731068907481 0.47418488870526943 0 0.25565324927513872 0.46611474622660798 0 0.26854611045947918 0.46176641515063649 0 0.25648926369675229 0.45147160939329573 0 0.26854611045947918 0.46176641515063649 0 0.27099298782496561 0.45098798990749522 0 0.25648926369675229 0.45147160939329573 0 0.25565324927513872 0.46611474622660798 0 0.26854611045947918 0.46176641515063649 0 0.28431522557518141 0.47275092789808748 0 0.26854611045947918 0.46176641515063649 0 0.28297459340819259 0.45919218373102899 0 0.26854611045947918 0.46176641515063649 0 0.27099298782496561 0.45098798990749522 0 0.28297459340819259 0.45919218373102899 0 0.26086930532548902 0.43901787196787728 0 0.27099298782496561 0.45098798990749522 0 0.28964784152824519 0.44679452886690951 0 0.26086930532548902 0.43901787196787728 0 0.28964784152824519 0.44679452886690951 0 0.26866410580233729 0.42801856787409709 0 0.26086930532548902 0.43901787196787728 0 0.28964784152824519 0.44679452886690951 0 0.27099298782496561 0.45098798990749522 0 0.28964784152824519 0.44679452886690951 0 0.28297459340819259 0.45919218373102899 0 0.28964784152824519 0.44679452886690951 0 0.30648608478302908 0.44162010438455079 0 0.28904182553530727 0.42916629116897531 0 0.28964784152824519 0.44679452886690951 0 0.28297459340819259 0.45919218373102899 0 0.30137080165309149 0.46366105683201608 0 0.28431522557518141 0.47275092789808748 0 0.30137080165309149 0.46366105683201608 0 0.28431522557518141 0.47275092789808748 0 0.28297459340819259 0.45919218373102899 0 0.30137080165309149 0.46366105683201608 0 0.31842637773100102 0.45457118576594358 0 0.28964784152824519 0.44679452886690951 0 0.30137080165309149 0.46366105683201608 0 0.31842637773100102 0.45457118576594358 0 0.30137080165309149 0.46366105683201608 0 0.31842637773100102 0.45457118576594358 0 0.28964784152824519 0.44679452886690951 0 0.30648608478302908 0.44162010438455079 0 0.31842637773100102 0.45457118576594358 0 0.28964784152824519 0.44679452886690951 0 0.30648608478302908 0.44162010438455079 0 0.28904182553530727 0.42916629116897531 0 0.31588638228852911 0.42672260421039487 0 0.29271635761716902 0.41106549629633699 0 0.28904182553530727 0.42916629116897531 0 0.31588638228852911 0.42672260421039487 0 0.29271635761716902 0.41106549629633699 0 0.31676860943200041 0.39411242471857721 0 0.31588638228852911 0.42672260421039487 0 0.29271635761716902 0.41106549629633699 0 0.28904182553530727 0.42916629116897531 0 0.26866410580233729 0.42801856787409709 0 0.28964784152824519 0.44679452886690951 0 0.28904182553530727 0.42916629116897531 0 0.26866410580233729 0.42801856787409709 0 0.29271635761716902 0.41106549629633699 0 0.26866410580233729 0.42801856787409709 0 0.26448839701625632 0.41081712148496702 0 0.29271635761716902 0.41106549629633699 0 0.26866410580233729 0.42801856787409709 0 0.24605598307059859 0.41498601741678609 0 0.26448839701625632 0.41081712148496702 0 0.25439730631067969 0.40260326369396893 0 0.26866410580233729 0.42801856787409709 0 0.26448839701625632 0.41081712148496702 0 0.25472084167293157 0.4265361068333533 0 0.24605598307059859 0.41498601741678609 0 0.26448839701625632 0.41081712148496702 0 0.25472084167293157 0.4265361068333533 0 0.24602274741775501 0.44227719179158248 0 0.26086930532548902 0.43901787196787728 0 0.25472084167293157 0.4265361068333533 0 0.26086930532548902 0.43901787196787728 0 0.26866410580233729 0.42801856787409709 0 0.25472084167293157 0.4265361068333533 0 0.2479989471422917 0.38068262130273611 0 0.25882464977963759 0.38804851921910438 0 0.2617577971454757 0.3666723683444818 0 0.24069220996928931 0.39840631550953859 0 0.25882464977963759 0.38804851921910438 0 0.25439730631067969 0.40260326369396893 0 0.26448839701625632 0.41081712148496702 0 0.25439730631067969 0.40260326369396893 0 0.2698339321233944 0.3964152696501595 0 0.25882464977963759 0.38804851921910438 0 0.25439730631067969 0.40260326369396893 0 0.2698339321233944 0.3964152696501595 0 0.29271635761716902 0.41106549629633699 0 0.2698339321233944 0.3964152696501595 0 0.28001865935162051 0.38403977207691969 0 0.29271635761716902 0.41106549629633699 0 0.26448839701625632 0.41081712148496702 0 0.2698339321233944 0.3964152696501595 0 0.25882464977963759 0.38804851921910438 0 0.28001865935162051 0.38403977207691969 0 0.2617577971454757 0.3666723683444818 0 0.25882464977963759 0.38804851921910438 0 0.2698339321233944 0.3964152696501595 0 0.28001865935162051 0.38403977207691969 0 0.29271635761716902 0.41106549629633699 0 0.3003256696234417 0.37936750478860282 0 0.31676860943200041 0.39411242471857721 0 0.29271635761716902 0.41106549629633699 0 0.28001865935162051 0.38403977207691969 0 0.3003256696234417 0.37936750478860282 0 0.29271635761716902 0.41106549629633699 0 0.31676860943200041 0.39411242471857721 0 0.3003256696234417 0.37936750478860282 0 0.31676860943200041 0.39411242471857721 0 0.31890004701731228 0.37159775229699837 0 0.34082086124683181 0.37715935314081728 0 0.31676860943200041 0.39411242471857721 0 0.31890004701731228 0.37159775229699837 0 0.34082086124683181 0.37715935314081728 0 0.34040031936668042 0.39386293422862179 0 0.31676860943200041 0.39411242471857721 0 0.34082086124683181 0.37715935314081728 0 0.31676860943200041 0.39411242471857721 0 0.34082086124683181 0.37715935314081728 0 0.34040031936668042 0.39386293422862179 0 0.34570365154421662 0.37614091975983022 0 0.34040031936668042 0.39386293422862179 0 0.31676860943200041 0.39411242471857721 0 0.33803328919694531 0.4155402295943938 0 0.31676860943200041 0.39411242471857721 0 0.31588638228852911 0.42672260421039487 0 0.33803328919694531 0.4155402295943938 0 0.33758785639652328 0.44435896134683189 0 0.31588638228852911 0.42672260421039487 0 0.33803328919694531 0.4155402295943938 0 0.35674933506204509 0.4341467369277191 0 0.36080723263589298 0.40003771613421729 0 0.37591081372756668 0.42393451250860598 0 0.33803328919694531 0.4155402295943938 0 0.35674933506204509 0.4341467369277191 0 0.36080723263589298 0.40003771613421729 0 0.33758785639652328 0.44435896134683189 0 0.33803328919694531 0.4155402295943938 0 0.35674933506204509 0.4341467369277191 0 0.37110652529981231 0.441294084893185 0 0.35674933506204509 0.4341467369277191 0 0.37591081372756668 0.42393451250860598 0 0.35674933506204509 0.4341467369277191 0 0.37591081372756668 0.42393451250860598 0 0.36080723263589298 0.40003771613421729 0 0.37890404432810237 0.40645739091228089 0 0.37591081372756668 0.42393451250860598 0 0.36080723263589298 0.40003771613421729 0 0.37591081372756668 0.42393451250860598 0 0.36080723263589298 0.40003771613421729 0 0.37867290419435518 0.38715017136775243 0 0.37890404432810237 0.40645739091228089 0 0.36327214775689698 0.38154343168051158 0 0.36896021553672059 0.36475366285938382 0 0.37867290419435518 0.38715017136775243 0 0.36080723263589298 0.40003771613421729 0 0.36327214775689698 0.38154343168051158 0 0.37867290419435518 0.38715017136775243 0 0.36080723263589298 0.40003771613421729 0 0.36327214775689698 0.38154343168051158 0 0.34570365154421662 0.37614091975983022 0 0.36080723263589298 0.40003771613421729 0 0.34570365154421662 0.37614091975983022 0 0.34040031936668042 0.39386293422862179 0 0.36080723263589298 0.40003771613421729 0 0.34570365154421662 0.37614091975983022 0 0.34040031936668042 0.39386293422862179 0 0.33803328919694531 0.4155402295943938 0 0.36080723263589298 0.40003771613421729 0 0.34570365154421662 0.37614091975983022 0 0.35050253520856178 0.3553512629285609 0 0.36896021553672059 0.36475366285938382 0 0.36327214775689698 0.38154343168051158 0 0.34570365154421662 0.37614091975983022 0 0.36896021553672059 0.36475366285938382 0 0.35050253520856178 0.3553512629285609 0 0.36896021553672059 0.36475366285938382 0 0.37315096512869589 0.33893483448426043 0 0.37315096512869589 0.33893483448426043 0 0.36285424334424898 0.32767984930562721 0 0.34942731509994618 0.33508424558851568 0 0.36285424334424898 0.32767984930562721 0 0.37187395519705457 0.31647956441656921 0 0.35005884624200811 0.31057609064570751 0 0.37315096512869589 0.33893483448426043 0 0.36285424334424898 0.32767984930562721 0 0.37187395519705457 0.31647956441656921 0 0.34942731509994618 0.33508424558851568 0 0.33420528455375093 0.32542822998355231 0 0.35005884624200811 0.31057609064570751 0 0.36285424334424898 0.32767984930562721 0 0.34942731509994618 0.33508424558851568 0 0.35005884624200811 0.31057609064570751 0 0.35050253520856178 0.3553512629285609 0 0.37315096512869589 0.33893483448426043 0 0.34942731509994618 0.33508424558851568 0 0.34942731509994618 0.33508424558851568 0 0.33420528455375093 0.32542822998355231 0 0.33060007045254008 0.3522441233854432 0 0.33420528455375093 0.32542822998355231 0 0.32553083553470108 0.30607251500342902 0 0.35005884624200811 0.31057609064570751 0 0.33420528455375093 0.32542822998355231 0 0.31549648936086389 0.3283473270110564 0 0.32553083553470108 0.30607251500342902 0 0.31549648936086389 0.3283473270110564 0 0.30039290826918752 0.30445053063666938 0 0.32553083553470108 0.30607251500342902 0 0.31549648936086389 0.3283473270110564 0 0.33060007045254008 0.3522441233854432 0 0.33420528455375093 0.32542822998355231 0 0.31549648936086389 0.3283473270110564 0 0.33060007045254008 0.3522441233854432 0 0.31549648936086389 0.3283473270110564 0 0.33060007045254008 0.3522441233854432 0 0.30723485107612808 0.35451868389273189 0 0.35050253520856178 0.3553512629285609 0 0.34942731509994618 0.33508424558851568 0 0.33060007045254008 0.3522441233854432 0 0.34082086124683181 0.37715935314081728 0 0.34570365154421662 0.37614091975983022 0 0.33060007045254008 0.3522441233854432 0 0.34570365154421662 0.37614091975983022 0 0.35050253520856178 0.3553512629285609 0 0.33060007045254008 0.3522441233854432 0 0.34082086124683181 0.37715935314081728 0 0.33060007045254008 0.3522441233854432 0 0.31890004701731228 0.37159775229699837 0 0.34570365154421662 0.37614091975983022 0 0.33060007045254008 0.3522441233854432 0 0.33060007045254008 0.3522441233854432 0 0.31890004701731228 0.37159775229699837 0 0.30723485107612808 0.35451868389273189 0 0.3003256696234417 0.37936750478860282 0 0.30723485107612808 0.35451868389273189 0 0.28631549324642019 0.36087089945005241 0 0.3003256696234417 0.37936750478860282 0 0.31890004701731228 0.37159775229699837 0 0.30723485107612808 0.35451868389273189 0 0.28631549324642019 0.36087089945005241 0 0.27553993258930792 0.34919199714938648 0 0.29344917593276432 0.33876925252837048 0 0.30723485107612808 0.35451868389273189 0 0.28631549324642019 0.36087089945005241 0 0.29344917593276432 0.33876925252837048 0 0.28001865935162051 0.38403977207691969 0 0.3003256696234417 0.37936750478860282 0 0.28631549324642019 0.36087089945005241 0 0.28001865935162051 0.38403977207691969 0 0.28631549324642019 0.36087089945005241 0 0.2617577971454757 0.3666723683444818 0 0.27553993258930792 0.34919199714938648 0 0.26192095722677899 0.34796940972815799 0 0.2617577971454757 0.3666723683444818 0 0.28631549324642019 0.36087089945005241 0 0.27553993258930792 0.34919199714938648 0 0.2617577971454757 0.3666723683444818 0 0.24333253026019169 0.35004249079842281 0 0.26192095722677899 0.34796940972815799 0 0.2542846016530147 0.33409637643350631 0 0.24333253026019169 0.35004249079842281 0 0.26192095722677899 0.34796940972815799 0 0.2617577971454757 0.3666723683444818 0 0.24492426224062819 0.36837000125377167 0 0.24333253026019169 0.35004249079842281 0 0.2617577971454757 0.3666723683444818 0 0.24492426224062819 0.36837000125377167 0 0.2479989471422917 0.38068262130273611 0 0.2617577971454757 0.3666723683444818 0 0.2433419919794062 0.31972344149318871 0 0.26007814452776018 0.31982484400516681 0 0.2513892096621308 0.30951532069811499 0 0.2433419919794062 0.31972344149318871 0 0.26007814452776018 0.31982484400516681 0 0.2542846016530147 0.33409637643350631 0 0.26192095722677899 0.34796940972815799 0 0.2542846016530147 0.33409637643350631 0 0.27425623939510019 0.3316780556958695 0 0.26007814452776018 0.31982484400516681 0 0.2542846016530147 0.33409637643350631 0 0.27425623939510019 0.3316780556958695 0 0.27553993258930792 0.34919199714938648 0 0.26192095722677899 0.34796940972815799 0 0.27425623939510019 0.3316780556958695 0 0.27553993258930792 0.34919199714938648 0 0.27425623939510019 0.3316780556958695 0 0.29344917593276432 0.33876925252837048 0 0.26007814452776018 0.31982484400516681 0 0.27721919212880508 0.31509403736400687 0 0.26305185757081029 0.30482052432844481 0 0.26007814452776018 0.31982484400516681 0 0.27425623939510019 0.3316780556958695 0 0.27721919212880508 0.31509403736400687 0 0.27425623939510019 0.3316780556958695 0 0.27721919212880508 0.31509403736400687 0 0.29314869917008912 0.32162789388319463 0 0.27721919212880508 0.31509403736400687 0 0.29314869917008912 0.32162789388319463 0 0.30039290826918752 0.30445053063666938 0 0.27425623939510019 0.3316780556958695 0 0.29314869917008912 0.32162789388319463 0 0.29344917593276432 0.33876925252837048 0 0.31549648936086389 0.3283473270110564 0 0.29314869917008912 0.32162789388319463 0 0.29344917593276432 0.33876925252837048 0 0.31549648936086389 0.3283473270110564 0 0.30723485107612808 0.35451868389273189 0 0.29344917593276432 0.33876925252837048 0 0.31549648936086389 0.3283473270110564 0 0.30039290826918752 0.30445053063666938 0 0.31549648936086389 0.3283473270110564 0 0.29314869917008912 0.32162789388319463 0 0.30039290826918752 0.30445053063666938 0 0.30039290826918752 0.30445053063666938 0 0.28528932717751121 0.28055373426228247 0 0.31618553423001472 0.28232975039248132 0 0.30039290826918752 0.30445053063666938 0 0.28528932717751121 0.28055373426228247 0 0.30039290826918752 0.30445053063666938 0 0.27740317024667321 0.29673586432540888 0 0.28528932717751121 0.28055373426228247 0 0.27721919212880508 0.31509403736400687 0 0.30039290826918752 0.30445053063666938 0 0.27740317024667321 0.29673586432540888 0 0.27740317024667321 0.29673586432540888 0 0.2611003503908283 0.28980579888838243 0 0.26305185757081029 0.30482052432844481 0 0.27721919212880508 0.31509403736400687 0 0.27740317024667321 0.29673586432540888 0 0.26305185757081029 0.30482052432844481 0 0.27740317024667321 0.29673586432540888 0 0.270281139867387 0.28088503001110121 0 0.28528932717751121 0.28055373426228247 0 0.27740317024667321 0.29673586432540888 0 0.2611003503908283 0.28980579888838243 0 0.270281139867387 0.28088503001110121 0 0.24939431258866271 0.28461400175342061 0 0.2611003503908283 0.28980579888838243 0 0.25578247300274087 0.27397168577457881 0 0.2611003503908283 0.28980579888838243 0 0.25578247300274087 0.27397168577457881 0 0.270281139867387 0.28088503001110121 0 0.24939431258866271 0.28461400175342061 0 0.2611003503908283 0.28980579888838243 0 0.25068914906869572 0.29780768713734018 0 0.25068914906869572 0.29780768713734018 0 0.2513892096621308 0.30951532069811499 0 0.26305185757081029 0.30482052432844481 0 0.26007814452776018 0.31982484400516681 0 0.2513892096621308 0.30951532069811499 0 0.26305185757081029 0.30482052432844481 0 0.2611003503908283 0.28980579888838243 0 0.25068914906869572 0.29780768713734018 0 0.26305185757081029 0.30482052432844481 0 0.247174161967674 0.25327687482299249 0 0.26780091050505322 0.25288366518426519 0 0.2541943898001906 0.2452783354020138 0 0.247174161967674 0.25327687482299249 0 0.25543101151395498 0.2585697936574885 0 0.26780091050505322 0.25288366518426519 0 0.247174161967674 0.25327687482299249 0 0.26780091050505322 0.25288366518426519 0 0.26018558476489051 0.26255551875932359 0 0.25543101151395498 0.2585697936574885 0 0.26780091050505322 0.25288366518426519 0 0.24922855084631021 0.25871626226245159 0 0.247174161967674 0.25327687482299249 0 0.25543101151395498 0.2585697936574885 0 0.24922855084631021 0.25871626226245159 0 0.25543101151395498 0.2585697936574885 0 0.25337941040626871 0.26442495414041789 0 0.24753658922345059 0.268384782251544 0 0.24922855084631021 0.25871626226245159 0 0.25337941040626871 0.26442495414041789 0 0.26018558476489051 0.26255551875932359 0 0.25543101151395498 0.2585697936574885 0 0.25337941040626871 0.26442495414041789 0 0.26018558476489051 0.26255551875932359 0 0.25337941040626871 0.26442495414041789 0 0.25578247300274087 0.27397168577457881 0 0.24759894069174429 0.2763035394253518 0 0.24753658922345059 0.268384782251544 0 0.25578247300274087 0.27397168577457881 0 0.26018558476489051 0.26255551875932359 0 0.25578247300274087 0.27397168577457881 0 0.270281139867387 0.28088503001110121 0 0.24753658922345059 0.268384782251544 0 0.25337941040626871 0.26442495414041789 0 0.25578247300274087 0.27397168577457881 0 0.24759894069174429 0.2763035394253518 0 0.24939431258866271 0.28461400175342061 0 0.25578247300274087 0.27397168577457881 0 0.270281139867387 0.28088503001110121 0 0.27018574608585061 0.25665693788788557 0 0.28528932717751121 0.28055373426228247 0 0.270281139867387 0.28088503001110121 0 0.27018574608585061 0.25665693788788557 0 0.26018558476489051 0.26255551875932359 0 0.270281139867387 0.28088503001110121 0 0.27018574608585061 0.25665693788788557 0 0.27018574608585061 0.25665693788788557 0 0.28528932717751121 0.28055373426228247 0 0.27017071162774198 0.25283848944357312 0 0.28798024187569699 0.25249898470088589 0 0.28081455584511711 0.24485040157975929 0 0.27018574608585061 0.25665693788788557 0 0.27017071162774198 0.25283848944357312 0 0.28798024187569699 0.25249898470088589 0 0.27017071162774198 0.25283848944357312 0 0.28798024187569699 0.25249898470088589 0 0.27018574608585061 0.25665693788788557 0 0.28798024187569699 0.25249898470088589 0 0.28528932717751121 0.28055373426228247 0 0.26018558476489051 0.26255551875932359 0 0.26780091050505322 0.25288366518426519 0 0.27018574608585061 0.25665693788788557 0 0.26780091050505322 0.25288366518426519 0 0.27017071162774198 0.25283848944357312 0 0.26780091050505322 0.25288366518426519 0 0.27018574608585061 0.25665693788788557 0 0.26780091050505322 0.25288366518426519 0 0.27018574608585061 0.25665693788788557 0 0.27017071162774198 0.25283848944357312 0 0.27018574608585061 0.25665693788788557 0 0.27017071162774198 0.25283848944357312 0 0.28798024187569699 0.25249898470088589 0 0.28528932717751121 0.28055373426228247 0 0.30165951886957271 0.26631110887042109 0 0.28528932717751121 0.28055373426228247 0 0.30165951886957271 0.26631110887042109 0 0.31618553423001472 0.28232975039248132 0 0.28798024187569699 0.25249898470088589 0 0.30578977212365188 0.25215947995819882 0 0.28798024187569699 0.25249898470088589 0 0.30165951886957271 0.26631110887042109 0 0.30578977212365188 0.25215947995819882 0 0.30165951886957271 0.26631110887042109 0 0.30578977212365188 0.25215947995819882 0 0.32202191578964579 0.26156114693650723 0 0.30578977212365188 0.25215947995819882 0 0.32202191578964579 0.26156114693650723 0 0.31991229974515062 0.24292185107777689 0 0.32202191578964579 0.26156114693650723 0 0.34644239190667331 0.27091680140328089 0 0.34481807628290828 0.24684837440476859 0 0.32202191578964579 0.26156114693650723 0 0.31991229974515062 0.24292185107777689 0 0.34481807628290828 0.24684837440476859 0 0.32202191578964579 0.26156114693650723 0 0.31618553423001472 0.28232975039248132 0 0.34644239190667331 0.27091680140328089 0 0.30165951886957271 0.26631110887042109 0 0.32202191578964579 0.26156114693650723 0 0.31618553423001472 0.28232975039248132 0 0.31618553423001472 0.28232975039248132 0 0.32553083553470108 0.30607251500342902 0 0.33890769578092339 0.29190907912892178 0 0.30039290826918752 0.30445053063666938 0 0.31618553423001472 0.28232975039248132 0 0.32553083553470108 0.30607251500342902 0 0.32553083553470108 0.30607251500342902 0 0.33890769578092339 0.29190907912892178 0 0.35005884624200811 0.31057609064570751 0 0.31618553423001472 0.28232975039248132 0 0.33890769578092339 0.29190907912892178 0 0.34644239190667331 0.27091680140328089 0 0.33890769578092339 0.29190907912892178 0 0.35632087099121962 0.28965023819971047 0 0.34644239190667331 0.27091680140328089 0 0.33890769578092339 0.29190907912892178 0 0.35632087099121962 0.28965023819971047 0 0.35005884624200811 0.31057609064570751 0 0.35632087099121962 0.28965023819971047 0 0.35005884624200811 0.31057609064570751 0 0.36402204435786162 0.30257214735799959 0 0.36402204435786162 0.30257214735799959 0 0.37697290244879461 0.2844514399738427 0 0.37823085305571791 0.30461753120111001 0 0.37187395519705457 0.31647956441656921 0 0.35005884624200811 0.31057609064570751 0 0.36402204435786162 0.30257214735799959 0 0.37187395519705457 0.31647956441656921 0 0.36402204435786162 0.30257214735799959 0 0.37823085305571791 0.30461753120111001 0 0.35632087099121962 0.28965023819971047 0 0.36418545280638642 0.27809729591815269 0 0.37697290244879461 0.2844514399738427 0 0.35632087099121962 0.28965023819971047 0 0.36402204435786162 0.30257214735799959 0 0.37697290244879461 0.2844514399738427 0 0.36418545280638642 0.27809729591815269 0 0.36918569658921541 0.26472226032381302 0 0.34644239190667331 0.27091680140328089 0 0.36418545280638642 0.27809729591815269 0 0.36918569658921541 0.26472226032381302 0 0.38173571102554699 0.27317078217472002 0 0.36418545280638642 0.27809729591815269 0 0.38173571102554699 0.27317078217472002 0 0.37697290244879461 0.2844514399738427 0 0.36918569658921541 0.26472226032381302 0 0.36972385282066611 0.25077489773176043 0 0.3559441957805165 0.25722727600790057 0 0.3559441957805165 0.25722727600790057 0 0.34644239190667331 0.27091680140328089 0 0.34481807628290828 0.24684837440476859 0 0.36918569658921541 0.26472226032381302 0 0.3559441957805165 0.25722727600790057 0 0.34644239190667331 0.27091680140328089 0 0.36972385282066611 0.25077489773176043 0 0.3559441957805165 0.25722727600790057 0 0.34481807628290828 0.24684837440476859 0 0.35632087099121962 0.28965023819971047 0 0.36418545280638642 0.27809729591815269 0 0.34644239190667331 0.27091680140328089 0 0.36918569658921541 0.26472226032381302 0 0.34644239190667331 0.27091680140328089 0 0.39192900127175773 0.25852771924434642 0 0.40852222144695788 0.27467889307196319 0 0.41277272374698121 0.2641989126741261 0 0.39521489595443399 0.27201189108441259 0 0.39192900127175773 0.25852771924434642 0 0.40852222144695788 0.27467889307196319 0 0.39192900127175773 0.25852771924434642 0 0.40852222144695788 0.27467889307196319 0 0.39521489595443399 0.27201189108441259 0 0.40323860723293659 0.2803017925494099 0 0.39430186251333971 0.285472738081264 0 0.39521489595443399 0.27201189108441259 0 0.40323860723293659 0.2803017925494099 0 0.40852222144695788 0.27467889307196319 0 0.39192900127175773 0.25852771924434642 0 0.4126252527241539 0.25289072929928769 0 0.39192900127175773 0.25852771924434642 0 0.4126252527241539 0.25289072929928769 0 0.41277272374698121 0.2641989126741261 0 0.36918569658921541 0.26472226032381302 0 0.39192900127175773 0.25852771924434642 0 0.36918569658921541 0.26472226032381302 0 0.36972385282066611 0.25077489773176043 0 0.39192900127175773 0.25852771924434642 0 0.36918569658921541 0.26472226032381302 0 0.39192900127175773 0.25852771924434642 0 0.38173571102554699 0.27317078217472002 0 0.36972385282066611 0.25077489773176043 0 0.39192900127175773 0.25852771924434642 0 0.37580523834982432 0.24283349624496681 0 0.39192900127175773 0.25852771924434642 0 0.37580523834982432 0.24283349624496681 0 0.38173571102554699 0.27317078217472002 0 0.37697290244879461 0.2844514399738427 0 0.39430186251333971 0.285472738081264 0 0.39521489595443399 0.27201189108441259 0 0.39192900127175773 0.25852771924434642 0 0.38173571102554699 0.27317078217472002 0 0.39521489595443399 0.27201189108441259 0 0.38173571102554699 0.27317078217472002 0 0.39430186251333971 0.285472738081264 0 0.37697290244879461 0.2844514399738427 0 0.39380681295979941 0.30564999881294969 0 0.39430186251333971 0.285472738081264 0 0.37697290244879461 0.2844514399738427 0 0.39380681295979941 0.30564999881294969 0 0.37697290244879461 0.2844514399738427 0 0.37823085305571791 0.30461753120111001 0 0.39380681295979941 0.30564999881294969 0 0.37187395519705457 0.31647956441656921 0 0.37823085305571791 0.30461753120111001 0 0.38365769314616088 0.31329260153619809 0 0.37823085305571791 0.30461753120111001 0 0.39380681295979941 0.30564999881294969 0 0.38365769314616088 0.31329260153619809 0 0.39380681295979941 0.30564999881294969 0 0.40287612488414931 0.296960029743492 0 0.40970291816371662 0.31034931205047878 0 0.39380681295979941 0.30564999881294969 0 0.40287612488414931 0.296960029743492 0 0.39430186251333971 0.285472738081264 0 0.40287612488414931 0.296960029743492 0 0.39430186251333971 0.285472738081264 0 0.40682061925578672 0.28976040783136109 0 0.40323860723293659 0.2803017925494099 0 0.39430186251333971 0.285472738081264 0 0.40682061925578672 0.28976040783136109 0 0.42273261173157312 0.30585507751964991 0 0.42482038345073381 0.28999039481638927 0 0.41095388991693482 0.28021240126298991 0 0.40682061925578672 0.28976040783136109 0 0.42273261173157312 0.30585507751964991 0 0.41095388991693482 0.28021240126298991 0 0.40323860723293659 0.2803017925494099 0 0.40682061925578672 0.28976040783136109 0 0.41095388991693482 0.28021240126298991 0 0.42273261173157312 0.30585507751964991 0 0.41095388991693482 0.28021240126298991 0 0.42129063726215049 0.28154996397960552 0 0.42482038345073381 0.28999039481638927 0 0.41095388991693482 0.28021240126298991 0 0.40287612488414931 0.296960029743492 0 0.40970291816371662 0.31034931205047878 0 0.42273261173157312 0.30585507751964991 0 0.40287612488414931 0.296960029743492 0 0.40682061925578672 0.28976040783136109 0 0.42273261173157312 0.30585507751964991 0 0.40287612488414931 0.296960029743492 0 0.42273261173157312 0.30585507751964991 0 0.40970291816371662 0.31034931205047878 0 0.42273261173157312 0.30585507751964991 0 0.4192180217425952 0.31750723495343952 0 0.42273261173157312 0.30585507751964991 0 0.43762083772740901 0.29868164541156178 0 0.44045301377053181 0.31379323012239529 0 0.42273261173157312 0.30585507751964991 0 0.42482038345073381 0.28999039481638927 0 0.43762083772740901 0.29868164541156178 0 0.42273261173157312 0.30585507751964991 0 0.44045301377053181 0.31379323012239529 0 0.42129063726215049 0.28154996397960552 0 0.42482038345073381 0.28999039481638927 0 0.43150394061560138 0.28365288590813931 0 0.42482038345073381 0.28999039481638927 0 0.43150394061560138 0.28365288590813931 0 0.43762083772740901 0.29868164541156178 0 0.43150394061560138 0.28365288590813931 0 0.43747404364608222 0.27121307363815728 0 0.42430206292089068 0.27375991856320392 0 0.43747404364608222 0.27121307363815728 0 0.42430206292089068 0.27375991856320392 0 0.42740338788572191 0.2642639036032407 0 0.42129063726215049 0.28154996397960552 0 0.43150394061560138 0.28365288590813931 0 0.42430206292089068 0.27375991856320392 0 0.42129063726215049 0.28154996397960552 0 0.42430206292089068 0.27375991856320392 0 0.41556830705878312 0.27488001791037769 0 0.42129063726215049 0.28154996397960552 0 0.41556830705878312 0.27488001791037769 0 0.41095388991693482 0.28021240126298991 0 0.42430206292089068 0.27375991856320392 0 0.41556830705878312 0.27488001791037769 0 0.41277272374698121 0.2641989126741261 0 0.42430206292089068 0.27375991856320392 0 0.41277272374698121 0.2641989126741261 0 0.42740338788572191 0.2642639036032407 0 0.41556830705878312 0.27488001791037769 0 0.40852222144695788 0.27467889307196319 0 0.41277272374698121 0.2641989126741261 0 0.40323860723293659 0.2803017925494099 0 0.40852222144695788 0.27467889307196319 0 0.41095388991693482 0.28021240126298991 0 0.41556830705878312 0.27488001791037769 0 0.40852222144695788 0.27467889307196319 0 0.41095388991693482 0.28021240126298991 0 0.4126252527241539 0.25289072929928769 0 0.41277272374698121 0.2641989126741261 0 0.42740338788572191 0.2642639036032407 0 0.4126252527241539 0.25289072929928769 0 0.43332150417655041 0.2472537393542297 0 0.42740338788572191 0.2642639036032407 0 0.43332150417655041 0.2472537393542297 0 0.4126252527241539 0.25289072929928769 0 0.42740338788572191 0.2642639036032407 0 0.43332150417655041 0.2472537393542297 0 0.43747404364608222 0.27121307363815728 0 0.42740338788572191 0.2642639036032407 0 0.44469219579081998 0.25968833186555379 0 0.42740338788572191 0.2642639036032407 0 0.44469219579081998 0.25968833186555379 0 0.43332150417655041 0.2472537393542297 0 0.44469219579081998 0.25968833186555379 0 0.45682906034168891 0.25301771121193378 0 0.45133747164856253 0.24234677213247019 0 0.44469219579081998 0.25968833186555379 0 0.45682906034168891 0.25301771121193378 0 0.45658688220292221 0.26318477290921172 0 0.43150394061560138 0.28365288590813931 0 0.43747404364608222 0.27121307363815728 0 0.44822488933074739 0.27703849820396598 0 0.43747404364608222 0.27121307363815728 0 0.44469219579081998 0.25968833186555379 0 0.44822488933074739 0.27703849820396598 0 0.44469219579081998 0.25968833186555379 0 0.44822488933074739 0.27703849820396598 0 0.45658688220292221 0.26318477290921172 0 0.44822488933074739 0.27703849820396598 0 0.46757059152833658 0.27063331915412442 0 0.45658688220292221 0.26318477290921172 0 0.44822488933074739 0.27703849820396598 0 0.46757059152833658 0.27063331915412442 0 0.46115160012237061 0.29205065486656889 0 0.45682906034168891 0.25301771121193378 0 0.45658688220292221 0.26318477290921172 0 0.46561767402301768 0.25554600411048017 0 0.46757059152833658 0.27063331915412442 0 0.45658688220292221 0.26318477290921172 0 0.46561767402301768 0.25554600411048017 0 0.45682906034168891 0.25301771121193378 0 0.46561767402301768 0.25554600411048017 0 0.46411941248085042 0.2452709617298986 0 0.46561767402301768 0.25554600411048017 0 0.47461373343098878 0.25845883423954208 0 0.47288171706680249 0.2480351240427624 0 0.46757059152833658 0.27063331915412442 0 0.47461373343098878 0.25845883423954208 0 0.48451141022379252 0.26513449164670028 0 0.48248727431299482 0.2529452322436429 0 0.47461373343098878 0.25845883423954208 0 0.47288171706680249 0.2480351240427624 0 0.48248727431299482 0.2529452322436429 0 0.47461373343098878 0.25845883423954208 0 0.48451141022379252 0.26513449164670028 0 0.46757059152833658 0.27063331915412442 0 0.46561767402301768 0.25554600411048017 0 0.47461373343098878 0.25845883423954208 0 0.46757059152833658 0.27063331915412442 0 0.48451141022379252 0.26513449164670028 0 0.48229948348732071 0.28526895623322079 0 0.5 0.27409401122615279 0 0.48451141022379252 0.26513449164670028 0 0.48229948348732071 0.28526895623322079 0 0.5 0.27409401122615279 0 0.5 0.25159334176041409 0 0.48451141022379252 0.26513449164670028 0 0.48248727431299482 0.2529452322436429 0 0.5 0.25159334176041409 0 0.48451141022379252 0.26513449164670028 0 0.50000000000000133 0.29928259744112401 0 0.50000000000000089 0.29659468069189149 0 0.47908670790474628 0.30916303170851861 0 0.50000000000000133 0.29928259744112401 0 0.48207145500885068 0.31184405782803382 0 0.47908670790474628 0.30916303170851861 0 0.50000000000000133 0.29928259744112401 0 0.48207145500885068 0.31184405782803382 0 0.50000000000000089 0.29659468069189149 0 0.47908670790474628 0.30916303170851861 0 0.50000000000000133 0.29928259744112401 0 0.48207145500885068 0.31184405782803382 0 0.5 0.31987545157249198 0 0.50000000000000089 0.29659468069189149 0 0.48229948348732071 0.28526895623322079 0 0.47908670790474628 0.30916303170851861 0 0.5 0.27409401122615279 0 0.50000000000000089 0.29659468069189149 0 0.48229948348732071 0.28526895623322079 0 0.46757059152833658 0.27063331915412442 0 0.48229948348732071 0.28526895623322079 0 0.46115160012237061 0.29205065486656889 0 0.48229948348732071 0.28526895623322079 0 0.47908670790474628 0.30916303170851861 0 0.46115160012237061 0.29205065486656889 0 0.47908670790474628 0.30916303170851861 0 0.45529711506690979 0.30708398896683797 0 0.46115160012237061 0.29205065486656889 0 0.43150394061560138 0.28365288590813931 0 0.44822488933074739 0.27703849820396598 0 0.43762083772740901 0.29868164541156178 0 0.44822488933074739 0.27703849820396598 0 0.46115160012237061 0.29205065486656889 0 0.43762083772740901 0.29868164541156178 0 0.45529711506690979 0.30708398896683797 0 0.43762083772740901 0.29868164541156178 0 0.44045301377053181 0.31379323012239529 0 0.45529711506690979 0.30708398896683797 0 0.46115160012237061 0.29205065486656889 0 0.43762083772740901 0.29868164541156178 0 0.44045301377053181 0.31379323012239529 0 0.44506043975554982 0.31903811525607589 0 0.43764598117094822 0.32180569713672358 0 0.44506043975554982 0.31903811525607589 0 0.45817341580948978 0.32173138272514251 0 0.43580277686128149 0.33430926960573287 0 0.44045301377053181 0.31379323012239529 0 0.44506043975554982 0.31903811525607589 0 0.45817341580948978 0.32173138272514251 0 0.45817341580948978 0.32173138272514251 0 0.43580277686128149 0.33430926960573287 0 0.44045301377053181 0.31379323012239529 0 0.45817341580948978 0.32173138272514251 0 0.45529711506690979 0.30708398896683797 0 0.44045301377053181 0.31379323012239529 0 0.45817341580948978 0.32173138272514251 0 0.44506043975554982 0.31903811525607589 0 0.43580277686128149 0.33430926960573287 0 0.44506043975554982 0.31903811525607589 0 0.43764598117094822 0.32180569713672358 0 0.43580277686128149 0.33430926960573287 0 0.44487484233093788 0.35405946334309268 0 0.43580277686128149 0.33430926960573287 0 0.43486334927017312 0.33585892030137682 0 0.44002401536897739 0.34130418678260971 0 0.45817341580948978 0.32173138272514251 0 0.43580277686128149 0.33430926960573287 0 0.44002401536897739 0.34130418678260971 0 0.45754275716648218 0.33799378031194749 0 0.45263940366918282 0.3449589873445062 0 0.44002401536897739 0.34130418678260971 0 0.44487484233093788 0.35405946334309268 0 0.43580277686128149 0.33430926960573287 0 0.44002401536897739 0.34130418678260971 0 0.46414291001769997 0.32440551821494351 0 0.44002401536897739 0.34130418678260971 0 0.45754275716648218 0.33799378031194749 0 0.46414291001769997 0.32440551821494351 0 0.44002401536897739 0.34130418678260971 0 0.45817341580948978 0.32173138272514251 0 0.46414291001769997 0.32440551821494351 0 0.45754275716648218 0.33799378031194749 0 0.46117125106184831 0.34335393545198328 0 0.45263940366918282 0.3449589873445062 0 0.45754275716648218 0.33799378031194749 0 0.46414291001769997 0.32440551821494351 0 0.46973620571470281 0.33594627376569353 0 0.45754275716648218 0.33799378031194749 0 0.46117125106184831 0.34335393545198328 0 0.46973620571470281 0.33594627376569353 0 0.46117125106184831 0.34335393545198328 0 0.46973620571470281 0.33594627376569353 0 0.46846191857114411 0.34979890673460112 0 0.47908670790474628 0.30916303170851861 0 0.45529711506690979 0.30708398896683797 0 0.45817341580948978 0.32173138272514251 0 0.47908670790474628 0.30916303170851861 0 0.45817341580948978 0.32173138272514251 0 0.46414291001769997 0.32440551821494351 0 0.47908670790474628 0.30916303170851861 0 0.45817341580948978 0.32173138272514251 0 0.45817341580948978 0.32173138272514251 0 0.46414291001769997 0.32440551821494351 0 0.48207145500885068 0.31184405782803382 0 0.46414291001769997 0.32440551821494351 0 0.48207145500885179 0.33243691195940162 0 0.48207145500885068 0.31184405782803382 0 0.46414291001769997 0.32440551821494351 0 0.48207145500885068 0.31184405782803382 0 0.47908670790474628 0.30916303170851861 0 0.46414291001769997 0.32440551821494351 0 0.46414291001769997 0.32440551821494351 0 0.46973620571470281 0.33594627376569353 0 0.48207145500885179 0.33243691195940162 0 0.46414291001769997 0.32440551821494351 0 0.48207145500885179 0.33243691195940162 0 0.46973620571470281 0.33594627376569353 0 0.48207145500885179 0.33243691195940162 0 0.48528063033073471 0.34739857227873427 0 0.48207145500885179 0.33243691195940162 0 0.50000000000000355 0.34046830570385989 0 0.48207145500885179 0.33243691195940162 0 0.50000000000000355 0.34046830570385989 0 0.5 0.31987545157249198 0 0.48207145500885179 0.33243691195940162 0 0.50000000000000355 0.34046830570385989 0 0.48528063033073471 0.34739857227873427 0 0.48207145500885068 0.31184405782803382 0 0.48207145500885179 0.33243691195940162 0 0.5 0.31987545157249198 0 0.5 0.36779799131284058 0 0.47632221737805669 0.35921853766397932 0 0.47940141270843561 0.3729819207805985 0 0.5 0.36779799131284058 0 0.48528063033073471 0.34739857227873427 0 0.47632221737805669 0.35921853766397932 0 0.50000000000000355 0.34046830570385989 0 0.5 0.36779799131284058 0 0.48528063033073471 0.34739857227873427 0 0.46973620571470281 0.33594627376569353 0 0.48528063033073471 0.34739857227873427 0 0.46846191857114411 0.34979890673460112 0 0.48528063033073471 0.34739857227873427 0 0.47632221737805669 0.35921853766397932 0 0.46846191857114411 0.34979890673460112 0 0.47632221737805669 0.35921853766397932 0 0.46846191857114411 0.34979890673460112 0 0.46376645388602522 0.35921612704760669 0 0.47632221737805669 0.35921853766397932 0 0.46625538240433517 0.36916688097107919 0 0.46376645388602522 0.35921612704760669 0 0.47632221737805669 0.35921853766397932 0 0.47940141270843561 0.3729819207805985 0 0.46625538240433517 0.36916688097107919 0 0.4517695807828116 0.36482321883482183 0 0.46784638718854138 0.38403460006681511 0 0.46625538240433517 0.36916688097107919 0 0.4517695807828116 0.36482321883482183 0 0.46784638718854138 0.38403460006681511 0 0.45363506849466101 0.3731307723515373 0 0.4517695807828116 0.36482321883482183 0 0.46784638718854138 0.38403460006681511 0 0.46625538240433517 0.36916688097107919 0 0.46376645388602522 0.35921612704760669 0 0.4517695807828116 0.36482321883482183 0 0.46117125106184831 0.34335393545198328 0 0.46846191857114411 0.34979890673460112 0 0.45602317029377842 0.35307309103355228 0 0.46846191857114411 0.34979890673460112 0 0.46376645388602522 0.35921612704760669 0 0.45602317029377842 0.35307309103355228 0 0.46376645388602522 0.35921612704760669 0 0.45602317029377842 0.35307309103355228 0 0.4517695807828116 0.36482321883482183 0 0.46117125106184831 0.34335393545198328 0 0.45602317029377842 0.35307309103355228 0 0.45263940366918282 0.3449589873445062 0 0.44487484233093788 0.35405946334309268 0 0.43580277686128149 0.33430926960573287 0 0.44487484233093788 0.35405946334309268 0 0.4401594660651752 0.36402083567588001 0 0.42747463398180879 0.34804711649116382 0 0.44002401536897739 0.34130418678260971 0 0.45263940366918282 0.3449589873445062 0 0.44487484233093788 0.35405946334309268 0 0.45602317029377842 0.35307309103355228 0 0.45263940366918282 0.3449589873445062 0 0.44487484233093788 0.35405946334309268 0 0.45602317029377842 0.35307309103355228 0 0.44487484233093788 0.35405946334309268 0 0.4517695807828116 0.36482321883482183 0 0.45363506849466101 0.3731307723515373 0 0.44487484233093788 0.35405946334309268 0 0.4401594660651752 0.36402083567588001 0 0.45363506849466101 0.3731307723515373 0 0.44487484233093788 0.35405946334309268 0 0.45363506849466101 0.3731307723515373 0 0.44487484233093788 0.35405946334309268 0 0.4517695807828116 0.36482321883482183 0 0.4401594660651752 0.36402083567588001 0 0.45284429814854149 0.37999455486059608 0 0.4401594660651752 0.36402083567588001 0 0.44327877965889467 0.37860466863569459 0 0.45284429814854149 0.37999455486059608 0 0.45363506849466101 0.3731307723515373 0 0.4401594660651752 0.36402083567588001 0 0.45284429814854149 0.37999455486059608 0 0.4401594660651752 0.36402083567588001 0 0.43692922793433958 0.37331553295968922 0 0.44327877965889467 0.37860466863569459 0 0.4401594660651752 0.36402083567588001 0 0.43692922793433958 0.37331553295968922 0 0.42880509934797889 0.36987127676739823 0 0.4401594660651752 0.36402083567588001 0 0.42880509934797889 0.36987127676739823 0 0.42747463398180879 0.34804711649116382 0 0.43692922793433958 0.37331553295968922 0 0.42880509934797889 0.36987127676739823 0 0.43547356666530967 0.38076535075978413 0 0.42880509934797889 0.36987127676739823 0 0.41668094337790679 0.36585205463777348 0 0.42441167279052078 0.38552216212745521 0 0.42880509934797889 0.36987127676739823 0 0.41668094337790679 0.36585205463777348 0 0.42747463398180879 0.34804711649116382 0 0.41668094337790679 0.36585205463777348 0 0.40588725277400522 0.38365699278438359 0 0.41668094337790679 0.36585205463777348 0 0.4030352355171033 0.36069410408589719 0 0.40588725277400522 0.38365699278438359 0 0.41668094337790679 0.36585205463777348 0 0.4100142987599914 0.34585021623218981 0 0.4030352355171033 0.36069410408589719 0 0.41668094337790679 0.36585205463777348 0 0.4100142987599914 0.34585021623218981 0 0.42747463398180879 0.34804711649116382 0 0.44487484233093788 0.35405946334309268 0 0.42747463398180879 0.34804711649116382 0 0.43486334927017312 0.33585892030137682 0 0.41668094337790679 0.36585205463777348 0 0.42747463398180879 0.34804711649116382 0 0.4401594660651752 0.36402083567588001 0 0.42747463398180879 0.34804711649116382 0 0.42747463398180879 0.34804711649116382 0 0.43486334927017312 0.33585892030137682 0 0.42747463398180879 0.34804711649116382 0 0.43486334927017312 0.33585892030137682 0 0.42739274010807621 0.32955787844245182 0 0.43580277686128149 0.33430926960573287 0 0.43486334927017312 0.33585892030137682 0 0.42739274010807621 0.32955787844245182 0 0.43580277686128149 0.33430926960573287 0 0.43486334927017312 0.33585892030137682 0 0.42273261173157312 0.30585507751964991 0 0.44045301377053181 0.31379323012239529 0 0.42926769429642808 0.32008217356269097 0 0.44045301377053181 0.31379323012239529 0 0.43764598117094822 0.32180569713672358 0 0.42926769429642808 0.32008217356269097 0 0.43580277686128149 0.33430926960573287 0 0.42739274010807621 0.32955787844245182 0 0.42926769429642808 0.32008217356269097 0 0.43580277686128149 0.33430926960573287 0 0.42926769429642808 0.32008217356269097 0 0.43764598117094822 0.32180569713672358 0 0.43580277686128149 0.33430926960573287 0 0.42926769429642808 0.32008217356269097 0 0.42739274010807621 0.32955787844245182 0 0.42926769429642808 0.32008217356269097 0 0.4192180217425952 0.31750723495343952 0 0.42273261173157312 0.30585507751964991 0 0.42926769429642808 0.32008217356269097 0 0.42273261173157312 0.30585507751964991 0 0.42926769429642808 0.32008217356269097 0 0.4192180217425952 0.31750723495343952 0 0.42739274010807621 0.32955787844245182 0 0.4106407234708041 0.32684855765205673 0 0.4192180217425952 0.31750723495343952 0 0.40970291816371662 0.31034931205047878 0 0.4106407234708041 0.32684855765205673 0 0.4192180217425952 0.31750723495343952 0 0.4100142987599914 0.34585021623218981 0 0.42747463398180879 0.34804711649116382 0 0.4106407234708041 0.32684855765205673 0 0.42747463398180879 0.34804711649116382 0 0.4106407234708041 0.32684855765205673 0 0.42747463398180879 0.34804711649116382 0 0.42739274010807621 0.32955787844245182 0 0.4106407234708041 0.32684855765205673 0 0.4100142987599914 0.34585021623218981 0 0.4106407234708041 0.32684855765205673 0 0.39931827829564348 0.33613957351064999 0 0.4100142987599914 0.34585021623218981 0 0.39931827829564348 0.33613957351064999 0 0.39707019898231988 0.34738139827315229 0 0.4106407234708041 0.32684855765205673 0 0.39931827829564348 0.33613957351064999 0 0.3894057799018022 0.32539626546137862 0 0.39931827829564348 0.33613957351064999 0 0.3894057799018022 0.32539626546137862 0 0.38908955902994569 0.34006214608154561 0 0.39931827829564348 0.33613957351064999 0 0.38908955902994569 0.34006214608154561 0 0.39707019898231988 0.34738139827315229 0 0.39380681295979941 0.30564999881294969 0 0.40970291816371662 0.31034931205047878 0 0.4106407234708041 0.32684855765205673 0 0.39380681295979941 0.30564999881294969 0 0.4106407234708041 0.32684855765205673 0 0.39380681295979941 0.30564999881294969 0 0.4106407234708041 0.32684855765205673 0 0.3894057799018022 0.32539626546137862 0 0.39380681295979941 0.30564999881294969 0 0.38365769314616088 0.31329260153619809 0 0.3894057799018022 0.32539626546137862 0 0.37315096512869589 0.33893483448426043 0 0.37187395519705457 0.31647956441656921 0 0.3894057799018022 0.32539626546137862 0 0.37187395519705457 0.31647956441656921 0 0.38365769314616088 0.31329260153619809 0 0.3894057799018022 0.32539626546137862 0 0.37315096512869589 0.33893483448426043 0 0.3894057799018022 0.32539626546137862 0 0.38908955902994569 0.34006214608154561 0 0.37315096512869589 0.33893483448426043 0 0.38908955902994569 0.34006214608154561 0 0.38631715717458992 0.35487901675182298 0 0.36896021553672059 0.36475366285938382 0 0.37315096512869589 0.33893483448426043 0 0.38631715717458992 0.35487901675182298 0 0.36896021553672059 0.36475366285938382 0 0.39349827013002081 0.37173294859624179 0 0.37867290419435518 0.38715017136775243 0 0.36896021553672059 0.36475366285938382 0 0.38631715717458992 0.35487901675182298 0 0.39349827013002081 0.37173294859624179 0 0.39349827013002081 0.37173294859624179 0 0.4030352355171033 0.36069410408589719 0 0.40588725277400522 0.38365699278438359 0 0.38631715717458992 0.35487901675182298 0 0.39349827013002081 0.37173294859624179 0 0.4030352355171033 0.36069410408589719 0 0.38631715717458992 0.35487901675182298 0 0.4030352355171033 0.36069410408589719 0 0.39707019898231988 0.34738139827315229 0 0.4100142987599914 0.34585021623218981 0 0.4030352355171033 0.36069410408589719 0 0.39707019898231988 0.34738139827315229 0 0.38908955902994569 0.34006214608154561 0 0.38631715717458992 0.35487901675182298 0 0.39707019898231988 0.34738139827315229 0 0.39500550795223388 0.40160718244507071 0 0.40588725277400522 0.38365699278438359 0 0.40615642604971081 0.40781493290210158 0 0.39500550795223388 0.40160718244507071 0 0.40588725277400522 0.38365699278438359 0 0.39500550795223388 0.40160718244507071 0 0.40588725277400522 0.38365699278438359 0 0.39258411719223818 0.38568738349147652 0 0.39349827013002081 0.37173294859624179 0 0.40588725277400522 0.38365699278438359 0 0.39349827013002081 0.37173294859624179 0 0.40588725277400522 0.38365699278438359 0 0.39258411719223818 0.38568738349147652 0 0.39349827013002081 0.37173294859624179 0 0.39258411719223818 0.38568738349147652 0 0.37867290419435518 0.38715017136775243 0 0.39500550795223388 0.40160718244507071 0 0.37867290419435518 0.38715017136775243 0 0.37890404432810237 0.40645739091228089 0 0.39500550795223388 0.40160718244507071 0 0.39258411719223818 0.38568738349147652 0 0.37867290419435518 0.38715017136775243 0 0.39500550795223388 0.40160718244507071 0 0.38412376313046259 0.41955737210575772 0 0.37890404432810237 0.40645739091228089 0 0.38412376313046259 0.41955737210575772 0 0.37591081372756668 0.42393451250860598 0 0.39500550795223388 0.40160718244507071 0 0.37890404432810237 0.40645739091228089 0 0.38412376313046259 0.41955737210575772 0 0.38412376313046259 0.41955737210575772 0 0.37591081372756668 0.42393451250860598 0 0.37110652529981231 0.441294084893185 0 0.37591081372756668 0.42393451250860598 0 0.38625532887822722 0.44030154299273649 0 0.37591081372756668 0.42393451250860598 0 0.38010450657984962 0.42618741338683369 0 0.38625532887822722 0.44030154299273649 0 0.37591081372756668 0.42393451250860598 0 0.38625532887822722 0.44030154299273649 0 0.38412376313046259 0.41955737210575772 0 0.37591081372756668 0.42393451250860598 0 0.38010450657984962 0.42618741338683369 0 0.38412376313046259 0.41955737210575772 0 0.38010450657984962 0.42618741338683369 0 0.38412376313046259 0.41955737210575772 0 0.38010450657984962 0.42618741338683369 0 0.39005563807632859 0.43041384687243373 0 0.38010450657984962 0.42618741338683369 0 0.39005563807632859 0.43041384687243373 0 0.38625532887822722 0.44030154299273649 0 0.38412376313046259 0.41955737210575772 0 0.39005563807632859 0.43041384687243373 0 0.40283094975181649 0.42811671640979809 0 0.39005563807632859 0.43041384687243373 0 0.40283094975181649 0.42811671640979809 0 0.39696364204128648 0.43790618946704202 0 0.39005563807632859 0.43041384687243373 0 0.39696364204128648 0.43790618946704202 0 0.38625532887822722 0.44030154299273649 0 0.40283094975181649 0.42811671640979809 0 0.40706697032678602 0.44345937317990852 0 0.39696364204128648 0.43790618946704202 0 0.38412376313046259 0.41955737210575772 0 0.40615642604971081 0.40781493290210158 0 0.38412376313046259 0.41955737210575772 0 0.40283094975181649 0.42811671640979809 0 0.40615642604971081 0.40781493290210158 0 0.39500550795223388 0.40160718244507071 0 0.38412376313046259 0.41955737210575772 0 0.40615642604971081 0.40781493290210158 0 0.40615642604971081 0.40781493290210158 0 0.41881811899988292 0.41807595627371619 0 0.42194023305547679 0.39910753071216848 0 0.40283094975181649 0.42811671640979809 0 0.40615642604971081 0.40781493290210158 0 0.41881811899988292 0.41807595627371619 0 0.40283094975181649 0.42811671640979809 0 0.42564454304962962 0.43638781839526292 0 0.40706697032678602 0.44345937317990852 0 0.40283094975181649 0.42811671640979809 0 0.41881811899988292 0.41807595627371619 0 0.42564454304962962 0.43638781839526292 0 0.41881811899988292 0.41807595627371619 0 0.42564454304962962 0.43638781839526292 0 0.43799321333694702 0.41455806863995481 0 0.42564454304962962 0.43638781839526292 0 0.43969427814379097 0.4299279060554122 0 0.44168377098201239 0.44233228473626007 0 0.42564454304962962 0.43638781839526292 0 0.43799321333694702 0.41455806863995481 0 0.43969427814379097 0.4299279060554122 0 0.42564454304962962 0.43638781839526292 0 0.43799321333694702 0.41455806863995481 0 0.42194023305547679 0.39910753071216848 0 0.43799321333694702 0.41455806863995481 0 0.43063174523265968 0.39746544668151668 0 0.43799321333694702 0.41455806863995481 0 0.44067762499433899 0.40981261561888932 0 0.41881811899988292 0.41807595627371619 0 0.42194023305547679 0.39910753071216848 0 0.43799321333694702 0.41455806863995481 0 0.43063174523265968 0.39746544668151668 0 0.42194023305547679 0.39910753071216848 0 0.43799321333694702 0.41455806863995481 0 0.43063174523265968 0.39746544668151668 0 0.437697933162153 0.39626133539150449 0 0.44205441610066282 0.40737874989755291 0 0.43063174523265968 0.39746544668151668 0 0.44067762499433899 0.40981261561888932 0 0.43063174523265968 0.39746544668151668 0 0.42441167279052078 0.38552216212745521 0 0.43574682386483021 0.38989651279443982 0 0.43063174523265968 0.39746544668151668 0 0.43574682386483021 0.38989651279443982 0 0.437697933162153 0.39626133539150449 0 0.43063174523265968 0.39746544668151668 0 0.42194023305547679 0.39910753071216848 0 0.42441167279052078 0.38552216212745521 0 0.40588725277400522 0.38365699278438359 0 0.40615642604971081 0.40781493290210158 0 0.42194023305547679 0.39910753071216848 0 0.40588725277400522 0.38365699278438359 0 0.42194023305547679 0.39910753071216848 0 0.40588725277400522 0.38365699278438359 0 0.42194023305547679 0.39910753071216848 0 0.42441167279052078 0.38552216212745521 0 0.41668094337790679 0.36585205463777348 0 0.40588725277400522 0.38365699278438359 0 0.42441167279052078 0.38552216212745521 0 0.42880509934797889 0.36987127676739823 0 0.42441167279052078 0.38552216212745521 0 0.43547356666530967 0.38076535075978413 0 0.42441167279052078 0.38552216212745521 0 0.43574682386483021 0.38989651279443982 0 0.43547356666530967 0.38076535075978413 0 0.43692922793433958 0.37331553295968922 0 0.43547356666530967 0.38076535075978413 0 0.44327877965889467 0.37860466863569459 0 0.43547356666530967 0.38076535075978413 0 0.44327877965889467 0.37860466863569459 0 0.44276268970813332 0.38841361328888802 0 0.43574682386483021 0.38989651279443982 0 0.43547356666530967 0.38076535075978413 0 0.44276268970813332 0.38841361328888802 0 0.44327877965889467 0.37860466863569459 0 0.44276268970813332 0.38841361328888802 0 0.45037950785659048 0.38624261418579742 0 0.44276268970813332 0.38841361328888802 0 0.45037950785659048 0.38624261418579742 0 0.44894092235093258 0.3933183388490491 0 0.44327877965889467 0.37860466863569459 0 0.45037950785659048 0.38624261418579742 0 0.45284429814854149 0.37999455486059608 0 0.44324506830743748 0.39810546599745278 0 0.45339460793666958 0.40178402281883568 0 0.45138481687036719 0.41554121992403542 0 0.43063174523265968 0.39746544668151668 0 0.44067762499433899 0.40981261561888932 0 0.44205441610066282 0.40737874989755291 0 0.44324506830743748 0.39810546599745278 0 0.437697933162153 0.39626133539150449 0 0.44205441610066282 0.40737874989755291 0 0.43574682386483021 0.38989651279443982 0 0.44276268970813332 0.38841361328888802 0 0.437697933162153 0.39626133539150449 0 0.44276268970813332 0.38841361328888802 0 0.44324506830743748 0.39810546599745278 0 0.437697933162153 0.39626133539150449 0 0.44276268970813332 0.38841361328888802 0 0.44324506830743748 0.39810546599745278 0 0.44894092235093258 0.3933183388490491 0 0.44324506830743748 0.39810546599745278 0 0.44894092235093258 0.3933183388490491 0 0.45339460793666958 0.40178402281883568 0 0.44894092235093258 0.3933183388490491 0 0.45339460793666958 0.40178402281883568 0 0.45589604250713073 0.39260411938677592 0 0.45037950785659048 0.38624261418579742 0 0.44894092235093258 0.3933183388490491 0 0.45589604250713073 0.39260411938677592 0 0.46218254718850099 0.39263534334834072 0 0.46769347024685332 0.40154685840234811 0 0.46784638718854138 0.38403460006681511 0 0.45339460793666958 0.40178402281883568 0 0.46092252123406918 0.40047074879198369 0 0.46059248226356758 0.40918409291935542 0 0.46092252123406918 0.40047074879198369 0 0.45589604250713073 0.39260411938677592 0 0.46218254718850099 0.39263534334834072 0 0.45339460793666958 0.40178402281883568 0 0.46092252123406918 0.40047074879198369 0 0.45589604250713073 0.39260411938677592 0 0.46092252123406918 0.40047074879198369 0 0.46218254718850099 0.39263534334834072 0 0.46769347024685332 0.40154685840234811 0 0.46092252123406918 0.40047074879198369 0 0.46769347024685332 0.40154685840234811 0 0.46059248226356758 0.40918409291935542 0 0.45363506849466101 0.3731307723515373 0 0.45284429814854149 0.37999455486059608 0 0.4585543147659108 0.38452039009378108 0 0.45363506849466101 0.3731307723515373 0 0.4585543147659108 0.38452039009378108 0 0.46784638718854138 0.38403460006681511 0 0.45037950785659048 0.38624261418579742 0 0.45284429814854149 0.37999455486059608 0 0.4585543147659108 0.38452039009378108 0 0.45589604250713073 0.39260411938677592 0 0.46218254718850099 0.39263534334834072 0 0.4585543147659108 0.38452039009378108 0 0.45037950785659048 0.38624261418579742 0 0.45589604250713073 0.39260411938677592 0 0.4585543147659108 0.38452039009378108 0 0.46218254718850099 0.39263534334834072 0 0.4585543147659108 0.38452039009378108 0 0.46784638718854138 0.38403460006681511 0 0.47940141270843561 0.3729819207805985 0 0.46784638718854138 0.38403460006681511 0 0.48623419869824969 0.38463763407617679 0 0.47940141270843561 0.3729819207805985 0 0.46625538240433517 0.36916688097107919 0 0.46784638718854138 0.38403460006681511 0 0.46769347024685332 0.40154685840234811 0 0.46784638718854138 0.38403460006681511 0 0.48392319359427122 0.4032459812988084 0 0.46784638718854138 0.38403460006681511 0 0.48392319359427122 0.4032459812988084 0 0.46784638718854138 0.38403460006681511 0 0.48392319359427122 0.4032459812988084 0 0.48623419869824969 0.38463763407617679 0 0.48392319359427122 0.4032459812988084 0 0.5 0.39512767692182132 0 0.48623419869824969 0.38463763407617679 0 0.5 0.36779799131284058 0 0.47940141270843561 0.3729819207805985 0 0.48623419869824969 0.38463763407617679 0 0.5 0.36779799131284058 0 0.5 0.39512767692182132 0 0.48623419869824969 0.38463763407617679 0 0.48392319359427122 0.4032459812988084 0 0.50000000000000067 0.42245736253080213 0 0.48392319359427122 0.4032459812988084 0 0.5 0.39512767692182132 0 0.50000000000000067 0.42245736253080213 0 0.48392319359427122 0.4032459812988084 0 0.50000000000000067 0.42245736253080213 0 0.48385621880146512 0.42741103876840852 0 0.46769347024685332 0.40154685840234811 0 0.48392319359427122 0.4032459812988084 0 0.46916341517291438 0.41849292226755952 0 0.48392319359427122 0.4032459812988084 0 0.46916341517291438 0.41849292226755952 0 0.48385621880146512 0.42741103876840852 0 0.48385621880146512 0.42741103876840852 0 0.47104899884124368 0.43169080498173018 0 0.47165179595729939 0.44788228504033573 0 0.46916341517291438 0.41849292226755952 0 0.48385621880146512 0.42741103876840852 0 0.47104899884124368 0.43169080498173018 0 0.45952456543329701 0.43297697385061779 0 0.45138481687036719 0.41554121992403542 0 0.46916341517291438 0.41849292226755952 0 0.45952456543329701 0.43297697385061779 0 0.45138481687036719 0.41554121992403542 0 0.46916341517291438 0.41849292226755952 0 0.47104899884124368 0.43169080498173018 0 0.45952456543329701 0.43297697385061779 0 0.45952456543329701 0.43297697385061779 0 0.45511791368614368 0.43104010671687548 0 0.45363056950330399 0.44110206480316078 0 0.46916341517291438 0.41849292226755952 0 0.46059248226356758 0.40918409291935542 0 0.45138481687036719 0.41554121992403542 0 0.46769347024685332 0.40154685840234811 0 0.46916341517291438 0.41849292226755952 0 0.46059248226356758 0.40918409291935542 0 0.45339460793666958 0.40178402281883568 0 0.46059248226356758 0.40918409291935542 0 0.45138481687036719 0.41554121992403542 0 0.45952456543329701 0.43297697385061779 0 0.45138481687036719 0.41554121992403542 0 0.44067762499433899 0.40981261561888932 0 0.44324506830743748 0.39810546599745278 0 0.45138481687036719 0.41554121992403542 0 0.45511791368614368 0.43104010671687548 0 0.43799321333694702 0.41455806863995481 0 0.44067762499433899 0.40981261561888932 0 0.45952456543329701 0.43297697385061779 0 0.44067762499433899 0.40981261561888932 0 0.44324506830743748 0.39810546599745278 0 0.45138481687036719 0.41554121992403542 0 0.44205441610066282 0.40737874989755291 0 0.45138481687036719 0.41554121992403542 0 0.44067762499433899 0.40981261561888932 0 0.44205441610066282 0.40737874989755291 0 0.43799321333694702 0.41455806863995481 0 0.44067762499433899 0.40981261561888932 0 0.44067762499433899 0.40981261561888932 0 0.44205441610066282 0.40737874989755291 0 0.45511791368614368 0.43104010671687548 0 0.43799321333694702 0.41455806863995481 0 0.43969427814379097 0.4299279060554122 0 0.45952456543329701 0.43297697385061779 0 0.45511791368614368 0.43104010671687548 0 0.44067762499433899 0.40981261561888932 0 0.45511791368614368 0.43104010671687548 0 0.43799321333694702 0.41455806863995481 0 0.45511791368614368 0.43104010671687548 0 0.44753163307881277 0.43610059057792733 0 0.43969427814379097 0.4299279060554122 0 0.45511791368614368 0.43104010671687548 0 0.44753163307881277 0.43610059057792733 0 0.45363056950330399 0.44110206480316078 0 0.44753163307881277 0.43610059057792733 0 0.43969427814379097 0.4299279060554122 0 0.44168377098201239 0.44233228473626007 0 0.50000000000000067 0.42245736253080213 0 0.48781588428663719 0.46774920899877809 0 0.5 0.5 0 0.44168377098201239 0.44233228473626007 0 0.4496874212600423 0.45159491826858011 0 0.43255522424769882 0.46000437825652968 0 0.44168377098201239 0.44233228473626007 0 0.4496874212600423 0.45159491826858011 0 0.45363056950330399 0.44110206480316078 0 0.44753163307881277 0.43610059057792733 0 0.44168377098201239 0.44233228473626007 0 0.45363056950330399 0.44110206480316078 0 0.45181457573308559 0.46179118836248989 0 0.44243080831390202 0.46974762064268982 0 0.43255522424769882 0.46000437825652968 0 0.45181457573308559 0.46179118836248989 0 0.43255522424769882 0.46000437825652968 0 0.4496874212600423 0.45159491826858011 0 0.45181457573308559 0.46179118836248989 0 0.43255522424769882 0.46000437825652968 0 0.45181457573308559 0.46179118836248989 0 0.46875296583411141 0.45274467518445932 0 0.45518290669079031 0.47550658913931437 0 0.46875296583411141 0.45274467518445932 0 0.45518290669079031 0.47550658913931437 0 0.4496874212600423 0.45159491826858011 0 0.45181457573308559 0.46179118836248989 0 0.46875296583411141 0.45274467518445932 0 0.47104899884124368 0.43169080498173018 0 0.45952456543329701 0.43297697385061779 0 0.47165179595729939 0.44788228504033573 0 0.45952456543329701 0.43297697385061779 0 0.46875296583411141 0.45274467518445932 0 0.45952456543329701 0.43297697385061779 0 0.47165179595729939 0.44788228504033573 0 0.46875296583411141 0.45274467518445932 0 0.45952456543329701 0.43297697385061779 0 0.45363056950330399 0.44110206480316078 0 0.46875296583411141 0.45274467518445932 0 0.4496874212600423 0.45159491826858011 0 0.45363056950330399 0.44110206480316078 0 0.46875296583411141 0.45274467518445932 0 0.45952456543329701 0.43297697385061779 0 0.47165179595729939 0.44788228504033573 0 0.50000000000000067 0.42245736253080213 0 0.48385621880146512 0.42741103876840852 0 0.48781588428663719 0.46774920899877809 0 0.48385621880146512 0.42741103876840852 0 0.47165179595729939 0.44788228504033573 0 0.48781588428663719 0.46774920899877809 0 0.48385621880146512 0.42741103876840852 0 0.47165179595729939 0.44788228504033573 0 0.47165179595729939 0.44788228504033573 0 0.46875296583411141 0.45274467518445932 0 0.47165179595729939 0.44788228504033573 0 0.48781588428663719 0.46774920899877809 0 0.47165179595729939 0.44788228504033573 0 0.46875296583411141 0.45274467518445932 0 0.48781588428663719 0.46774920899877809 0 0.46875296583411141 0.45274467518445932 0 0.48781588428663719 0.46774920899877809 0 0.47978335958357787 0.47637233759222958 0 0.46875296583411141 0.45274467518445932 0 0.47978335958357787 0.47637233759222958 0 0.48781588428663719 0.46774920899877809 0 0.5 0.5 0 0.47978335958357787 0.47637233759222958 0 0.49081375333304528 0.49999999999999961 0 0.5 0.5 0 0.47978335958357787 0.47637233759222958 0 0.49081375333304528 0.49999999999999961 0 0.47978335958357787 0.47637233759222958 0 0.46875296583411141 0.45274467518445932 0 0.47978335958357787 0.47637233759222958 0 0.46729859303262089 0.48118321532842512 0 0.47978335958357787 0.47637233759222958 0 0.46853809112088701 0.5 0 0.46729859303262089 0.48118321532842512 0 0.49081375333304528 0.49999999999999961 0 0.47978335958357787 0.47637233759222958 0 0.46853809112088701 0.5 0 0.46853809112088701 0.5 0 0.45577897346009888 0.49099166151238161 0 0.44626242890872869 0.5 0 0.46853809112088701 0.5 0 0.45577897346009888 0.49099166151238161 0 0.46729859303262089 0.48118321532842512 0 0.46875296583411141 0.45274467518445932 0 0.46729859303262089 0.48118321532842512 0 0.45518290669079031 0.47550658913931437 0 0.45577897346009888 0.49099166151238161 0 0.46729859303262089 0.48118321532842512 0 0.45518290669079031 0.47550658913931437 0 0.45518290669079031 0.47550658913931437 0 0.44010472015677748 0.47844498294916399 0 0.43939146305280352 0.4866302598466295 0 0.45518290669079031 0.47550658913931437 0 0.44010472015677748 0.47844498294916399 0 0.44243080831390202 0.46974762064268982 0 0.45181457573308559 0.46179118836248989 0 0.45518290669079031 0.47550658913931437 0 0.44243080831390202 0.46974762064268982 0 0.44010472015677748 0.47844498294916399 0 0.43939146305280352 0.4866302598466295 0 0.43304082001575211 0.4824496291536341 0 0.44010472015677748 0.47844498294916399 0 0.44243080831390202 0.46974762064268982 0 0.43127965883724712 0.47418985365840782 0 0.45518290669079031 0.47550658913931437 0 0.43939146305280352 0.4866302598466295 0 0.44161284754746749 0.49826850309416848 0 0.45577897346009888 0.49099166151238161 0 0.45518290669079031 0.47550658913931437 0 0.44161284754746749 0.49826850309416848 0 0.45518290669079031 0.47550658913931437 0 0.44161284754746749 0.49826850309416848 0 0.45577897346009888 0.49099166151238161 0 0.44626242890872869 0.5 0 0.44161284754746749 0.49826850309416848 0 0.43939146305280352 0.4866302598466295 0 0.44161284754746749 0.49826850309416848 0 0.43480634957358999 0.49404889718812017 0 0.43480634957358999 0.49404889718812017 0 0.43117705506306059 0.49008565909368618 0 0.42398676669657043 0.50000000000002087 0 0.44161284754746749 0.49826850309416848 0 0.43480634957358999 0.49404889718812017 0 0.42398676669657043 0.50000000000002087 0 0.44626242890872869 0.5 0 0.44161284754746749 0.49826850309416848 0 0.42398676669657043 0.50000000000002087 0 0.43117705506306059 0.49008565909368618 0 0.42398676669657043 0.50000000000002087 0 0.42325120296887192 0.48289739022028311 0 0.43939146305280352 0.4866302598466295 0 0.43117705506306059 0.49008565909368618 0 0.43304082001575211 0.4824496291536341 0 0.43939146305280352 0.4866302598466295 0 0.43480634957358999 0.49404889718812017 0 0.43117705506306059 0.49008565909368618 0 0.43117705506306059 0.49008565909368618 0 0.42325120296887192 0.48289739022028311 0 0.43304082001575211 0.4824496291536341 0 0.42398676669657043 0.50000000000002087 0 0.41110244435686522 0.47961450165330582 0 0.42398676669657043 0.50000000000002087 0 0.39947404090567989 0.5 0 0.40563818841756238 0.48988348532578291 0 0.42398676669657043 0.50000000000002087 0 0.41110244435686522 0.47961450165330582 0 0.40563818841756238 0.48988348532578291 0 0.42398676669657043 0.50000000000002087 0 0.41110244435686522 0.47961450165330582 0 0.42325120296887192 0.48289739022028311 0 0.41110244435686522 0.47961450165330582 0 0.41950953170978228 0.47105326418702148 0 0.40587272501099653 0.47134007073889589 0 0.41110244435686522 0.47961450165330582 0 0.40250608354255779 0.47729155693636438 0 0.40587272501099653 0.47134007073889589 0 0.41110244435686522 0.47961450165330582 0 0.40587272501099653 0.47134007073889589 0 0.41110244435686522 0.47961450165330582 0 0.40563818841756238 0.48988348532578291 0 0.40250608354255779 0.47729155693636438 0 0.41110244435686522 0.47961450165330582 0 0.40250608354255779 0.47729155693636438 0 0.41110244435686522 0.47961450165330582 0 0.41950953170978228 0.47105326418702148 0 0.42325120296887192 0.48289739022028311 0 0.41110244435686522 0.47961450165330582 0 0.42325120296887192 0.48289739022028311 0 0.41950953170978228 0.47105326418702148 0 0.42325120296887192 0.48289739022028311 0 0.43127965883724712 0.47418985365840782 0 0.42325120296887192 0.48289739022028311 0 0.43304082001575211 0.4824496291536341 0 0.43127965883724712 0.47418985365840782 0 0.44010472015677748 0.47844498294916399 0 0.43304082001575211 0.4824496291536341 0 0.43127965883724712 0.47418985365840782 0 0.44243080831390202 0.46974762064268982 0 0.43127965883724712 0.47418985365840782 0 0.43255522424769882 0.46000437825652968 0 0.43255522424769882 0.46000437825652968 0 0.41329587276231178 0.45821756815057069 0 0.41950953170978228 0.47105326418702148 0 0.43127965883724712 0.47418985365840782 0 0.43255522424769882 0.46000437825652968 0 0.42564454304962962 0.43638781839526292 0 0.43255522424769882 0.46000437825652968 0 0.41329587276231178 0.45821756815057069 0 0.42564454304962962 0.43638781839526292 0 0.44168377098201239 0.44233228473626007 0 0.43255522424769882 0.46000437825652968 0 0.42564454304962962 0.43638781839526292 0 0.40706697032678602 0.44345937317990852 0 0.41329587276231178 0.45821756815057069 0 0.42564454304962962 0.43638781839526292 0 0.41329587276231178 0.45821756815057069 0 0.41950953170978228 0.47105326418702148 0 0.43255522424769882 0.46000437825652968 0 0.41329587276231178 0.45821756815057069 0 0.41329587276231178 0.45821756815057069 0 0.40587272501099653 0.47134007073889589 0 0.41950953170978228 0.47105326418702148 0 0.41329587276231178 0.45821756815057069 0 0.40587272501099653 0.47134007073889589 0 0.39659984402889448 0.45666857347686268 0 0.40587272501099653 0.47134007073889589 0 0.41329587276231178 0.45821756815057069 0 0.39659984402889448 0.45666857347686268 0 0.41329587276231178 0.45821756815057069 0 0.39659984402889448 0.45666857347686268 0 0.40587272501099653 0.47134007073889589 0 0.39659984402889448 0.45666857347686268 0 0.39268157765732598 0.46781270797143448 0 0.38537498356123912 0.46227952912477388 0 0.39659984402889448 0.45666857347686268 0 0.39268157765732598 0.46781270797143448 0 0.40587272501099653 0.47134007073889589 0 0.39659984402889448 0.45666857347686268 0 0.39696364204128648 0.43790618946704202 0 0.38625532887822722 0.44030154299273649 0 0.40706697032678602 0.44345937317990852 0 0.41329587276231178 0.45821756815057069 0 0.39659984402889448 0.45666857347686268 0 0.40706697032678602 0.44345937317990852 0 0.39659984402889448 0.45666857347686268 0 0.39696364204128648 0.43790618946704202 0 0.39659984402889448 0.45666857347686268 0 0.38625532887822722 0.44030154299273649 0 0.39659984402889448 0.45666857347686268 0 0.38625532887822722 0.44030154299273649 0 0.3777389976200396 0.45491873517123582 0 0.37110652529981231 0.441294084893185 0 0.38625532887822722 0.44030154299273649 0 0.3777389976200396 0.45491873517123582 0 0.39659984402889448 0.45666857347686268 0 0.3777389976200396 0.45491873517123582 0 0.37447951493870602 0.46971809987955643 0 0.39268157765732598 0.46781270797143448 0 0.38537498356123912 0.46227952912477388 0 0.39659984402889448 0.45666857347686268 0 0.38537498356123912 0.46227952912477388 0 0.3777389976200396 0.45491873517123582 0 0.37447951493870602 0.46971809987955643 0 0.38537498356123912 0.46227952912477388 0 0.3777389976200396 0.45491873517123582 0 0.37447951493870602 0.46971809987955643 0 0.38172423243540782 0.48540272737978241 0 0.40250608354255779 0.47729155693636438 0 0.37447951493870602 0.46971809987955643 0 0.39268157765732598 0.46781270797143448 0 0.40250608354255779 0.47729155693636438 0 0.37447951493870602 0.46971809987955643 0 0.40250608354255779 0.47729155693636438 0 0.37496131511478947 0.5 0 0.39396929636164119 0.49238273060427989 0 0.39947404090567989 0.5 0 0.37496131511478947 0.5 0 0.38172423243540782 0.48540272737978241 0 0.39396929636164119 0.49238273060427989 0 0.38172423243540782 0.48540272737978241 0 0.39396929636164119 0.49238273060427989 0 0.40250608354255779 0.47729155693636438 0 0.39396929636164119 0.49238273060427989 0 0.40250608354255779 0.47729155693636438 0 0.39396929636164119 0.49238273060427989 0 0.39947404090567989 0.5 0 0.40563818841756238 0.48988348532578291 0 0.39396929636164119 0.49238273060427989 0 0.40563818841756238 0.48988348532578291 0 0.40250608354255779 0.47729155693636438 0 0.40250608354255779 0.47729155693636438 0 0.40587272501099653 0.47134007073889589 0 0.39268157765732598 0.46781270797143448 0 0.40250608354255779 0.47729155693636438 0 0.40587272501099653 0.47134007073889589 0 0.33648726660411771 0.08025003128794099 0 0.32824079060010503 0.096666057163451544 0 0.34554067134017208 0.096581009669769347 0 0.33648726660411771 0.08025003128794099 0 0.34143005800499959 0.051502521950293922 0 0.31149976547578379 0.063607988375033689 0 0.33648726660411771 0.08025003128794099 0 0.31222997260400082 0.089116040762111381 0 0.31149976547578379 0.063607988375033689 0 0.33648726660411771 0.08025003128794099 0 0.31149976547578379 0.063607988375033689 0 0.33648726660411771 0.08025003128794099 0 0.32824079060010503 0.096666057163451544 0 0.31222997260400082 0.089116040762111381 0 0.31453745728059351 0.1075276584627137 0 0.32824079060010503 0.096666057163451544 0 0.31222997260400082 0.089116040762111381 0 0.31453745728059351 0.1075276584627137 0 0.33240858517164129 0.1098555456347223 0 0.32824079060010503 0.096666057163451544 0 0.31453745728059351 0.1075276584627137 0 0.33240858517164129 0.1098555456347223 0 0.31768019020457822 0.13005280406624309 0 0.3447010096654029 0.1145610503684098 0 0.33470000956808521 0.12764462502827259 0 0.35177452730836012 0.1256610874353917 0 0.33240858517164129 0.1098555456347223 0 0.3447010096654029 0.1145610503684098 0 0.33470000956808521 0.12764462502827259 0 0.33240858517164129 0.1098555456347223 0 0.33470000956808521 0.12764462502827259 0 0.31768019020457822 0.13005280406624309 0 0.33240858517164129 0.1098555456347223 0 0.34554067134017208 0.096581009669769347 0 0.3447010096654029 0.1145610503684098 0 0.33240858517164129 0.1098555456347223 0 0.32824079060010503 0.096666057163451544 0 0.34554067134017208 0.096581009669769347 0 0.34554067134017208 0.096581009669769347 0 0.3447010096654029 0.1145610503684098 0 0.3573784692795885 0.1110216305763687 0 0.34554067134017208 0.096581009669769347 0 0.3573784692795885 0.1110216305763687 0 0.35970163001867123 0.097866097317276024 0 0.3573784692795885 0.1110216305763687 0 0.36717987101671751 0.10656943961675711 0 0.35177452730836012 0.1256610874353917 0 0.3447010096654029 0.1145610503684098 0 0.3573784692795885 0.1110216305763687 0 0.35177452730836012 0.1256610874353917 0 0.36717987101671751 0.10656943961675711 0 0.35177452730836012 0.1256610874353917 0 0.37250850891158749 0.1234437037443635 0 0.36717987101671751 0.10656943961675711 0 0.35177452730836012 0.1256610874353917 0 0.36717987101671751 0.10656943961675711 0 0.368369216550895 0.091318580521585813 0 0.38376501063092477 0.086015685638163697 0 0.35970163001867123 0.097866097317276024 0 0.36717987101671751 0.10656943961675711 0 0.368369216550895 0.091318580521585813 0 0.3573784692795885 0.1110216305763687 0 0.36717987101671751 0.10656943961675711 0 0.3573784692795885 0.1110216305763687 0 0.35970163001867123 0.097866097317276024 0 0.36717987101671751 0.10656943961675711 0 0.368369216550895 0.091318580521585813 0 0.3723184427247922 0.082221089976755465 0 0.38376501063092477 0.086015685638163697 0 0.3723184427247922 0.082221089976755465 0 0.36003992190598277 0.083839826201899184 0 0.37382638972724391 0.070577469389624073 0 0.368369216550895 0.091318580521585813 0 0.3723184427247922 0.082221089976755465 0 0.36003992190598277 0.083839826201899184 0 0.35970163001867123 0.097866097317276024 0 0.368369216550895 0.091318580521585813 0 0.36003992190598277 0.083839826201899184 0 0.33648726660411771 0.08025003128794099 0 0.34554067134017208 0.096581009669769347 0 0.36003992190598277 0.083839826201899184 0 0.34554067134017208 0.096581009669769347 0 0.35970163001867123 0.097866097317276024 0 0.36003992190598277 0.083839826201899184 0 0.33648726660411771 0.08025003128794099 0 0.35516456929731771 0.067860040889616099 0 0.34143005800499959 0.051502521950293922 0 0.33648726660411771 0.08025003128794099 0 0.36003992190598277 0.083839826201899184 0 0.35516456929731771 0.067860040889616099 0 0.35516456929731771 0.067860040889616099 0 0.37382638972724391 0.070577469389624073 0 0.36403921024424452 0.053130355618322342 0 0.36003992190598277 0.083839826201899184 0 0.35516456929731771 0.067860040889616099 0 0.37382638972724391 0.070577469389624073 0 0.37382638972724391 0.070577469389624073 0 0.36403921024424452 0.053130355618322342 0 0.37825268643263082 0.05626953899412792 0 0.35966789166756341 0.033231536507069621 0 0.37691750854413097 0.022390773354375441 0 0.38615884527580391 0.043820978255381018 0 0.36403921024424452 0.053130355618322342 0 0.35966789166756341 0.033231536507069621 0 0.38615884527580391 0.043820978255381018 0 0.36403921024424452 0.053130355618322342 0 0.35966789166756341 0.033231536507069621 0 0.34143005800499959 0.051502521950293922 0 0.35966789166756341 0.033231536507069621 0 0.3415183427735442 0.022337645542770922 0 0.34143005800499959 0.051502521950293922 0 0.35516456929731771 0.067860040889616099 0 0.36403921024424452 0.053130355618322342 0 0.34143005800499959 0.051502521950293922 0 0.36834606164637951 0.00050167634747937562 0 0.35912540366642259 0.015892867783476351 0 0.37691750854413097 0.022390773354375441 0 0.35966789166756341 0.033231536507069621 0 0.35912540366642259 0.015892867783476351 0 0.37691750854413097 0.022390773354375441 0 0.35966789166756341 0.033231536507069621 0 0.35912540366642259 0.015892867783476351 0 0.3415183427735442 0.022337645542770922 0 0.35912540366642259 0.015892867783476351 0 0.3494075504282127 0.0024833327970428211 0 0.3415183427735442 0.022337645542770922 0 0.36834606164637951 0.00050167634747937562 0 0.35912540366642259 0.015892867783476351 0 0.3494075504282127 0.0024833327970428211 0 0.33251701105673748 0.0036449420070156918 0 0.3415183427735442 0.022337645542770922 0 0.32356242092976489 0.018266805037111158 0 0.3494075504282127 0.0024833327970428211 0 0.33251701105673748 0.0036449420070156918 0 0.3415183427735442 0.022337645542770922 0 0.32356242092976489 0.018266805037111158 0 0.3191110225359548 0.038322113645309672 0 0.31074974917314119 0.023543598514859539 0 0.3415183427735442 0.022337645542770922 0 0.32356242092976489 0.018266805037111158 0 0.3191110225359548 0.038322113645309672 0 0.33251701105673748 0.0036449420070156918 0 0.32356242092976489 0.018266805037111158 0 0.31391597910944669 0.0034857254755999811 0 0.32356242092976489 0.018266805037111158 0 0.31391597910944669 0.0034857254755999811 0 0.31074974917314119 0.023543598514859539 0 0.3415183427735442 0.022337645542770922 0 0.34143005800499959 0.051502521950293922 0 0.3191110225359548 0.038322113645309672 0 0.34143005800499959 0.051502521950293922 0 0.3191110225359548 0.038322113645309672 0 0.31149976547578379 0.063607988375033689 0 0.28651226434744992 0.046965945462126318 0 0.31149976547578379 0.063607988375033689 0 0.3191110225359548 0.038322113645309672 0 0.30378699922229763 0.045980275446864879 0 0.31149976547578379 0.063607988375033689 0 0.28651226434744992 0.046965945462126318 0 0.29387651671267978 0.063437326059397822 0 0.31149976547578379 0.063607988375033689 0 0.30378699922229763 0.045980275446864879 0 0.28651226434744992 0.046965945462126318 0 0.31149976547578379 0.063607988375033689 0 0.3191110225359548 0.038322113645309672 0 0.2975049395146413 0.033237596414850697 0 0.31074974917314119 0.023543598514859539 0 0.3191110225359548 0.038322113645309672 0 0.30378699922229763 0.045980275446864879 0 0.2975049395146413 0.033237596414850697 0 0.30378699922229763 0.045980275446864879 0 0.2975049395146413 0.033237596414850697 0 0.28651226434744992 0.046965945462126318 0 0.2975049395146413 0.033237596414850697 0 0.28651226434744992 0.046965945462126318 0 0.28353251736121399 0.027702217821510649 0 0.28651226434744992 0.046965945462126318 0 0.28550051074695199 0.057338910934976797 0 0.29387651671267978 0.063437326059397822 0 0.31391597910944669 0.0034857254755999811 0 0.29583153912667642 0.015574469146422021 0 0.294422125020179 -0.0044292303560042323 0 0.31391597910944669 0.0034857254755999811 0 0.31074974917314119 0.023543598514859539 0 0.29583153912667642 0.015574469146422021 0 0.2975049395146413 0.033237596414850697 0 0.31074974917314119 0.023543598514859539 0 0.29583153912667642 0.015574469146422021 0 0.2975049395146413 0.033237596414850697 0 0.28353251736121399 0.027702217821510649 0 0.29583153912667642 0.015574469146422021 0 0.28353251736121399 0.027702217821510649 0 0.29583153912667642 0.015574469146422021 0 0.27797344411964681 0.012947336096608879 0 0.27797344411964681 0.012947336096608879 0 0.294422125020179 -0.0044292303560042323 0 0.29583153912667642 0.015574469146422021 0 0.27797344411964681 0.012947336096608879 0 0.294422125020179 -0.0044292303560042323 0 0.27797344411964681 0.012947336096608879 0 0.26127290919169621 0.01561904262279605 0 0.25902880159974068 0.0057360920321148541 0 0.27797344411964681 0.012947336096608879 0 0.26929138719229517 -0.004775747044043775 0 0.294422125020179 -0.0044292303560042323 0 0.27797344411964681 0.012947336096608879 0 0.25902880159974068 0.0057360920321148541 0 0.26929138719229517 -0.004775747044043775 0 0.27797344411964681 0.012947336096608879 0 0.26152476321911411 0.030323902549221619 0 0.28353251736121399 0.027702217821510649 0 0.27797344411964681 0.012947336096608879 0 0.26152476321911411 0.030323902549221619 0 0.27797344411964681 0.012947336096608879 0 0.26152476321911411 0.030323902549221619 0 0.26127290919169621 0.01561904262279605 0 0.24487377703114591 0.01923410108170533 0 0.26152476321911411 0.030323902549221619 0 0.25538399949548529 0.036811072527087263 0 0.24487377703114591 0.01923410108170533 0 0.26152476321911411 0.030323902549221619 0 0.24487377703114591 0.01923410108170533 0 0.26152476321911411 0.030323902549221619 0 0.25396901421177859 0.018141355361768269 0 0.26152476321911411 0.030323902549221619 0 0.25396901421177859 0.018141355361768269 0 0.26127290919169621 0.01561904262279605 0 0.26127290919169621 0.01561904262279605 0 0.25376535798198269 0.01138167470107198 0 0.25902880159974068 0.0057360920321148541 0 0.25396901421177859 0.018141355361768269 0 0.26127290919169621 0.01561904262279605 0 0.25376535798198269 0.01138167470107198 0 0.2479130724691154 0.01623676446269981 0 0.25396901421177859 0.018141355361768269 0 0.25376535798198269 0.01138167470107198 0 0.24870792610036541 0.010971647391229239 0 0.2479130724691154 0.01623676446269981 0 0.25376535798198269 0.01138167470107198 0 0.2489958954423413 0.0052657469981983581 0 0.24870792610036541 0.010971647391229239 0 0.25376535798198269 0.01138167470107198 0 0.2489958954423413 0.0052657469981983581 0 0.25902880159974068 0.0057360920321148541 0 0.25497944802722861 -0.0029044658845498788 0 0.2489958954423413 0.0052657469981983581 0 0.25376535798198269 0.01138167470107198 0 0.25902880159974068 0.0057360920321148541 0 0.28651226434744992 0.046965945462126318 0 0.28550051074695199 0.057338910934976797 0 0.2683876836943267 0.051894790819234343 0 0.28550051074695199 0.057338910934976797 0 0.2572380023210904 0.0610241088441935 0 0.28550051074695199 0.057338910934976797 0 0.2683876836943267 0.051894790819234343 0 0.2572380023210904 0.0610241088441935 0 0.28550051074695199 0.057338910934976797 0 0.2572380023210904 0.0610241088441935 0 0.27463476203785092 0.065380473524150634 0 0.28651226434744992 0.046965945462126318 0 0.2683876836943267 0.051894790819234343 0 0.26795217768909457 0.041498927839416853 0 0.28651226434744992 0.046965945462126318 0 0.28353251736121399 0.027702217821510649 0 0.26152476321911411 0.030323902549221619 0 0.28651226434744992 0.046965945462126318 0 0.26152476321911411 0.030323902549221619 0 0.28651226434744992 0.046965945462126318 0 0.26152476321911411 0.030323902549221619 0 0.26795217768909457 0.041498927839416853 0 0.2683876836943267 0.051894790819234343 0 0.25538399949548529 0.036811072527087263 0 0.25603192102144801 0.049771545607231481 0 0.2683876836943267 0.051894790819234343 0 0.26795217768909457 0.041498927839416853 0 0.25538399949548529 0.036811072527087263 0 0.2683876836943267 0.051894790819234343 0 0.25538399949548529 0.036811072527087263 0 0.26152476321911411 0.030323902549221619 0 0.26795217768909457 0.041498927839416853 0 0.25538399949548529 0.036811072527087263 0 0.26152476321911411 0.030323902549221619 0 0.25538399949548529 0.036811072527087263 0 0.24217974669535719 0.050760189640248837 0 0.25538399949548529 0.036811072527087263 0 0.25603192102144801 0.049771545607231481 0 0.24217974669535719 0.050760189640248837 0 0.25603192102144801 0.049771545607231481 0 0.2572380023210904 0.0610241088441935 0 0.2683876836943267 0.051894790819234343 0 0.25603192102144801 0.049771545607231481 0 0.2572380023210904 0.0610241088441935 0 0.24599718405273061 0.069221923194386026 0 0.2572380023210904 0.0610241088441935 0 0.25853332036356608 0.073526890181696516 0 0.24599718405273061 0.069221923194386026 0 0.25853332036356608 0.073526890181696516 0 0.25332202115628072 0.084834334844711534 0 0.25853332036356608 0.073526890181696516 0 0.26703981494064177 0.081542371003418129 0 0.27049787576869722 0.071371836762479976 0 0.2572380023210904 0.0610241088441935 0 0.25853332036356608 0.073526890181696516 0 0.27049787576869722 0.071371836762479976 0 0.2413447267616817 0.086240021604593986 0 0.25332202115628072 0.084834334844711534 0 0.26064685825983119 0.10044674649503681 0 0.2413447267616817 0.086240021604593986 0 0.26064685825983119 0.10044674649503681 0 0.25332202115628072 0.084834334844711534 0 0.26064685825983119 0.10044674649503681 0 0.25853332036356608 0.073526890181696516 0 0.25332202115628072 0.084834334844711534 0 0.26703981494064177 0.081542371003418129 0 0.25332202115628072 0.084834334844711534 0 0.26546226683537849 0.090758046002034867 0 0.26703981494064177 0.081542371003418129 0 0.25332202115628072 0.084834334844711534 0 0.26546226683537849 0.090758046002034867 0 0.26064685825983119 0.10044674649503681 0 0.26546226683537849 0.090758046002034867 0 0.26703981494064177 0.081542371003418129 0 0.27507176209180501 0.08886566569094427 0 0.26546226683537849 0.090758046002034867 0 0.27507176209180501 0.08886566569094427 0 0.27123087772833371 0.098101111976063957 0 0.26703981494064177 0.081542371003418129 0 0.27558236007550613 0.078653702466213657 0 0.27507176209180501 0.08886566569094427 0 0.27558236007550613 0.078653702466213657 0 0.27507176209180501 0.08886566569094427 0 0.28163873569446601 0.082655407247375523 0 0.27507176209180501 0.08886566569094427 0 0.28163873569446601 0.082655407247375523 0 0.28548063679449792 0.089421053604766307 0 0.27507176209180501 0.08886566569094427 0 0.28548063679449792 0.089421053604766307 0 0.2819215995237343 0.099068489462573142 0 0.2572380023210904 0.0610241088441935 0 0.27049787576869722 0.071371836762479976 0 0.27463476203785092 0.065380473524150634 0 0.26703981494064177 0.081542371003418129 0 0.27558236007550613 0.078653702466213657 0 0.27049787576869722 0.071371836762479976 0 0.27558236007550613 0.078653702466213657 0 0.28530265931466398 0.071787037554952207 0 0.28163873569446601 0.082655407247375523 0 0.27558236007550613 0.078653702466213657 0 0.27049787576869722 0.071371836762479976 0 0.28530265931466398 0.071787037554952207 0 0.27049787576869722 0.071371836762479976 0 0.27463476203785092 0.065380473524150634 0 0.28530265931466398 0.071787037554952207 0 0.28550051074695199 0.057338910934976797 0 0.27463476203785092 0.065380473524150634 0 0.28530265931466398 0.071787037554952207 0 0.28550051074695199 0.057338910934976797 0 0.29387651671267978 0.063437326059397822 0 0.28530265931466398 0.071787037554952207 0 0.28530265931466398 0.071787037554952207 0 0.29006745145123969 0.082130704231424156 0 0.30056738367854913 0.077486747969900155 0 0.29387651671267978 0.063437326059397822 0 0.28530265931466398 0.071787037554952207 0 0.30056738367854913 0.077486747969900155 0 0.28530265931466398 0.071787037554952207 0 0.28163873569446601 0.082655407247375523 0 0.29006745145123969 0.082130704231424156 0 0.29558987854600949 0.0934008597815148 0 0.29006745145123969 0.082130704231424156 0 0.30056738367854913 0.077486747969900155 0 0.28163873569446601 0.082655407247375523 0 0.28548063679449792 0.089421053604766307 0 0.29006745145123969 0.082130704231424156 0 0.28548063679449792 0.089421053604766307 0 0.29558987854600949 0.0934008597815148 0 0.29006745145123969 0.082130704231424156 0 0.29558987854600949 0.0934008597815148 0 0.31222997260400082 0.089116040762111381 0 0.30056738367854913 0.077486747969900155 0 0.31222997260400082 0.089116040762111381 0 0.31149976547578379 0.063607988375033689 0 0.30056738367854913 0.077486747969900155 0 0.29387651671267978 0.063437326059397822 0 0.31149976547578379 0.063607988375033689 0 0.30056738367854913 0.077486747969900155 0 0.29899119680915498 0.1153528728784609 0 0.31768019020457822 0.13005280406624309 0 0.31453745728059351 0.1075276584627137 0 0.29899119680915498 0.1153528728784609 0 0.31768019020457822 0.13005280406624309 0 0.31453745728059351 0.1075276584627137 0 0.29899119680915498 0.1153528728784609 0 0.30231058597100208 0.10274790162885759 0 0.31453745728059351 0.1075276584627137 0 0.31222997260400082 0.089116040762111381 0 0.30231058597100208 0.10274790162885759 0 0.29558987854600949 0.0934008597815148 0 0.31222997260400082 0.089116040762111381 0 0.30231058597100208 0.10274790162885759 0 0.29899119680915498 0.1153528728784609 0 0.30231058597100208 0.10274790162885759 0 0.29020442461525148 0.1083420762594872 0 0.29558987854600949 0.0934008597815148 0 0.29020442461525148 0.1083420762594872 0 0.2819215995237343 0.099068489462573142 0 0.29558987854600949 0.0934008597815148 0 0.30231058597100208 0.10274790162885759 0 0.29020442461525148 0.1083420762594872 0 0.28548063679449792 0.089421053604766307 0 0.29558987854600949 0.0934008597815148 0 0.2819215995237343 0.099068489462573142 0 0.29020442461525148 0.1083420762594872 0 0.2819215995237343 0.099068489462573142 0 0.27557935032098241 0.11143733614373991 0 0.29899119680915498 0.1153528728784609 0 0.28684818612749358 0.1197314071977074 0 0.29866142778696331 0.1352439962509939 0 0.29020442461525148 0.1083420762594872 0 0.27557935032098241 0.11143733614373991 0 0.29020442461525148 0.1083420762594872 0 0.28684818612749358 0.1197314071977074 0 0.27557935032098241 0.11143733614373991 0 0.29899119680915498 0.1153528728784609 0 0.29020442461525148 0.1083420762594872 0 0.28684818612749358 0.1197314071977074 0 0.28684818612749358 0.1197314071977074 0 0.26668631918951652 0.1133194628226754 0 0.27936484136605089 0.14034290437362179 0 0.28684818612749358 0.1197314071977074 0 0.27557935032098241 0.11143733614373991 0 0.26668631918951652 0.1133194628226754 0 0.28684818612749358 0.1197314071977074 0 0.27557935032098241 0.11143733614373991 0 0.27557935032098241 0.11143733614373991 0 0.26668631918951652 0.1133194628226754 0 0.27507176209180501 0.08886566569094427 0 0.2819215995237343 0.099068489462573142 0 0.27123087772833371 0.098101111976063957 0 0.2819215995237343 0.099068489462573142 0 0.27557935032098241 0.11143733614373991 0 0.27123087772833371 0.098101111976063957 0 0.27557935032098241 0.11143733614373991 0 0.27123087772833371 0.098101111976063957 0 0.26064685825983119 0.10044674649503681 0 0.27557935032098241 0.11143733614373991 0 0.26668631918951652 0.1133194628226754 0 0.26064685825983119 0.10044674649503681 0 0.27557935032098241 0.11143733614373991 0 0.26064685825983119 0.10044674649503681 0 0.26546226683537849 0.090758046002034867 0 0.27123087772833371 0.098101111976063957 0 0.26064685825983119 0.10044674649503681 0 0.24595688857296499 0.10331232191528909 0 0.26668631918951652 0.1133194628226754 0 0.26064685825983119 0.10044674649503681 0 0.26668631918951652 0.1133194628226754 0 0.26064685825983119 0.10044674649503681 0 0.24107996441511989 0.11873880778601351 0 0.26668631918951652 0.1133194628226754 0 0.24107996441511989 0.11873880778601351 0 0.24595688857296499 0.10331232191528909 0 0.26668631918951652 0.1133194628226754 0 0.24107996441511989 0.11873880778601351 0 0.26668631918951652 0.1133194628226754 0 0.25769185503794811 0.13402527007805121 0 0.26668631918951652 0.1133194628226754 0 0.27936484136605089 0.14034290437362179 0 0.26668631918951652 0.1133194628226754 0 0.25769185503794811 0.13402527007805121 0 0.27936484136605089 0.14034290437362179 0 0.27936484136605089 0.14034290437362179 0 0.26786618448060129 0.15636780948499909 0 0.2920433635425933 0.16736634592456451 0 0.25769185503794811 0.13402527007805121 0 0.27936484136605089 0.14034290437362179 0 0.26786618448060129 0.15636780948499909 0 0.25769185503794811 0.13402527007805121 0 0.2501475770428227 0.15355955282086889 0 0.26786618448060129 0.15636780948499909 0 0.2501475770428227 0.15355955282086889 0 0.25617531802924359 0.16904272042763169 0 0.26786618448060129 0.15636780948499909 0 0.25617531802924359 0.16904272042763169 0 0.27212858226561709 0.17798620846718211 0 0.26786618448060129 0.15636780948499909 0 0.25617531802924359 0.16904272042763169 0 0.27212858226561709 0.17798620846718211 0 0.25183515894752267 0.18980965306798631 0 0.27212858226561709 0.17798620846718211 0 0.26786618448060129 0.15636780948499909 0 0.2920433635425933 0.16736634592456451 0 0.27212858226561709 0.17798620846718211 0 0.2920433635425933 0.16736634592456451 0 0.28476122711244001 0.18937750123520339 0 0.2920433635425933 0.16736634592456451 0 0.28476122711244001 0.18937750123520339 0 0.30472188571913572 0.19438978747550709 0 0.2920433635425933 0.16736634592456451 0 0.30472188571913572 0.19438978747550709 0 0.2920433635425933 0.16736634592456451 0 0.30472188571913572 0.19438978747550709 0 0.3136047929204166 0.17041091501788999 0 0.2920433635425933 0.16736634592456451 0 0.3105369498242958 0.15084006930325761 0 0.3136047929204166 0.17041091501788999 0 0.27936484136605089 0.14034290437362179 0 0.2920433635425933 0.16736634592456451 0 0.29866142778696331 0.1352439962509939 0 0.2920433635425933 0.16736634592456451 0 0.3105369498242958 0.15084006930325761 0 0.29866142778696331 0.1352439962509939 0 0.3105369498242958 0.15084006930325761 0 0.29866142778696331 0.1352439962509939 0 0.31768019020457822 0.13005280406624309 0 0.29899119680915498 0.1153528728784609 0 0.29866142778696331 0.1352439962509939 0 0.31768019020457822 0.13005280406624309 0 0.28684818612749358 0.1197314071977074 0 0.27936484136605089 0.14034290437362179 0 0.29866142778696331 0.1352439962509939 0 0.27936484136605089 0.14034290437362179 0 0.2920433635425933 0.16736634592456451 0 0.26780091050505322 0.25288366518426519 0 0.27017071162774198 0.25283848944357312 0 0.27010074666963507 0.2350688044237931 0 0.27017071162774198 0.25283848944357312 0 0.27010074666963507 0.2350688044237931 0 0.27017071162774198 0.25283848944357312 0 0.28081455584511711 0.24485040157975929 0 0.27010074666963507 0.2350688044237931 0 0.26780091050505322 0.25288366518426519 0 0.2541943898001906 0.2452783354020138 0 0.25504068247116718 0.2326945081117926 0 0.26780091050505322 0.25288366518426519 0 0.25504068247116718 0.2326945081117926 0 0.26780091050505322 0.25288366518426519 0 0.27010074666963507 0.2350688044237931 0 0.25504068247116718 0.2326945081117926 0 0.2479419989342759 0.23795440543455501 0 0.2541943898001906 0.2452783354020138 0 0.25504068247116718 0.2326945081117926 0 0.27010074666963507 0.2350688044237931 0 0.25504068247116718 0.2326945081117926 0 0.27002872940203743 0.21677787427968209 0 0.27010074666963507 0.2350688044237931 0 0.25504068247116718 0.2326945081117926 0 0.25504068247116718 0.2326945081117926 0 0.27002872940203743 0.21677787427968209 0 0.25737700659391749 0.208515717167674 0 0.24595262936391729 0.23126172995815339 0 0.25504068247116718 0.2326945081117926 0 0.27010074666963507 0.2350688044237931 0 0.27002872940203743 0.21677787427968209 0 0.2827223757710296 0.22350258325814809 0 0.27010074666963507 0.2350688044237931 0 0.27002872940203743 0.21677787427968209 0 0.27002872940203743 0.21677787427968209 0 0.26995671213443789 0.19848694413557119 0 0.28133756845909969 0.20758774089794579 0 0.27002872940203743 0.21677787427968209 0 0.25737700659391749 0.208515717167674 0 0.26995671213443789 0.19848694413557119 0 0.27002872940203743 0.21677787427968209 0 0.26995671213443789 0.19848694413557119 0 0.27002872940203743 0.21677787427968209 0 0.28133756845909969 0.20758774089794579 0 0.2827223757710296 0.22350258325814809 0 0.2420059969501959 0.2120711060319799 0 0.25504068247116718 0.2326945081117926 0 0.25737700659391749 0.208515717167674 0 0.2420059969501959 0.2120711060319799 0 0.25737700659391749 0.208515717167674 0 0.25183515894752267 0.18980965306798631 0 0.27212858226561709 0.17798620846718211 0 0.25183515894752267 0.18980965306798631 0 0.26995671213443789 0.19848694413557119 0 0.25737700659391749 0.208515717167674 0 0.25183515894752267 0.18980965306798631 0 0.26995671213443789 0.19848694413557119 0 0.26995671213443789 0.19848694413557119 0 0.28476122711244001 0.18937750123520339 0 0.28133756845909969 0.20758774089794579 0 0.27212858226561709 0.17798620846718211 0 0.26995671213443789 0.19848694413557119 0 0.28476122711244001 0.18937750123520339 0 0.28476122711244001 0.18937750123520339 0 0.30472188571913572 0.19438978747550709 0 0.28133756845909969 0.20758774089794579 0 0.30472188571913572 0.19438978747550709 0 0.31740040789567808 0.22141322902644969 0 0.30472188571913572 0.19438978747550709 0 0.29713831111698102 0.219083168938534 0 0.31740040789567808 0.22141322902644969 0 0.28133756845909969 0.20758774089794579 0 0.2827223757710296 0.22350258325814809 0 0.29713831111698102 0.219083168938534 0 0.30472188571913572 0.19438978747550709 0 0.28133756845909969 0.20758774089794579 0 0.29713831111698102 0.219083168938534 0 0.27010074666963507 0.2350688044237931 0 0.2827223757710296 0.22350258325814809 0 0.2950065232073929 0.23899532775078511 0 0.2827223757710296 0.22350258325814809 0 0.29713831111698102 0.219083168938534 0 0.2950065232073929 0.23899532775078511 0 0.29713831111698102 0.219083168938534 0 0.30736438549130057 0.23060339419838641 0 0.2950065232073929 0.23899532775078511 0 0.29713831111698102 0.219083168938534 0 0.30736438549130057 0.23060339419838641 0 0.31740040789567808 0.22141322902644969 0 0.2950065232073929 0.23899532775078511 0 0.31991229974515062 0.24292185107777689 0 0.30736438549130057 0.23060339419838641 0 0.2950065232073929 0.23899532775078511 0 0.31991229974515062 0.24292185107777689 0 0.30578977212365188 0.25215947995819882 0 0.2950065232073929 0.23899532775078511 0 0.31991229974515062 0.24292185107777689 0 0.28081455584511711 0.24485040157975929 0 0.27010074666963507 0.2350688044237931 0 0.2950065232073929 0.23899532775078511 0 0.28798024187569699 0.25249898470088589 0 0.30578977212365188 0.25215947995819882 0 0.2950065232073929 0.23899532775078511 0 0.27010074666963507 0.2350688044237931 0 0.2950065232073929 0.23899532775078511 0 0.28798024187569699 0.25249898470088589 0 0.28081455584511711 0.24485040157975929 0 0.2950065232073929 0.23899532775078511 0 0.31991229974515062 0.24292185107777689 0 0.33859337130950973 0.22815390091282661 0 0.34481807628290828 0.24684837440476859 0 0.31991229974515062 0.24292185107777689 0 0.34481807628290828 0.24684837440476859 0 0.31991229974515062 0.24292185107777689 0 0.31740040789567808 0.22141322902644969 0 0.33859337130950973 0.22815390091282661 0 0.30736438549130057 0.23060339419838641 0 0.31991229974515062 0.24292185107777689 0 0.31740040789567808 0.22141322902644969 0 0.32828159703623849 0.2055566225070013 0 0.34355771250595862 0.21144505024620669 0 0.34378699414456232 0.19265427574303559 0 0.33859337130950973 0.22815390091282661 0 0.32828159703623849 0.2055566225070013 0 0.34355771250595862 0.21144505024620669 0 0.31740040789567808 0.22141322902644969 0 0.33859337130950973 0.22815390091282661 0 0.32828159703623849 0.2055566225070013 0 0.30472188571913572 0.19438978747550709 0 0.31740040789567808 0.22141322902644969 0 0.32828159703623849 0.2055566225070013 0 0.30472188571913572 0.19438978747550709 0 0.32828159703623849 0.2055566225070013 0 0.32619051413126482 0.18499784768045119 0 0.32828159703623849 0.2055566225070013 0 0.34378699414456232 0.19265427574303559 0 0.32619051413126482 0.18499784768045119 0 0.34355771250595862 0.21144505024620669 0 0.34378699414456232 0.19265427574303559 0 0.3612010093782817 0.19734178567569849 0 0.34378699414456232 0.19265427574303559 0 0.3612010093782817 0.19734178567569849 0 0.36107703360232452 0.1803643962337374 0 0.3612010093782817 0.19734178567569849 0 0.36107703360232452 0.1803643962337374 0 0.37958053242989093 0.18812823218716401 0 0.3612010093782817 0.19734178567569849 0 0.37714233938594949 0.2043157467240852 0 0.37958053242989093 0.18812823218716401 0 0.3649203653911508 0.2136415413009061 0 0.38082909336844178 0.21988697347755601 0 0.37714233938594949 0.2043157467240852 0 0.3612010093782817 0.19734178567569849 0 0.3649203653911508 0.2136415413009061 0 0.37714233938594949 0.2043157467240852 0 0.34355771250595862 0.21144505024620669 0 0.3649203653911508 0.2136415413009061 0 0.35968147542789142 0.22713927324558669 0 0.34355771250595862 0.21144505024620669 0 0.3612010093782817 0.19734178567569849 0 0.3649203653911508 0.2136415413009061 0 0.34355771250595862 0.21144505024620669 0 0.35968147542789142 0.22713927324558669 0 0.33859337130950973 0.22815390091282661 0 0.34355771250595862 0.21144505024620669 0 0.35968147542789142 0.22713927324558669 0 0.33859337130950973 0.22815390091282661 0 0.35968147542789142 0.22713927324558669 0 0.35791816585383568 0.23985967395323229 0 0.3649203653911508 0.2136415413009061 0 0.37361490763721911 0.22880627038792609 0 0.38082909336844178 0.21988697347755601 0 0.37361490763721911 0.22880627038792609 0 0.35968147542789142 0.22713927324558669 0 0.37580523834982432 0.24283349624496681 0 0.3649203653911508 0.2136415413009061 0 0.37361490763721911 0.22880627038792609 0 0.35968147542789142 0.22713927324558669 0 0.35968147542789142 0.22713927324558669 0 0.35791816585383568 0.23985967395323229 0 0.37580523834982432 0.24283349624496681 0 0.35968147542789142 0.22713927324558669 0 0.37580523834982432 0.24283349624496681 0 0.36972385282066611 0.25077489773176043 0 0.35791816585383568 0.23985967395323229 0 0.37580523834982432 0.24283349624496681 0 0.36972385282066611 0.25077489773176043 0 0.35791816585383568 0.23985967395323229 0 0.34481807628290828 0.24684837440476859 0 0.33859337130950973 0.22815390091282661 0 0.35791816585383568 0.23985967395323229 0 0.34481807628290828 0.24684837440476859 0 0.36972385282066611 0.25077489773176043 0 0.34481807628290828 0.24684837440476859 0 0.33062980957258559 0.15186546897196129 0 0.33636918360000151 0.14475273525402529 0 0.33994863280592441 0.16043338477861679 0 0.33062980957258559 0.15186546897196129 0 0.33636918360000151 0.14475273525402529 0 0.32255007232447402 0.14636484814106079 0 0.33062980957258559 0.15186546897196129 0 0.33636918360000151 0.14475273525402529 0 0.33636918360000151 0.14475273525402529 0 0.33470000956808521 0.12764462502827259 0 0.31768019020457822 0.13005280406624309 0 0.33636918360000151 0.14475273525402529 0 0.33470000956808521 0.12764462502827259 0 0.35177452730836012 0.1256610874353917 0 0.33636918360000151 0.14475273525402529 0 0.31768019020457822 0.13005280406624309 0 0.32255007232447402 0.14636484814106079 0 0.33636918360000151 0.14475273525402529 0 0.31768019020457822 0.13005280406624309 0 0.3105369498242958 0.15084006930325761 0 0.31768019020457822 0.13005280406624309 0 0.32255007232447402 0.14636484814106079 0 0.33062980957258559 0.15186546897196129 0 0.32255007232447402 0.14636484814106079 0 0.32087330032360878 0.15696698509263821 0 0.3105369498242958 0.15084006930325761 0 0.32255007232447402 0.14636484814106079 0 0.32087330032360878 0.15696698509263821 0 0.3105369498242958 0.15084006930325761 0 0.3136047929204166 0.17041091501788999 0 0.32087330032360878 0.15696698509263821 0 0.3136047929204166 0.17041091501788999 0 0.32087330032360878 0.15696698509263821 0 0.32871441292762221 0.1666805350204322 0 0.33062980957258559 0.15186546897196129 0 0.32087330032360878 0.15696698509263821 0 0.32871441292762221 0.1666805350204322 0 0.3136047929204166 0.17041091501788999 0 0.32619051413126482 0.18499784768045119 0 0.32871441292762221 0.1666805350204322 0 0.30472188571913572 0.19438978747550709 0 0.3136047929204166 0.17041091501788999 0 0.32619051413126482 0.18499784768045119 0 0.34378699414456232 0.19265427574303559 0 0.32619051413126482 0.18499784768045119 0 0.34156134001744221 0.17544717626347031 0 0.32619051413126482 0.18499784768045119 0 0.34156134001744221 0.17544717626347031 0 0.32871441292762221 0.1666805350204322 0 0.33062980957258559 0.15186546897196129 0 0.32871441292762221 0.1666805350204322 0 0.33994863280592441 0.16043338477861679 0 0.34156134001744221 0.17544717626347031 0 0.32871441292762221 0.1666805350204322 0 0.33994863280592441 0.16043338477861679 0 0.33994863280592441 0.16043338477861679 0 0.35027724507264352 0.1691529751661103 0 0.36015020865869962 0.16345783212796389 0 0.35027724507264352 0.1691529751661103 0 0.36107703360232452 0.1803643962337374 0 0.36015020865869962 0.16345783212796389 0 0.34156134001744221 0.17544717626347031 0 0.33994863280592441 0.16043338477861679 0 0.35027724507264352 0.1691529751661103 0 0.34378699414456232 0.19265427574303559 0 0.34156134001744221 0.17544717626347031 0 0.36107703360232452 0.1803643962337374 0 0.34156134001744221 0.17544717626347031 0 0.35027724507264352 0.1691529751661103 0 0.36107703360232452 0.1803643962337374 0 0.36107703360232452 0.1803643962337374 0 0.38660538369130432 0.1682937412034004 0 0.36107703360232452 0.1803643962337374 0 0.36015020865869962 0.16345783212796389 0 0.38660538369130432 0.1682937412034004 0 0.36015020865869962 0.16345783212796389 0 0.37754402818647798 0.1536661345435722 0 0.38660538369130432 0.1682937412034004 0 0.36015020865869962 0.16345783212796389 0 0.36523441338476959 0.15061660552837411 0 0.37754402818647798 0.1536661345435722 0 0.36015020865869962 0.16345783212796389 0 0.36523441338476959 0.15061660552837411 0 0.35397228345756421 0.14319571868605929 0 0.37152080105268298 0.1411117428219838 0 0.36523441338476959 0.15061660552837411 0 0.35397228345756421 0.14319571868605929 0 0.37152080105268298 0.1411117428219838 0 0.36523441338476959 0.15061660552837411 0 0.37754402818647798 0.1536661345435722 0 0.33636918360000151 0.14475273525402529 0 0.36015020865869962 0.16345783212796389 0 0.35397228345756421 0.14319571868605929 0 0.33636918360000151 0.14475273525402529 0 0.33994863280592441 0.16043338477861679 0 0.36015020865869962 0.16345783212796389 0 0.33636918360000151 0.14475273525402529 0 0.36015020865869962 0.16345783212796389 0 0.33636918360000151 0.14475273525402529 0 0.35397228345756421 0.14319571868605929 0 0.35177452730836012 0.1256610874353917 0 0.35397228345756421 0.14319571868605929 0 0.35177452730836012 0.1256610874353917 0 0.36244403018254873 0.13335306317194959 0 0.33636918360000151 0.14475273525402529 0 0.35177452730836012 0.1256610874353917 0 0.37250850891158749 0.1234437037443635 0 0.35177452730836012 0.1256610874353917 0 0.36244403018254873 0.13335306317194959 0 0.37152080105268298 0.1411117428219838 0 0.35397228345756421 0.14319571868605929 0 0.36244403018254873 0.13335306317194959 0 0.37250850891158749 0.1234437037443635 0 0.37152080105268298 0.1411117428219838 0 0.36244403018254873 0.13335306317194959 0 0.38115758945145228 0.1327888466845378 0 0.39281213026601453 0.13060347870222969 0 0.39043176365065252 0.1483937260607415 0 0.37250850891158749 0.1234437037443635 0 0.38115758945145228 0.1327888466845378 0 0.3853917217604626 0.1230291112374523 0 0.37250850891158749 0.1234437037443635 0 0.37152080105268298 0.1411117428219838 0 0.38115758945145228 0.1327888466845378 0 0.38115758945145228 0.1327888466845378 0 0.39281213026601453 0.13060347870222969 0 0.3853917217604626 0.1230291112374523 0 0.39281213026601453 0.13060347870222969 0 0.40148310918401831 0.13934106250271491 0 0.39043176365065252 0.1483937260607415 0 0.39281213026601453 0.13060347870222969 0 0.40148310918401831 0.13934106250271491 0 0.40578163464479139 0.123768173770802 0 0.40148310918401831 0.13934106250271491 0 0.39043176365065252 0.1483937260607415 0 0.41213373378028401 0.15622308617306341 0 0.37152080105268298 0.1411117428219838 0 0.38115758945145228 0.1327888466845378 0 0.39043176365065252 0.1483937260607415 0 0.37152080105268298 0.1411117428219838 0 0.39043176365065252 0.1483937260607415 0 0.37754402818647798 0.1536661345435722 0 0.39043176365065252 0.1483937260607415 0 0.37754402818647798 0.1536661345435722 0 0.38660538369130432 0.1682937412034004 0 0.38660538369130432 0.1682937412034004 0 0.39576762671298898 0.18264564654666551 0 0.37958053242989093 0.18812823218716401 0 0.36107703360232452 0.1803643962337374 0 0.38660538369130432 0.1682937412034004 0 0.37958053242989093 0.18812823218716401 0 0.38660538369130432 0.1682937412034004 0 0.39576762671298898 0.18264564654666551 0 0.40608027450717049 0.1733645324665001 0 0.39576762671298898 0.18264564654666551 0 0.40608027450717049 0.1733645324665001 0 0.41130700805632592 0.18598670636882389 0 0.38660538369130432 0.1682937412034004 0 0.41213373378028401 0.15622308617306341 0 0.38660538369130432 0.1682937412034004 0 0.40608027450717049 0.1733645324665001 0 0.41213373378028401 0.15622308617306341 0 0.39043176365065252 0.1483937260607415 0 0.38660538369130432 0.1682937412034004 0 0.41213373378028401 0.15622308617306341 0 0.40608027450717049 0.1733645324665001 0 0.42416275336670622 0.17532042580858889 0 0.41213373378028401 0.15622308617306341 0 0.40608027450717049 0.1733645324665001 0 0.41130700805632592 0.18598670636882389 0 0.42416275336670622 0.17532042580858889 0 0.41130700805632592 0.18598670636882389 0 0.42416275336670622 0.17532042580858889 0 0.42819916067411762 0.19072018361504059 0 0.42416275336670622 0.17532042580858889 0 0.42819916067411762 0.19072018361504059 0 0.44035244952873742 0.17943545517131629 0 0.43058505175462292 0.15989986123100111 0 0.44035244952873742 0.17943545517131629 0 0.42416275336670622 0.17532042580858889 0 0.43058505175462292 0.15989986123100111 0 0.41213373378028401 0.15622308617306341 0 0.42416275336670622 0.17532042580858889 0 0.43058505175462292 0.15989986123100111 0 0.44035244952873742 0.17943545517131629 0 0.41213373378028401 0.15622308617306341 0 0.43766208386926359 0.14415243114272641 0 0.43058505175462292 0.15989986123100111 0 0.41213373378028401 0.15622308617306341 0 0.43766208386926359 0.14415243114272641 0 0.42896802970023501 0.12988060594235759 0 0.43766208386926359 0.14415243114272641 0 0.442459503099913 0.1232970322855745 0 0.42896802970023501 0.12988060594235759 0 0.41378028062677319 0.13463348917809531 0 0.43766208386926359 0.14415243114272641 0 0.42896802970023501 0.12988060594235759 0 0.41378028062677319 0.13463348917809531 0 0.42197025120499021 0.1174394711630341 0 0.41378028062677319 0.13463348917809531 0 0.42197025120499021 0.1174394711630341 0 0.40578163464479139 0.123768173770802 0 0.40148310918401831 0.13934106250271491 0 0.41378028062677319 0.13463348917809531 0 0.40578163464479139 0.123768173770802 0 0.41378028062677319 0.13463348917809531 0 0.41213373378028401 0.15622308617306341 0 0.43766208386926359 0.14415243114272641 0 0.40148310918401831 0.13934106250271491 0 0.41378028062677319 0.13463348917809531 0 0.41213373378028401 0.15622308617306341 0 0.39192900127175773 0.25852771924434642 0 0.4126252527241539 0.25289072929928769 0 0.39735551409360631 0.23636543841155619 0 0.39192900127175773 0.25852771924434642 0 0.39735551409360631 0.23636543841155619 0 0.38528296290218189 0.23527674549897221 0 0.39192900127175773 0.25852771924434642 0 0.37580523834982432 0.24283349624496681 0 0.38528296290218189 0.23527674549897221 0 0.37361490763721911 0.22880627038792609 0 0.37580523834982432 0.24283349624496681 0 0.38528296290218189 0.23527674549897221 0 0.37361490763721911 0.22880627038792609 0 0.38528296290218189 0.23527674549897221 0 0.38082909336844178 0.21988697347755601 0 0.38528296290218189 0.23527674549897221 0 0.38082909336844178 0.21988697347755601 0 0.39454108078483757 0.2239345610625561 0 0.39735551409360631 0.23636543841155619 0 0.39454108078483757 0.2239345610625561 0 0.41783324819263262 0.22963258264383829 0 0.39454108078483757 0.2239345610625561 0 0.40436205113415657 0.21304893113828599 0 0.41783324819263262 0.22963258264383829 0 0.39735551409360631 0.23636543841155619 0 0.38528296290218189 0.23527674549897221 0 0.39454108078483757 0.2239345610625561 0 0.40436205113415657 0.21304893113828599 0 0.39526493488025349 0.1974550205074391 0 0.41191507971656149 0.1997663141744761 0 0.40436205113415657 0.21304893113828599 0 0.39042789991072779 0.21172824658198439 0 0.39526493488025349 0.1974550205074391 0 0.39454108078483757 0.2239345610625561 0 0.40436205113415657 0.21304893113828599 0 0.39042789991072779 0.21172824658198439 0 0.38082909336844178 0.21988697347755601 0 0.39454108078483757 0.2239345610625561 0 0.39042789991072779 0.21172824658198439 0 0.39042789991072779 0.21172824658198439 0 0.37714233938594949 0.2043157467240852 0 0.39526493488025349 0.1974550205074391 0 0.38082909336844178 0.21988697347755601 0 0.39042789991072779 0.21172824658198439 0 0.37714233938594949 0.2043157467240852 0 0.39576762671298898 0.18264564654666551 0 0.37958053242989093 0.18812823218716401 0 0.39526493488025349 0.1974550205074391 0 0.37714233938594949 0.2043157467240852 0 0.37958053242989093 0.18812823218716401 0 0.39526493488025349 0.1974550205074391 0 0.41130700805632592 0.18598670636882389 0 0.39526493488025349 0.1974550205074391 0 0.41191507971656149 0.1997663141744761 0 0.39576762671298898 0.18264564654666551 0 0.41130700805632592 0.18598670636882389 0 0.39526493488025349 0.1974550205074391 0 0.41130700805632592 0.18598670636882389 0 0.41191507971656149 0.1997663141744761 0 0.42819916067411762 0.19072018361504059 0 0.41191507971656149 0.1997663141744761 0 0.42819916067411762 0.19072018361504059 0 0.42541153570896773 0.20931142603297681 0 0.42819916067411762 0.19072018361504059 0 0.42541153570896773 0.20931142603297681 0 0.45011984730285332 0.19897104911163091 0 0.40436205113415657 0.21304893113828599 0 0.42541153570896773 0.20931142603297681 0 0.41783324819263262 0.22963258264383829 0 0.40436205113415657 0.21304893113828599 0 0.41191507971656149 0.1997663141744761 0 0.42541153570896773 0.20931142603297681 0 0.42541153570896773 0.20931142603297681 0 0.41783324819263262 0.22963258264383829 0 0.44172067573970247 0.22311239423293061 0 0.41783324819263262 0.22963258264383829 0 0.43332150417655041 0.2472537393542297 0 0.44172067573970247 0.22311239423293061 0 0.41783324819263262 0.22963258264383829 0 0.43332150417655041 0.2472537393542297 0 0.41528387979673559 0.24153562242722801 0 0.39735551409360631 0.23636543841155619 0 0.41783324819263262 0.22963258264383829 0 0.41528387979673559 0.24153562242722801 0 0.4126252527241539 0.25289072929928769 0 0.39735551409360631 0.23636543841155619 0 0.41528387979673559 0.24153562242722801 0 0.4126252527241539 0.25289072929928769 0 0.43332150417655041 0.2472537393542297 0 0.41528387979673559 0.24153562242722801 0 0.45133747164856253 0.24234677213247019 0 0.46935343912057442 0.2374398049107094 0 0.46411941248085042 0.2452709617298986 0 0.45133747164856253 0.24234677213247019 0 0.46935343912057442 0.2374398049107094 0 0.46561767402301768 0.25554600411048017 0 0.46411941248085042 0.2452709617298986 0 0.47288171706680249 0.2480351240427624 0 0.45682906034168891 0.25301771121193378 0 0.46411941248085042 0.2452709617298986 0 0.45133747164856253 0.24234677213247019 0 0.43332150417655041 0.2472537393542297 0 0.45133747164856253 0.24234677213247019 0 0.44172067573970247 0.22311239423293061 0 0.44469219579081998 0.25968833186555379 0 0.43332150417655041 0.2472537393542297 0 0.45133747164856253 0.24234677213247019 0 0.43332150417655041 0.2472537393542297 0 0.45133747164856253 0.24234677213247019 0 0.43332150417655041 0.2472537393542297 0 0.44172067573970247 0.22311239423293061 0 0.45133747164856253 0.24234677213247019 0 0.44172067573970247 0.22311239423293061 0 0.4597366432117147 0.21820542701116979 0 0.45133747164856253 0.24234677213247019 0 0.4597366432117147 0.21820542701116979 0 0.46935343912057442 0.2374398049107094 0 0.4597366432117147 0.21820542701116979 0 0.47555998294403867 0.22516636455404859 0 0.46935343912057442 0.2374398049107094 0 0.4597366432117147 0.21820542701116979 0 0.46935343912057442 0.2374398049107094 0 0.4597366432117147 0.21820542701116979 0 0.45011984730285332 0.19897104911163091 0 0.47558869797421338 0.19437594966408839 0 0.4597366432117147 0.21820542701116979 0 0.45011984730285332 0.19897104911163091 0 0.42541153570896773 0.20931142603297681 0 0.44172067573970247 0.22311239423293061 0 0.45011984730285332 0.19897104911163091 0 0.44172067573970247 0.22311239423293061 0 0.45011984730285332 0.19897104911163091 0 0.44172067573970247 0.22311239423293061 0 0.4597366432117147 0.21820542701116979 0 0.45011984730285332 0.19897104911163091 0 0.42819916067411762 0.19072018361504059 0 0.45011984730285332 0.19897104911163091 0 0.44035244952873742 0.17943545517131629 0 0.45011984730285332 0.19897104911163091 0 0.44035244952873742 0.17943545517131629 0 0.45011984730285332 0.19897104911163091 0 0.47558869797421338 0.19437594966408839 0 0.45847206568000681 0.1749646593319733 0 0.47558869797421338 0.19437594966408839 0 0.5 0.20297046110212719 0 0.5 0.1768482499095789 0 0.47558869797421338 0.19437594966408839 0 0.5 0.20297046110212719 0 0.47988517322221552 0.21255964011320619 0 0.5 0.20297046110212719 0 0.47988517322221552 0.21255964011320619 0 0.4885021222394258 0.2208592853428894 0 0.5 0.20297046110212719 0 0.4885021222394258 0.2208592853428894 0 0.50000000000000355 0.2290926722946755 0 0.4597366432117147 0.21820542701116979 0 0.47988517322221552 0.21255964011320619 0 0.47555998294403867 0.22516636455404859 0 0.4597366432117147 0.21820542701116979 0 0.47558869797421338 0.19437594966408839 0 0.47988517322221552 0.21255964011320619 0 0.47555998294403867 0.22516636455404859 0 0.48467671956028913 0.23326623860269319 0 0.46935343912057442 0.2374398049107094 0 0.47988517322221552 0.21255964011320619 0 0.47555998294403867 0.22516636455404859 0 0.4885021222394258 0.2208592853428894 0 0.47555998294403867 0.22516636455404859 0 0.4885021222394258 0.2208592853428894 0 0.48467671956028913 0.23326623860269319 0 0.50000000000000355 0.2290926722946755 0 0.48467671956028913 0.23326623860269319 0 0.4885021222394258 0.2208592853428894 0 0.50000000000000355 0.2290926722946755 0 0.48467671956028913 0.23326623860269319 0 0.5 0.25159334176041409 0 0.48467671956028913 0.23326623860269319 0 0.48153019796068419 0.2439061168111358 0 0.48248727431299482 0.2529452322436429 0 0.5 0.25159334176041409 0 0.48153019796068419 0.2439061168111358 0 0.5 0.25159334176041409 0 0.50000000000000355 0.2290926722946755 0 0.48467671956028913 0.23326623860269319 0 0.48248727431299482 0.2529452322436429 0 0.48153019796068419 0.2439061168111358 0 0.47288171706680249 0.2480351240427624 0 0.48467671956028913 0.23326623860269319 0 0.46935343912057442 0.2374398049107094 0 0.48467671956028913 0.23326623860269319 0 0.48153019796068419 0.2439061168111358 0 0.46935343912057442 0.2374398049107094 0 0.48153019796068419 0.2439061168111358 0 0.46935343912057442 0.2374398049107094 0 0.47288171706680249 0.2480351240427624 0 0.46411941248085042 0.2452709617298986 0 0.46935343912057442 0.2374398049107094 0 0.47288171706680249 0.2480351240427624 0 0.46682428405715831 0.1509582695523152 0 0.45524344812119089 0.1365292350427981 0 0.44879021307146583 0.15842976347111559 0 0.45524344812119089 0.1365292350427981 0 0.47635031463019328 0.12889142076487961 0 0.45937428999915181 0.11344649304017761 0 0.46682428405715831 0.1509582695523152 0 0.45524344812119089 0.1365292350427981 0 0.47635031463019328 0.12889142076487961 0 0.45524344812119089 0.1365292350427981 0 0.43766208386926359 0.14415243114272641 0 0.442459503099913 0.1232970322855745 0 0.45524344812119089 0.1365292350427981 0 0.43766208386926359 0.14415243114272641 0 0.44879021307146583 0.15842976347111559 0 0.43058505175462292 0.15989986123100111 0 0.43766208386926359 0.14415243114272641 0 0.44879021307146583 0.15842976347111559 0 0.44879021307146583 0.15842976347111559 0 0.44035244952873742 0.17943545517131629 0 0.45847206568000681 0.1749646593319733 0 0.43058505175462292 0.15989986123100111 0 0.44879021307146583 0.15842976347111559 0 0.44035244952873742 0.17943545517131629 0 0.45011984730285332 0.19897104911163091 0 0.44035244952873742 0.17943545517131629 0 0.45847206568000681 0.1749646593319733 0 0.45011984730285332 0.19897104911163091 0 0.45847206568000681 0.1749646593319733 0 0.46682428405715831 0.1509582695523152 0 0.45847206568000681 0.1749646593319733 0 0.46682428405715831 0.1509582695523152 0 0.44879021307146583 0.15842976347111559 0 0.45847206568000681 0.1749646593319733 0 0.46682428405715831 0.1509582695523152 0 0.45847206568000681 0.1749646593319733 0 0.48017700954227571 0.16957463343499729 0 0.46682428405715831 0.1509582695523152 0 0.48017700954227571 0.16957463343499729 0 0.5 0.15072603871703069 0 0.47558869797421338 0.19437594966408839 0 0.45847206568000681 0.1749646593319733 0 0.48017700954227571 0.16957463343499729 0 0.47558869797421338 0.19437594966408839 0 0.48017700954227571 0.16957463343499729 0 0.5 0.1768482499095789 0 0.48017700954227571 0.16957463343499729 0 0.5 0.1768482499095789 0 0.5 0.15072603871703069 0 0.46682428405715831 0.1509582695523152 0 0.5 0.15072603871703069 0 0.47635031463019328 0.12889142076487961 0 0.5 0.15072603871703069 0 0.47635031463019328 0.12889142076487961 0 0.5 0.1246038275244825 0 0.5 0.1246038275244825 0 0.5 0.098481616331934307 0 0.4783265964214497 0.10764197287580569 0 0.47635031463019328 0.12889142076487961 0 0.5 0.1246038275244825 0 0.4783265964214497 0.10764197287580569 0 0.5 0.098481616331934307 0 0.4783265964214497 0.10764197287580569 0 0.47706343971272358 0.088224188109610746 0 0.4783265964214497 0.10764197287580569 0 0.47706343971272358 0.088224188109610746 0 0.45806040741320952 0.092160728964339911 0 0.47635031463019328 0.12889142076487961 0 0.4783265964214497 0.10764197287580569 0 0.45937428999915181 0.11344649304017761 0 0.5 0.072359405139386102 0 0.48329021587311788 0.071809678973633037 0 0.49999999999999761 0.046237193946837868 0 0.5 0.098481616331934307 0 0.5 0.072359405139386102 0 0.48329021587311788 0.071809678973633037 0 0.5 0.098481616331934307 0 0.47706343971272358 0.088224188109610746 0 0.48329021587311788 0.071809678973633037 0 0.47706343971272358 0.088224188109610746 0 0.48329021587311788 0.071809678973633037 0 0.46774439712181543 0.076173666268641776 0 0.48329021587311788 0.071809678973633037 0 0.46774439712181543 0.076173666268641776 0 0.47343597420334099 0.058303643080820727 0 0.46774439712181543 0.076173666268641776 0 0.44687194840668493 0.070370092214804503 0 0.47343597420334099 0.058303643080820727 0 0.44687194840668493 0.070370092214804503 0 0.47343597420334099 0.058303643080820727 0 0.46774439712181543 0.076173666268641776 0 0.45806040741320952 0.092160728964339911 0 0.44687194840668493 0.070370092214804503 0 0.47706343971272358 0.088224188109610746 0 0.46774439712181543 0.076173666268641776 0 0.45806040741320952 0.092160728964339911 0 0.45806040741320952 0.092160728964339911 0 0.44687194840668493 0.070370092214804503 0 0.43788958982592607 0.099753749456584911 0 0.4783265964214497 0.10764197287580569 0 0.45806040741320952 0.092160728964339911 0 0.45937428999915181 0.11344649304017761 0 0.45806040741320952 0.092160728964339911 0 0.45937428999915181 0.11344649304017761 0 0.43788958982592607 0.099753749456584911 0 0.45524344812119089 0.1365292350427981 0 0.45937428999915181 0.11344649304017761 0 0.442459503099913 0.1232970322855745 0 0.45937428999915181 0.11344649304017761 0 0.43788958982592607 0.099753749456584911 0 0.442459503099913 0.1232970322855745 0 0.42896802970023501 0.12988060594235759 0 0.442459503099913 0.1232970322855745 0 0.42197025120499021 0.1174394711630341 0 0.43788958982592607 0.099753749456584911 0 0.442459503099913 0.1232970322855745 0 0.42197025120499021 0.1174394711630341 0 0.42197025120499021 0.1174394711630341 0 0.40578163464479139 0.123768173770802 0 0.40439681406366612 0.1103474551461107 0 0.42197025120499021 0.1174394711630341 0 0.41566169490359678 0.100896041519458 0 0.40439681406366612 0.1103474551461107 0 0.43788958982592607 0.099753749456584911 0 0.42197025120499021 0.1174394711630341 0 0.41566169490359678 0.100896041519458 0 0.43788958982592607 0.099753749456584911 0 0.41566169490359678 0.100896041519458 0 0.42030792261002892 0.082436541348788223 0 0.44687194840668493 0.070370092214804503 0 0.43788958982592607 0.099753749456584911 0 0.42030792261002892 0.082436541348788223 0 0.44687194840668493 0.070370092214804503 0 0.42030792261002892 0.082436541348788223 0 0.42814969551075149 0.062052783008136478 0 0.44687194840668493 0.070370092214804503 0 0.42030792261002892 0.082436541348788223 0 0.42030792261002892 0.082436541348788223 0 0.40035015024513099 0.065461931659569261 0 0.42814969551075149 0.062052783008136478 0 0.42030792261002892 0.082436541348788223 0 0.39374389681337291 0.094502990482771929 0 0.41566169490359678 0.100896041519458 0 0.42030792261002892 0.082436541348788223 0 0.39374389681337291 0.094502990482771929 0 0.42030792261002892 0.082436541348788223 0 0.40035015024513099 0.065461931659569261 0 0.39374389681337291 0.094502990482771929 0 0.40035015024513099 0.065461931659569261 0 0.38376501063092477 0.086015685638163697 0 0.39374389681337291 0.094502990482771929 0 0.40035015024513099 0.065461931659569261 0 0.38376501063092477 0.086015685638163697 0 0.37382638972724391 0.070577469389624073 0 0.40035015024513099 0.065461931659569261 0 0.37825268643263082 0.05626953899412792 0 0.37382638972724391 0.070577469389624073 0 0.40035015024513099 0.065461931659569261 0 0.38376501063092477 0.086015685638163697 0 0.3723184427247922 0.082221089976755465 0 0.37382638972724391 0.070577469389624073 0 0.38376501063092477 0.086015685638163697 0 0.36717987101671751 0.10656943961675711 0 0.38532508946947253 0.1112424564939347 0 0.39374389681337291 0.094502990482771929 0 0.36717987101671751 0.10656943961675711 0 0.39374389681337291 0.094502990482771929 0 0.36717987101671751 0.10656943961675711 0 0.38376501063092477 0.086015685638163697 0 0.39374389681337291 0.094502990482771929 0 0.36717987101671751 0.10656943961675711 0 0.38376501063092477 0.086015685638163697 0 0.37250850891158749 0.1234437037443635 0 0.36717987101671751 0.10656943961675711 0 0.38532508946947253 0.1112424564939347 0 0.37250850891158749 0.1234437037443635 0 0.3853917217604626 0.1230291112374523 0 0.38532508946947253 0.1112424564939347 0 0.3853917217604626 0.1230291112374523 0 0.38532508946947253 0.1112424564939347 0 0.39474147804088139 0.11979813507010589 0 0.38532508946947253 0.1112424564939347 0 0.39474147804088139 0.11979813507010589 0 0.40439681406366612 0.1103474551461107 0 0.39281213026601453 0.13060347870222969 0 0.39474147804088139 0.11979813507010589 0 0.40578163464479139 0.123768173770802 0 0.39281213026601453 0.13060347870222969 0 0.3853917217604626 0.1230291112374523 0 0.39474147804088139 0.11979813507010589 0 0.39474147804088139 0.11979813507010589 0 0.40578163464479139 0.123768173770802 0 0.40439681406366612 0.1103474551461107 0 0.38532508946947253 0.1112424564939347 0 0.40439681406366612 0.1103474551461107 0 0.39374389681337291 0.094502990482771929 0 0.41566169490359678 0.100896041519458 0 0.40439681406366612 0.1103474551461107 0 0.39374389681337291 0.094502990482771929 0 0.39822619732821052 0.024114979675095381 0 0.40337130658353071 0.00070488460596464849 0 0.4162477949569251 0.02122328543316588 0 0.39822619732821052 0.024114979675095381 0 0.40337130658353071 0.00070488460596464849 0 0.38701307043484201 0.0091940249907437963 0 0.40337130658353071 0.00070488460596464849 0 0.38701307043484201 0.0091940249907437963 0 0.38403054916503782 -0.0052160012399200314 0 0.36834606164637951 0.00050167634747937562 0 0.38701307043484201 0.0091940249907437963 0 0.38403054916503782 -0.0052160012399200314 0 0.36834606164637951 0.00050167634747937562 0 0.38701307043484201 0.0091940249907437963 0 0.37691750854413097 0.022390773354375441 0 0.39822619732821052 0.024114979675095381 0 0.37691750854413097 0.022390773354375441 0 0.38615884527580391 0.043820978255381018 0 0.39822619732821052 0.024114979675095381 0 0.38701307043484201 0.0091940249907437963 0 0.37691750854413097 0.022390773354375441 0 0.40035015024513099 0.065461931659569261 0 0.38615884527580391 0.043820978255381018 0 0.37825268643263082 0.05626953899412792 0 0.36403921024424452 0.053130355618322342 0 0.38615884527580391 0.043820978255381018 0 0.37825268643263082 0.05626953899412792 0 0.40035015024513099 0.065461931659569261 0 0.38615884527580391 0.043820978255381018 0 0.41693528985933698 0.044908177680974812 0 0.39822619732821052 0.024114979675095381 0 0.38615884527580391 0.043820978255381018 0 0.41693528985933698 0.044908177680974812 0 0.40035015024513099 0.065461931659569261 0 0.41693528985933698 0.044908177680974812 0 0.42814969551075149 0.062052783008136478 0 0.40035015024513099 0.065461931659569261 0 0.41693528985933698 0.044908177680974812 0 0.41693528985933698 0.044908177680974812 0 0.42814969551075149 0.062052783008136478 0 0.44011931632374413 0.047561807964911919 0 0.41693528985933698 0.044908177680974812 0 0.43352042947354308 0.02435442370238038 0 0.44011931632374413 0.047561807964911919 0 0.41693528985933698 0.044908177680974812 0 0.43352042947354308 0.02435442370238038 0 0.43352042947354308 0.02435442370238038 0 0.4162477949569251 0.02122328543316588 0 0.42372263787005421 0.0058353702148622177 0 0.41693528985933698 0.044908177680974812 0 0.43352042947354308 0.02435442370238038 0 0.4162477949569251 0.02122328543316588 0 0.39822619732821052 0.024114979675095381 0 0.41693528985933698 0.044908177680974812 0 0.4162477949569251 0.02122328543316588 0 0.40337130658353071 0.00070488460596464849 0 0.4162477949569251 0.02122328543316588 0 0.42372263787005421 0.0058353702148622177 0 0.42372263787005421 0.0058353702148622177 0 0.44063480362567709 0.003937777656975696 0 0.43161975294598931 -0.0062252849235915229 0 0.43352042947354308 0.02435442370238038 0 0.42372263787005421 0.0058353702148622177 0 0.44063480362567709 0.003937777656975696 0 0.43352042947354308 0.02435442370238038 0 0.44063480362567709 0.003937777656975696 0 0.44961997894668221 0.01250600338146938 0 0.44063480362567709 0.003937777656975696 0 0.44961997894668221 0.01250600338146938 0 0.45539819973357309 -0.0016179459850022371 0 0.43352042947354308 0.02435442370238038 0 0.45053188188444437 0.025621743706481691 0 0.45230908207764059 0.038283220540405477 0 0.43352042947354308 0.02435442370238038 0 0.44961997894668221 0.01250600338146938 0 0.45053188188444437 0.025621743706481691 0 0.44961997894668221 0.01250600338146938 0 0.45053188188444437 0.025621743706481691 0 0.46702125458962918 0.0092520968675613696 0 0.45053188188444437 0.025621743706481691 0 0.46702125458962918 0.0092520968675613696 0 0.45053188188444437 0.025621743706481691 0 0.46236354791753848 0.030044332057863249 0 0.46702125458962918 0.0092520968675613696 0 0.46236354791753848 0.030044332057863249 0 0.46702125458962918 0.0092520968675613696 0 0.47528630174300468 0.024708065194220429 0 0.44961997894668221 0.01250600338146938 0 0.46702125458962918 0.0092520968675613696 0 0.45539819973357309 -0.0016179459850022371 0 0.46702125458962918 0.0092520968675613696 0 0.45539819973357309 -0.0016179459850022371 0 0.46858719471888333 -0.0061189188904852464 0 0.44687194840668493 0.070370092214804503 0 0.44011931632374413 0.047561807964911919 0 0.46292945261450757 0.045402150642769881 0 0.44687194840668493 0.070370092214804503 0 0.42814969551075149 0.062052783008136478 0 0.44011931632374413 0.047561807964911919 0 0.43352042947354308 0.02435442370238038 0 0.44011931632374413 0.047561807964911919 0 0.45230908207764059 0.038283220540405477 0 0.44011931632374413 0.047561807964911919 0 0.45230908207764059 0.038283220540405477 0 0.46292945261450757 0.045402150642769881 0 0.46236354791753848 0.030044332057863249 0 0.46292945261450757 0.045402150642769881 0 0.47528630174300468 0.024708065194220429 0 0.45053188188444437 0.025621743706481691 0 0.46236354791753848 0.030044332057863249 0 0.45230908207764059 0.038283220540405477 0 0.46236354791753848 0.030044332057863249 0 0.45230908207764059 0.038283220540405477 0 0.46292945261450757 0.045402150642769881 0 0.44687194840668493 0.070370092214804503 0 0.46292945261450757 0.045402150642769881 0 0.47343597420334099 0.058303643080820727 0 0.46292945261450757 0.045402150642769881 0 0.47343597420334099 0.058303643080820727 0 0.48047489268756549 0.041842578475377902 0 0.46292945261450757 0.045402150642769881 0 0.48047489268756549 0.041842578475377902 0 0.47528630174300468 0.024708065194220429 0 0.46292945261450757 0.045402150642769881 0 0.47528630174300468 0.024708065194220429 0 0.48047489268756549 0.041842578475377902 0 0.47528630174300468 0.024708065194220429 0 0.48779352583970642 0.030936437523210542 0 0.48047489268756549 0.041842578475377902 0 0.49999999999999761 0.046237193946837868 0 0.48779352583970642 0.030936437523210542 0 0.49999999999999761 0.046237193946837868 0 0.48779352583970642 0.030936437523210542 0 0.5 0.025264760730265848 0 0.47343597420334099 0.058303643080820727 0 0.49999999999999761 0.046237193946837868 0 0.47343597420334099 0.058303643080820727 0 0.48047489268756549 0.041842578475377902 0 0.49999999999999761 0.046237193946837868 0 0.48329021587311788 0.071809678973633037 0 0.47343597420334099 0.058303643080820727 0 0.49999999999999761 0.046237193946837868 0 0.46702125458962918 0.0092520968675613696 0 0.4876431508715019 0.0040139797456709026 0 0.48351062729481409 -0.007117549971358994 0 0.46702125458962918 0.0092520968675613696 0 0.48351062729481409 -0.007117549971358994 0 0.46702125458962918 0.0092520968675613696 0 0.47528630174300468 0.024708065194220429 0 0.4876431508715019 0.0040139797456709026 0 0.47528630174300468 0.024708065194220429 0 0.4876431508715019 0.0040139797456709026 0 0.47528630174300468 0.024708065194220429 0 0.48986706925392742 0.01779457314652981 0 0.4876431508715019 0.0040139797456709026 0 0.47528630174300468 0.024708065194220429 0 0.48986706925392742 0.01779457314652981 0 0.48779352583970642 0.030936437523210542 0 0.48986706925392742 0.01779457314652981 0 0.5 0.025264760730265848 0 0.5 0.0042923275136936834 0 0.48986706925392742 0.01779457314652981 0 0.48779352583970642 0.030936437523210542 0 0.5 0.025264760730265848 0 0.48986706925392742 0.01779457314652981 0 0.4876431508715019 0.0040139797456709026 0 0.5 0.0042923275136936834 0 0.4876431508715019 0.0040139797456709026 0 0.5 0.0042923275136936834 0 0.4999999999999995 -0.016680105702878371 0 0.4876431508715019 0.0040139797456709026 0 0.48351062729481409 -0.007117549971358994 0 0.4999999999999995 -0.016680105702878371 0 0.4876431508715019 0.0040139797456709026 0 0.4999999999999995 -0.016680105702878371 0 0.48351062729481409 -0.007117549971358994 0 0.49999999999999928 -0.023487196810279009 0 0.46702125458962918 0.0092520968675613696 0 0.48351062729481409 -0.007117549971358994 0 0.46858719471888333 -0.0061189188904852464 0 0.48351062729481409 -0.007117549971358994 0 0.47438040059651498 -0.015840202270737121 0 0.48437656057156769 -0.021835816048888419 0 0.48351062729481409 -0.007117549971358994 0 0.47438040059651498 -0.015840202270737121 0 0.46858719471888333 -0.0061189188904852464 0 0.4731091541918136 -0.030453599071500061 0 0.48437656057156769 -0.021835816048888419 0 0.48919134620265498 -0.032860648029710907 0 0.4731091541918136 -0.030453599071500061 0 0.47438040059651498 -0.015840202270737121 0 0.46163216595334139 -0.01625291405183928 0 0.4731091541918136 -0.030453599071500061 0 0.47438040059651498 -0.015840202270737121 0 0.48437656057156769 -0.021835816048888419 0 0.48437656057156769 -0.021835816048888419 0 0.49999999999999928 -0.023487196810279009 0 0.48919134620265498 -0.032860648029710907 0 0.48351062729481409 -0.007117549971358994 0 0.4999999999999995 -0.016680105702878371 0 0.49999999999999928 -0.023487196810279009 0 0.48351062729481409 -0.007117549971358994 0 0.48437656057156769 -0.021835816048888419 0 0.49999999999999928 -0.023487196810279009 0 0.5 -0.041257127890520939 0 0.48919134620265498 -0.032860648029710907 0 0.48336362912752617 -0.045487750664226612 0 0.49999999999999928 -0.023487196810279009 0 0.5 -0.041257127890520939 0 0.48919134620265498 -0.032860648029710907 0 0.5 -0.041257127890520939 0 0.49999999999999839 -0.059027058970762818 0 0.48336362912752617 -0.045487750664226612 0 0.49999999999999839 -0.059027058970762818 0 0.4731917357122879 -0.062428757301476963 0 0.49999999999999839 -0.059027058970762818 0 0.4731917357122879 -0.062428757301476963 0 0.48336362912752617 -0.045487750664226612 0 0.4731917357122879 -0.062428757301476963 0 0.48336362912752617 -0.045487750664226612 0 0.46482557095272442 -0.047129603522772401 0 0.4731091541918136 -0.030453599071500061 0 0.48919134620265498 -0.032860648029710907 0 0.48336362912752617 -0.045487750664226612 0 0.4731091541918136 -0.030453599071500061 0 0.48336362912752617 -0.045487750664226612 0 0.46482557095272442 -0.047129603522772401 0 0.4731091541918136 -0.030453599071500061 0 0.46482557095272442 -0.047129603522772401 0 0.45001261114516378 -0.034719426650537212 0 0.46482557095272442 -0.047129603522772401 0 0.45001261114516378 -0.034719426650537212 0 0.44638347142457729 -0.065830455632191309 0 0.4731917357122879 -0.062428757301476963 0 0.46482557095272442 -0.047129603522772401 0 0.44638347142457729 -0.065830455632191309 0 0.45001261114516378 -0.034719426650537212 0 0.44638347142457729 -0.065830455632191309 0 0.42911013217387423 -0.051627846098449233 0 0.45001261114516378 -0.034719426650537212 0 0.44489380056722572 -0.013031720873695359 0 0.46163216595334139 -0.01625291405183928 0 0.45001261114516378 -0.034719426650537212 0 0.44489380056722572 -0.013031720873695359 0 0.42907194457306658 -0.024294452247127622 0 0.44063480362567709 0.003937777656975696 0 0.44489380056722572 -0.013031720873695359 0 0.43161975294598931 -0.0062252849235915229 0 0.44063480362567709 0.003937777656975696 0 0.44489380056722572 -0.013031720873695359 0 0.45539819973357309 -0.0016179459850022371 0 0.44489380056722572 -0.013031720873695359 0 0.45539819973357309 -0.0016179459850022371 0 0.46163216595334139 -0.01625291405183928 0 0.47438040059651498 -0.015840202270737121 0 0.46858719471888333 -0.0061189188904852464 0 0.46163216595334139 -0.01625291405183928 0 0.45539819973357309 -0.0016179459850022371 0 0.46858719471888333 -0.0061189188904852464 0 0.46163216595334139 -0.01625291405183928 0 0.4731091541918136 -0.030453599071500061 0 0.45001261114516378 -0.034719426650537212 0 0.46163216595334139 -0.01625291405183928 0 0.48427299517389683 -0.10727187605086159 0 0.46801226904214138 -0.1170760804713698 0 0.48374220249019018 -0.1303471455645091 0 0.5 -0.117728271006276 0 0.48427299517389683 -0.10727187605086159 0 0.48374220249019018 -0.1303471455645091 0 0.48427299517389683 -0.10727187605086159 0 0.46990271234949399 -0.094294862871820678 0 0.5 -0.0883776649885194 0 0.5 -0.117728271006276 0 0.48427299517389683 -0.10727187605086159 0 0.5 -0.0883776649885194 0 0.48427299517389683 -0.10727187605086159 0 0.46990271234949399 -0.094294862871820678 0 0.46801226904214138 -0.1170760804713698 0 0.46990271234949399 -0.094294862871820678 0 0.48551776624190057 -0.074763904290545302 0 0.46073736281418942 -0.078947826271231383 0 0.46990271234949399 -0.094294862871820678 0 0.5 -0.0883776649885194 0 0.48551776624190057 -0.074763904290545302 0 0.49999999999999839 -0.059027058970762818 0 0.5 -0.0883776649885194 0 0.48551776624190057 -0.074763904290545302 0 0.49999999999999839 -0.059027058970762818 0 0.4731917357122879 -0.062428757301476963 0 0.48551776624190057 -0.074763904290545302 0 0.4731917357122879 -0.062428757301476963 0 0.48551776624190057 -0.074763904290545302 0 0.46073736281418942 -0.078947826271231383 0 0.4731917357122879 -0.062428757301476963 0 0.44638347142457729 -0.065830455632191309 0 0.4731917357122879 -0.062428757301476963 0 0.44638347142457729 -0.065830455632191309 0 0.46073736281418942 -0.078947826271231383 0 0.44638347142457729 -0.065830455632191309 0 0.44144678165909867 -0.08137171425691346 0 0.46073736281418942 -0.078947826271231383 0 0.44638347142457729 -0.065830455632191309 0 0.44144678165909867 -0.08137171425691346 0 0.43024599288283671 -0.072319668882625379 0 0.44144678165909867 -0.08137171425691346 0 0.44793917450156279 -0.094339171486893622 0 0.42729169455456051 -0.091982180814723147 0 0.44144678165909867 -0.08137171425691346 0 0.46073736281418942 -0.078947826271231383 0 0.44793917450156279 -0.094339171486893622 0 0.46990271234949399 -0.094294862871820678 0 0.46073736281418942 -0.078947826271231383 0 0.44793917450156279 -0.094339171486893622 0 0.46990271234949399 -0.094294862871820678 0 0.45760018844711109 -0.10546175155108729 0 0.46801226904214138 -0.1170760804713698 0 0.46990271234949399 -0.094294862871820678 0 0.45760018844711109 -0.10546175155108729 0 0.44793917450156279 -0.094339171486893622 0 0.44793917450156279 -0.094339171486893622 0 0.4449036105659312 -0.1148978481170478 0 0.42729169455456051 -0.091982180814723147 0 0.45760018844711109 -0.10546175155108729 0 0.44793917450156279 -0.094339171486893622 0 0.4449036105659312 -0.1148978481170478 0 0.4449036105659312 -0.1148978481170478 0 0.43288020550548739 -0.1254946526685575 0 0.45055066669812938 -0.13172527975183809 0 0.4449036105659312 -0.1148978481170478 0 0.46801226904214138 -0.1170760804713698 0 0.45055066669812938 -0.13172527975183809 0 0.45760018844711109 -0.10546175155108729 0 0.4449036105659312 -0.1148978481170478 0 0.46801226904214138 -0.1170760804713698 0 0.41234005962672021 -0.1223609911251112 0 0.43426389470681143 -0.1067472595568028 0 0.41752715996578538 -0.1056217865138112 0 0.41234005962672021 -0.1223609911251112 0 0.43426389470681143 -0.1067472595568028 0 0.43288020550548739 -0.1254946526685575 0 0.41234005962672021 -0.1223609911251112 0 0.43426389470681143 -0.1067472595568028 0 0.4449036105659312 -0.1148978481170478 0 0.43426389470681143 -0.1067472595568028 0 0.43288020550548739 -0.1254946526685575 0 0.43426389470681143 -0.1067472595568028 0 0.41752715996578538 -0.1056217865138112 0 0.42729169455456051 -0.091982180814723147 0 0.4449036105659312 -0.1148978481170478 0 0.43426389470681143 -0.1067472595568028 0 0.42729169455456051 -0.091982180814723147 0 0.4449036105659312 -0.1148978481170478 0 0.42729169455456051 -0.091982180814723147 0 0.41752715996578538 -0.1056217865138112 0 0.42729169455456051 -0.091982180814723147 0 0.40305666397551682 -0.097125723529831981 0 0.41234005962672021 -0.1223609911251112 0 0.41752715996578538 -0.1056217865138112 0 0.40305666397551682 -0.097125723529831981 0 0.42729169455456051 -0.091982180814723147 0 0.4096797785431896 -0.069066513512398495 0 0.40305666397551682 -0.097125723529831981 0 0.42729169455456051 -0.091982180814723147 0 0.4096797785431896 -0.069066513512398495 0 0.44144678165909867 -0.08137171425691346 0 0.42729169455456051 -0.091982180814723147 0 0.43024599288283671 -0.072319668882625379 0 0.42729169455456051 -0.091982180814723147 0 0.43024599288283671 -0.072319668882625379 0 0.4096797785431896 -0.069066513512398495 0 0.44638347142457729 -0.065830455632191309 0 0.43024599288283671 -0.072319668882625379 0 0.42911013217387423 -0.051627846098449233 0 0.43024599288283671 -0.072319668882625379 0 0.4096797785431896 -0.069066513512398495 0 0.42911013217387423 -0.051627846098449233 0 0.4096797785431896 -0.069066513512398495 0 0.38166637140811099 -0.066362277728825067 0 0.39310525159131898 -0.08097868796124981 0 0.38166637140811099 -0.066362277728825067 0 0.37801819243845902 -0.091360237073943737 0 0.39310525159131898 -0.08097868796124981 0 0.37801819243845902 -0.091360237073943737 0 0.39310525159131898 -0.08097868796124981 0 0.40305666397551682 -0.097125723529831981 0 0.4096797785431896 -0.069066513512398495 0 0.39310525159131898 -0.08097868796124981 0 0.40305666397551682 -0.097125723529831981 0 0.37801819243845902 -0.091360237073943737 0 0.40305666397551682 -0.097125723529831981 0 0.38369266753931802 -0.1178786337912275 0 0.41234005962672021 -0.1223609911251112 0 0.40305666397551682 -0.097125723529831981 0 0.38369266753931802 -0.1178786337912275 0 0.40672586900662461 -0.024321686823242521 0 0.41816314036087432 -0.009669799256255357 0 0.42907194457306658 -0.024294452247127622 0 0.40672586900662461 -0.024321686823242521 0 0.42907194457306658 -0.024294452247127622 0 0.4118542702771133 -0.043054364919523427 0 0.40337130658353071 0.00070488460596464849 0 0.40672586900662461 -0.024321686823242521 0 0.41816314036087432 -0.009669799256255357 0 0.40337130658353071 0.00070488460596464849 0 0.42372263787005421 0.0058353702148622177 0 0.41816314036087432 -0.009669799256255357 0 0.41816314036087432 -0.009669799256255357 0 0.43161975294598931 -0.0062252849235915229 0 0.42907194457306658 -0.024294452247127622 0 0.44489380056722572 -0.013031720873695359 0 0.43161975294598931 -0.0062252849235915229 0 0.42907194457306658 -0.024294452247127622 0 0.42372263787005421 0.0058353702148622177 0 0.41816314036087432 -0.009669799256255357 0 0.43161975294598931 -0.0062252849235915229 0 0.42907194457306658 -0.024294452247127622 0 0.42911013217387423 -0.051627846098449233 0 0.4118542702771133 -0.043054364919523427 0 0.45001261114516378 -0.034719426650537212 0 0.42907194457306658 -0.024294452247127622 0 0.42911013217387423 -0.051627846098449233 0 0.4096797785431896 -0.069066513512398495 0 0.42911013217387423 -0.051627846098449233 0 0.4118542702771133 -0.043054364919523427 0 0.40672586900662461 -0.024321686823242521 0 0.4118542702771133 -0.043054364919523427 0 0.39206786253181891 -0.046150846210073829 0 0.4096797785431896 -0.069066513512398495 0 0.38166637140811099 -0.066362277728825067 0 0.39206786253181891 -0.046150846210073829 0 0.4096797785431896 -0.069066513512398495 0 0.39206786253181891 -0.046150846210073829 0 0.4096797785431896 -0.069066513512398495 0 0.4118542702771133 -0.043054364919523427 0 0.39206786253181891 -0.046150846210073829 0 0.38166637140811099 -0.066362277728825067 0 0.39206786253181891 -0.046150846210073829 0 0.37285334906819012 -0.046015258081790897 0 0.39206786253181891 -0.046150846210073829 0 0.374455946520448 -0.023235178907749159 0 0.39206786253181891 -0.046150846210073829 0 0.374455946520448 -0.023235178907749159 0 0.37285334906819012 -0.046015258081790897 0 0.39206786253181891 -0.046150846210073829 0 0.39123526307501238 -0.01979609065245818 0 0.374455946520448 -0.023235178907749159 0 0.39123526307501238 -0.01979609065245818 0 0.38403054916503782 -0.0052160012399200314 0 0.374455946520448 -0.023235178907749159 0 0.40672586900662461 -0.024321686823242521 0 0.39206786253181891 -0.046150846210073829 0 0.39123526307501238 -0.01979609065245818 0 0.40337130658353071 0.00070488460596464849 0 0.40672586900662461 -0.024321686823242521 0 0.39123526307501238 -0.01979609065245818 0 0.40337130658353071 0.00070488460596464849 0 0.39123526307501238 -0.01979609065245818 0 0.38403054916503782 -0.0052160012399200314 0 0.36834606164637951 0.00050167634747937562 0 0.38403054916503782 -0.0052160012399200314 0 0.374455946520448 -0.023235178907749159 0 0.36834606164637951 0.00050167634747937562 0 0.374455946520448 -0.023235178907749159 0 0.35489623836716733 -0.01645325783959627 0 0.374455946520448 -0.023235178907749159 0 0.35489623836716733 -0.01645325783959627 0 0.35614218848087142 -0.037722766656348161 0 0.35489623836716733 -0.01645325783959627 0 0.34121377479578502 -0.02824210792775695 0 0.35614218848087142 -0.037722766656348161 0 0.35489623836716733 -0.01645325783959627 0 0.34004224505902553 -0.01102387705888915 0 0.34121377479578502 -0.02824210792775695 0 0.36834606164637951 0.00050167634747937562 0 0.3494075504282127 0.0024833327970428211 0 0.35489623836716733 -0.01645325783959627 0 0.3494075504282127 0.0024833327970428211 0 0.35489623836716733 -0.01645325783959627 0 0.34004224505902553 -0.01102387705888915 0 0.3494075504282127 0.0024833327970428211 0 0.33251701105673748 0.0036449420070156918 0 0.34004224505902553 -0.01102387705888915 0 0.33251701105673748 0.0036449420070156918 0 0.34004224505902553 -0.01102387705888915 0 0.32595605793098198 -0.0099302157785788932 0 0.34004224505902553 -0.01102387705888915 0 0.3263358477702808 -0.023640022466187689 0 0.32595605793098198 -0.0099302157785788932 0 0.34004224505902553 -0.01102387705888915 0 0.34121377479578502 -0.02824210792775695 0 0.3263358477702808 -0.023640022466187689 0 0.34121377479578502 -0.02824210792775695 0 0.3263358477702808 -0.023640022466187689 0 0.3309509961694902 -0.033724827859750457 0 0.3263358477702808 -0.023640022466187689 0 0.32731948682124351 -0.03918236326123041 0 0.31087080592071131 -0.021805796808617321 0 0.32731948682124351 -0.03918236326123041 0 0.31087080592071131 -0.021805796808617321 0 0.3263358477702808 -0.023640022466187689 0 0.32595605793098198 -0.0099302157785788932 0 0.31087080592071131 -0.021805796808617321 0 0.33251701105673748 0.0036449420070156918 0 0.31391597910944669 0.0034857254755999811 0 0.32595605793098198 -0.0099302157785788932 0 0.31391597910944669 0.0034857254755999811 0 0.32595605793098198 -0.0099302157785788932 0 0.31087080592071131 -0.021805796808617321 0 0.32893487529065141 -0.043834817783826793 0 0.30172756210043139 -0.049946868911305398 0 0.31660370235456381 -0.053868568373897217 0 0.33152244606100773 -0.059452720283111528 0 0.30311051572231379 -0.062300219660264777 0 0.33152244606100773 -0.059452720283111528 0 0.30311051572231379 -0.062300219660264777 0 0.31660370235456381 -0.053868568373897217 0 0.32893487529065141 -0.043834817783826793 0 0.30172756210043139 -0.049946868911305398 0 0.31660370235456381 -0.053868568373897217 0 0.32893487529065141 -0.043834817783826793 0 0.33152244606100773 -0.059452720283111528 0 0.32731948682124351 -0.03918236326123041 0 0.32893487529065141 -0.043834817783826793 0 0.31159244056776642 -0.037596151320648488 0 0.32893487529065141 -0.043834817783826793 0 0.31159244056776642 -0.037596151320648488 0 0.30172756210043139 -0.049946868911305398 0 0.32731948682124351 -0.03918236326123041 0 0.31087080592071131 -0.021805796808617321 0 0.31159244056776642 -0.037596151320648488 0 0.32893487529065141 -0.043834817783826793 0 0.34445000842273898 -0.049287579157993908 0 0.35614218848087142 -0.037722766656348161 0 0.32893487529065141 -0.043834817783826793 0 0.35614218848087142 -0.037722766656348161 0 0.34121377479578502 -0.02824210792775695 0 0.32893487529065141 -0.043834817783826793 0 0.35614218848087142 -0.037722766656348161 0 0.32731948682124351 -0.03918236326123041 0 0.32893487529065141 -0.043834817783826793 0 0.3309509961694902 -0.033724827859750457 0 0.34121377479578502 -0.02824210792775695 0 0.32893487529065141 -0.043834817783826793 0 0.3309509961694902 -0.033724827859750457 0 0.3263358477702808 -0.023640022466187689 0 0.32731948682124351 -0.03918236326123041 0 0.3309509961694902 -0.033724827859750457 0 0.32893487529065141 -0.043834817783826793 0 0.33152244606100773 -0.059452720283111528 0 0.34445000842273898 -0.049287579157993908 0 0.34445000842273898 -0.049287579157993908 0 0.35614218848087142 -0.037722766656348161 0 0.35993437639970138 -0.056605220905958292 0 0.33152244606100773 -0.059452720283111528 0 0.35993437639970138 -0.056605220905958292 0 0.34573490031372062 -0.070957611503783949 0 0.33152244606100773 -0.059452720283111528 0 0.34445000842273898 -0.049287579157993908 0 0.35993437639970138 -0.056605220905958292 0 0.33152244606100773 -0.059452720283111528 0 0.35993437639970138 -0.056605220905958292 0 0.35614218848087142 -0.037722766656348161 0 0.37285334906819012 -0.046015258081790897 0 0.35993437639970138 -0.056605220905958292 0 0.374455946520448 -0.023235178907749159 0 0.35614218848087142 -0.037722766656348161 0 0.37285334906819012 -0.046015258081790897 0 0.38166637140811099 -0.066362277728825067 0 0.37285334906819012 -0.046015258081790897 0 0.35993437639970138 -0.056605220905958292 0 0.38166637140811099 -0.066362277728825067 0 0.37801819243845902 -0.091360237073943737 0 0.36143921790402778 -0.076226818383727218 0 0.38166637140811099 -0.066362277728825067 0 0.35993437639970138 -0.056605220905958292 0 0.36143921790402778 -0.076226818383727218 0 0.37801819243845902 -0.091360237073943737 0 0.36143921790402778 -0.076226818383727218 0 0.35762567357856728 -0.093421425248617268 0 0.36143921790402778 -0.076226818383727218 0 0.35762567357856728 -0.093421425248617268 0 0.34556461406958899 -0.084705283390020786 0 0.36143921790402778 -0.076226818383727218 0 0.34556461406958899 -0.084705283390020786 0 0.34573490031372062 -0.070957611503783949 0 0.35993437639970138 -0.056605220905958292 0 0.36143921790402778 -0.076226818383727218 0 0.34573490031372062 -0.070957611503783949 0 0.38369266753931802 -0.1178786337912275 0 0.36178078902224781 -0.1103064016534788 0 0.36202463696150211 -0.12841809724248651 0 0.37801819243845902 -0.091360237073943737 0 0.35762567357856728 -0.093421425248617268 0 0.36178078902224781 -0.1103064016534788 0 0.37801819243845902 -0.091360237073943737 0 0.38369266753931802 -0.1178786337912275 0 0.36178078902224781 -0.1103064016534788 0 0.35762567357856728 -0.093421425248617268 0 0.36178078902224781 -0.1103064016534788 0 0.34429037802763007 -0.105756677602401 0 0.35762567357856728 -0.093421425248617268 0 0.34556461406958899 -0.084705283390020786 0 0.34429037802763007 -0.105756677602401 0 0.36178078902224781 -0.1103064016534788 0 0.34429037802763007 -0.105756677602401 0 0.34029909925420432 -0.12687756166008679 0 0.36178078902224781 -0.1103064016534788 0 0.34029909925420432 -0.12687756166008679 0 0.36202463696150211 -0.12841809724248651 0 0.34429037802763007 -0.105756677602401 0 0.34029909925420432 -0.12687756166008679 0 0.34429037802763007 -0.105756677602401 0 0.3261260238189756 -0.116229510020146 0 0.34029909925420432 -0.12687756166008679 0 0.34556461406958899 -0.084705283390020786 0 0.34429037802763007 -0.105756677602401 0 0.33311232327696211 -0.090794191763085411 0 0.34429037802763007 -0.105756677602401 0 0.32813099954567071 -0.10192207232503769 0 0.3261260238189756 -0.116229510020146 0 0.34429037802763007 -0.105756677602401 0 0.32813099954567071 -0.10192207232503769 0 0.33311232327696211 -0.090794191763085411 0 0.32813099954567071 -0.10192207232503769 0 0.31530978301298318 -0.1046009333893632 0 0.31997991025417438 -0.087451776753818378 0 0.31530978301298318 -0.1046009333893632 0 0.31997991025417438 -0.087451776753818378 0 0.30444632327058108 -0.093465725907572017 0 0.32813099954567071 -0.10192207232503769 0 0.31530978301298318 -0.1046009333893632 0 0.3261260238189756 -0.116229510020146 0 0.31530978301298318 -0.1046009333893632 0 0.3261260238189756 -0.116229510020146 0 0.31172770016201062 -0.1154668258649332 0 0.3261260238189756 -0.116229510020146 0 0.31172770016201062 -0.1154668258649332 0 0.31602991123393098 -0.12583518222407489 0 0.33152244606100773 -0.059452720283111528 0 0.34573490031372062 -0.070957611503783949 0 0.33213980725024572 -0.077378591081648906 0 0.34556461406958899 -0.084705283390020786 0 0.34573490031372062 -0.070957611503783949 0 0.33213980725024572 -0.077378591081648906 0 0.34556461406958899 -0.084705283390020786 0 0.33213980725024572 -0.077378591081648906 0 0.33311232327696211 -0.090794191763085411 0 0.33213980725024572 -0.077378591081648906 0 0.33311232327696211 -0.090794191763085411 0 0.31997991025417438 -0.087451776753818378 0 0.31997991025417438 -0.087451776753818378 0 0.31787133551820829 -0.071585679949719108 0 0.31014000221779942 -0.081773677882364879 0 0.33213980725024572 -0.077378591081648906 0 0.31997991025417438 -0.087451776753818378 0 0.31787133551820829 -0.071585679949719108 0 0.32813099954567071 -0.10192207232503769 0 0.33311232327696211 -0.090794191763085411 0 0.31997991025417438 -0.087451776753818378 0 0.33152244606100773 -0.059452720283111528 0 0.33213980725024572 -0.077378591081648906 0 0.31787133551820829 -0.071585679949719108 0 0.33152244606100773 -0.059452720283111528 0 0.31787133551820829 -0.071585679949719108 0 0.30311051572231379 -0.062300219660264777 0 0.31787133551820829 -0.071585679949719108 0 0.30620579815835502 -0.073588163263618389 0 0.30311051572231379 -0.062300219660264777 0 0.29776330330741713 -0.073534492227132917 0 0.30620579815835502 -0.073588163263618389 0 0.30311051572231379 -0.062300219660264777 0 0.29776330330741713 -0.073534492227132917 0 0.30620579815835502 -0.073588163263618389 0 0.30039248406281571 -0.081534508451498913 0 0.31787133551820829 -0.071585679949719108 0 0.30620579815835502 -0.073588163263618389 0 0.31014000221779942 -0.081773677882364879 0 0.31014000221779942 -0.081773677882364879 0 0.30444632327058108 -0.093465725907572017 0 0.30039248406281571 -0.081534508451498913 0 0.30620579815835502 -0.073588163263618389 0 0.31014000221779942 -0.081773677882364879 0 0.30039248406281571 -0.081534508451498913 0 0.31997991025417438 -0.087451776753818378 0 0.31014000221779942 -0.081773677882364879 0 0.30444632327058108 -0.093465725907572017 0 0.30444632327058108 -0.093465725907572017 0 0.30039248406281571 -0.081534508451498913 0 0.29162373234849642 -0.088809244454111855 0 0.30039248406281571 -0.081534508451498913 0 0.28950013140759268 -0.079510804199795948 0 0.29162373234849642 -0.088809244454111855 0 0.29776330330741713 -0.073534492227132917 0 0.30039248406281571 -0.081534508451498913 0 0.28950013140759268 -0.079510804199795948 0 0.29162373234849642 -0.088809244454111855 0 0.28342125171173088 -0.092847617885440978 0 0.28075686876558281 -0.083310994196772639 0 0.28950013140759268 -0.079510804199795948 0 0.29162373234849642 -0.088809244454111855 0 0.28075686876558281 -0.083310994196772639 0 0.28950013140759268 -0.079510804199795948 0 0.28140134287111879 -0.075088936089897779 0 0.28075686876558281 -0.083310994196772639 0 0.28950013140759268 -0.079510804199795948 0 0.28140134287111879 -0.075088936089897779 0 0.28960758718600799 -0.070738765560486555 0 0.27469858538362002 -0.06514771903741802 0 0.30311051572231379 -0.062300219660264777 0 0.28960758718600799 -0.070738765560486555 0 0.27469858538362002 -0.06514771903741802 0 0.30311051572231379 -0.062300219660264777 0 0.28140134287111879 -0.075088936089897779 0 0.28960758718600799 -0.070738765560486555 0 0.27469858538362002 -0.06514771903741802 0 0.29776330330741713 -0.073534492227132917 0 0.28960758718600799 -0.070738765560486555 0 0.30311051572231379 -0.062300219660264777 0 0.29776330330741713 -0.073534492227132917 0 0.28950013140759268 -0.079510804199795948 0 0.28960758718600799 -0.070738765560486555 0 0.31530978301298318 -0.1046009333893632 0 0.31172770016201062 -0.1154668258649332 0 0.29945357377413562 -0.1089352012235606 0 0.29825693183174762 -0.1213070294580937 0 0.31172770016201062 -0.1154668258649332 0 0.31602991123393098 -0.12583518222407489 0 0.29825693183174762 -0.1213070294580937 0 0.31172770016201062 -0.1154668258649332 0 0.29945357377413562 -0.1089352012235606 0 0.31530978301298318 -0.1046009333893632 0 0.30444632327058108 -0.093465725907572017 0 0.29945357377413562 -0.1089352012235606 0 0.30444632327058108 -0.093465725907572017 0 0.29945357377413562 -0.1089352012235606 0 0.29230508504401198 -0.100015303741894 0 0.30444632327058108 -0.093465725907572017 0 0.29162373234849642 -0.088809244454111855 0 0.29230508504401198 -0.100015303741894 0 0.29162373234849642 -0.088809244454111855 0 0.28342125171173088 -0.092847617885440978 0 0.29230508504401198 -0.100015303741894 0 0.28342125171173088 -0.092847617885440978 0 0.29230508504401198 -0.100015303741894 0 0.28490587386405769 -0.100110926731612 0 0.28342125171173088 -0.092847617885440978 0 0.28490587386405769 -0.100110926731612 0 0.27731715253497341 -0.098984652156937372 0 0.28490587386405769 -0.100110926731612 0 0.2848271692252608 -0.1076264912077821 0 0.27731715253497341 -0.098984652156937372 0 0.29230508504401198 -0.100015303741894 0 0.28490587386405769 -0.100110926731612 0 0.2848271692252608 -0.1076264912077821 0 0.29945357377413562 -0.1089352012235606 0 0.29230508504401198 -0.100015303741894 0 0.2848271692252608 -0.1076264912077821 0 0.29945357377413562 -0.1089352012235606 0 0.2848271692252608 -0.1076264912077821 0 0.28937817230986967 -0.1169368112666577 0 0.29825693183174762 -0.1213070294580937 0 0.29945357377413562 -0.1089352012235606 0 0.28937817230986967 -0.1169368112666577 0 0.2848271692252608 -0.1076264912077821 0 0.28937817230986967 -0.1169368112666577 0 0.27655216864439569 -0.1172959852118326 0 0.28937817230986967 -0.1169368112666577 0 0.27655216864439569 -0.1172959852118326 0 0.28639249178800291 -0.12637168749846081 0 0.29825693183174762 -0.1213070294580937 0 0.28937817230986967 -0.1169368112666577 0 0.28639249178800291 -0.12637168749846081 0 0.27655216864439569 -0.1172959852118326 0 0.26200561183106569 -0.12155306162453559 0 0.27437743191193692 -0.12787779754657419 0 0.27655216864439569 -0.1172959852118326 0 0.27437743191193692 -0.12787779754657419 0 0.28639249178800291 -0.12637168749846081 0 0.2848271692252608 -0.1076264912077821 0 0.27655216864439569 -0.1172959852118326 0 0.27458638818868492 -0.1074081695932833 0 0.27655216864439569 -0.1172959852118326 0 0.27458638818868492 -0.1074081695932833 0 0.26489437875957578 -0.1100458678691849 0 0.27655216864439569 -0.1172959852118326 0 0.26489437875957578 -0.1100458678691849 0 0.26200561183106569 -0.12155306162453559 0 0.27458638818868492 -0.1074081695932833 0 0.26863067623671522 -0.099961251212877425 0 0.26489437875957578 -0.1100458678691849 0 0.2848271692252608 -0.1076264912077821 0 0.27458638818868492 -0.1074081695932833 0 0.27731715253497341 -0.098984652156937372 0 0.27458638818868492 -0.1074081695932833 0 0.27731715253497341 -0.098984652156937372 0 0.26863067623671522 -0.099961251212877425 0 0.28342125171173088 -0.092847617885440978 0 0.27731715253497341 -0.098984652156937372 0 0.27396029715426201 -0.090279586726654551 0 0.27731715253497341 -0.098984652156937372 0 0.26863067623671522 -0.099961251212877425 0 0.27396029715426201 -0.090279586726654551 0 0.26863067623671522 -0.099961251212877425 0 0.27396029715426201 -0.090279586726654551 0 0.26273751046456612 -0.092572210489880818 0 0.26863067623671522 -0.099961251212877425 0 0.25770540669030839 -0.1013810016965718 0 0.26273751046456612 -0.092572210489880818 0 0.25770540669030839 -0.1013810016965718 0 0.26273751046456612 -0.092572210489880818 0 0.25098500696337378 -0.091362413367682596 0 0.25770540669030839 -0.1013810016965718 0 0.25098500696337378 -0.091362413367682596 0 0.24800329184989889 -0.10171708286798251 0 0.25770540669030839 -0.1013810016965718 0 0.25071802735965321 -0.112171475008547 0 0.24800329184989889 -0.10171708286798251 0 0.25770540669030839 -0.1013810016965718 0 0.26489437875957578 -0.1100458678691849 0 0.25071802735965321 -0.112171475008547 0 0.26863067623671522 -0.099961251212877425 0 0.25770540669030839 -0.1013810016965718 0 0.26489437875957578 -0.1100458678691849 0 0.26489437875957578 -0.1100458678691849 0 0.25071802735965321 -0.112171475008547 0 0.26200561183106569 -0.12155306162453559 0 0.25071802735965321 -0.112171475008547 0 0.26200561183106569 -0.12155306162453559 0 0.24864258366961109 -0.12617622316085189 0 0.27275990094947122 -0.076299031557014507 0 0.27469858538362002 -0.06514771903741802 0 0.26204756078560137 -0.072278676856135537 0 0.28140134287111879 -0.075088936089897779 0 0.27275990094947122 -0.076299031557014507 0 0.27469858538362002 -0.06514771903741802 0 0.27275990094947122 -0.076299031557014507 0 0.28075686876558281 -0.083310994196772639 0 0.27360308228024932 -0.083507382727262464 0 0.28140134287111879 -0.075088936089897779 0 0.27275990094947122 -0.076299031557014507 0 0.28075686876558281 -0.083310994196772639 0 0.28075686876558281 -0.083310994196772639 0 0.27360308228024932 -0.083507382727262464 0 0.27396029715426201 -0.090279586726654551 0 0.28342125171173088 -0.092847617885440978 0 0.28075686876558281 -0.083310994196772639 0 0.27396029715426201 -0.090279586726654551 0 0.27396029715426201 -0.090279586726654551 0 0.26693526225168152 -0.084139918428608157 0 0.26273751046456612 -0.092572210489880818 0 0.27360308228024932 -0.083507382727262464 0 0.27396029715426201 -0.090279586726654551 0 0.26693526225168152 -0.084139918428608157 0 0.27275990094947122 -0.076299031557014507 0 0.26693526225168152 -0.084139918428608157 0 0.26186798184516741 -0.076976133010606851 0 0.27275990094947122 -0.076299031557014507 0 0.27360308228024932 -0.083507382727262464 0 0.26693526225168152 -0.084139918428608157 0 0.26693526225168152 -0.084139918428608157 0 0.25799389977846571 -0.084315777384752183 0 0.26186798184516741 -0.076976133010606851 0 0.25799389977846571 -0.084315777384752183 0 0.25616849828518568 -0.07943249658780499 0 0.26186798184516741 -0.076976133010606851 0 0.26693526225168152 -0.084139918428608157 0 0.25799389977846571 -0.084315777384752183 0 0.26273751046456612 -0.092572210489880818 0 0.25799389977846571 -0.084315777384752183 0 0.26273751046456612 -0.092572210489880818 0 0.25098500696337378 -0.091362413367682596 0 0.25799389977846571 -0.084315777384752183 0 0.25098500696337378 -0.091362413367682596 0 0.25018743081228723 -0.081462793694793798 0 0.25799389977846571 -0.084315777384752183 0 0.25616849828518568 -0.07943249658780499 0 0.25018743081228723 -0.081462793694793798 0 0.25616849828518568 -0.07943249658780499 0 0.25018743081228723 -0.081462793694793798 0 0.25462468070482253 -0.07497528226106713 0 0.27469858538362002 -0.06514771903741802 0 0.24731293571999141 -0.062170971166262648 0 0.24628665504492631 -0.067995218414571262 0 0.27469858538362002 -0.06514771903741802 0 0.26204756078560137 -0.072278676856135537 0 0.24628665504492631 -0.067995218414571262 0 0.25018743081228723 -0.081462793694793798 0 0.25462468070482253 -0.07497528226106713 0 0.24540002436349251 -0.076829810613576743 0 0.25462468070482253 -0.07497528226106713 0 0.26204756078560137 -0.072278676856135537 0 0.24628665504492631 -0.067995218414571262 0 0.27469858538362002 -0.06514771903741802 0 0.24628665504492631 -0.067995218414571262 0 0.25616849828518568 -0.07943249658780499 0 0.25462468070482253 -0.07497528226106713 0 0.26186798184516741 -0.076976133010606851 0 0.25462468070482253 -0.07497528226106713 0 0.26204756078560137 -0.072278676856135537 0 0.26186798184516741 -0.076976133010606851 0 0.27275990094947122 -0.076299031557014507 0 0.26204756078560137 -0.072278676856135537 0 0.26186798184516741 -0.076976133010606851 0 0.27452024891021137 -0.056058920038784023 0 0.24731293571999141 -0.062170971166262648 0 0.27469858538362002 -0.06514771903741802 0 0.27452024891021137 -0.056058920038784023 0 0.24731293571999141 -0.062170971166262648 0 0.25510634929850412 -0.05385062750281816 0 0.27452024891021137 -0.056058920038784023 0 0.24731293571999141 -0.062170971166262648 0 0.25510634929850412 -0.05385062750281816 0 0.26411917265710988 -0.049666656459534608 0 0.27452024891021137 -0.056058920038784023 0 0.2519829815234535 -0.048114279702668433 0 0.25510634929850412 -0.05385062750281816 0 0.2475310770970949 -0.054825672127586163 0 0.2519829815234535 -0.048114279702668433 0 0.25510634929850412 -0.05385062750281816 0 0.25715650966990988 -0.048792683172772792 0 0.25510634929850412 -0.05385062750281816 0 0.25715650966990988 -0.048792683172772792 0 0.26411917265710988 -0.049666656459534608 0 0.25715650966990988 -0.048792683172772792 0 0.26411917265710988 -0.049666656459534608 0 0.25741753520057231 -0.043539169026069982 0 0.26411917265710988 -0.049666656459534608 0 0.27139478409312667 -0.049017121566069348 0 0.27452024891021137 -0.056058920038784023 0 0.26411917265710988 -0.049666656459534608 0 0.27139478409312667 -0.049017121566069348 0 0.27070814377679803 -0.043608108777988958 0 0.27452024891021137 -0.056058920038784023 0 0.27623157102838752 -0.046734800987969838 0 0.28641029538402019 -0.045374894269587483 0 0.27139478409312667 -0.049017121566069348 0 0.27452024891021137 -0.056058920038784023 0 0.27623157102838752 -0.046734800987969838 0 0.27469858538362002 -0.06514771903741802 0 0.27452024891021137 -0.056058920038784023 0 0.28851422802914423 -0.058363431911943049 0 0.27878327909335632 -0.038244868953372958 0 0.26873511539787232 -0.032408426598553752 0 0.28075923590671858 -0.028022979946206141 0 0.27878327909335632 -0.038244868953372958 0 0.27623157102838752 -0.046734800987969838 0 0.28641029538402019 -0.045374894269587483 0 0.27878327909335632 -0.038244868953372958 0 0.27623157102838752 -0.046734800987969838 0 0.27070814377679803 -0.043608108777988958 0 0.26411917265710988 -0.049666656459534608 0 0.27070814377679803 -0.043608108777988958 0 0.26402819617611889 -0.041083284777346137 0 0.27139478409312667 -0.049017121566069348 0 0.27623157102838752 -0.046734800987969838 0 0.27070814377679803 -0.043608108777988958 0 0.27070814377679803 -0.043608108777988958 0 0.26873511539787232 -0.032408426598553752 0 0.26402819617611889 -0.041083284777346137 0 0.27878327909335632 -0.038244868953372958 0 0.27070814377679803 -0.043608108777988958 0 0.26873511539787232 -0.032408426598553752 0 0.26873511539787232 -0.032408426598553752 0 0.25916101384824197 -0.036194063024583382 0 0.25809003694015609 -0.026929464135092899 0 0.26873511539787232 -0.032408426598553752 0 0.25916101384824197 -0.036194063024583382 0 0.26402819617611889 -0.041083284777346137 0 0.26411917265710988 -0.049666656459534608 0 0.26402819617611889 -0.041083284777346137 0 0.25741753520057231 -0.043539169026069982 0 0.25916101384824197 -0.036194063024583382 0 0.26402819617611889 -0.041083284777346137 0 0.25741753520057231 -0.043539169026069982 0 0.25741753520057231 -0.043539169026069982 0 0.25455862490576681 -0.03866965700121202 0 0.24909414172835431 -0.041106740205341559 0 0.2519829815234535 -0.048114279702668433 0 0.25741753520057231 -0.043539169026069982 0 0.24909414172835431 -0.041106740205341559 0 0.2519829815234535 -0.048114279702668433 0 0.25715650966990988 -0.048792683172772792 0 0.25741753520057231 -0.043539169026069982 0 0.25916101384824197 -0.036194063024583382 0 0.25741753520057231 -0.043539169026069982 0 0.25455862490576681 -0.03866965700121202 0 0.25916101384824197 -0.036194063024583382 0 0.25256180884589902 -0.033838655748853183 0 0.25809003694015609 -0.026929464135092899 0 0.25916101384824197 -0.036194063024583382 0 0.25455862490576681 -0.03866965700121202 0 0.25256180884589902 -0.033838655748853183 0 0.25455862490576681 -0.03866965700121202 0 0.25256180884589902 -0.033838655748853183 0 0.24909414172835431 -0.041106740205341559 0 0.25256180884589902 -0.033838655748853183 0 0.25013189754110599 -0.0276182208177751 0 0.25809003694015609 -0.026929464135092899 0 0.25013189754110599 -0.0276182208177751 0 0.2530420721304088 -0.022403310618502911 0 0.25809003694015609 -0.026929464135092899 0 0.25013189754110599 -0.0276182208177751 0 0.2530420721304088 -0.022403310618502911 0 0.2472119687894018 -0.021607752629691251 0 0.2530420721304088 -0.022403310618502911 0 0.25157225370259401 -0.016397115123457519 0 0.2472119687894018 -0.021607752629691251 0 0.2530420721304088 -0.022403310618502911 0 0.25728546040393852 -0.018645953355289738 0 0.25809003694015609 -0.026929464135092899 0 0.2530420721304088 -0.022403310618502911 0 0.25157225370259401 -0.016397115123457519 0 0.25728546040393852 -0.018645953355289738 0 0.25728546040393852 -0.018645953355289738 0 0.26532208116223849 -0.018388717151557071 0 0.2578201635342009 -0.01164515147825505 0 0.25728546040393852 -0.018645953355289738 0 0.26532208116223849 -0.018388717151557071 0 0.25809003694015609 -0.026929464135092899 0 0.26873511539787232 -0.032408426598553752 0 0.26532208116223849 -0.018388717151557071 0 0.25809003694015609 -0.026929464135092899 0 0.25497944802722861 -0.0029044658845498788 0 0.2492108076350239 -0.0094877814774923883 0 0.24602769701305291 -0.0025229196648674178 0 0.2489958954423413 0.0052657469981983581 0 0.25497944802722861 -0.0029044658845498788 0 0.24602769701305291 -0.0025229196648674178 0 0.25157225370259401 -0.016397115123457519 0 0.2578201635342009 -0.01164515147825505 0 0.2492108076350239 -0.0094877814774923883 0 0.25497944802722861 -0.0029044658845498788 0 0.2578201635342009 -0.01164515147825505 0 0.2492108076350239 -0.0094877814774923883 0 0.25157225370259401 -0.016397115123457519 0 0.25728546040393852 -0.018645953355289738 0 0.2578201635342009 -0.01164515147825505 0 0.26532208116223849 -0.018388717151557071 0 0.2578201635342009 -0.01164515147825505 0 0.26929138719229517 -0.004775747044043775 0 0.25902880159974068 0.0057360920321148541 0 0.25497944802722861 -0.0029044658845498788 0 0.26929138719229517 -0.004775747044043775 0 0.25497944802722861 -0.0029044658845498788 0 0.2578201635342009 -0.01164515147825505 0 0.26929138719229517 -0.004775747044043775 0 0.26929138719229517 -0.004775747044043775 0 0.27895167659504039 -0.01667287760106053 0 0.294422125020179 -0.0044292303560042323 0 0.26532208116223849 -0.018388717151557071 0 0.26929138719229517 -0.004775747044043775 0 0.27895167659504039 -0.01667287760106053 0 0.26873511539787232 -0.032408426598553752 0 0.26532208116223849 -0.018388717151557071 0 0.27344202726546751 -0.023873250324344369 0 0.26532208116223849 -0.018388717151557071 0 0.27895167659504039 -0.01667287760106053 0 0.27344202726546751 -0.023873250324344369 0 0.27895167659504039 -0.01667287760106053 0 0.28075923590671858 -0.028022979946206141 0 0.27344202726546751 -0.023873250324344369 0 0.26873511539787232 -0.032408426598553752 0 0.28075923590671858 -0.028022979946206141 0 0.27344202726546751 -0.023873250324344369 0 0.27895167659504039 -0.01667287760106053 0 0.28075923590671858 -0.028022979946206141 0 0.29165884088150401 -0.02018153708720815 0 0.28075923590671858 -0.028022979946206141 0 0.29165884088150401 -0.02018153708720815 0 0.29631234787730137 -0.03278035089661821 0 0.27895167659504039 -0.01667287760106053 0 0.29165884088150401 -0.02018153708720815 0 0.294422125020179 -0.0044292303560042323 0 0.31391597910944669 0.0034857254755999811 0 0.294422125020179 -0.0044292303560042323 0 0.31087080592071131 -0.021805796808617321 0 0.29165884088150401 -0.02018153708720815 0 0.294422125020179 -0.0044292303560042323 0 0.31087080592071131 -0.021805796808617321 0 0.294422125020179 -0.0044292303560042323 0 0.31087080592071131 -0.021805796808617321 0 0.31087080592071131 -0.021805796808617321 0 0.31159244056776642 -0.037596151320648488 0 0.29631234787730137 -0.03278035089661821 0 0.29165884088150401 -0.02018153708720815 0 0.31087080592071131 -0.021805796808617321 0 0.29631234787730137 -0.03278035089661821 0 0.31159244056776642 -0.037596151320648488 0 0.29631234787730137 -0.03278035089661821 0 0.29650950726922431 -0.042170640247443103 0 0.31159244056776642 -0.037596151320648488 0 0.30172756210043139 -0.049946868911305398 0 0.29650950726922431 -0.042170640247443103 0 0.31660370235456381 -0.053868568373897217 0 0.30311051572231379 -0.062300219660264777 0 0.30172756210043139 -0.049946868911305398 0 0.30311051572231379 -0.062300219660264777 0 0.30172756210043139 -0.049946868911305398 0 0.28851422802914423 -0.058363431911943049 0 0.27469858538362002 -0.06514771903741802 0 0.30311051572231379 -0.062300219660264777 0 0.28851422802914423 -0.058363431911943049 0 0.27452024891021137 -0.056058920038784023 0 0.30172756210043139 -0.049946868911305398 0 0.27452024891021137 -0.056058920038784023 0 0.30172756210043139 -0.049946868911305398 0 0.28641029538402019 -0.045374894269587483 0 0.27452024891021137 -0.056058920038784023 0 0.30172756210043139 -0.049946868911305398 0 0.28851422802914423 -0.058363431911943049 0 0.27878327909335632 -0.038244868953372958 0 0.28641029538402019 -0.045374894269587483 0 0.29631234787730137 -0.03278035089661821 0 0.27878327909335632 -0.038244868953372958 0 0.28075923590671858 -0.028022979946206141 0 0.29631234787730137 -0.03278035089661821 0 0.30172756210043139 -0.049946868911305398 0 0.28641029538402019 -0.045374894269587483 0 0.29650950726922431 -0.042170640247443103 0 0.28641029538402019 -0.045374894269587483 0 0.29631234787730137 -0.03278035089661821 0 0.29650950726922431 -0.042170640247443103 0 0.29129214642591722 -0.21191472950509591 0 0.2939761113717419 -0.1889293120545647 0 0.28141623537856808 -0.2008666842765591 0 0.2939761113717419 -0.1889293120545647 0 0.28141623537856808 -0.2008666842765591 0 0.27111278292385121 -0.18955175869136129 0 0.29129214642591722 -0.21191472950509591 0 0.2939761113717419 -0.1889293120545647 0 0.30665701863104511 -0.20164069362680151 0 0.2939761113717419 -0.1889293120545647 0 0.30665701863104511 -0.20164069362680151 0 0.31434624261124039 -0.188768106442879 0 0.29129214642591722 -0.21191472950509591 0 0.31083787358467319 -0.2155205341047898 0 0.30201066049600372 -0.2269312547495099 0 0.29129214642591722 -0.21191472950509591 0 0.30665701863104511 -0.20164069362680151 0 0.31083787358467319 -0.2155205341047898 0 0.30201066049600372 -0.2269312547495099 0 0.30330180155814479 -0.24367506851752471 0 0.32259341668728292 -0.22841499733600679 0 0.31083787358467319 -0.2155205341047898 0 0.30201066049600372 -0.2269312547495099 0 0.32259341668728292 -0.22841499733600679 0 0.28202806422400051 -0.23513094428413281 0 0.29077070566577379 -0.25803338767600092 0 0.27127716571536581 -0.25336597756542861 0 0.30201066049600372 -0.2269312547495099 0 0.30330180155814479 -0.24367506851752471 0 0.28202806422400051 -0.23513094428413281 0 0.30330180155814479 -0.24367506851752471 0 0.28202806422400051 -0.23513094428413281 0 0.29077070566577379 -0.25803338767600092 0 0.29129214642591722 -0.21191472950509591 0 0.30201066049600372 -0.2269312547495099 0 0.28202806422400051 -0.23513094428413281 0 0.28202806422400051 -0.23513094428413281 0 0.25036477254419898 -0.23627752457163231 0 0.27127716571536581 -0.25336597756542861 0 0.29129214642591722 -0.21191472950509591 0 0.28202806422400051 -0.23513094428413281 0 0.26928390079276232 -0.21307093685521439 0 0.28202806422400051 -0.23513094428413281 0 0.25036477254419898 -0.23627752457163231 0 0.26928390079276232 -0.21307093685521439 0 0.25036477254419898 -0.23627752457163231 0 0.25470824321827251 -0.26216667082918121 0 0.25036477254419898 -0.23627752457163231 0 0.26928390079276232 -0.21307093685521439 0 0.24602130187012561 -0.21038837831408341 0 0.26928390079276232 -0.21307093685521439 0 0.25577202557945972 -0.1956974386919649 0 0.24602130187012561 -0.21038837831408341 0 0.29129214642591722 -0.21191472950509591 0 0.28141623537856808 -0.2008666842765591 0 0.26928390079276232 -0.21307093685521439 0 0.28141623537856808 -0.2008666842765591 0 0.26928390079276232 -0.21307093685521439 0 0.27111278292385121 -0.18955175869136129 0 0.26928390079276232 -0.21307093685521439 0 0.27111278292385121 -0.18955175869136129 0 0.25577202557945972 -0.1956974386919649 0 0.27111278292385121 -0.18955175869136129 0 0.25577202557945972 -0.1956974386919649 0 0.25863064262584279 -0.1808757951924769 0 0.25863064262584279 -0.1808757951924769 0 0.25931479494160148 -0.16291491832849439 0 0.26713077030358751 -0.17227810196999591 0 0.25931479494160148 -0.16291491832849439 0 0.2416778311960521 -0.18449923205653471 0 0.25863064262584279 -0.1808757951924769 0 0.25931479494160148 -0.16291491832849439 0 0.2416778311960521 -0.18449923205653471 0 0.27111278292385121 -0.18955175869136129 0 0.25863064262584279 -0.1808757951924769 0 0.26713077030358751 -0.17227810196999591 0 0.25577202557945972 -0.1956974386919649 0 0.25863064262584279 -0.1808757951924769 0 0.2416778311960521 -0.18449923205653471 0 0.25931479494160148 -0.16291491832849439 0 0.25011904706393501 -0.1534400469028207 0 0.24660053054023159 -0.15632187088039609 0 0.27111171158424968 -0.1608675885128884 0 0.27855530188115663 -0.17547130989014861 0 0.29103101392278508 -0.1661704249005371 0 0.27111171158424968 -0.1608675885128884 0 0.27855530188115663 -0.17547130989014861 0 0.26713077030358751 -0.17227810196999591 0 0.25931479494160148 -0.16291491832849439 0 0.27111171158424968 -0.1608675885128884 0 0.26713077030358751 -0.17227810196999591 0 0.27111171158424968 -0.1608675885128884 0 0.29103101392278508 -0.1661704249005371 0 0.25931479494160148 -0.16291491832849439 0 0.27111171158424968 -0.1608675885128884 0 0.2728841754163111 -0.15455601890122339 0 0.27111278292385121 -0.18955175869136129 0 0.27855530188115663 -0.17547130989014861 0 0.26713077030358751 -0.17227810196999591 0 0.2939761113717419 -0.1889293120545647 0 0.27111278292385121 -0.18955175869136129 0 0.27855530188115663 -0.17547130989014861 0 0.26200561183106569 -0.12155306162453559 0 0.26090056828157621 -0.13490126289527071 0 0.24864258366961109 -0.12617622316085189 0 0.26090056828157621 -0.13490126289527071 0 0.24864258366961109 -0.12617622316085189 0 0.2499421978938475 -0.13584677324143971 0 0.26090056828157621 -0.13490126289527071 0 0.2499421978938475 -0.13584677324143971 0 0.2485764299602313 -0.14550820242890999 0 0.26090056828157621 -0.13490126289527071 0 0.26272249098191341 -0.14773493754353481 0 0.25550543797211611 -0.14947596472035221 0 0.26090056828157621 -0.13490126289527071 0 0.25550543797211611 -0.14947596472035221 0 0.2485764299602313 -0.14550820242890999 0 0.25550543797211611 -0.14947596472035221 0 0.25011904706393501 -0.1534400469028207 0 0.2485764299602313 -0.14550820242890999 0 0.25931479494160148 -0.16291491832849439 0 0.25550543797211611 -0.14947596472035221 0 0.25011904706393501 -0.1534400469028207 0 0.25931479494160148 -0.16291491832849439 0 0.26272249098191341 -0.14773493754353481 0 0.25550543797211611 -0.14947596472035221 0 0.25931479494160148 -0.16291491832849439 0 0.27695175868715088 -0.1413306046004543 0 0.26090056828157621 -0.13490126289527071 0 0.26272249098191341 -0.14773493754353481 0 0.27695175868715088 -0.1413306046004543 0 0.25931479494160148 -0.16291491832849439 0 0.26272249098191341 -0.14773493754353481 0 0.27695175868715088 -0.1413306046004543 0 0.25931479494160148 -0.16291491832849439 0 0.2728841754163111 -0.15455601890122339 0 0.27695175868715088 -0.1413306046004543 0 0.2728841754163111 -0.15455601890122339 0 0.27695175868715088 -0.1413306046004543 0 0.28415843645224242 -0.1531109641630565 0 0.27111171158424968 -0.1608675885128884 0 0.2728841754163111 -0.15455601890122339 0 0.28415843645224242 -0.1531109641630565 0 0.26090056828157621 -0.13490126289527071 0 0.28603631901464449 -0.13926699050277161 0 0.26090056828157621 -0.13490126289527071 0 0.27437743191193692 -0.12787779754657419 0 0.28603631901464449 -0.13926699050277161 0 0.26090056828157621 -0.13490126289527071 0 0.27695175868715088 -0.1413306046004543 0 0.28603631901464449 -0.13926699050277161 0 0.26200561183106569 -0.12155306162453559 0 0.26090056828157621 -0.13490126289527071 0 0.27437743191193692 -0.12787779754657419 0 0.29825693183174762 -0.1213070294580937 0 0.28639249178800291 -0.12637168749846081 0 0.29863444608720052 -0.1318011619929082 0 0.28639249178800291 -0.12637168749846081 0 0.28603631901464449 -0.13926699050277161 0 0.29863444608720052 -0.1318011619929082 0 0.27437743191193692 -0.12787779754657419 0 0.28639249178800291 -0.12637168749846081 0 0.28603631901464449 -0.13926699050277161 0 0.28603631901464449 -0.13926699050277161 0 0.28415843645224242 -0.1531109641630565 0 0.30051032601200423 -0.15548708601182851 0 0.27695175868715088 -0.1413306046004543 0 0.28603631901464449 -0.13926699050277161 0 0.28415843645224242 -0.1531109641630565 0 0.31117206974771289 -0.14363271811027251 0 0.30051032601200423 -0.15548708601182851 0 0.31971380067332011 -0.15926815710614761 0 0.28603631901464449 -0.13926699050277161 0 0.31117206974771289 -0.14363271811027251 0 0.30051032601200423 -0.15548708601182851 0 0.28603631901464449 -0.13926699050277161 0 0.31117206974771289 -0.14363271811027251 0 0.28603631901464449 -0.13926699050277161 0 0.31117206974771289 -0.14363271811027251 0 0.29863444608720052 -0.1318011619929082 0 0.29825693183174762 -0.1213070294580937 0 0.29863444608720052 -0.1318011619929082 0 0.31602991123393098 -0.12583518222407489 0 0.31117206974771289 -0.14363271811027251 0 0.29863444608720052 -0.1318011619929082 0 0.31602991123393098 -0.12583518222407489 0 0.2939761113717419 -0.1889293120545647 0 0.27855530188115663 -0.17547130989014861 0 0.29103101392278508 -0.1661704249005371 0 0.28415843645224242 -0.1531109641630565 0 0.30051032601200423 -0.15548708601182851 0 0.29103101392278508 -0.1661704249005371 0 0.27111171158424968 -0.1608675885128884 0 0.28415843645224242 -0.1531109641630565 0 0.29103101392278508 -0.1661704249005371 0 0.29103101392278508 -0.1661704249005371 0 0.31095031626132058 -0.1714732612881858 0 0.30051032601200423 -0.15548708601182851 0 0.29103101392278508 -0.1661704249005371 0 0.31095031626132058 -0.1714732612881858 0 0.30051032601200423 -0.15548708601182851 0 0.31095031626132058 -0.1714732612881858 0 0.31971380067332011 -0.15926815710614761 0 0.2939761113717419 -0.1889293120545647 0 0.29103101392278508 -0.1661704249005371 0 0.31095031626132058 -0.1714732612881858 0 0.2939761113717419 -0.1889293120545647 0 0.31095031626132058 -0.1714732612881858 0 0.31434624261124039 -0.188768106442879 0 0.31095031626132058 -0.1714732612881858 0 0.33086961859985681 -0.17677609767583161 0 0.31095031626132058 -0.1714732612881858 0 0.33086961859985681 -0.17677609767583161 0 0.31434624261124039 -0.188768106442879 0 0.31095031626132058 -0.1714732612881858 0 0.31971380067332011 -0.15926815710614761 0 0.33086961859985681 -0.17677609767583161 0 0.33973974603848789 -0.1634045076722998 0 0.33086961859985681 -0.17677609767583161 0 0.33630782048078128 -0.14799844571777329 0 0.33973974603848789 -0.1634045076722998 0 0.33685593962884808 -0.17611932232087041 0 0.3526741645476929 -0.16485388829129921 0 0.31971380067332011 -0.15926815710614761 0 0.33086961859985681 -0.17677609767583161 0 0.33630782048078128 -0.14799844571777329 0 0.33086961859985681 -0.17677609767583161 0 0.33630782048078128 -0.14799844571777329 0 0.33973974603848789 -0.1634045076722998 0 0.33630782048078128 -0.14799844571777329 0 0.34642142481786581 -0.15762984270810401 0 0.33937067456302461 -0.1756012698732079 0 0.33976974100539331 -0.17914545239240481 0 0.34963867874488019 -0.17470391292627979 0 0.33937067456302461 -0.1756012698732079 0 0.33685593962884808 -0.17611932232087041 0 0.3526741645476929 -0.16485388829129921 0 0.33937067456302461 -0.1756012698732079 0 0.33685593962884808 -0.17611932232087041 0 0.33976974100539331 -0.17914545239240481 0 0.33937067456302461 -0.1756012698732079 0 0.33976974100539331 -0.17914545239240481 0 0.33976974100539331 -0.17914545239240481 0 0.33086961859985681 -0.17677609767583161 0 0.33467120117811289 -0.1915393360139393 0 0.33685593962884808 -0.17611932232087041 0 0.33976974100539331 -0.17914545239240481 0 0.33086961859985681 -0.17677609767583161 0 0.33976974100539331 -0.17914545239240481 0 0.33086961859985681 -0.17677609767583161 0 0.33973974603848789 -0.1634045076722998 0 0.33685593962884808 -0.17611932232087041 0 0.33086961859985681 -0.17677609767583161 0 0.3261260238189756 -0.116229510020146 0 0.3270942954963994 -0.133147317075125 0 0.31602991123393098 -0.12583518222407489 0 0.31117206974771289 -0.14363271811027251 0 0.3270942954963994 -0.133147317075125 0 0.31602991123393098 -0.12583518222407489 0 0.31117206974771289 -0.14363271811027251 0 0.31971380067332011 -0.15926815710614761 0 0.33630782048078128 -0.14799844571777329 0 0.31117206974771289 -0.14363271811027251 0 0.3270942954963994 -0.133147317075125 0 0.33630782048078128 -0.14799844571777329 0 0.31117206974771289 -0.14363271811027251 0 0.33630782048078128 -0.14799844571777329 0 0.3261260238189756 -0.116229510020146 0 0.3270942954963994 -0.133147317075125 0 0.34029909925420432 -0.12687756166008679 0 0.33630782048078128 -0.14799844571777329 0 0.34029909925420432 -0.12687756166008679 0 0.34936050058879542 -0.1391912397411649 0 0.3270942954963994 -0.133147317075125 0 0.33630782048078128 -0.14799844571777329 0 0.34029909925420432 -0.12687756166008679 0 0.33630782048078128 -0.14799844571777329 0 0.34029909925420432 -0.12687756166008679 0 0.34029909925420432 -0.12687756166008679 0 0.34936050058879542 -0.1391912397411649 0 0.36202463696150211 -0.12841809724248651 0 0.34936050058879542 -0.1391912397411649 0 0.36179329828465562 -0.142152867790488 0 0.36202463696150211 -0.12841809724248651 0 0.33630782048078128 -0.14799844571777329 0 0.34936050058879542 -0.1391912397411649 0 0.35240010497365992 -0.150793449989752 0 0.33630782048078128 -0.14799844571777329 0 0.35240010497365992 -0.150793449989752 0 0.34642142481786581 -0.15762984270810401 0 0.33630782048078128 -0.14799844571777329 0 0.35240010497365992 -0.150793449989752 0 0.34936050058879542 -0.1391912397411649 0 0.35240010497365992 -0.150793449989752 0 0.36179329828465562 -0.142152867790488 0 0.36849238946653867 -0.15358845426172951 0 0.36179329828465562 -0.142152867790488 0 0.37405480442114658 -0.1366523481616207 0 0.35240010497365992 -0.150793449989752 0 0.36849238946653867 -0.15358845426172951 0 0.36179329828465562 -0.142152867790488 0 0.35240010497365992 -0.150793449989752 0 0.36849238946653867 -0.15358845426172951 0 0.38369266753931802 -0.1178786337912275 0 0.37405480442114658 -0.1366523481616207 0 0.36202463696150211 -0.12841809724248651 0 0.36179329828465562 -0.142152867790488 0 0.37405480442114658 -0.1366523481616207 0 0.36202463696150211 -0.12841809724248651 0 0.35534015958070109 -0.18329054647194701 0 0.34963867874488019 -0.17470391292627979 0 0.36556589655757687 -0.17163479393489539 0 0.33976974100539331 -0.17914545239240481 0 0.35534015958070109 -0.18329054647194701 0 0.34791828742819858 -0.19016783243068519 0 0.33976974100539331 -0.17914545239240481 0 0.35534015958070109 -0.18329054647194701 0 0.33976974100539331 -0.17914545239240481 0 0.35534015958070109 -0.18329054647194701 0 0.34963867874488019 -0.17470391292627979 0 0.33937067456302461 -0.1756012698732079 0 0.34963867874488019 -0.17470391292627979 0 0.3526741645476929 -0.16485388829129921 0 0.33685593962884808 -0.17611932232087041 0 0.3526741645476929 -0.16485388829129921 0 0.35240010497365992 -0.150793449989752 0 0.36849238946653867 -0.15358845426172951 0 0.3526741645476929 -0.16485388829129921 0 0.34963867874488019 -0.17470391292627979 0 0.3526741645476929 -0.16485388829129921 0 0.36556589655757687 -0.17163479393489539 0 0.33973974603848789 -0.1634045076722998 0 0.34642142481786581 -0.15762984270810401 0 0.3526741645476929 -0.16485388829129921 0 0.35240010497365992 -0.150793449989752 0 0.34642142481786581 -0.15762984270810401 0 0.3526741645476929 -0.16485388829129921 0 0.36849238946653867 -0.15358845426172951 0 0.3526741645476929 -0.16485388829129921 0 0.36556589655757687 -0.17163479393489539 0 0.36849238946653867 -0.15358845426172951 0 0.3526741645476929 -0.16485388829129921 0 0.36849238946653867 -0.15358845426172951 0 0.36556589655757687 -0.17163479393489539 0 0.3742053937194873 -0.1644566527699256 0 0.36556589655757687 -0.17163479393489539 0 0.3742053937194873 -0.1644566527699256 0 0.37915260214495811 -0.1704152269608849 0 0.35534015958070109 -0.18329054647194701 0 0.36556589655757687 -0.17163479393489539 0 0.37091057815600909 -0.18743564055148859 0 0.36556589655757687 -0.17163479393489539 0 0.37468747344974168 -0.17756735289360559 0 0.37091057815600909 -0.18743564055148859 0 0.36556589655757687 -0.17163479393489539 0 0.37468747344974168 -0.17756735289360559 0 0.37915260214495811 -0.1704152269608849 0 0.35534015958070109 -0.18329054647194701 0 0.37091057815600909 -0.18743564055148859 0 0.37091057815600909 -0.18743564055148859 0 0.36052092598243141 -0.2034003527378242 0 0.35392975038181579 -0.19365631893322191 0 0.35534015958070109 -0.18329054647194701 0 0.37091057815600909 -0.18743564055148859 0 0.35392975038181579 -0.19365631893322191 0 0.37091057815600909 -0.18743564055148859 0 0.37218835515325349 -0.19963029273341981 0 0.36052092598243141 -0.2034003527378242 0 0.36513149094695557 -0.2146796570278649 0 0.37057923994145359 -0.22800705162646739 0 0.37675135440229629 -0.21101103496519941 0 0.36052092598243141 -0.2034003527378242 0 0.36513149094695557 -0.2146796570278649 0 0.35426895685407939 -0.22020101262595279 0 0.37218835515325349 -0.19963029273341981 0 0.36513149094695557 -0.2146796570278649 0 0.37675135440229629 -0.21101103496519941 0 0.37218835515325349 -0.19963029273341981 0 0.36052092598243141 -0.2034003527378242 0 0.36513149094695557 -0.2146796570278649 0 0.34263349874488458 -0.20457901192516739 0 0.34549725648437568 -0.23001257145793 0 0.35426895685407939 -0.22020101262595279 0 0.36052092598243141 -0.2034003527378242 0 0.34263349874488458 -0.20457901192516739 0 0.35426895685407939 -0.22020101262595279 0 0.34263349874488458 -0.20457901192516739 0 0.34549725648437568 -0.23001257145793 0 0.36052092598243141 -0.2034003527378242 0 0.35392975038181579 -0.19365631893322191 0 0.34263349874488458 -0.20457901192516739 0 0.35534015958070109 -0.18329054647194701 0 0.35392975038181579 -0.19365631893322191 0 0.34791828742819858 -0.19016783243068519 0 0.35392975038181579 -0.19365631893322191 0 0.34791828742819858 -0.19016783243068519 0 0.34263349874488458 -0.20457901192516739 0 0.33976974100539331 -0.17914545239240481 0 0.33467120117811289 -0.1915393360139393 0 0.34263349874488458 -0.20457901192516739 0 0.33086961859985681 -0.17677609767583161 0 0.32541194636231707 -0.20565678206235319 0 0.33976974100539331 -0.17914545239240481 0 0.34263349874488458 -0.20457901192516739 0 0.33467120117811289 -0.1915393360139393 0 0.34263349874488458 -0.20457901192516739 0 0.32541194636231707 -0.20565678206235319 0 0.33086961859985681 -0.17677609767583161 0 0.33467120117811289 -0.1915393360139393 0 0.32541194636231707 -0.20565678206235319 0 0.33976974100539331 -0.17914545239240481 0 0.34791828742819858 -0.19016783243068519 0 0.34263349874488458 -0.20457901192516739 0 0.34263349874488458 -0.20457901192516739 0 0.33403402956971512 -0.2171658406953644 0 0.32541194636231707 -0.20565678206235319 0 0.34263349874488458 -0.20457901192516739 0 0.33403402956971512 -0.2171658406953644 0 0.34549725648437568 -0.23001257145793 0 0.31083787358467319 -0.2155205341047898 0 0.32541194636231707 -0.20565678206235319 0 0.32259341668728292 -0.22841499733600679 0 0.30665701863104511 -0.20164069362680151 0 0.31083787358467319 -0.2155205341047898 0 0.32541194636231707 -0.20565678206235319 0 0.33403402956971512 -0.2171658406953644 0 0.32541194636231707 -0.20565678206235319 0 0.32259341668728292 -0.22841499733600679 0 0.30665701863104511 -0.20164069362680151 0 0.32541194636231707 -0.20565678206235319 0 0.31434624261124039 -0.188768106442879 0 0.33086961859985681 -0.17677609767583161 0 0.32541194636231707 -0.20565678206235319 0 0.31434624261124039 -0.188768106442879 0 0.3190565073048745 -0.24977657005836851 0 0.32259341668728292 -0.22841499733600679 0 0.33282382961030038 -0.2443175747853791 0 0.30330180155814479 -0.24367506851752471 0 0.3190565073048745 -0.24977657005836851 0 0.32259341668728292 -0.22841499733600679 0 0.33403402956971512 -0.2171658406953644 0 0.32259341668728292 -0.22841499733600679 0 0.34549725648437568 -0.23001257145793 0 0.32259341668728292 -0.22841499733600679 0 0.33282382961030038 -0.2443175747853791 0 0.34549725648437568 -0.23001257145793 0 0.33282382961030038 -0.2443175747853791 0 0.34549725648437568 -0.23001257145793 0 0.34836101422386673 -0.25544613099069258 0 0.34549725648437568 -0.23001257145793 0 0.34836101422386673 -0.25544613099069258 0 0.34549725648437568 -0.23001257145793 0 0.36387820334088439 -0.24480156524686331 0 0.34836101422386673 -0.25544613099069258 0 0.34549725648437568 -0.23001257145793 0 0.35426895685407939 -0.22020101262595279 0 0.36387820334088439 -0.24480156524686331 0 0.35426895685407939 -0.22020101262595279 0 0.36387820334088439 -0.24480156524686331 0 0.36513149094695557 -0.2146796570278649 0 0.35426895685407939 -0.22020101262595279 0 0.37057923994145359 -0.22800705162646739 0 0.35426895685407939 -0.22020101262595279 0 0.37057923994145359 -0.22800705162646739 0 0.36387820334088439 -0.24480156524686331 0 0.37057923994145359 -0.22800705162646739 0 0.36387820334088439 -0.24480156524686331 0 0.3856166208573707 -0.24013557287461459 0 0.36387820334088439 -0.24480156524686331 0 0.3856166208573707 -0.24013557287461459 0 0.38725519818872839 -0.25869898904443761 0 0.40178728424083687 -0.23088547412681051 0 0.40280738250636822 -0.25438671942855051 0 0.3856166208573707 -0.24013557287461459 0 0.40178728424083687 -0.23088547412681051 0 0.40280738250636822 -0.25438671942855051 0 0.40178728424083687 -0.23088547412681051 0 0.4007671859753057 -0.2073842288250704 0 0.40178728424083687 -0.23088547412681051 0 0.3866644052127704 -0.2242296778019234 0 0.4007671859753057 -0.2073842288250704 0 0.3856166208573707 -0.24013557287461459 0 0.40178728424083687 -0.23088547412681051 0 0.3866644052127704 -0.2242296778019234 0 0.37057923994145359 -0.22800705162646739 0 0.3866644052127704 -0.2242296778019234 0 0.37675135440229629 -0.21101103496519941 0 0.37057923994145359 -0.22800705162646739 0 0.3856166208573707 -0.24013557287461459 0 0.3866644052127704 -0.2242296778019234 0 0.37675135440229629 -0.21101103496519941 0 0.38498116402141941 -0.19548403146976159 0 0.4007671859753057 -0.2073842288250704 0 0.3866644052127704 -0.2242296778019234 0 0.37675135440229629 -0.21101103496519941 0 0.4007671859753057 -0.2073842288250704 0 0.37091057815600909 -0.18743564055148859 0 0.37218835515325349 -0.19963029273341981 0 0.38498116402141941 -0.19548403146976159 0 0.37091057815600909 -0.18743564055148859 0 0.38498116402141941 -0.19548403146976159 0 0.38312081694042283 -0.18078375012715339 0 0.37218835515325349 -0.19963029273341981 0 0.37675135440229629 -0.21101103496519941 0 0.38498116402141941 -0.19548403146976159 0 0.4007671859753057 -0.2073842288250704 0 0.39974708770977452 -0.1838829835233303 0 0.38498116402141941 -0.19548403146976159 0 0.4007671859753057 -0.2073842288250704 0 0.39974708770977452 -0.1838829835233303 0 0.4007671859753057 -0.2073842288250704 0 0.41328423723043911 -0.1969124180104736 0 0.39974708770977452 -0.1838829835233303 0 0.41328423723043911 -0.1969124180104736 0 0.4279097890992743 -0.203240409557048 0 0.41879322000442382 -0.22006318299446179 0 0.4007671859753057 -0.2073842288250704 0 0.41328423723043911 -0.1969124180104736 0 0.41879322000442382 -0.22006318299446179 0 0.41328423723043911 -0.1969124180104736 0 0.42718843687009561 -0.19022185100514211 0 0.41533884986148062 -0.17810731544937469 0 0.41328423723043911 -0.1969124180104736 0 0.42718843687009561 -0.19022185100514211 0 0.4279097890992743 -0.203240409557048 0 0.42718843687009561 -0.19022185100514211 0 0.4279097890992743 -0.203240409557048 0 0.44275967721182963 -0.1929071449630729 0 0.4279097890992743 -0.203240409557048 0 0.41879322000442382 -0.22006318299446179 0 0.43811219421862962 -0.21618105765867751 0 0.4279097890992743 -0.203240409557048 0 0.43811219421862962 -0.21618105765867751 0 0.44275967721182963 -0.1929071449630729 0 0.43450724940280339 -0.2327865570923188 0 0.43811219421862962 -0.21618105765867751 0 0.43450724940280339 -0.2327865570923188 0 0.41879322000442382 -0.22006318299446179 0 0.43811219421862962 -0.21618105765867751 0 0.43450724940280339 -0.2327865570923188 0 0.41778686066935289 -0.23963386050020119 0 0.41879322000442382 -0.22006318299446179 0 0.43450724940280339 -0.2327865570923188 0 0.43090230458697681 -0.24939205652596 0 0.43450724940280339 -0.2327865570923188 0 0.43090230458697681 -0.24939205652596 0 0.41778686066935289 -0.23963386050020119 0 0.40178728424083687 -0.23088547412681051 0 0.41778686066935289 -0.23963386050020119 0 0.40280738250636822 -0.25438671942855051 0 0.43090230458697681 -0.24939205652596 0 0.41778686066935289 -0.23963386050020119 0 0.41648308425387359 -0.25301510441240549 0 0.41778686066935289 -0.23963386050020119 0 0.40280738250636822 -0.25438671942855051 0 0.41648308425387359 -0.25301510441240549 0 0.40178728424083687 -0.23088547412681051 0 0.41778686066935289 -0.23963386050020119 0 0.41879322000442382 -0.22006318299446179 0 0.40178728424083687 -0.23088547412681051 0 0.4007671859753057 -0.2073842288250704 0 0.41879322000442382 -0.22006318299446179 0 0.41234005962672021 -0.1223609911251112 0 0.39041622454662878 -0.13797472269341959 0 0.41234005962672021 -0.1223609911251112 0 0.38369266753931802 -0.1178786337912275 0 0.39041622454662878 -0.13797472269341959 0 0.41234005962672021 -0.1223609911251112 0 0.39041622454662878 -0.13797472269341959 0 0.40853388560923548 -0.14371440866993759 0 0.38369266753931802 -0.1178786337912275 0 0.37405480442114658 -0.1366523481616207 0 0.39041622454662878 -0.13797472269341959 0 0.36849238946653867 -0.15358845426172951 0 0.39041622454662878 -0.13797472269341959 0 0.36849238946653867 -0.15358845426172951 0 0.39479391157323052 -0.15815666001774251 0 0.36849238946653867 -0.15358845426172951 0 0.39041622454662878 -0.13797472269341959 0 0.39479391157323052 -0.15815666001774251 0 0.36849238946653867 -0.15358845426172951 0 0.37405480442114658 -0.1366523481616207 0 0.39041622454662878 -0.13797472269341959 0 0.39041622454662878 -0.13797472269341959 0 0.39479391157323052 -0.15815666001774251 0 0.40853388560923548 -0.14371440866993759 0 0.39872698944424317 -0.16038173822159019 0 0.39479391157323052 -0.15815666001774251 0 0.42109543367992253 -0.16272486577375431 0 0.39872698944424317 -0.16038173822159019 0 0.39059163891690291 -0.16966379512861521 0 0.39974708770977452 -0.1838829835233303 0 0.39872698944424317 -0.16038173822159019 0 0.39079885336794618 -0.16305865847392489 0 0.39059163891690291 -0.16966379512861521 0 0.39872698944424317 -0.16038173822159019 0 0.39479391157323052 -0.15815666001774251 0 0.39079885336794618 -0.16305865847392489 0 0.36849238946653867 -0.15358845426172951 0 0.39479391157323052 -0.15815666001774251 0 0.38361068670887549 -0.16218813592219269 0 0.39479391157323052 -0.15815666001774251 0 0.39079885336794618 -0.16305865847392489 0 0.38361068670887549 -0.16218813592219269 0 0.36849238946653867 -0.15358845426172951 0 0.3742053937194873 -0.1644566527699256 0 0.38361068670887549 -0.16218813592219269 0 0.3742053937194873 -0.1644566527699256 0 0.38361068670887549 -0.16218813592219269 0 0.37915260214495811 -0.1704152269608849 0 0.38361068670887549 -0.16218813592219269 0 0.37915260214495811 -0.1704152269608849 0 0.39059163891690291 -0.16966379512861521 0 0.39079885336794618 -0.16305865847392489 0 0.38361068670887549 -0.16218813592219269 0 0.39059163891690291 -0.16966379512861521 0 0.38498116402141941 -0.19548403146976159 0 0.38312081694042283 -0.18078375012715339 0 0.39974708770977452 -0.1838829835233303 0 0.37915260214495811 -0.1704152269608849 0 0.39059163891690291 -0.16966379512861521 0 0.38312081694042283 -0.18078375012715339 0 0.37468747344974168 -0.17756735289360559 0 0.37915260214495811 -0.1704152269608849 0 0.38312081694042283 -0.18078375012715339 0 0.37468747344974168 -0.17756735289360559 0 0.37091057815600909 -0.18743564055148859 0 0.38312081694042283 -0.18078375012715339 0 0.39872698944424317 -0.16038173822159019 0 0.39974708770977452 -0.1838829835233303 0 0.41533884986148062 -0.17810731544937469 0 0.39872698944424317 -0.16038173822159019 0 0.39974708770977452 -0.1838829835233303 0 0.39059163891690291 -0.16966379512861521 0 0.38312081694042283 -0.18078375012715339 0 0.39974708770977452 -0.1838829835233303 0 0.41328423723043911 -0.1969124180104736 0 0.39974708770977452 -0.1838829835233303 0 0.41533884986148062 -0.17810731544937469 0 0.42718843687009561 -0.19022185100514211 0 0.41533884986148062 -0.17810731544937469 0 0.43127697456526459 -0.177208790676886 0 0.41533884986148062 -0.17810731544937469 0 0.43127697456526459 -0.177208790676886 0 0.42109543367992253 -0.16272486577375431 0 0.42718843687009561 -0.19022185100514211 0 0.43127697456526459 -0.177208790676886 0 0.44275967721182963 -0.1929071449630729 0 0.43127697456526459 -0.177208790676886 0 0.42109543367992253 -0.16272486577375431 0 0.44739695578661448 -0.167293071529766 0 0.42109543367992253 -0.16272486577375431 0 0.43771027024802139 -0.14543971960450791 0 0.44739695578661448 -0.167293071529766 0 0.42109543367992253 -0.16272486577375431 0 0.44739695578661448 -0.167293071529766 0 0.39872698944424317 -0.16038173822159019 0 0.41533884986148062 -0.17810731544937469 0 0.42109543367992253 -0.16272486577375431 0 0.39479391157323052 -0.15815666001774251 0 0.42109543367992253 -0.16272486577375431 0 0.39479391157323052 -0.15815666001774251 0 0.42109543367992253 -0.16272486577375431 0 0.40853388560923548 -0.14371440866993759 0 0.42109543367992253 -0.16272486577375431 0 0.40853388560923548 -0.14371440866993759 0 0.42325245796365613 -0.1386773158971672 0 0.42109543367992253 -0.16272486577375431 0 0.42325245796365613 -0.1386773158971672 0 0.43771027024802139 -0.14543971960450791 0 0.41234005962672021 -0.1223609911251112 0 0.43288020550548739 -0.1254946526685575 0 0.42325245796365613 -0.1386773158971672 0 0.43288020550548739 -0.1254946526685575 0 0.42325245796365613 -0.1386773158971672 0 0.43771027024802139 -0.14543971960450791 0 0.41234005962672021 -0.1223609911251112 0 0.40853388560923548 -0.14371440866993759 0 0.42325245796365613 -0.1386773158971672 0 0.46801226904214138 -0.1170760804713698 0 0.46732773575353442 -0.136443700339618 0 0.45055066669812938 -0.13172527975183809 0 0.46732773575353442 -0.136443700339618 0 0.45055066669812938 -0.13172527975183809 0 0.4593706378746758 -0.15082606810096391 0 0.43288020550548739 -0.1254946526685575 0 0.45055066669812938 -0.13172527975183809 0 0.43771027024802139 -0.14543971960450791 0 0.43771027024802139 -0.14543971960450791 0 0.4593706378746758 -0.15082606810096391 0 0.44739695578661448 -0.167293071529766 0 0.45055066669812938 -0.13172527975183809 0 0.43771027024802139 -0.14543971960450791 0 0.4593706378746758 -0.15082606810096391 0 0.46732773575353442 -0.136443700339618 0 0.4593706378746758 -0.15082606810096391 0 0.4795397208684487 -0.15219336009427581 0 0.4593706378746758 -0.15082606810096391 0 0.44739695578661448 -0.167293071529766 0 0.47369847789330671 -0.1718612772857778 0 0.44739695578661448 -0.167293071529766 0 0.47369847789330671 -0.1718612772857778 0 0.44739695578661448 -0.167293071529766 0 0.46196881867402911 -0.1868375196314298 0 0.44275967721182963 -0.1929071449630729 0 0.43127697456526459 -0.177208790676886 0 0.44739695578661448 -0.167293071529766 0 0.44275967721182963 -0.1929071449630729 0 0.44739695578661448 -0.167293071529766 0 0.46196881867402911 -0.1868375196314298 0 0.47369847789330671 -0.1718612772857778 0 0.46196881867402911 -0.1868375196314298 0 0.47369847789330671 -0.1718612772857778 0 0.48058314922590312 -0.19308201672193639 0 0.49999999999999878 -0.17642948304178929 0 0.47369847789330671 -0.1718612772857778 0 0.49999999999999878 -0.17642948304178929 0 0.47369847789330671 -0.1718612772857778 0 0.48058314922590312 -0.19308201672193639 0 0.49999999999999878 -0.17642948304178929 0 0.4795397208684487 -0.15219336009427581 0 0.5 -0.14707887702403269 0 0.49999999999999878 -0.17642948304178929 0 0.47369847789330671 -0.1718612772857778 0 0.4795397208684487 -0.15219336009427581 0 0.4593706378746758 -0.15082606810096391 0 0.47369847789330671 -0.1718612772857778 0 0.4795397208684487 -0.15219336009427581 0 0.4795397208684487 -0.15219336009427581 0 0.5 -0.14707887702403269 0 0.48374220249019018 -0.1303471455645091 0 0.5 -0.117728271006276 0 0.5 -0.14707887702403269 0 0.48374220249019018 -0.1303471455645091 0 0.46732773575353442 -0.136443700339618 0 0.4795397208684487 -0.15219336009427581 0 0.48374220249019018 -0.1303471455645091 0 0.46801226904214138 -0.1170760804713698 0 0.46732773575353442 -0.136443700339618 0 0.48374220249019018 -0.1303471455645091 0 0.46205393718108528 -0.23684018076771371 0 0.46540583325249169 -0.20904408765659571 0 0.47723861160505632 -0.23206275071867369 0 0.44815406891973419 -0.22921807209127781 0 0.46540583325249169 -0.20904408765659571 0 0.46205393718108528 -0.23684018076771371 0 0.44815406891973419 -0.22921807209127781 0 0.46540583325249169 -0.20904408765659571 0 0.46205393718108528 -0.23684018076771371 0 0.44892461728176353 -0.24613163530919049 0 0.45963180589903541 -0.25446950579175681 0 0.46205393718108528 -0.23684018076771371 0 0.47310409249004298 -0.2481818834529545 0 0.45963180589903541 -0.25446950579175681 0 0.43450724940280339 -0.2327865570923188 0 0.43090230458697681 -0.24939205652596 0 0.44815406891973419 -0.22921807209127781 0 0.43090230458697681 -0.24939205652596 0 0.44892461728176353 -0.24613163530919049 0 0.44815406891973419 -0.22921807209127781 0 0.43090230458697681 -0.24939205652596 0 0.44815406891973419 -0.22921807209127781 0 0.46205393718108528 -0.23684018076771371 0 0.44892461728176353 -0.24613163530919049 0 0.44815406891973419 -0.22921807209127781 0 0.43450724940280339 -0.2327865570923188 0 0.44815406891973419 -0.22921807209127781 0 0.43811219421862962 -0.21618105765867751 0 0.43811219421862962 -0.21618105765867751 0 0.44275967721182963 -0.1929071449630729 0 0.46540583325249169 -0.20904408765659571 0 0.44815406891973419 -0.22921807209127781 0 0.43811219421862962 -0.21618105765867751 0 0.46540583325249169 -0.20904408765659571 0 0.46196881867402911 -0.1868375196314298 0 0.44275967721182963 -0.1929071449630729 0 0.46540583325249169 -0.20904408765659571 0 0.46540583325249169 -0.20904408765659571 0 0.48058314922590312 -0.19308201672193639 0 0.48446006350626108 -0.2149114456610971 0 0.46540583325249169 -0.20904408765659571 0 0.48446006350626108 -0.2149114456610971 0 0.47723861160505632 -0.23206275071867369 0 0.46196881867402911 -0.1868375196314298 0 0.46540583325249169 -0.20904408765659571 0 0.48058314922590312 -0.19308201672193639 0 0.49999999999999878 -0.17642948304178929 0 0.48058314922590312 -0.19308201672193639 0 0.5 -0.20298523765585319 0 0.48058314922590312 -0.19308201672193639 0 0.5 -0.20298523765585319 0 0.48446006350626108 -0.2149114456610971 0 0.5 -0.20298523765585319 0 0.48446006350626108 -0.2149114456610971 0 0.5 -0.22954099226991709 0 0.48446006350626108 -0.2149114456610971 0 0.5 -0.22954099226991709 0 0.47723861160505632 -0.23206275071867369 0 0.47723861160505632 -0.23206275071867369 0 0.47310409249004298 -0.2481818834529545 0 0.4872028603054418 -0.2447111662845271 0 0.46205393718108528 -0.23684018076771371 0 0.47723861160505632 -0.23206275071867369 0 0.47310409249004298 -0.2481818834529545 0 0.5 -0.22954099226991709 0 0.47723861160505632 -0.23206275071867369 0 0.4872028603054418 -0.2447111662845271 0 0.5 -0.22954099226991709 0 0.4872028603054418 -0.2447111662845271 0 0.5 -0.25609674688398121 0 0.4872028603054418 -0.2447111662845271 0 0.5 -0.25609674688398121 0 0.47856204024881521 -0.26509228453036121 0 0.5 -0.25609674688398121 0 0.47856204024881521 -0.26509228453036121 0 0.5 -0.28265250149804533 0 0.47856204024881521 -0.26509228453036121 0 0.481014551242199 -0.28457176343544738 0 0.5 -0.28265250149804533 0 0.47856204024881521 -0.26509228453036121 0 0.46506043343389603 -0.28178268528813949 0 0.481014551242199 -0.28457176343544738 0 0.47310409249004298 -0.2481818834529545 0 0.47856204024881521 -0.26509228453036121 0 0.45963180589903541 -0.25446950579175681 0 0.47310409249004298 -0.2481818834529545 0 0.4872028603054418 -0.2447111662845271 0 0.47856204024881521 -0.26509228453036121 0 0.47856204024881521 -0.26509228453036121 0 0.45963180589903541 -0.25446950579175681 0 0.45916082719491907 -0.26846176591934823 0 0.45963180589903541 -0.25446950579175681 0 0.45916082719491907 -0.26846176591934823 0 0.44620727048187347 -0.25869927830778272 0 0.47856204024881521 -0.26509228453036121 0 0.45916082719491907 -0.26846176591934823 0 0.46506043343389603 -0.28178268528813949 0 0.45916082719491907 -0.26846176591934823 0 0.45116005011234361 -0.28160718705186061 0 0.46506043343389603 -0.28178268528813949 0 0.45916082719491907 -0.26846176591934823 0 0.44500984118170589 -0.27054929927613403 0 0.44620727048187347 -0.25869927830778272 0 0.45916082719491907 -0.26846176591934823 0 0.44500984118170589 -0.27054929927613403 0 0.45116005011234361 -0.28160718705186061 0 0.44500984118170589 -0.27054929927613403 0 0.45116005011234361 -0.28160718705186061 0 0.43669769811353382 -0.2808818007531933 0 0.44500984118170589 -0.27054929927613403 0 0.43692091723533721 -0.26649500107423663 0 0.43669769811353382 -0.2808818007531933 0 0.43090230458697681 -0.24939205652596 0 0.44620727048187347 -0.25869927830778272 0 0.43692091723533721 -0.26649500107423663 0 0.43090230458697681 -0.24939205652596 0 0.44892461728176353 -0.24613163530919049 0 0.44620727048187347 -0.25869927830778272 0 0.44500984118170589 -0.27054929927613403 0 0.44620727048187347 -0.25869927830778272 0 0.43692091723533721 -0.26649500107423663 0 0.44892461728176353 -0.24613163530919049 0 0.45963180589903541 -0.25446950579175681 0 0.44620727048187347 -0.25869927830778272 0 0.45770967736966589 -0.3092352374335352 0 0.44302968607926579 -0.31921395432891958 0 0.43610285199546511 -0.30746442058425483 0 0.44297025041034271 -0.29384737946160699 0 0.45770967736966589 -0.3092352374335352 0 0.43610285199546511 -0.30746442058425483 0 0.44297025041034271 -0.29384737946160699 0 0.45806125033966449 -0.29412019161274128 0 0.45770967736966589 -0.3092352374335352 0 0.44297025041034271 -0.29384737946160699 0 0.45116005011234361 -0.28160718705186061 0 0.43669769811353382 -0.2808818007531933 0 0.44297025041034271 -0.29384737946160699 0 0.45116005011234361 -0.28160718705186061 0 0.45806125033966449 -0.29412019161274128 0 0.45806125033966449 -0.29412019161274128 0 0.46506043343389603 -0.28178268528813949 0 0.4725380358274871 -0.29790609242453098 0 0.45116005011234361 -0.28160718705186061 0 0.45806125033966449 -0.29412019161274128 0 0.46506043343389603 -0.28178268528813949 0 0.45806125033966449 -0.29412019161274128 0 0.45770967736966589 -0.3092352374335352 0 0.4725380358274871 -0.29790609242453098 0 0.45770967736966589 -0.3092352374335352 0 0.4725380358274871 -0.29790609242453098 0 0.47135477213523408 -0.31323242211781072 0 0.4725380358274871 -0.29790609242453098 0 0.48546706372852871 -0.31149768221010782 0 0.47135477213523408 -0.31323242211781072 0 0.4725380358274871 -0.29790609242453098 0 0.48850834125576992 -0.29606009516352449 0 0.48546706372852871 -0.31149768221010782 0 0.4725380358274871 -0.29790609242453098 0 0.481014551242199 -0.28457176343544738 0 0.48850834125576992 -0.29606009516352449 0 0.46506043343389603 -0.28178268528813949 0 0.4725380358274871 -0.29790609242453098 0 0.481014551242199 -0.28457176343544738 0 0.5 -0.28265250149804533 0 0.48850834125576992 -0.29606009516352449 0 0.5 -0.3092082561121095 0 0.481014551242199 -0.28457176343544738 0 0.5 -0.28265250149804533 0 0.48850834125576992 -0.29606009516352449 0 0.48850834125576992 -0.29606009516352449 0 0.48546706372852871 -0.31149768221010782 0 0.5 -0.3092082561121095 0 0.5 -0.3092082561121095 0 0.5 -0.33576401072617368 0 0.48560047141639312 -0.33292395836939448 0 0.48546706372852871 -0.31149768221010782 0 0.5 -0.3092082561121095 0 0.48560047141639312 -0.33292395836939448 0 0.48546706372852871 -0.31149768221010782 0 0.48560047141639312 -0.33292395836939448 0 0.5 -0.33576401072617368 0 0.48560047141639312 -0.33292395836939448 0 0.48573387910425753 -0.3543502345286812 0 0.48560047141639312 -0.33292395836939448 0 0.48573387910425753 -0.3543502345286812 0 0.47466025038678877 -0.3338518015778319 0 0.47196695787166287 -0.3453478145280437 0 0.46604068619831412 -0.32650044015572538 0 0.48560047141639312 -0.33292395836939448 0 0.47466025038678877 -0.3338518015778319 0 0.47659712486393108 -0.32372288442283181 0 0.48560047141639312 -0.33292395836939448 0 0.47466025038678877 -0.3338518015778319 0 0.47196695787166287 -0.3453478145280437 0 0.47466025038678877 -0.3338518015778319 0 0.47659712486393108 -0.32372288442283181 0 0.46604068619831412 -0.32650044015572538 0 0.47135477213523408 -0.31323242211781072 0 0.47659712486393108 -0.32372288442283181 0 0.46604068619831412 -0.32650044015572538 0 0.48546706372852871 -0.31149768221010782 0 0.48560047141639312 -0.33292395836939448 0 0.47659712486393108 -0.32372288442283181 0 0.48546706372852871 -0.31149768221010782 0 0.47135477213523408 -0.31323242211781072 0 0.47659712486393108 -0.32372288442283181 0 0.48573387910425753 -0.3543502345286812 0 0.48586728679212082 -0.37577651068796791 0 0.49999999999999928 -0.3623197653402378 0 0.5 -0.38088828925827478 0 0.48586728679212082 -0.37577651068796791 0 0.49999999999999928 -0.3623197653402378 0 0.48573387910425753 -0.3543502345286812 0 0.48586728679212082 -0.37577651068796791 0 0.49999999999999928 -0.3623197653402378 0 0.48586728679212082 -0.37577651068796791 0 0.5 -0.33576401072617368 0 0.49999999999999928 -0.3623197653402378 0 0.48573387910425753 -0.3543502345286812 0 0.48573387910425753 -0.3543502345286812 0 0.47196695787166287 -0.3453478145280437 0 0.47115070834655071 -0.36167016194642709 0 0.48560047141639312 -0.33292395836939448 0 0.48573387910425753 -0.3543502345286812 0 0.47196695787166287 -0.3453478145280437 0 0.47115070834655071 -0.36167016194642709 0 0.48586728679212082 -0.37577651068796791 0 0.48358195114221919 -0.37795253870342749 0 0.47115070834655071 -0.36167016194642709 0 0.48358195114221919 -0.37795253870342749 0 0.46449443554769287 -0.37695981784461913 0 0.48573387910425753 -0.3543502345286812 0 0.47115070834655071 -0.36167016194642709 0 0.48586728679212082 -0.37577651068796791 0 0.47115070834655071 -0.36167016194642709 0 0.48358195114221919 -0.37795253870342749 0 0.47115070834655071 -0.36167016194642709 0 0.45675305572417052 -0.36791001834233278 0 0.45954956000259722 -0.34991180186635767 0 0.47115070834655071 -0.36167016194642709 0 0.45675305572417052 -0.36791001834233278 0 0.46449443554769287 -0.37695981784461913 0 0.45954956000259722 -0.34991180186635767 0 0.45871946555088161 -0.34538778518942709 0 0.44390573012877488 -0.34932497519467182 0 0.47115070834655071 -0.36167016194642709 0 0.45954956000259722 -0.34991180186635767 0 0.45871946555088161 -0.34538778518942709 0 0.47115070834655071 -0.36167016194642709 0 0.45871946555088161 -0.34538778518942709 0 0.47196695787166287 -0.3453478145280437 0 0.47115070834655071 -0.36167016194642709 0 0.45871946555088161 -0.34538778518942709 0 0.45954956000259722 -0.34991180186635767 0 0.43957607175086882 -0.36865980508433333 0 0.45954956000259722 -0.34991180186635767 0 0.44390573012877488 -0.34932497519467182 0 0.43957607175086882 -0.36865980508433333 0 0.45675305572417052 -0.36791001834233278 0 0.45954956000259722 -0.34991180186635767 0 0.43957607175086882 -0.36865980508433333 0 0.45675305572417052 -0.36791001834233278 0 0.43957607175086882 -0.36865980508433333 0 0.44946256617213087 -0.38283809442788441 0 0.45770967736966589 -0.3092352374335352 0 0.47135477213523408 -0.31323242211781072 0 0.46604068619831412 -0.32650044015572538 0 0.45770967736966589 -0.3092352374335352 0 0.45403273942427552 -0.32268757511185409 0 0.46604068619831412 -0.32650044015572538 0 0.47196695787166287 -0.3453478145280437 0 0.45871946555088161 -0.34538778518942709 0 0.44935090804985628 -0.33580066852923612 0 0.47196695787166287 -0.3453478145280437 0 0.44935090804985628 -0.33580066852923612 0 0.47196695787166287 -0.3453478145280437 0 0.46604068619831412 -0.32650044015572538 0 0.44935090804985628 -0.33580066852923612 0 0.45403273942427552 -0.32268757511185409 0 0.46604068619831412 -0.32650044015572538 0 0.44935090804985628 -0.33580066852923612 0 0.44935090804985628 -0.33580066852923612 0 0.42673485822804968 -0.32625352253042839 0 0.45871946555088161 -0.34538778518942709 0 0.44390573012877488 -0.34932497519467182 0 0.44935090804985628 -0.33580066852923612 0 0.44390573012877488 -0.34932497519467182 0 0.44935090804985628 -0.33580066852923612 0 0.43478385788465912 -0.33874733752999042 0 0.45403273942427552 -0.32268757511185409 0 0.44935090804985628 -0.33580066852923612 0 0.44302968607926579 -0.31921395432891958 0 0.44935090804985628 -0.33580066852923612 0 0.44302968607926579 -0.31921395432891958 0 0.42673485822804968 -0.32625352253042839 0 0.45770967736966589 -0.3092352374335352 0 0.45403273942427552 -0.32268757511185409 0 0.44302968607926579 -0.31921395432891958 0 0.44302968607926579 -0.31921395432891958 0 0.42673485822804968 -0.32625352253042839 0 0.43610285199546511 -0.30746442058425483 0 0.44935090804985628 -0.33580066852923612 0 0.42673485822804968 -0.32625352253042839 0 0.43478385788465912 -0.33874733752999042 0 0.42673485822804968 -0.32625352253042839 0 0.43478385788465912 -0.33874733752999042 0 0.42081252945232722 -0.34585009955154111 0 0.42673485822804968 -0.32625352253042839 0 0.41335729578585018 -0.33592213597103809 0 0.40473892910767151 -0.3288189064295044 0 0.42673485822804968 -0.32625352253042839 0 0.41335729578585018 -0.33592213597103809 0 0.42081252945232722 -0.34585009955154111 0 0.41335729578585018 -0.33592213597103809 0 0.42081252945232722 -0.34585009955154111 0 0.40141314869521832 -0.33931069320899893 0 0.41335729578585018 -0.33592213597103809 0 0.40473892910767151 -0.3288189064295044 0 0.40141314869521832 -0.33931069320899893 0 0.42673485822804968 -0.32625352253042839 0 0.40411880840624309 -0.31670637653162081 0 0.42673485822804968 -0.32625352253042839 0 0.40411880840624309 -0.31670637653162081 0 0.40473892910767151 -0.3288189064295044 0 0.42673485822804968 -0.32625352253042839 0 0.40411880840624309 -0.31670637653162081 0 0.42067263903821372 -0.29651308449026659 0 0.43957607175086882 -0.36865980508433333 0 0.42194168298369061 -0.36988626486602832 0 0.42081252945232722 -0.34585009955154111 0 0.44390573012877488 -0.34932497519467182 0 0.43478385788465912 -0.33874733752999042 0 0.42081252945232722 -0.34585009955154111 0 0.44390573012877488 -0.34932497519467182 0 0.43957607175086882 -0.36865980508433333 0 0.42081252945232722 -0.34585009955154111 0 0.42194168298369061 -0.36988626486602832 0 0.42081252945232722 -0.34585009955154111 0 0.40679603782930912 -0.36077115084339162 0 0.42081252945232722 -0.34585009955154111 0 0.40679603782930912 -0.36077115084339162 0 0.40141314869521832 -0.33931069320899893 0 0.40679603782930912 -0.36077115084339162 0 0.41960258349914059 -0.38740780830230942 0 0.42194168298369061 -0.36988626486602832 0 0.40679603782930912 -0.36077115084339162 0 0.41960258349914059 -0.38740780830230942 0 0.40679603782930912 -0.36077115084339162 0 0.38537508352877847 -0.35925436603321981 0 0.39736931509410922 -0.37760378769077979 0 0.40679603782930912 -0.36077115084339162 0 0.39398949215947621 -0.33413449338447437 0 0.40679603782930912 -0.36077115084339162 0 0.40141314869521832 -0.33931069320899893 0 0.39398949215947621 -0.33413449338447437 0 0.40679603782930912 -0.36077115084339162 0 0.38733384345173871 -0.34515921394544719 0 0.39398949215947621 -0.33413449338447437 0 0.40679603782930912 -0.36077115084339162 0 0.38733384345173871 -0.34515921394544719 0 0.38537508352877847 -0.35925436603321981 0 0.38733384345173871 -0.34515921394544719 0 0.38537508352877847 -0.35925436603321981 0 0.37351927860320411 -0.3465563071842454 0 0.38537508352877847 -0.35925436603321981 0 0.39736931509410922 -0.37760378769077979 0 0.37918479720608439 -0.37616203456703962 0 0.39119504529556359 -0.31576029455725407 0 0.40411880840624309 -0.31670637653162081 0 0.3811938345269279 -0.30752048222901662 0 0.39119504529556359 -0.31576029455725407 0 0.39851056874223861 -0.3238550177257134 0 0.39398949215947621 -0.33413449338447437 0 0.39119504529556359 -0.31576029455725407 0 0.40411880840624309 -0.31670637653162081 0 0.39851056874223861 -0.3238550177257134 0 0.40411880840624309 -0.31670637653162081 0 0.39851056874223861 -0.3238550177257134 0 0.40473892910767151 -0.3288189064295044 0 0.39851056874223861 -0.3238550177257134 0 0.40473892910767151 -0.3288189064295044 0 0.39398949215947621 -0.33413449338447437 0 0.40473892910767151 -0.3288189064295044 0 0.40141314869521832 -0.33931069320899893 0 0.39398949215947621 -0.33413449338447437 0 0.40141314869521832 -0.33931069320899893 0 0.39398949215947621 -0.33413449338447437 0 0.39398949215947621 -0.33413449338447437 0 0.38327768027369841 -0.33362905791061159 0 0.37403901093116282 -0.32022387172034611 0 0.38733384345173871 -0.34515921394544719 0 0.39398949215947621 -0.33413449338447437 0 0.38327768027369841 -0.33362905791061159 0 0.38733384345173871 -0.34515921394544719 0 0.38327768027369841 -0.33362905791061159 0 0.37774837455241561 -0.33499865259217859 0 0.38733384345173871 -0.34515921394544719 0 0.37774837455241561 -0.33499865259217859 0 0.37351927860320411 -0.3465563071842454 0 0.38327768027369841 -0.33362905791061159 0 0.37774837455241561 -0.33499865259217859 0 0.37403901093116282 -0.32022387172034611 0 0.39398949215947621 -0.33413449338447437 0 0.37403901093116282 -0.32022387172034611 0 0.39398949215947621 -0.33413449338447437 0 0.37769568744368881 -0.31161116903914371 0 0.37403901093116282 -0.32022387172034611 0 0.39398949215947621 -0.33413449338447437 0 0.3811938345269279 -0.30752048222901662 0 0.39119504529556359 -0.31576029455725407 0 0.39398949215947621 -0.33413449338447437 0 0.3811938345269279 -0.30752048222901662 0 0.39398949215947621 -0.33413449338447437 0 0.37769568744368881 -0.31161116903914371 0 0.3811938345269279 -0.30752048222901662 0 0.3811938345269279 -0.30752048222901662 0 0.39796927391861681 -0.28790350586386071 0 0.37825897282050103 -0.30855179996978621 0 0.3811938345269279 -0.30752048222901662 0 0.36959701149508578 -0.30213333491521011 0 0.37769568744368881 -0.31161116903914371 0 0.37825897282050103 -0.30855179996978621 0 0.37102400511833578 -0.30932088889013931 0 0.3811938345269279 -0.30752048222901662 0 0.36959701149508578 -0.30213333491521011 0 0.37769568744368881 -0.31161116903914371 0 0.3811938345269279 -0.30752048222901662 0 0.37769568744368881 -0.31161116903914371 0 0.37825897282050103 -0.30855179996978621 0 0.3811938345269279 -0.30752048222901662 0 0.3811938345269279 -0.30752048222901662 0 0.37726771512787471 -0.29935444743153222 0 0.36959701149508578 -0.30213333491521011 0 0.3811938345269279 -0.30752048222901662 0 0.37726771512787471 -0.29935444743153222 0 0.38309669631449461 -0.29400267048868428 0 0.3811938345269279 -0.30752048222901662 0 0.37726771512787471 -0.29935444743153222 0 0.40411880840624309 -0.31670637653162081 0 0.3811938345269279 -0.30752048222901662 0 0.39646213033502059 -0.30328319850331947 0 0.40411880840624309 -0.31670637653162081 0 0.3811938345269279 -0.30752048222901662 0 0.3811938345269279 -0.30752048222901662 0 0.39646213033502059 -0.30328319850331947 0 0.39796927391861681 -0.28790350586386071 0 0.40411880840624309 -0.31670637653162081 0 0.39646213033502059 -0.30328319850331947 0 0.40650515859216541 -0.29778654366266288 0 0.39796927391861681 -0.28790350586386071 0 0.40650515859216541 -0.29778654366266288 0 0.41330294126273293 -0.284526552924247 0 0.39646213033502059 -0.30328319850331947 0 0.39796927391861681 -0.28790350586386071 0 0.40650515859216541 -0.29778654366266288 0 0.39796927391861681 -0.28790350586386071 0 0.38309669631449461 -0.29400267048868428 0 0.38797764234294929 -0.27610360102279508 0 0.38309669631449461 -0.29400267048868428 0 0.3734874498276895 -0.26940211786777368 0 0.3811938345269279 -0.30752048222901662 0 0.39796927391861681 -0.28790350586386071 0 0.38309669631449461 -0.29400267048868428 0 0.37726771512787471 -0.29935444743153222 0 0.38309669631449461 -0.29400267048868428 0 0.37081294247325142 -0.29351337138527822 0 0.38797764234294929 -0.27610360102279508 0 0.38725519818872839 -0.25869898904443761 0 0.3734874498276895 -0.26940211786777368 0 0.38309669631449461 -0.29400267048868428 0 0.38797764234294929 -0.27610360102279508 0 0.3734874498276895 -0.26940211786777368 0 0.3856166208573707 -0.24013557287461459 0 0.38725519818872839 -0.25869898904443761 0 0.40280738250636822 -0.25438671942855051 0 0.38725519818872839 -0.25869898904443761 0 0.40280738250636822 -0.25438671942855051 0 0.39735158175203511 -0.27070676187658382 0 0.40280738250636822 -0.25438671942855051 0 0.39735158175203511 -0.27070676187658382 0 0.41443578925279673 -0.26864778119491028 0 0.39796927391861681 -0.28790350586386071 0 0.39735158175203511 -0.27070676187658382 0 0.41443578925279673 -0.26864778119491028 0 0.39796927391861681 -0.28790350586386071 0 0.41443578925279673 -0.26864778119491028 0 0.39796927391861681 -0.28790350586386071 0 0.38797764234294929 -0.27610360102279508 0 0.39735158175203511 -0.27070676187658382 0 0.38797764234294929 -0.27610360102279508 0 0.38725519818872839 -0.25869898904443761 0 0.39735158175203511 -0.27070676187658382 0 0.41443578925279673 -0.26864778119491028 0 0.42578747181259541 -0.27295257050811339 0 0.41330294126273293 -0.284526552924247 0 0.39796927391861681 -0.28790350586386071 0 0.41443578925279673 -0.26864778119491028 0 0.41330294126273293 -0.284526552924247 0 0.43090230458697681 -0.24939205652596 0 0.41443578925279673 -0.26864778119491028 0 0.41648308425387359 -0.25301510441240549 0 0.40280738250636822 -0.25438671942855051 0 0.41443578925279673 -0.26864778119491028 0 0.41648308425387359 -0.25301510441240549 0 0.43090230458697681 -0.24939205652596 0 0.41443578925279673 -0.26864778119491028 0 0.42578747181259541 -0.27295257050811339 0 0.43090230458697681 -0.24939205652596 0 0.42578747181259541 -0.27295257050811339 0 0.43692091723533721 -0.26649500107423663 0 0.43090230458697681 -0.24939205652596 0 0.42578747181259541 -0.27295257050811339 0 0.43090230458697681 -0.24939205652596 0 0.41443578925279673 -0.26864778119491028 0 0.42578747181259541 -0.27295257050811339 0 0.43692091723533721 -0.26649500107423663 0 0.43669769811353382 -0.2808818007531933 0 0.42578747181259541 -0.27295257050811339 0 0.42067263903821372 -0.29651308449026659 0 0.42578747181259541 -0.27295257050811339 0 0.43669769811353382 -0.2808818007531933 0 0.42067263903821372 -0.29651308449026659 0 0.44297025041034271 -0.29384737946160699 0 0.43669769811353382 -0.2808818007531933 0 0.42067263903821372 -0.29651308449026659 0 0.44297025041034271 -0.29384737946160699 0 0.43610285199546511 -0.30746442058425483 0 0.42067263903821372 -0.29651308449026659 0 0.42673485822804968 -0.32625352253042839 0 0.43610285199546511 -0.30746442058425483 0 0.42067263903821372 -0.29651308449026659 0 0.40411880840624309 -0.31670637653162081 0 0.40650515859216541 -0.29778654366266288 0 0.42067263903821372 -0.29651308449026659 0 0.42578747181259541 -0.27295257050811339 0 0.41330294126273293 -0.284526552924247 0 0.42067263903821372 -0.29651308449026659 0 0.40650515859216541 -0.29778654366266288 0 0.41330294126273293 -0.284526552924247 0 0.42067263903821372 -0.29651308449026659 0 0.5 -0.5 0 0.45572661731664488 -0.4545083970103877 0 0.42261548729508103 -0.46699158232608973 0 0.5 -0.5 0 0.48183788051631821 -0.45504480887046772 0 0.45572661731664488 -0.4545083970103877 0 0.5 -0.5 0 0.48183788051631821 -0.45504480887046772 0 0.49999999999999922 -0.44821094261489791 0 0.48183788051631821 -0.45504480887046772 0 0.49999999999999922 -0.44821094261489791 0 0.48572140230863559 -0.43476628009096879 0 0.49999999999999922 -0.44821094261489791 0 0.48572140230863559 -0.43476628009096879 0 0.49288047965984549 -0.43144085107688651 0 0.49999999999999922 -0.44821094261489791 0 0.48572140230863559 -0.43476628009096879 0 0.48183788051631821 -0.45504480887046772 0 0.46991216461331298 -0.43913231911609152 0 0.48572140230863559 -0.43476628009096879 0 0.48183788051631821 -0.45504480887046772 0 0.46991216461331298 -0.43913231911609152 0 0.45572661731664488 -0.4545083970103877 0 0.46991216461331298 -0.43913231911609152 0 0.45572661731664488 -0.4545083970103877 0 0.455917509136195 -0.43071743928159761 0 0.45572661731664488 -0.4545083970103877 0 0.44230444679452879 -0.43746954186574111 0 0.42889381179479669 -0.44805850315196988 0 0.45572661731664488 -0.4545083970103877 0 0.44230444679452879 -0.43746954186574111 0 0.455917509136195 -0.43071743928159761 0 0.44742690554648962 -0.42533756012982821 0 0.44230444679452879 -0.43746954186574111 0 0.455917509136195 -0.43071743928159761 0 0.44742690554648962 -0.42533756012982821 0 0.44230444679452879 -0.43746954186574111 0 0.43771762907533751 -0.42508574865452381 0 0.44742690554648962 -0.42533756012982821 0 0.43771762907533751 -0.42508574865452381 0 0.44300716422506259 -0.4165866330242684 0 0.44300716422506259 -0.4165866330242684 0 0.44513541553698549 -0.39851002703335442 0 0.42866010628723922 -0.40624677847841661 0 0.44742690554648962 -0.42533756012982821 0 0.44300716422506259 -0.4165866330242684 0 0.45818777850132358 -0.41682843782301021 0 0.44300716422506259 -0.4165866330242684 0 0.45818777850132358 -0.41682843782301021 0 0.46329455768364097 -0.39726958586384792 0 0.45818777850132358 -0.41682843782301021 0 0.46820679335009852 -0.40994769027082939 0 0.46329455768364097 -0.39726958586384792 0 0.44300716422506259 -0.4165866330242684 0 0.46329455768364097 -0.39726958586384792 0 0.45818777850132358 -0.41682843782301021 0 0.46820679335009852 -0.40994769027082939 0 0.47144280461727228 -0.42132161756703917 0 0.46991216461331298 -0.43913231911609152 0 0.455917509136195 -0.43071743928159761 0 0.47144280461727228 -0.42132161756703917 0 0.45818777850132358 -0.41682843782301021 0 0.455917509136195 -0.43071743928159761 0 0.47144280461727228 -0.42132161756703917 0 0.44742690554648962 -0.42533756012982821 0 0.45818777850132358 -0.41682843782301021 0 0.455917509136195 -0.43071743928159761 0 0.46991216461331298 -0.43913231911609152 0 0.48572140230863559 -0.43476628009096879 0 0.47144280461727228 -0.42132161756703917 0 0.48572140230863559 -0.43476628009096879 0 0.48616010842768292 -0.42280586356394939 0 0.47144280461727228 -0.42132161756703917 0 0.48572140230863559 -0.43476628009096879 0 0.47144280461727228 -0.42132161756703917 0 0.49999999999999922 -0.44821094261489791 0 0.5 -0.42383387789560478 0 0.49288047965984549 -0.43144085107688651 0 0.48572140230863559 -0.43476628009096879 0 0.48616010842768292 -0.42280586356394939 0 0.49288047965984549 -0.43144085107688651 0 0.48616010842768292 -0.42280586356394939 0 0.5 -0.42383387789560478 0 0.49288047965984549 -0.43144085107688651 0 0.5 -0.42383387789560478 0 0.49304750786762808 -0.41199841702346329 0 0.49999999999999778 -0.39945681317631171 0 0.48616010842768292 -0.42280586356394939 0 0.48602992304282949 -0.40189711345798729 0 0.48616010842768292 -0.42280586356394939 0 0.49304750786762808 -0.41199841702346329 0 0.48602992304282949 -0.40189711345798729 0 0.48616010842768292 -0.42280586356394939 0 0.5 -0.42383387789560478 0 0.49304750786762808 -0.41199841702346329 0 0.46820679335009852 -0.40994769027082939 0 0.47884989905975112 -0.41320829849352098 0 0.48602992304282949 -0.40189711345798729 0 0.48616010842768292 -0.42280586356394939 0 0.47884989905975112 -0.41320829849352098 0 0.48602992304282949 -0.40189711345798729 0 0.48616010842768292 -0.42280586356394939 0 0.47884989905975112 -0.41320829849352098 0 0.47144280461727228 -0.42132161756703917 0 0.46820679335009852 -0.40994769027082939 0 0.47884989905975112 -0.41320829849352098 0 0.47144280461727228 -0.42132161756703917 0 0.46820679335009852 -0.40994769027082939 0 0.48602992304282949 -0.40189711345798729 0 0.46329455768364097 -0.39726958586384792 0 0.48602992304282949 -0.40189711345798729 0 0.48589973765797501 -0.38098836335202529 0 0.46329455768364097 -0.39726958586384792 0 0.48602992304282949 -0.40189711345798729 0 0.48589973765797501 -0.38098836335202529 0 0.48602992304282949 -0.40189711345798729 0 0.49999999999999778 -0.39945681317631171 0 0.48589973765797501 -0.38098836335202529 0 0.49304750786762808 -0.41199841702346329 0 0.48602992304282949 -0.40189711345798729 0 0.49999999999999778 -0.39945681317631171 0 0.49999999999999778 -0.39945681317631171 0 0.48589973765797501 -0.38098836335202529 0 0.49999999999999778 -0.39945681317631171 0 0.5 -0.38088828925827478 0 0.48589973765797501 -0.38098836335202529 0 0.5 -0.38088828925827478 0 0.48589973765797501 -0.38098836335202529 0 0.48586728679212082 -0.37577651068796791 0 0.48589973765797501 -0.38098836335202529 0 0.48358195114221919 -0.37795253870342749 0 0.48589973765797501 -0.38098836335202529 0 0.48586728679212082 -0.37577651068796791 0 0.48589973765797501 -0.38098836335202529 0 0.48586728679212082 -0.37577651068796791 0 0.48358195114221919 -0.37795253870342749 0 0.48586728679212082 -0.37577651068796791 0 0.48358195114221919 -0.37795253870342749 0 0.48358195114221919 -0.37795253870342749 0 0.46449443554769287 -0.37695981784461913 0 0.46329455768364097 -0.39726958586384792 0 0.48358195114221919 -0.37795253870342749 0 0.46329455768364097 -0.39726958586384792 0 0.48589973765797501 -0.38098836335202529 0 0.48358195114221919 -0.37795253870342749 0 0.46329455768364097 -0.39726958586384792 0 0.46449443554769287 -0.37695981784461913 0 0.46329455768364097 -0.39726958586384792 0 0.44946256617213087 -0.38283809442788441 0 0.45675305572417052 -0.36791001834233278 0 0.46449443554769287 -0.37695981784461913 0 0.44946256617213087 -0.38283809442788441 0 0.44300716422506259 -0.4165866330242684 0 0.46329455768364097 -0.39726958586384792 0 0.44513541553698549 -0.39851002703335442 0 0.46329455768364097 -0.39726958586384792 0 0.44513541553698549 -0.39851002703335442 0 0.44946256617213087 -0.38283809442788441 0 0.44513541553698549 -0.39851002703335442 0 0.44946256617213087 -0.38283809442788441 0 0.43648734864927302 -0.3887325026652596 0 0.43957607175086882 -0.36865980508433333 0 0.44946256617213087 -0.38283809442788441 0 0.43648734864927302 -0.3887325026652596 0 0.43957607175086882 -0.36865980508433333 0 0.43648734864927302 -0.3887325026652596 0 0.41960258349914059 -0.38740780830230942 0 0.43957607175086882 -0.36865980508433333 0 0.42194168298369061 -0.36988626486602832 0 0.41960258349914059 -0.38740780830230942 0 0.43957607175086882 -0.36865980508433333 0 0.41960258349914059 -0.38740780830230942 0 0.44513541553698549 -0.39851002703335442 0 0.43648734864927302 -0.3887325026652596 0 0.42866010628723922 -0.40624677847841661 0 0.43648734864927302 -0.3887325026652596 0 0.42866010628723922 -0.40624677847841661 0 0.41960258349914059 -0.38740780830230942 0 0.42866010628723922 -0.40624677847841661 0 0.41960258349914059 -0.38740780830230942 0 0.41960258349914059 -0.38740780830230942 0 0.39766645023012848 -0.40799803730658818 0 0.41428021812957638 -0.40856532697918768 0 0.41960258349914059 -0.38740780830230942 0 0.39766645023012848 -0.40799803730658818 0 0.42866010628723922 -0.40624677847841661 0 0.41960258349914059 -0.38740780830230942 0 0.41428021812957638 -0.40856532697918768 0 0.40679603782930912 -0.36077115084339162 0 0.41960258349914059 -0.38740780830230942 0 0.39736931509410922 -0.37760378769077979 0 0.41960258349914059 -0.38740780830230942 0 0.39736931509410922 -0.37760378769077979 0 0.40046971975158852 -0.39352897316849023 0 0.39736931509410922 -0.37760378769077979 0 0.38529146629694089 -0.38986599170482811 0 0.40046971975158852 -0.39352897316849023 0 0.39736931509410922 -0.37760378769077979 0 0.38529146629694089 -0.38986599170482811 0 0.37918479720608439 -0.37616203456703962 0 0.38529146629694089 -0.38986599170482811 0 0.37918479720608439 -0.37616203456703962 0 0.36366332729008899 -0.39134878958216368 0 0.38011115376994298 -0.40394487797543871 0 0.40046971975158852 -0.39352897316849023 0 0.38529146629694089 -0.38986599170482811 0 0.38011115376994298 -0.40394487797543871 0 0.36366332729008899 -0.39134878958216368 0 0.38529146629694089 -0.38986599170482811 0 0.38011115376994298 -0.40394487797543871 0 0.40046971975158852 -0.39352897316849023 0 0.38011115376994298 -0.40394487797543871 0 0.40046971975158852 -0.39352897316849023 0 0.39766645023012848 -0.40799803730658818 0 0.41960258349914059 -0.38740780830230942 0 0.40046971975158852 -0.39352897316849023 0 0.39766645023012848 -0.40799803730658818 0 0.39766645023012848 -0.40799803730658818 0 0.40579893493479979 -0.4194966228253742 0 0.41428021812957638 -0.40856532697918768 0 0.39766645023012848 -0.40799803730658818 0 0.40579893493479979 -0.4194966228253742 0 0.39439111306729202 -0.42885469099354973 0 0.39766645023012848 -0.40799803730658818 0 0.37573031696111681 -0.42858826631086772 0 0.39766645023012848 -0.40799803730658818 0 0.37573031696111681 -0.42858826631086772 0 0.39439111306729202 -0.42885469099354973 0 0.38011115376994298 -0.40394487797543871 0 0.39766645023012848 -0.40799803730658818 0 0.37573031696111681 -0.42858826631086772 0 0.37573031696111681 -0.42858826631086772 0 0.39439111306729202 -0.42885469099354973 0 0.38337860008304681 -0.45263832601926601 0 0.40579893493479979 -0.4194966228253742 0 0.39439111306729202 -0.42885469099354973 0 0.40956754056903938 -0.44073495486939879 0 0.40579893493479979 -0.4194966228253742 0 0.42017147594934567 -0.42246079834099542 0 0.40956754056903938 -0.44073495486939879 0 0.42017147594934567 -0.42246079834099542 0 0.42773098083660971 -0.43476190937652581 0 0.40956754056903938 -0.44073495486939879 0 0.40579893493479979 -0.4194966228253742 0 0.42017147594934567 -0.42246079834099542 0 0.41428021812957638 -0.40856532697918768 0 0.42866010628723922 -0.40624677847841661 0 0.42017147594934567 -0.42246079834099542 0 0.41428021812957638 -0.40856532697918768 0 0.43771762907533751 -0.42508574865452381 0 0.44300716422506259 -0.4165866330242684 0 0.42866010628723922 -0.40624677847841661 0 0.43771762907533751 -0.42508574865452381 0 0.42866010628723922 -0.40624677847841661 0 0.43771762907533751 -0.42508574865452381 0 0.42866010628723922 -0.40624677847841661 0 0.42017147594934567 -0.42246079834099542 0 0.43771762907533751 -0.42508574865452381 0 0.42017147594934567 -0.42246079834099542 0 0.42773098083660971 -0.43476190937652581 0 0.44230444679452879 -0.43746954186574111 0 0.43771762907533751 -0.42508574865452381 0 0.42773098083660971 -0.43476190937652581 0 0.5 -0.5 0 0.42261548729508103 -0.46699158232608973 0 0.38940935708088908 -0.5 0 0.45572661731664488 -0.4545083970103877 0 0.42889381179479669 -0.44805850315196988 0 0.42261548729508103 -0.46699158232608973 0 0.42773098083660971 -0.43476190937652581 0 0.42889381179479669 -0.44805850315196988 0 0.40956754056903938 -0.44073495486939879 0 0.44230444679452879 -0.43746954186574111 0 0.42773098083660971 -0.43476190937652581 0 0.42889381179479669 -0.44805850315196988 0 0.42889381179479669 -0.44805850315196988 0 0.42261548729508103 -0.46699158232608973 0 0.40956754056903938 -0.44073495486939879 0 0.39439111306729202 -0.42885469099354973 0 0.40956754056903938 -0.44073495486939879 0 0.38337860008304681 -0.45263832601926601 0 0.42261548729508103 -0.46699158232608973 0 0.40956754056903938 -0.44073495486939879 0 0.38337860008304681 -0.45263832601926601 0 0.42261548729508103 -0.46699158232608973 0 0.38337860008304681 -0.45263832601926601 0 0.38940935708088908 -0.5 0 0.38940935708088908 -0.5 0 0.34799271964455269 -0.4692574839346928 0 0.30559342948661439 -0.5 0 0.34799271964455269 -0.4692574839346928 0 0.31506887635108882 -0.46220685731212963 0 0.30559342948661439 -0.5 0 0.38337860008304681 -0.45263832601926601 0 0.38940935708088908 -0.5 0 0.34799271964455269 -0.4692574839346928 0 0.38337860008304681 -0.45263832601926601 0 0.34799271964455269 -0.4692574839346928 0 0.35744998439656522 -0.43961005872226289 0 0.37573031696111681 -0.42858826631086772 0 0.38337860008304681 -0.45263832601926601 0 0.35744998439656522 -0.43961005872226289 0 0.34799271964455269 -0.4692574839346928 0 0.35744998439656522 -0.43961005872226289 0 0.33654919688790241 -0.44673161304982328 0 0.34799271964455269 -0.4692574839346928 0 0.33654919688790241 -0.44673161304982328 0 0.31506887635108882 -0.46220685731212963 0 0.33654919688790241 -0.44673161304982328 0 0.31506887635108882 -0.46220685731212963 0 0.31903545582500681 -0.43519259239628372 0 0.31903545582500681 -0.43519259239628372 0 0.33939402180665218 -0.42477668758933529 0 0.32091814861277268 -0.40583700618582341 0 0.31903545582500681 -0.43519259239628372 0 0.32091814861277268 -0.40583700618582341 0 0.3031021044499782 -0.42533676410908389 0 0.33939402180665218 -0.42477668758933529 0 0.34188485837977112 -0.40454116469705148 0 0.32091814861277268 -0.40583700618582341 0 0.31903545582500681 -0.43519259239628372 0 0.33939402180665218 -0.42477668758933529 0 0.33654919688790241 -0.44673161304982328 0 0.31903545582500681 -0.43519259239628372 0 0.33939402180665218 -0.42477668758933529 0 0.35744998439656522 -0.43961005872226289 0 0.33654919688790241 -0.44673161304982328 0 0.33939402180665218 -0.42477668758933529 0 0.35744998439656522 -0.43961005872226289 0 0.33939402180665218 -0.42477668758933529 0 0.35975258778829761 -0.41436078278238703 0 0.37573031696111681 -0.42858826631086772 0 0.35744998439656522 -0.43961005872226289 0 0.35975258778829761 -0.41436078278238703 0 0.38011115376994298 -0.40394487797543871 0 0.37573031696111681 -0.42858826631086772 0 0.35975258778829761 -0.41436078278238703 0 0.38011115376994298 -0.40394487797543871 0 0.35975258778829761 -0.41436078278238703 0 0.33939402180665218 -0.42477668758933529 0 0.35975258778829761 -0.41436078278238703 0 0.33939402180665218 -0.42477668758933529 0 0.35975258778829761 -0.41436078278238703 0 0.34188485837977112 -0.40454116469705148 0 0.36366332729008899 -0.39134878958216368 0 0.33943617779486568 -0.38376398430216108 0 0.34188485837977112 -0.40454116469705148 0 0.35975258778829761 -0.41436078278238703 0 0.36366332729008899 -0.39134878958216368 0 0.34188485837977112 -0.40454116469705148 0 0.38011115376994298 -0.40394487797543871 0 0.35975258778829761 -0.41436078278238703 0 0.36366332729008899 -0.39134878958216368 0 0.37918479720608439 -0.37616203456703962 0 0.36366332729008899 -0.39134878958216368 0 0.36041364820457122 -0.36248779155005367 0 0.36366332729008899 -0.39134878958216368 0 0.36041364820457122 -0.36248779155005367 0 0.36366332729008899 -0.39134878958216368 0 0.33943617779486568 -0.38376398430216108 0 0.36041364820457122 -0.36248779155005367 0 0.33943617779486568 -0.38376398430216108 0 0.34188485837977112 -0.40454116469705148 0 0.32091814861277268 -0.40583700618582341 0 0.32091814861277268 -0.40583700618582341 0 0.31784764467422838 -0.37918464970597993 0 0.30039558628042817 -0.3944106581796224 0 0.33943617779486568 -0.38376398430216108 0 0.32091814861277268 -0.40583700618582341 0 0.31784764467422838 -0.37918464970597993 0 0.30039558628042817 -0.3944106581796224 0 0.27620718781750908 -0.37753106660641939 0 0.28280469286216081 -0.40997656522646458 0 0.31784764467422838 -0.37918464970597993 0 0.30039558628042817 -0.3944106581796224 0 0.30151587502684241 -0.37094830649509553 0 0.30039558628042817 -0.3944106581796224 0 0.27620718781750908 -0.37753106660641939 0 0.30151587502684241 -0.37094830649509553 0 0.27620718781750908 -0.37753106660641939 0 0.26220385387346867 -0.4001823687442353 0 0.28280469286216081 -0.40997656522646458 0 0.27620718781750908 -0.37753106660641939 0 0.25089850060817581 -0.3841138267177433 0 0.26269722425753 -0.36614827905468272 0 0.27620718781750908 -0.37753106660641939 0 0.25089850060817581 -0.3841138267177433 0 0.26220385387346867 -0.4001823687442353 0 0.27620718781750908 -0.37753106660641939 0 0.25089850060817581 -0.3841138267177433 0 0.25089850060817581 -0.3841138267177433 0 0.26220385387346867 -0.4001823687442353 0 0.2386074654452558 -0.40673505004074362 0 0.25925587917802301 -0.42136602321810929 0 0.28280469286216081 -0.40997656522646458 0 0.25925587917802301 -0.42136602321810929 0 0.27757713960909691 -0.42914462951688209 0 0.28280469286216081 -0.40997656522646458 0 0.26220385387346867 -0.4001823687442353 0 0.25925587917802301 -0.42136602321810929 0 0.28280469286216081 -0.40997656522646458 0 0.26220385387346867 -0.4001823687442353 0 0.25925587917802301 -0.42136602321810929 0 0.2386074654452558 -0.40673505004074362 0 0.25925587917802301 -0.42136602321810929 0 0.25743696126813848 -0.44420727299840862 0 0.2357070654938849 -0.43275548120975421 0 0.25925587917802301 -0.42136602321810929 0 0.27757713960909691 -0.42914462951688209 0 0.25743696126813848 -0.44420727299840862 0 0.27757713960909691 -0.42914462951688209 0 0.3031021044499782 -0.42533676410908389 0 0.28528606028718362 -0.44483652203234447 0 0.3031021044499782 -0.42533676410908389 0 0.28528606028718362 -0.44483652203234447 0 0.30039558628042817 -0.3944106581796224 0 0.28280469286216081 -0.40997656522646458 0 0.3031021044499782 -0.42533676410908389 0 0.27757713960909691 -0.42914462951688209 0 0.28280469286216081 -0.40997656522646458 0 0.3031021044499782 -0.42533676410908389 0 0.32091814861277268 -0.40583700618582341 0 0.30039558628042817 -0.3944106581796224 0 0.3031021044499782 -0.42533676410908389 0 0.32091814861277268 -0.40583700618582341 0 0.3031021044499782 -0.42533676410908389 0 0.31903545582500681 -0.43519259239628372 0 0.3031021044499782 -0.42533676410908389 0 0.30285229069149627 -0.44410277607192028 0 0.31506887635108882 -0.46220685731212963 0 0.31903545582500681 -0.43519259239628372 0 0.30285229069149627 -0.44410277607192028 0 0.3031021044499782 -0.42533676410908389 0 0.30285229069149627 -0.44410277607192028 0 0.28528606028718362 -0.44483652203234447 0 0.31506887635108882 -0.46220685731212963 0 0.30285229069149627 -0.44410277607192028 0 0.28723622341201299 -0.46915880044070463 0 0.30285229069149627 -0.44410277607192028 0 0.28528606028718362 -0.44483652203234447 0 0.28723622341201299 -0.46915880044070463 0 0.28528606028718362 -0.44483652203234447 0 0.25743696126813848 -0.44420727299840862 0 0.26747001612438909 -0.464336279955605 0 0.27757713960909691 -0.42914462951688209 0 0.28528606028718362 -0.44483652203234447 0 0.25743696126813848 -0.44420727299840862 0 0.26747001612438909 -0.464336279955605 0 0.24582165533359271 -0.47406865487172711 0 0.249170702155108 -0.46009176652406347 0 0.25743696126813848 -0.44420727299840862 0 0.26747001612438909 -0.464336279955605 0 0.249170702155108 -0.46009176652406347 0 0.28528606028718362 -0.44483652203234447 0 0.26747001612438909 -0.464336279955605 0 0.28723622341201299 -0.46915880044070463 0 0.28528606028718362 -0.44483652203234447 0 0.26747001612438909 -0.464336279955605 0 0.26747001612438909 -0.464336279955605 0 0.24579674443834951 -0.49973518363611391 0 0.24582165533359271 -0.47406865487172711 0 0.30559342948661439 -0.5 0 0.28723622341201299 -0.46915880044070463 0 0.24579674443834951 -0.49973518363611391 0 0.26747001612438909 -0.464336279955605 0 0.28723622341201299 -0.46915880044070463 0 0.24579674443834951 -0.49973518363611391 0 0.31506887635108882 -0.46220685731212963 0 0.30559342948661439 -0.5 0 0.28723622341201299 -0.46915880044070463 0 0.33557773427681492 -0.29340646004314003 0 0.33590120948065499 -0.27437524550113612 0 0.35122477196335777 -0.28087969052345507 0 0.33557773427681492 -0.29340646004314003 0 0.31706693885077969 -0.28049967003006299 0 0.33590120948065499 -0.27437524550113612 0 0.33557773427681492 -0.29340646004314003 0 0.33678035149512858 -0.31061740203745247 0 0.35408852970284982 -0.30631325005621751 0 0.33557773427681492 -0.29340646004314003 0 0.33678035149512858 -0.31061740203745247 0 0.32464488858173041 -0.30593190951912208 0 0.33678035149512858 -0.31061740203745247 0 0.32464488858173041 -0.30593190951912208 0 0.32383146265906221 -0.31590028641826873 0 0.33557773427681492 -0.29340646004314003 0 0.32464488858173041 -0.30593190951912208 0 0.31568166569636708 -0.29530924359935662 0 0.32464488858173041 -0.30593190951912208 0 0.3128815112864799 -0.30977801692737023 0 0.32383146265906221 -0.31590028641826873 0 0.32464488858173041 -0.30593190951912208 0 0.3128815112864799 -0.30977801692737023 0 0.31568166569636708 -0.29530924359935662 0 0.33557773427681492 -0.29340646004314003 0 0.31706693885077969 -0.28049967003006299 0 0.33557773427681492 -0.29340646004314003 0 0.31568166569636708 -0.29530924359935662 0 0.31706693885077969 -0.28049967003006299 0 0.31706693885077969 -0.28049967003006299 0 0.32727558808845558 -0.26164427591832978 0 0.30957382183614102 -0.26291056914617938 0 0.31706693885077969 -0.28049967003006299 0 0.32727558808845558 -0.26164427591832978 0 0.33590120948065499 -0.27437524550113612 0 0.3190565073048745 -0.24977657005836851 0 0.33282382961030038 -0.2443175747853791 0 0.32727558808845558 -0.26164427591832978 0 0.3190565073048745 -0.24977657005836851 0 0.32727558808845558 -0.26164427591832978 0 0.30957382183614102 -0.26291056914617938 0 0.33282382961030038 -0.2443175747853791 0 0.32727558808845558 -0.26164427591832978 0 0.34836101422386673 -0.25544613099069258 0 0.32727558808845558 -0.26164427591832978 0 0.33590120948065499 -0.27437524550113612 0 0.34836101422386673 -0.25544613099069258 0 0.33590120948065499 -0.27437524550113612 0 0.35122477196335777 -0.28087969052345507 0 0.34836101422386673 -0.25544613099069258 0 0.35122477196335777 -0.28087969052345507 0 0.34836101422386673 -0.25544613099069258 0 0.35122477196335777 -0.28087969052345507 0 0.35882795631092868 -0.26719345362269548 0 0.34836101422386673 -0.25544613099069258 0 0.35122477196335777 -0.28087969052345507 0 0.35882795631092868 -0.26719345362269548 0 0.36516284633366691 -0.2852199803580665 0 0.36387820334088439 -0.24480156524686331 0 0.35882795631092868 -0.26719345362269548 0 0.34836101422386673 -0.25544613099069258 0 0.36387820334088439 -0.24480156524686331 0 0.35882795631092868 -0.26719345362269548 0 0.3734874498276895 -0.26940211786777368 0 0.36387820334088439 -0.24480156524686331 0 0.38725519818872839 -0.25869898904443761 0 0.3734874498276895 -0.26940211786777368 0 0.36387820334088439 -0.24480156524686331 0 0.3734874498276895 -0.26940211786777368 0 0.35882795631092868 -0.26719345362269548 0 0.3734874498276895 -0.26940211786777368 0 0.36516284633366691 -0.2852199803580665 0 0.38309669631449461 -0.29400267048868428 0 0.3734874498276895 -0.26940211786777368 0 0.36516284633366691 -0.2852199803580665 0 0.38309669631449461 -0.29400267048868428 0 0.36516284633366691 -0.2852199803580665 0 0.37081294247325142 -0.29351337138527822 0 0.36516284633366691 -0.2852199803580665 0 0.37081294247325142 -0.29351337138527822 0 0.35408852970284982 -0.30631325005621751 0 0.33557773427681492 -0.29340646004314003 0 0.35122477196335777 -0.28087969052345507 0 0.35408852970284982 -0.30631325005621751 0 0.35122477196335777 -0.28087969052345507 0 0.35408852970284982 -0.30631325005621751 0 0.35122477196335777 -0.28087969052345507 0 0.36516284633366691 -0.2852199803580665 0 0.35408852970284982 -0.30631325005621751 0 0.33678035149512858 -0.31061740203745247 0 0.35408852970284982 -0.30631325005621751 0 0.3457275721671067 -0.31944163882450799 0 0.33557773427681492 -0.29340646004314003 0 0.35408852970284982 -0.30631325005621751 0 0.35408852970284982 -0.30631325005621751 0 0.37102400511833578 -0.30932088889013931 0 0.37403901093116282 -0.32022387172034611 0 0.35408852970284982 -0.30631325005621751 0 0.36959701149508578 -0.30213333491521011 0 0.37102400511833578 -0.30932088889013931 0 0.37081294247325142 -0.29351337138527822 0 0.35408852970284982 -0.30631325005621751 0 0.36959701149508578 -0.30213333491521011 0 0.37726771512787471 -0.29935444743153222 0 0.37081294247325142 -0.29351337138527822 0 0.36959701149508578 -0.30213333491521011 0 0.37825897282050103 -0.30855179996978621 0 0.36959701149508578 -0.30213333491521011 0 0.37102400511833578 -0.30932088889013931 0 0.37769568744368881 -0.31161116903914371 0 0.37102400511833578 -0.30932088889013931 0 0.37403901093116282 -0.32022387172034611 0 0.35408852970284982 -0.30631325005621751 0 0.37403901093116282 -0.32022387172034611 0 0.35408852970284982 -0.30631325005621751 0 0.37403901093116282 -0.32022387172034611 0 0.36294471135134948 -0.32358029697078089 0 0.36294471135134948 -0.32358029697078089 0 0.36953539015669529 -0.32977291894883848 0 0.36350056724542068 -0.3305161756107271 0 0.37403901093116282 -0.32022387172034611 0 0.36294471135134948 -0.32358029697078089 0 0.36953539015669529 -0.32977291894883848 0 0.37774837455241561 -0.33499865259217859 0 0.36953539015669529 -0.32977291894883848 0 0.37189852954813069 -0.33681334017191361 0 0.37774837455241561 -0.33499865259217859 0 0.37403901093116282 -0.32022387172034611 0 0.36953539015669529 -0.32977291894883848 0 0.36435819835458572 -0.33508469300534521 0 0.35716396911905252 -0.33362679351794389 0 0.36041364820457122 -0.36248779155005367 0 0.36953539015669529 -0.32977291894883848 0 0.37189852954813069 -0.33681334017191361 0 0.36435819835458572 -0.33508469300534521 0 0.37189852954813069 -0.33681334017191361 0 0.36435819835458572 -0.33508469300534521 0 0.37351927860320411 -0.3465563071842454 0 0.37774837455241561 -0.33499865259217859 0 0.37189852954813069 -0.33681334017191361 0 0.37351927860320411 -0.3465563071842454 0 0.36294471135134948 -0.32358029697078089 0 0.36350056724542068 -0.3305161756107271 0 0.35716396911905252 -0.33362679351794389 0 0.36953539015669529 -0.32977291894883848 0 0.36350056724542068 -0.3305161756107271 0 0.36435819835458572 -0.33508469300534521 0 0.36350056724542068 -0.3305161756107271 0 0.36435819835458572 -0.33508469300534521 0 0.35716396911905252 -0.33362679351794389 0 0.36435819835458572 -0.33508469300534521 0 0.35716396911905252 -0.33362679351794389 0 0.35716396911905252 -0.33362679351794389 0 0.34285511581552042 -0.34474831708859749 0 0.33400484368367472 -0.32893363237511503 0 0.35716396911905252 -0.33362679351794389 0 0.33400484368367472 -0.32893363237511503 0 0.35408852970284982 -0.30631325005621751 0 0.36294471135134948 -0.32358029697078089 0 0.35716396911905252 -0.33362679351794389 0 0.35716396911905252 -0.33362679351794389 0 0.3457275721671067 -0.31944163882450799 0 0.33400484368367472 -0.32893363237511503 0 0.35408852970284982 -0.30631325005621751 0 0.35716396911905252 -0.33362679351794389 0 0.3457275721671067 -0.31944163882450799 0 0.35408852970284982 -0.30631325005621751 0 0.35716396911905252 -0.33362679351794389 0 0.38537508352877847 -0.35925436603321981 0 0.37918479720608439 -0.37616203456703962 0 0.36041364820457122 -0.36248779155005367 0 0.38537508352877847 -0.35925436603321981 0 0.36041364820457122 -0.36248779155005367 0 0.37351927860320411 -0.3465563071842454 0 0.36435819835458572 -0.33508469300534521 0 0.36041364820457122 -0.36248779155005367 0 0.37351927860320411 -0.3465563071842454 0 0.35716396911905252 -0.33362679351794389 0 0.36041364820457122 -0.36248779155005367 0 0.34285511581552042 -0.34474831708859749 0 0.35716396911905252 -0.33362679351794389 0 0.36041364820457122 -0.36248779155005367 0 0.36041364820457122 -0.36248779155005367 0 0.33100767001345038 -0.35846216400919578 0 0.34285511581552042 -0.34474831708859749 0 0.33943617779486568 -0.38376398430216108 0 0.36041364820457122 -0.36248779155005367 0 0.33100767001345038 -0.35846216400919578 0 0.33943617779486568 -0.38376398430216108 0 0.31784764467422838 -0.37918464970597993 0 0.33100767001345038 -0.35846216400919578 0 0.33100767001345038 -0.35846216400919578 0 0.34285511581552042 -0.34474831708859749 0 0.32773000403702951 -0.34199387085048538 0 0.33100767001345038 -0.35846216400919578 0 0.31606867203026889 -0.34762399896332241 0 0.32773000403702951 -0.34199387085048538 0 0.33100767001345038 -0.35846216400919578 0 0.31606867203026889 -0.34762399896332241 0 0.31381241031701163 -0.3616857790639818 0 0.31784764467422838 -0.37918464970597993 0 0.33100767001345038 -0.35846216400919578 0 0.31381241031701163 -0.3616857790639818 0 0.33678035149512858 -0.31061740203745247 0 0.33400484368367472 -0.32893363237511503 0 0.32383146265906221 -0.31590028641826873 0 0.33678035149512858 -0.31061740203745247 0 0.3457275721671067 -0.31944163882450799 0 0.33400484368367472 -0.32893363237511503 0 0.34285511581552042 -0.34474831708859749 0 0.33400484368367472 -0.32893363237511503 0 0.32773000403702951 -0.34199387085048538 0 0.33400484368367472 -0.32893363237511503 0 0.31598614521809493 -0.33286390189441689 0 0.31084571824829749 -0.32424047123228328 0 0.33400484368367472 -0.32893363237511503 0 0.32773000403702951 -0.34199387085048538 0 0.31598614521809493 -0.33286390189441689 0 0.31606867203026889 -0.34762399896332241 0 0.32773000403702951 -0.34199387085048538 0 0.31598614521809493 -0.33286390189441689 0 0.33400484368367472 -0.32893363237511503 0 0.31084571824829749 -0.32424047123228328 0 0.33400484368367472 -0.32893363237511503 0 0.32383146265906221 -0.31590028641826873 0 0.31084571824829749 -0.32424047123228328 0 0.3128815112864799 -0.30977801692737023 0 0.32383146265906221 -0.31590028641826873 0 0.31084571824829749 -0.32424047123228328 0 0.30080246185066251 -0.31306306033804399 0 0.31084571824829749 -0.32424047123228328 0 0.28768659281292042 -0.31954731008945148 0 0.31084571824829749 -0.32424047123228328 0 0.28768659281292042 -0.31954731008945148 0 0.3128815112864799 -0.30977801692737023 0 0.30080246185066251 -0.31306306033804399 0 0.31084571824829749 -0.32424047123228328 0 0.31598614521809493 -0.33286390189441689 0 0.30461569705159958 -0.34013518443822782 0 0.2950023245879797 -0.33082897903035602 0 0.31598614521809493 -0.33286390189441689 0 0.28964844813870738 -0.32885730672521091 0 0.31598614521809493 -0.33286390189441689 0 0.28964844813870738 -0.32885730672521091 0 0.2950023245879797 -0.33082897903035602 0 0.31598614521809493 -0.33286390189441689 0 0.31084571824829749 -0.32424047123228328 0 0.28964844813870738 -0.32885730672521091 0 0.31606867203026889 -0.34762399896332241 0 0.31598614521809493 -0.33286390189441689 0 0.30461569705159958 -0.34013518443822782 0 0.30461569705159958 -0.34013518443822782 0 0.2950023245879797 -0.33082897903035602 0 0.29672549485417221 -0.34163626892734761 0 0.2950023245879797 -0.33082897903035602 0 0.27068740615908088 -0.34401443712933227 0 0.28964844813870738 -0.32885730672521091 0 0.2950023245879797 -0.33082897903035602 0 0.27068740615908088 -0.34401443712933227 0 0.2950023245879797 -0.33082897903035602 0 0.28741896969533243 -0.3458566803527095 0 0.27068740615908088 -0.34401443712933227 0 0.2950023245879797 -0.33082897903035602 0 0.29672549485417221 -0.34163626892734761 0 0.28741896969533243 -0.3458566803527095 0 0.31084571824829749 -0.32424047123228328 0 0.28964844813870738 -0.32885730672521091 0 0.28768659281292042 -0.31954731008945148 0 0.28964844813870738 -0.32885730672521091 0 0.28768659281292042 -0.31954731008945148 0 0.27528922263498712 -0.32123632620380538 0 0.28768659281292042 -0.31954731008945148 0 0.27456658241104381 -0.3096709312567526 0 0.28283051093487388 -0.30977829591468392 0 0.30080246185066251 -0.31306306033804399 0 0.28768659281292042 -0.31954731008945148 0 0.29057959633891378 -0.30749637990211698 0 0.31784764467422838 -0.37918464970597993 0 0.31381241031701163 -0.3616857790639818 0 0.30151587502684241 -0.37094830649509553 0 0.31381241031701163 -0.3616857790639818 0 0.30151587502684241 -0.37094830649509553 0 0.30174042024595632 -0.35148743606361699 0 0.30151587502684241 -0.37094830649509553 0 0.30174042024595632 -0.35148743606361699 0 0.2899399894504352 -0.36068373673831139 0 0.31606867203026889 -0.34762399896332241 0 0.31381241031701163 -0.3616857790639818 0 0.30174042024595632 -0.35148743606361699 0 0.31606867203026889 -0.34762399896332241 0 0.30461569705159958 -0.34013518443822782 0 0.30174042024595632 -0.35148743606361699 0 0.30461569705159958 -0.34013518443822782 0 0.29672549485417221 -0.34163626892734761 0 0.30174042024595632 -0.35148743606361699 0 0.29672549485417221 -0.34163626892734761 0 0.30174042024595632 -0.35148743606361699 0 0.28741896969533243 -0.3458566803527095 0 0.28741896969533243 -0.3458566803527095 0 0.2899399894504352 -0.36068373673831139 0 0.27738074573905702 -0.36012496064878369 0 0.30174042024595632 -0.35148743606361699 0 0.28741896969533243 -0.3458566803527095 0 0.2899399894504352 -0.36068373673831139 0 0.27620718781750908 -0.37753106660641939 0 0.30151587502684241 -0.37094830649509553 0 0.27620718781750908 -0.37753106660641939 0 0.30151587502684241 -0.37094830649509553 0 0.2899399894504352 -0.36068373673831139 0 0.27620718781750908 -0.37753106660641939 0 0.27738074573905702 -0.36012496064878369 0 0.26269722425753 -0.36614827905468272 0 0.27620718781750908 -0.37753106660641939 0 0.2899399894504352 -0.36068373673831139 0 0.27738074573905702 -0.36012496064878369 0 0.27738074573905702 -0.36012496064878369 0 0.27068740615908088 -0.34401443712933227 0 0.26269722425753 -0.36614827905468272 0 0.28741896969533243 -0.3458566803527095 0 0.27738074573905702 -0.36012496064878369 0 0.27068740615908088 -0.34401443712933227 0 0.27068740615908088 -0.34401443712933227 0 0.24637248773018211 -0.35719989522830881 0 0.27068740615908088 -0.34401443712933227 0 0.26269722425753 -0.36614827905468272 0 0.24637248773018211 -0.35719989522830881 0 0.27068740615908088 -0.34401443712933227 0 0.24791555148954331 -0.33800088652677551 0 0.24637248773018211 -0.35719989522830881 0 0.25089850060817581 -0.3841138267177433 0 0.26269722425753 -0.36614827905468272 0 0.24637248773018211 -0.35719989522830881 0 0.28964844813870738 -0.32885730672521091 0 0.26331075105932 -0.32485071155600481 0 0.28964844813870738 -0.32885730672521091 0 0.27528922263498712 -0.32123632620380538 0 0.26331075105932 -0.32485071155600481 0 0.28768659281292042 -0.31954731008945148 0 0.26452746737754318 -0.31485414894661973 0 0.28768659281292042 -0.31954731008945148 0 0.26452746737754318 -0.31485414894661973 0 0.27456658241104381 -0.3096709312567526 0 0.28768659281292042 -0.31954731008945148 0 0.27528922263498712 -0.32123632620380538 0 0.26452746737754318 -0.31485414894661973 0 0.27528922263498712 -0.32123632620380538 0 0.26331075105932 -0.32485071155600481 0 0.26452746737754318 -0.31485414894661973 0 0.28964844813870738 -0.32885730672521091 0 0.27068740615908088 -0.34401443712933227 0 0.26331075105932 -0.32485071155600481 0 0.27068740615908088 -0.34401443712933227 0 0.26331075105932 -0.32485071155600481 0 0.24791555148954331 -0.33800088652677551 0 0.26331075105932 -0.32485071155600481 0 0.2369730539799326 -0.32084411638679872 0 0.26331075105932 -0.32485071155600481 0 0.26452746737754318 -0.31485414894661973 0 0.25101231613772712 -0.30806295736817979 0 0.26331075105932 -0.32485071155600481 0 0.25101231613772712 -0.30806295736817979 0 0.2369730539799326 -0.32084411638679872 0 0.25101231613772712 -0.30806295736817979 0 0.26523346838189837 -0.29807641559711612 0 0.24506604866972229 -0.28632961139264912 0 0.26452746737754318 -0.31485414894661973 0 0.25101231613772712 -0.30806295736817979 0 0.26523346838189837 -0.29807641559711612 0 0.26523346838189837 -0.29807641559711612 0 0.2646630277176395 -0.28087754731343029 0 0.24506604866972229 -0.28632961139264912 0 0.26523346838189837 -0.29807641559711612 0 0.28025881654505669 -0.28711392982571432 0 0.2646630277176395 -0.28087754731343029 0 0.26523346838189837 -0.29807641559711612 0 0.28025881654505669 -0.28711392982571432 0 0.28005095628941612 -0.30142489837739428 0 0.26452746737754318 -0.31485414894661973 0 0.26523346838189837 -0.29807641559711612 0 0.27456658241104381 -0.3096709312567526 0 0.26523346838189837 -0.29807641559711612 0 0.28005095628941612 -0.30142489837739428 0 0.27456658241104381 -0.3096709312567526 0 0.28005095628941612 -0.30142489837739428 0 0.27456658241104381 -0.3096709312567526 0 0.28283051093487388 -0.30977829591468392 0 0.28005095628941612 -0.30142489837739428 0 0.28283051093487388 -0.30977829591468392 0 0.29057959633891378 -0.30749637990211698 0 0.28768659281292042 -0.31954731008945148 0 0.28283051093487388 -0.30977829591468392 0 0.29057959633891378 -0.30749637990211698 0 0.29057959633891378 -0.30749637990211698 0 0.29060136101926382 -0.2959137153979996 0 0.30295131921119173 -0.30105179636871288 0 0.28005095628941612 -0.30142489837739428 0 0.29057959633891378 -0.30749637990211698 0 0.29060136101926382 -0.2959137153979996 0 0.28025881654505669 -0.28711392982571432 0 0.29060136101926382 -0.2959137153979996 0 0.29916611671174059 -0.28248157251605949 0 0.28025881654505669 -0.28711392982571432 0 0.28005095628941612 -0.30142489837739428 0 0.29060136101926382 -0.2959137153979996 0 0.31568166569636708 -0.29530924359935662 0 0.29916611671174059 -0.28248157251605949 0 0.30295131921119173 -0.30105179636871288 0 0.31568166569636708 -0.29530924359935662 0 0.31706693885077969 -0.28049967003006299 0 0.29916611671174059 -0.28248157251605949 0 0.29060136101926382 -0.2959137153979996 0 0.29916611671174059 -0.28248157251605949 0 0.30295131921119173 -0.30105179636871288 0 0.3128815112864799 -0.30977801692737023 0 0.31568166569636708 -0.29530924359935662 0 0.30295131921119173 -0.30105179636871288 0 0.3128815112864799 -0.30977801692737023 0 0.30080246185066251 -0.31306306033804399 0 0.30295131921119173 -0.30105179636871288 0 0.30080246185066251 -0.31306306033804399 0 0.29057959633891378 -0.30749637990211698 0 0.30295131921119173 -0.30105179636871288 0 0.30330180155814479 -0.24367506851752471 0 0.3190565073048745 -0.24977657005836851 0 0.30957382183614102 -0.26291056914617938 0 0.30330180155814479 -0.24367506851752471 0 0.30957382183614102 -0.26291056914617938 0 0.29077070566577379 -0.25803338767600092 0 0.31706693885077969 -0.28049967003006299 0 0.29916611671174059 -0.28248157251605949 0 0.30957382183614102 -0.26291056914617938 0 0.29916611671174059 -0.28248157251605949 0 0.30957382183614102 -0.26291056914617938 0 0.29077070566577379 -0.25803338767600092 0 0.29916611671174059 -0.28248157251605949 0 0.29077070566577379 -0.25803338767600092 0 0.27804856177324772 -0.27070110892249077 0 0.28025881654505669 -0.28711392982571432 0 0.29916611671174059 -0.28248157251605949 0 0.27804856177324772 -0.27070110892249077 0 0.29077070566577379 -0.25803338767600092 0 0.27127716571536581 -0.25336597756542861 0 0.27804856177324772 -0.27070110892249077 0 0.27127716571536581 -0.25336597756542861 0 0.27804856177324772 -0.27070110892249077 0 0.25470824321827251 -0.26216667082918121 0 0.28025881654505669 -0.28711392982571432 0 0.27804856177324772 -0.27070110892249077 0 0.2646630277176395 -0.28087754731343029 0 0.27804856177324772 -0.27070110892249077 0 0.2646630277176395 -0.28087754731343029 0 0.25470824321827251 -0.26216667082918121 0 0.2646630277176395 -0.28087754731343029 0 0.25470824321827251 -0.26216667082918121 0 0.24506604866972229 -0.28632961139264912 0 0.25036477254419898 -0.23627752457163231 0 0.27127716571536581 -0.25336597756542861 0 0.25470824321827251 -0.26216667082918121 0 0.25470824321827251 -0.26216667082918121 0 0.2418638624582429 -0.25084912941786092 0 0.23345073769858571 -0.26662429034183122 0 0.25470824321827251 -0.26216667082918121 0 0.23345073769858571 -0.26662429034183122 0 0.24506604866972229 -0.28632961139264912 0 0.23345073769858571 -0.26662429034183122 0 0.21826924981949961 -0.28941889415630179 0 0.24506604866972229 -0.28632961139264912 0 0.23345073769858571 -0.26662429034183122 0 0.21147237385982209 -0.26561522067383248 0 0.21826924981949961 -0.28941889415630179 0 0.23345073769858571 -0.26662429034183122 0 0.21147237385982209 -0.26561522067383248 0 0.22636218681932779 -0.24657473899766161 0 0.2418638624582429 -0.25084912941786092 0 0.23345073769858571 -0.26662429034183122 0 0.22636218681932779 -0.24657473899766161 0 0.21147237385982209 -0.26561522067383248 0 0.22636218681932779 -0.24657473899766161 0 0.21147237385982209 -0.26561522067383248 0 0.22636218681932779 -0.24657473899766161 0 0.21783924028388271 -0.241713722304121 0 0.21147237385982209 -0.26561522067383248 0 0.1978508546988918 -0.25356352151798278 0 0.21783924028388271 -0.241713722304121 0 0.21147237385982209 -0.26561522067383248 0 0.19658256090031639 -0.28465570235000348 0 0.21147237385982209 -0.26561522067383248 0 0.19658256090031639 -0.28465570235000348 0 0.21826924981949961 -0.28941889415630179 0 0.19181201475668089 -0.26832649203356401 0 0.19658256090031639 -0.28465570235000348 0 0.17430618319700081 -0.2796228478285569 0 0.21147237385982209 -0.26561522067383248 0 0.19181201475668089 -0.26832649203356401 0 0.19658256090031639 -0.28465570235000348 0 0.21147237385982209 -0.26561522067383248 0 0.19181201475668089 -0.26832649203356401 0 0.1978508546988918 -0.25356352151798278 0 0.19181201475668089 -0.26832649203356401 0 0.1978508546988918 -0.25356352151798278 0 0.17884810112737351 -0.2581751677974442 0 0.19906119416432819 -0.30285454020873998 0 0.19658256090031639 -0.28465570235000348 0 0.18169274794081069 -0.30369618402617449 0 0.19906119416432819 -0.30285454020873998 0 0.18812605526046941 -0.31966439929362772 0 0.18169274794081069 -0.30369618402617449 0 0.19658256090031639 -0.28465570235000348 0 0.18169274794081069 -0.30369618402617449 0 0.19906119416432819 -0.30285454020873998 0 0.19658256090031639 -0.28465570235000348 0 0.21826924981949961 -0.28941889415630179 0 0.19906119416432819 -0.30285454020873998 0 0.21826924981949961 -0.28941889415630179 0 0.21063535690054511 -0.31683752121759262 0 0.21826924981949961 -0.28941889415630179 0 0.23133485291800959 -0.30365073902168938 0 0.21063535690054511 -0.31683752121759262 0 0.21826924981949961 -0.28941889415630179 0 0.23133485291800959 -0.30365073902168938 0 0.24506604866972229 -0.28632961139264912 0 0.25101231613772712 -0.30806295736817979 0 0.23133485291800959 -0.30365073902168938 0 0.2369730539799326 -0.32084411638679872 0 0.25101231613772712 -0.30806295736817979 0 0.23133485291800959 -0.30365073902168938 0 0.24506604866972229 -0.28632961139264912 0 0.26331075105932 -0.32485071155600481 0 0.2369730539799326 -0.32084411638679872 0 0.24791555148954331 -0.33800088652677551 0 0.2369730539799326 -0.32084411638679872 0 0.24791555148954331 -0.33800088652677551 0 0.22223405851920089 -0.34309527233343262 0 0.23133485291800959 -0.30365073902168938 0 0.2369730539799326 -0.32084411638679872 0 0.21063535690054511 -0.31683752121759262 0 0.2369730539799326 -0.32084411638679872 0 0.22223405851920089 -0.34309527233343262 0 0.21063535690054511 -0.31683752121759262 0 0.2369730539799326 -0.32084411638679872 0 0.21063535690054511 -0.31683752121759262 0 0.25089850060817581 -0.3841138267177433 0 0.24637248773018211 -0.35719989522830881 0 0.22205756930128351 -0.37038535332728501 0 0.24791555148954331 -0.33800088652677551 0 0.22223405851920089 -0.34309527233343262 0 0.24637248773018211 -0.35719989522830881 0 0.22223405851920089 -0.34309527233343262 0 0.24637248773018211 -0.35719989522830881 0 0.22205756930128351 -0.37038535332728501 0 0.24637248773018211 -0.35719989522830881 0 0.22205756930128351 -0.37038535332728501 0 0.22205756930128351 -0.37038535332728501 0 0.20724325738112359 -0.36201353724801411 0 0.19774265087238491 -0.38357081142626132 0 0.22223405851920089 -0.34309527233343262 0 0.20724325738112359 -0.36201353724801411 0 0.20071496226448129 -0.34780646207038118 0 0.22223405851920089 -0.34309527233343262 0 0.22205756930128351 -0.37038535332728501 0 0.20724325738112359 -0.36201353724801411 0 0.20724325738112359 -0.36201353724801411 0 0.20071496226448129 -0.34780646207038118 0 0.19346704594826741 -0.36520978708271029 0 0.20071496226448129 -0.34780646207038118 0 0.19346704594826741 -0.36520978708271029 0 0.1852236337209516 -0.3528100706914632 0 0.20071496226448129 -0.34780646207038118 0 0.17914403814951749 -0.33816813900222659 0 0.1852236337209516 -0.3528100706914632 0 0.20724325738112359 -0.36201353724801411 0 0.19346704594826741 -0.36520978708271029 0 0.19774265087238491 -0.38357081142626132 0 0.19346704594826741 -0.36520978708271029 0 0.18677159140242289 -0.37490271420684562 0 0.19774265087238491 -0.38357081142626132 0 0.22223405851920089 -0.34309527233343262 0 0.20071496226448129 -0.34780646207038118 0 0.19982681804907501 -0.33175243248508501 0 0.22223405851920089 -0.34309527233343262 0 0.21063535690054511 -0.31683752121759262 0 0.19982681804907501 -0.33175243248508501 0 0.20071496226448129 -0.34780646207038118 0 0.19982681804907501 -0.33175243248508501 0 0.17914403814951749 -0.33816813900222659 0 0.20071496226448129 -0.34780646207038118 0 0.17914403814951749 -0.33816813900222659 0 0.19982681804907501 -0.33175243248508501 0 0.18812605526046941 -0.31966439929362772 0 0.17914403814951749 -0.33816813900222659 0 0.21063535690054511 -0.31683752121759262 0 0.19982681804907501 -0.33175243248508501 0 0.18812605526046941 -0.31966439929362772 0 0.19906119416432819 -0.30285454020873998 0 0.21063535690054511 -0.31683752121759262 0 0.18812605526046941 -0.31966439929362772 0 0.16680293498130491 -0.3227366657023456 0 0.18169274794081069 -0.30369618402617449 0 0.18812605526046941 -0.31966439929362772 0 0.17914403814951749 -0.33816813900222659 0 0.16680293498130491 -0.3227366657023456 0 0.18812605526046941 -0.31966439929362772 0 0.16680293498130491 -0.3227366657023456 0 0.18169274794081069 -0.30369618402617449 0 0.17914403814951749 -0.33816813900222659 0 0.1659868126977278 -0.33865707181562948 0 0.17212251250655991 -0.35275767082733289 0 0.17914403814951749 -0.33816813900222659 0 0.15757311403455371 -0.32852981593407188 0 0.16680293498130491 -0.3227366657023456 0 0.17914403814951749 -0.33816813900222659 0 0.15757311403455371 -0.32852981593407188 0 0.17914403814951749 -0.33816813900222659 0 0.1659868126977278 -0.33865707181562948 0 0.15757311403455371 -0.32852981593407188 0 0.1659868126977278 -0.33865707181562948 0 0.15798688261692609 -0.33685835236387279 0 0.15480686613686409 -0.3456112383207891 0 0.1659868126977278 -0.33865707181562948 0 0.15798688261692609 -0.33685835236387279 0 0.15757311403455371 -0.32852981593407188 0 0.15757311403455371 -0.32852981593407188 0 0.15708549928830379 -0.32250437376149549 0 0.16680293498130491 -0.3227366657023456 0 0.15708549928830379 -0.32250437376149549 0 0.15372611745114009 -0.31055770239810071 0 0.1626389936180713 -0.30999582567886508 0 0.15708549928830379 -0.32250437376149549 0 0.16680293498130491 -0.3227366657023456 0 0.1626389936180713 -0.30999582567886508 0 0.18000415346481019 -0.3650328569607787 0 0.1659582482943224 -0.3670468671393104 0 0.17648188891633679 -0.37747003181700972 0 0.18677159140242289 -0.37490271420684562 0 0.18000415346481019 -0.3650328569607787 0 0.17648188891633679 -0.37747003181700972 0 0.19346704594826741 -0.36520978708271029 0 0.18677159140242289 -0.37490271420684562 0 0.18000415346481019 -0.3650328569607787 0 0.19346704594826741 -0.36520978708271029 0 0.18000415346481019 -0.3650328569607787 0 0.1852236337209516 -0.3528100706914632 0 0.18000415346481019 -0.3650328569607787 0 0.17212251250655991 -0.35275767082733289 0 0.1659582482943224 -0.3670468671393104 0 0.18000415346481019 -0.3650328569607787 0 0.17212251250655991 -0.35275767082733289 0 0.1852236337209516 -0.3528100706914632 0 0.17914403814951749 -0.33816813900222659 0 0.17212251250655991 -0.35275767082733289 0 0.1852236337209516 -0.3528100706914632 0 0.1659868126977278 -0.33865707181562948 0 0.17212251250655991 -0.35275767082733289 0 0.16043599732976219 -0.35415349356904918 0 0.1659868126977278 -0.33865707181562948 0 0.16043599732976219 -0.35415349356904918 0 0.15480686613686409 -0.3456112383207891 0 0.17212251250655991 -0.35275767082733289 0 0.16043599732976219 -0.35415349356904918 0 0.1659582482943224 -0.3670468671393104 0 0.16043599732976219 -0.35415349356904918 0 0.1659582482943224 -0.3670468671393104 0 0.1543006577689644 -0.36407913487449278 0 0.1659582482943224 -0.3670468671393104 0 0.1543006577689644 -0.36407913487449278 0 0.15337111105303869 -0.37631397891862972 0 0.144561744920089 -0.36721183626633253 0 0.15337111105303869 -0.37631397891862972 0 0.14287713590715531 -0.3779711092141565 0 0.144561744920089 -0.36721183626633253 0 0.1543006577689644 -0.36407913487449278 0 0.15337111105303869 -0.37631397891862972 0 0.144561744920089 -0.36721183626633253 0 0.1543006577689644 -0.36407913487449278 0 0.1454936254853717 -0.35479568770060099 0 0.144561744920089 -0.36721183626633253 0 0.1454936254853717 -0.35479568770060099 0 0.13379314649232441 -0.36558790591260332 0 0.16043599732976219 -0.35415349356904918 0 0.1543006577689644 -0.36407913487449278 0 0.1454936254853717 -0.35479568770060099 0 0.16043599732976219 -0.35415349356904918 0 0.1454936254853717 -0.35479568770060099 0 0.15480686613686409 -0.3456112383207891 0 0.1454936254853717 -0.35479568770060099 0 0.15480686613686409 -0.3456112383207891 0 0.14629687775561739 -0.34329246379909722 0 0.1454936254853717 -0.35479568770060099 0 0.1373611286291066 -0.3440184922878104 0 0.14629687775561739 -0.34329246379909722 0 0.1454936254853717 -0.35479568770060099 0 0.1373611286291066 -0.3440184922878104 0 0.13147191054686261 -0.35449769416360538 0 0.1373611286291066 -0.3440184922878104 0 0.13147191054686261 -0.35449769416360538 0 0.12521507679061969 -0.3416049529093918 0 0.13147191054686261 -0.35449769416360538 0 0.12521507679061969 -0.3416049529093918 0 0.1196676826553366 -0.35215782221189368 0 0.1454936254853717 -0.35479568770060099 0 0.13147191054686261 -0.35449769416360538 0 0.13379314649232441 -0.36558790591260332 0 0.13147191054686261 -0.35449769416360538 0 0.13379314649232441 -0.36558790591260332 0 0.1227251518143609 -0.36881486341050729 0 0.13379314649232441 -0.36558790591260332 0 0.133630555650531 -0.3755515117279421 0 0.1227251518143609 -0.36881486341050729 0 0.144561744920089 -0.36721183626633253 0 0.14287713590715531 -0.3779711092141565 0 0.133630555650531 -0.3755515117279421 0 0.144561744920089 -0.36721183626633253 0 0.13379314649232441 -0.36558790591260332 0 0.133630555650531 -0.3755515117279421 0 0.15708549928830379 -0.32250437376149549 0 0.13600218991958979 -0.31889149286591728 0 0.13371175479450509 -0.30781425106063892 0 0.15757311403455371 -0.32852981593407188 0 0.13600218991958979 -0.31889149286591728 0 0.15757311403455371 -0.32852981593407188 0 0.14682708024525429 -0.32938329843170772 0 0.13600218991958979 -0.31889149286591728 0 0.15708549928830379 -0.32250437376149549 0 0.13371175479450509 -0.30781425106063892 0 0.15708549928830379 -0.32250437376149549 0 0.13371175479450509 -0.30781425106063892 0 0.14705855154536679 -0.30854296091818328 0 0.15757311403455371 -0.32852981593407188 0 0.15708549928830379 -0.32250437376149549 0 0.13600218991958979 -0.31889149286591728 0 0.14682708024525429 -0.32938329843170772 0 0.1419965509103939 -0.33376258294321248 0 0.13600218991958979 -0.31889149286591728 0 0.15708549928830379 -0.32250437376149549 0 0.14705855154536679 -0.30854296091818328 0 0.15372611745114009 -0.31055770239810071 0 0.15757311403455371 -0.32852981593407188 0 0.15173646611648001 -0.33634930198362911 0 0.14682708024525429 -0.32938329843170772 0 0.15798688261692609 -0.33685835236387279 0 0.15757311403455371 -0.32852981593407188 0 0.15173646611648001 -0.33634930198362911 0 0.15798688261692609 -0.33685835236387279 0 0.15480686613686409 -0.3456112383207891 0 0.15173646611648001 -0.33634930198362911 0 0.15480686613686409 -0.3456112383207891 0 0.15173646611648001 -0.33634930198362911 0 0.14629687775561739 -0.34329246379909722 0 0.15173646611648001 -0.33634930198362911 0 0.14629687775561739 -0.34329246379909722 0 0.1419965509103939 -0.33376258294321248 0 0.1373611286291066 -0.3440184922878104 0 0.14629687775561739 -0.34329246379909722 0 0.1419965509103939 -0.33376258294321248 0 0.15173646611648001 -0.33634930198362911 0 0.14682708024525429 -0.32938329843170772 0 0.1419965509103939 -0.33376258294321248 0 0.1373611286291066 -0.3440184922878104 0 0.1419965509103939 -0.33376258294321248 0 0.1301854130361749 -0.33099236336707583 0 0.1373611286291066 -0.3440184922878104 0 0.12521507679061969 -0.3416049529093918 0 0.1301854130361749 -0.33099236336707583 0 0.13600218991958979 -0.31889149286591728 0 0.114431265804626 -0.30925316979776257 0 0.1301854130361749 -0.33099236336707583 0 0.13600218991958979 -0.31889149286591728 0 0.1219572704141363 -0.32270369190739762 0 0.1419965509103939 -0.33376258294321248 0 0.1301854130361749 -0.33099236336707583 0 0.13600218991958979 -0.31889149286591728 0 0.13600218991958979 -0.31889149286591728 0 0.13371175479450509 -0.30781425106063892 0 0.114431265804626 -0.30925316979776257 0 0.13936550285901569 -0.3007591675720222 0 0.13371175479450509 -0.30781425106063892 0 0.12856705140703389 -0.29600385802773588 0 0.13936550285901569 -0.3007591675720222 0 0.13371175479450509 -0.30781425106063892 0 0.14705855154536679 -0.30854296091818328 0 0.13936550285901569 -0.3007591675720222 0 0.151403883333869 -0.30107930979865899 0 0.13953229339364881 -0.290433219518694 0 0.13936550285901569 -0.3007591675720222 0 0.14705855154536679 -0.30854296091818328 0 0.151403883333869 -0.30107930979865899 0 0.14705855154536679 -0.30854296091818328 0 0.151403883333869 -0.30107930979865899 0 0.15372611745114009 -0.31055770239810071 0 0.151403883333869 -0.30107930979865899 0 0.15372611745114009 -0.31055770239810071 0 0.1626389936180713 -0.30999582567886508 0 0.15551380987862071 -0.28509154898906419 0 0.13953229339364881 -0.290433219518694 0 0.1418014739663081 -0.27541569492835372 0 0.151403883333869 -0.30107930979865899 0 0.15551380987862071 -0.28509154898906419 0 0.13953229339364881 -0.290433219518694 0 0.13953229339364881 -0.290433219518694 0 0.12856705140703389 -0.29600385802773588 0 0.12387259936023259 -0.28345552115907652 0 0.13953229339364881 -0.290433219518694 0 0.1418014739663081 -0.27541569492835372 0 0.12387259936023259 -0.28345552115907652 0 0.13936550285901569 -0.3007591675720222 0 0.13953229339364881 -0.290433219518694 0 0.12856705140703389 -0.29600385802773588 0 0.13086806922610419 -0.26612429505825952 0 0.1418014739663081 -0.27541569492835372 0 0.12387259936023259 -0.28345552115907652 0 0.13086806922610419 -0.26612429505825952 0 0.14359371296775161 -0.26030501049639931 0 0.1418014739663081 -0.27541569492835372 0 0.13086806922610419 -0.26612429505825952 0 0.13274476674662339 -0.25198867347775072 0 0.11663258994343211 -0.26465379024019048 0 0.13274476674662339 -0.25198867347775072 0 0.14359371296775161 -0.26030501049639931 0 0.14155871326779551 -0.24153996818768719 0 0.13086806922610419 -0.26612429505825952 0 0.13274476674662339 -0.25198867347775072 0 0.14359371296775161 -0.26030501049639931 0 0.14359371296775161 -0.26030501049639931 0 0.15908328411484579 -0.26801003932113571 0 0.1622558454691588 -0.2490724743157757 0 0.14359371296775161 -0.26030501049639931 0 0.1622558454691588 -0.2490724743157757 0 0.14155871326779551 -0.24153996818768719 0 0.15551380987862071 -0.28509154898906419 0 0.1418014739663081 -0.27541569492835372 0 0.15908328411484579 -0.26801003932113571 0 0.14359371296775161 -0.26030501049639931 0 0.1418014739663081 -0.27541569492835372 0 0.15908328411484579 -0.26801003932113571 0 0.15908328411484579 -0.26801003932113571 0 0.17884810112737351 -0.2581751677974442 0 0.17430618319700081 -0.2796228478285569 0 0.15551380987862071 -0.28509154898906419 0 0.15908328411484579 -0.26801003932113571 0 0.17430618319700081 -0.2796228478285569 0 0.15908328411484579 -0.26801003932113571 0 0.17884810112737351 -0.2581751677974442 0 0.1622558454691588 -0.2490724743157757 0 0.19181201475668089 -0.26832649203356401 0 0.17884810112737351 -0.2581751677974442 0 0.17430618319700081 -0.2796228478285569 0 0.17430618319700081 -0.2796228478285569 0 0.18169274794081069 -0.30369618402617449 0 0.16562939657154779 -0.29605341486119502 0 0.19658256090031639 -0.28465570235000348 0 0.17430618319700081 -0.2796228478285569 0 0.18169274794081069 -0.30369618402617449 0 0.16680293498130491 -0.3227366657023456 0 0.18169274794081069 -0.30369618402617449 0 0.1626389936180713 -0.30999582567886508 0 0.18169274794081069 -0.30369618402617449 0 0.1626389936180713 -0.30999582567886508 0 0.16562939657154779 -0.29605341486119502 0 0.151403883333869 -0.30107930979865899 0 0.1626389936180713 -0.30999582567886508 0 0.16562939657154779 -0.29605341486119502 0 0.15551380987862071 -0.28509154898906419 0 0.17430618319700081 -0.2796228478285569 0 0.16562939657154779 -0.29605341486119502 0 0.151403883333869 -0.30107930979865899 0 0.15551380987862071 -0.28509154898906419 0 0.16562939657154779 -0.29605341486119502 0 0.24579674443834951 -0.49973518363611391 0 0.22765008437921341 -0.48166526725038999 0 0.1672844672645005 -0.49999999999999822 0 0.22765008437921341 -0.48166526725038999 0 0.20815350122712059 -0.46386016722855228 0 0.1840535910961478 -0.47067263842953649 0 0.22765008437921341 -0.48166526725038999 0 0.1672844672645005 -0.49999999999999822 0 0.1840535910961478 -0.47067263842953649 0 0.22765008437921341 -0.48166526725038999 0 0.20815350122712059 -0.46386016722855228 0 0.24579674443834951 -0.49973518363611391 0 0.24582165533359271 -0.47406865487172711 0 0.22765008437921341 -0.48166526725038999 0 0.24579674443834951 -0.49973518363611391 0 0.22765008437921341 -0.48166526725038999 0 0.24582165533359271 -0.47406865487172711 0 0.22765008437921341 -0.48166526725038999 0 0.23114140747481321 -0.45826534019408338 0 0.22765008437921341 -0.48166526725038999 0 0.23114140747481321 -0.45826534019408338 0 0.20815350122712059 -0.46386016722855228 0 0.25743696126813848 -0.44420727299840862 0 0.23114140747481321 -0.45826534019408338 0 0.249170702155108 -0.46009176652406347 0 0.24582165533359271 -0.47406865487172711 0 0.23114140747481321 -0.45826534019408338 0 0.249170702155108 -0.46009176652406347 0 0.25743696126813848 -0.44420727299840862 0 0.23114140747481321 -0.45826534019408338 0 0.2357070654938849 -0.43275548120975421 0 0.23114140747481321 -0.45826534019408338 0 0.2121582518097469 -0.44414493920139902 0 0.2357070654938849 -0.43275548120975421 0 0.2121582518097469 -0.44414493920139902 0 0.2357070654938849 -0.43275548120975421 0 0.23114140747481321 -0.45826534019408338 0 0.2121582518097469 -0.44414493920139902 0 0.20815350122712059 -0.46386016722855228 0 0.20815350122712059 -0.46386016722855228 0 0.18865691807502791 -0.4460550672067144 0 0.20815350122712059 -0.46386016722855228 0 0.18865691807502791 -0.4460550672067144 0 0.1840535910961478 -0.47067263842953649 0 0.2121582518097469 -0.44414493920139902 0 0.18865691807502791 -0.4460550672067144 0 0.20746138331313119 -0.42850981602469917 0 0.2121582518097469 -0.44414493920139902 0 0.20815350122712059 -0.46386016722855228 0 0.18865691807502791 -0.4460550672067144 0 0.18865691807502791 -0.4460550672067144 0 0.18985697194991899 -0.42295147565493041 0 0.20746138331313119 -0.42850981602469917 0 0.18985697194991899 -0.42295147565493041 0 0.18987752950650599 -0.41063467931486419 0 0.20412401759651899 -0.41264674626943082 0 0.18985697194991899 -0.42295147565493041 0 0.20412401759651899 -0.41264674626943082 0 0.20746138331313119 -0.42850981602469917 0 0.18987752950650599 -0.41063467931486419 0 0.20412401759651899 -0.41264674626943082 0 0.200281126189509 -0.39727934694039108 0 0.20412401759651899 -0.41264674626943082 0 0.20746138331313119 -0.42850981602469917 0 0.22023634574134671 -0.41651815868002368 0 0.20412401759651899 -0.41264674626943082 0 0.22023634574134671 -0.41651815868002368 0 0.21683210519193971 -0.4034840404816622 0 0.2121582518097469 -0.44414493920139902 0 0.20746138331313119 -0.42850981602469917 0 0.2357070654938849 -0.43275548120975421 0 0.20746138331313119 -0.42850981602469917 0 0.2357070654938849 -0.43275548120975421 0 0.22023634574134671 -0.41651815868002368 0 0.25925587917802301 -0.42136602321810929 0 0.2357070654938849 -0.43275548120975421 0 0.25925587917802301 -0.42136602321810929 0 0.2357070654938849 -0.43275548120975421 0 0.2386074654452558 -0.40673505004074362 0 0.2386074654452558 -0.40673505004074362 0 0.22023634574134671 -0.41651815868002368 0 0.21683210519193971 -0.4034840404816622 0 0.2357070654938849 -0.43275548120975421 0 0.2386074654452558 -0.40673505004074362 0 0.22023634574134671 -0.41651815868002368 0 0.2386074654452558 -0.40673505004074362 0 0.22558981339884229 -0.39069658682906722 0 0.21683210519193971 -0.4034840404816622 0 0.25089850060817581 -0.3841138267177433 0 0.2386074654452558 -0.40673505004074362 0 0.22558981339884229 -0.39069658682906722 0 0.25089850060817581 -0.3841138267177433 0 0.22558981339884229 -0.39069658682906722 0 0.25089850060817581 -0.3841138267177433 0 0.22205756930128351 -0.37038535332728501 0 0.22558981339884229 -0.39069658682906722 0 0.22205756930128351 -0.37038535332728501 0 0.19774265087238491 -0.38357081142626132 0 0.22205756930128351 -0.37038535332728501 0 0.22558981339884229 -0.39069658682906722 0 0.19774265087238491 -0.38357081142626132 0 0.22558981339884229 -0.39069658682906722 0 0.200281126189509 -0.39727934694039108 0 0.19774265087238491 -0.38357081142626132 0 0.22558981339884229 -0.39069658682906722 0 0.21683210519193971 -0.4034840404816622 0 0.200281126189509 -0.39727934694039108 0 0.20412401759651899 -0.41264674626943082 0 0.21683210519193971 -0.4034840404816622 0 0.200281126189509 -0.39727934694039108 0 0.22558981339884229 -0.39069658682906722 0 0.200281126189509 -0.39727934694039108 0 0.200281126189509 -0.39727934694039108 0 0.19774265087238491 -0.38357081142626132 0 0.17342773244348619 -0.39675626952523763 0 0.200281126189509 -0.39727934694039108 0 0.17497243898017559 -0.40386210705171499 0 0.18987752950650599 -0.41063467931486419 0 0.200281126189509 -0.39727934694039108 0 0.17497243898017559 -0.40386210705171499 0 0.18677159140242289 -0.37490271420684562 0 0.19774265087238491 -0.38357081142626132 0 0.18228313388693601 -0.3843517539193379 0 0.19774265087238491 -0.38357081142626132 0 0.17342773244348619 -0.39675626952523763 0 0.19774265087238491 -0.38357081142626132 0 0.18228313388693601 -0.3843517539193379 0 0.17342773244348619 -0.39675626952523763 0 0.17253244296168141 -0.38644374740382531 0 0.18228313388693601 -0.3843517539193379 0 0.17342773244348619 -0.39675626952523763 0 0.17253244296168141 -0.38644374740382531 0 0.17648188891633679 -0.37747003181700972 0 0.18228313388693601 -0.3843517539193379 0 0.18677159140242289 -0.37490271420684562 0 0.17648188891633679 -0.37747003181700972 0 0.18228313388693601 -0.3843517539193379 0 0.200281126189509 -0.39727934694039108 0 0.17497243898017559 -0.40386210705171499 0 0.17342773244348619 -0.39675626952523763 0 0.17342773244348619 -0.39675626952523763 0 0.15728026777353951 -0.39819050761144897 0 0.14966375177084229 -0.41044486716303891 0 0.17342773244348619 -0.39675626952523763 0 0.1649101482004324 -0.39094459649579949 0 0.15728026777353951 -0.39819050761144897 0 0.17253244296168141 -0.38644374740382531 0 0.17342773244348619 -0.39675626952523763 0 0.1649101482004324 -0.39094459649579949 0 0.17342773244348619 -0.39675626952523763 0 0.14966375177084229 -0.41044486716303891 0 0.17497243898017559 -0.40386210705171499 0 0.17342773244348619 -0.39675626952523763 0 0.14966375177084229 -0.41044486716303891 0 0.1649101482004324 -0.39094459649579949 0 0.15728026777353951 -0.39819050761144897 0 0.15351511275577681 -0.38904793350023048 0 0.1649101482004324 -0.39094459649579949 0 0.16555931136121571 -0.38269608526174159 0 0.15351511275577681 -0.38904793350023048 0 0.1659582482943224 -0.3670468671393104 0 0.16555931136121571 -0.38269608526174159 0 0.15337111105303869 -0.37631397891862972 0 0.1659582482943224 -0.3670468671393104 0 0.17648188891633679 -0.37747003181700972 0 0.16555931136121571 -0.38269608526174159 0 0.17253244296168141 -0.38644374740382531 0 0.1649101482004324 -0.39094459649579949 0 0.16555931136121571 -0.38269608526174159 0 0.17253244296168141 -0.38644374740382531 0 0.17648188891633679 -0.37747003181700972 0 0.16555931136121571 -0.38269608526174159 0 0.16555931136121571 -0.38269608526174159 0 0.15337111105303869 -0.37631397891862972 0 0.15351511275577681 -0.38904793350023048 0 0.15337111105303869 -0.37631397891862972 0 0.15351511275577681 -0.38904793350023048 0 0.14760802198861861 -0.38287197985208549 0 0.1406687282385036 -0.38815489777532552 0 0.14760802198861861 -0.38287197985208549 0 0.14287713590715531 -0.3779711092141565 0 0.15351511275577681 -0.38904793350023048 0 0.1406687282385036 -0.38815489777532552 0 0.14760802198861861 -0.38287197985208549 0 0.15337111105303869 -0.37631397891862972 0 0.14760802198861861 -0.38287197985208549 0 0.14287713590715531 -0.3779711092141565 0 0.14287713590715531 -0.3779711092141565 0 0.13687727242224099 -0.38212714795508917 0 0.133630555650531 -0.3755515117279421 0 0.13687727242224099 -0.38212714795508917 0 0.133630555650531 -0.3755515117279421 0 0.13033266989277431 -0.38683107310293258 0 0.1406687282385036 -0.38815489777532552 0 0.14287713590715531 -0.3779711092141565 0 0.13687727242224099 -0.38212714795508917 0 0.133630555650531 -0.3755515117279421 0 0.13033266989277431 -0.38683107310293258 0 0.1227251518143609 -0.36881486341050729 0 0.1406687282385036 -0.38815489777532552 0 0.13687727242224099 -0.38212714795508917 0 0.13033266989277431 -0.38683107310293258 0 0.1406687282385036 -0.38815489777532552 0 0.13033266989277431 -0.38683107310293258 0 0.13310550277339139 -0.39532317751689799 0 0.13310550277339139 -0.39532317751689799 0 0.13895268187845569 -0.41323080398600348 0 0.1305338955574028 -0.40524458828845977 0 0.13310550277339139 -0.39532317751689799 0 0.13895268187845569 -0.41323080398600348 0 0.1305338955574028 -0.40524458828845977 0 0.13310550277339139 -0.39532317751689799 0 0.11935549250789571 -0.39497932281681752 0 0.13033266989277431 -0.38683107310293258 0 0.13310550277339139 -0.39532317751689799 0 0.1406687282385036 -0.38815489777532552 0 0.13310550277339139 -0.39532317751689799 0 0.14670086010087471 -0.39663642596098603 0 0.13310550277339139 -0.39532317751689799 0 0.14966375177084229 -0.41044486716303891 0 0.13310550277339139 -0.39532317751689799 0 0.14670086010087471 -0.39663642596098603 0 0.14966375177084229 -0.41044486716303891 0 0.15351511275577681 -0.38904793350023048 0 0.1406687282385036 -0.38815489777532552 0 0.14670086010087471 -0.39663642596098603 0 0.15728026777353951 -0.39819050761144897 0 0.15351511275577681 -0.38904793350023048 0 0.14670086010087471 -0.39663642596098603 0 0.15728026777353951 -0.39819050761144897 0 0.14670086010087471 -0.39663642596098603 0 0.14966375177084229 -0.41044486716303891 0 0.14966375177084229 -0.41044486716303891 0 0.13895268187845569 -0.41323080398600348 0 0.14603562822496671 -0.43492310298950232 0 0.14966375177084229 -0.41044486716303891 0 0.13895268187845569 -0.41323080398600348 0 0.1305338955574028 -0.40524458828845977 0 0.13282776033158999 -0.41109567698195748 0 0.13895268187845569 -0.41323080398600348 0 0.13310550277339139 -0.39532317751689799 0 0.14966375177084229 -0.41044486716303891 0 0.13895268187845569 -0.41323080398600348 0 0.13282776033158999 -0.41109567698195748 0 0.13576041745319581 -0.41406110825067832 0 0.13895268187845569 -0.41323080398600348 0 0.13576041745319581 -0.41406110825067832 0 0.13895268187845569 -0.41323080398600348 0 0.13576041745319581 -0.41406110825067832 0 0.13895268187845569 -0.41323080398600348 0 0.13074829171053301 -0.42076219773855661 0 0.13576041745319581 -0.41406110825067832 0 0.13074829171053301 -0.42076219773855661 0 0.1274201169581797 -0.41304789503624811 0 0.13282776033158999 -0.41109567698195748 0 0.13576041745319581 -0.41406110825067832 0 0.1274201169581797 -0.41304789503624811 0 0.1305338955574028 -0.40524458828845977 0 0.1274201169581797 -0.41304789503624811 0 0.1190569944609506 -0.40775928120961341 0 0.1305338955574028 -0.40524458828845977 0 0.13282776033158999 -0.41109567698195748 0 0.1274201169581797 -0.41304789503624811 0 0.13895268187845569 -0.41323080398600348 0 0.13074829171053301 -0.42076219773855661 0 0.13431465988666369 -0.431665131552258 0 0.13895268187845569 -0.41323080398600348 0 0.13431465988666369 -0.431665131552258 0 0.14603562822496671 -0.43492310298950232 0 0.13431465988666369 -0.431665131552258 0 0.1245497394169599 -0.44190198818346049 0 0.1236754377553515 -0.43039209820907742 0 0.13074829171053301 -0.42076219773855661 0 0.13431465988666369 -0.431665131552258 0 0.1236754377553515 -0.43039209820907742 0 0.14966375177084229 -0.41044486716303891 0 0.14603562822496671 -0.43492310298950232 0 0.169160334922935 -0.42824996718487662 0 0.13895268187845569 -0.41323080398600348 0 0.14603562822496671 -0.43492310298950232 0 0.14603562822496671 -0.43492310298950232 0 0.169160334922935 -0.42824996718487662 0 0.16394318649890399 -0.44413052191898211 0 0.14966375177084229 -0.41044486716303891 0 0.169160334922935 -0.42824996718487662 0 0.16685576122053891 -0.41470528554595482 0 0.17497243898017559 -0.40386210705171499 0 0.14966375177084229 -0.41044486716303891 0 0.16685576122053891 -0.41470528554595482 0 0.17497243898017559 -0.40386210705171499 0 0.14966375177084229 -0.41044486716303891 0 0.14966375177084229 -0.41044486716303891 0 0.169160334922935 -0.42824996718487662 0 0.169160334922935 -0.42824996718487662 0 0.16685576122053891 -0.41470528554595482 0 0.1780664829539349 -0.41608387589682522 0 0.17497243898017559 -0.40386210705171499 0 0.16685576122053891 -0.41470528554595482 0 0.1780664829539349 -0.41608387589682522 0 0.18987752950650599 -0.41063467931486419 0 0.17497243898017559 -0.40386210705171499 0 0.1780664829539349 -0.41608387589682522 0 0.18985697194991899 -0.42295147565493041 0 0.18987752950650599 -0.41063467931486419 0 0.1780664829539349 -0.41608387589682522 0 0.18985697194991899 -0.42295147565493041 0 0.169160334922935 -0.42824996718487662 0 0.1780664829539349 -0.41608387589682522 0 0.18865691807502791 -0.4460550672067144 0 0.18985697194991899 -0.42295147565493041 0 0.169160334922935 -0.42824996718487662 0 0.18865691807502791 -0.4460550672067144 0 0.169160334922935 -0.42824996718487662 0 0.18865691807502791 -0.4460550672067144 0 0.169160334922935 -0.42824996718487662 0 0.16394318649890399 -0.44413052191898211 0 0.18865691807502791 -0.4460550672067144 0 0.1693356417290188 -0.458761066482753 0 0.16394318649890399 -0.44413052191898211 0 0.18865691807502791 -0.4460550672067144 0 0.1693356417290188 -0.458761066482753 0 0.1840535910961478 -0.47067263842953649 0 0.1693356417290188 -0.458761066482753 0 0.15311857457147809 -0.45661540199300088 0 0.16020152091798959 -0.47830770099649939 0 0.1693356417290188 -0.458761066482753 0 0.16394318649890399 -0.44413052191898211 0 0.15311857457147809 -0.45661540199300088 0 0.15311857457147809 -0.45661540199300088 0 0.16020152091798959 -0.47830770099649939 0 0.14603562822496671 -0.43492310298950232 0 0.16394318649890399 -0.44413052191898211 0 0.15311857457147809 -0.45661540199300088 0 0.14603562822496671 -0.43492310298950232 0 0.1383470587409614 -0.44930852722547088 0 0.15311857457147809 -0.45661540199300088 0 0.14603562822496671 -0.43492310298950232 0 0.15311857457147809 -0.45661540199300088 0 0.13431465988666369 -0.431665131552258 0 0.14603562822496671 -0.43492310298950232 0 0.1383470587409614 -0.44930852722547088 0 0.13431465988666369 -0.431665131552258 0 0.1383470587409614 -0.44930852722547088 0 0.1245497394169599 -0.44190198818346049 0 0.1383470587409614 -0.44930852722547088 0 0.12797144781646569 -0.46194376150422772 0 0.1245497394169599 -0.44190198818346049 0 0.1383470587409614 -0.44930852722547088 0 0.12797144781646569 -0.46194376150422772 0 0.14347092725271429 -0.46889343147386958 0 0.1383470587409614 -0.44930852722547088 0 0.15311857457147809 -0.45661540199300088 0 0.14347092725271429 -0.46889343147386958 0 0.15311857457147809 -0.45661540199300088 0 0.14347092725271429 -0.46889343147386958 0 0.16020152091798959 -0.47830770099649939 0 0.14347092725271429 -0.46889343147386958 0 0.13306949198152279 -0.48097188075211372 0 0.1479932778736352 -0.48602935045688628 0 0.14347092725271429 -0.46889343147386958 0 0.1479932778736352 -0.48602935045688628 0 0.16020152091798959 -0.47830770099649939 0 0.12797144781646569 -0.46194376150422772 0 0.14347092725271429 -0.46889343147386958 0 0.13306949198152279 -0.48097188075211372 0 0.12797144781646569 -0.46194376150422772 0 0.13306949198152279 -0.48097188075211372 0 0.12797144781646569 -0.46194376150422772 0 0.13306949198152279 -0.48097188075211372 0 0.1192704078393776 -0.47588150308255439 0 0.13306949198152279 -0.48097188075211372 0 0.13816753614658001 -0.49999999999999978 0 0.1479932778736352 -0.48602935045688628 0 0.13306949198152279 -0.48097188075211372 0 0.13816753614658001 -0.49999999999999978 0 0.13306949198152279 -0.48097188075211372 0 0.13005591102157349 -0.499999999999999 0 0.1192704078393776 -0.47588150308255439 0 0.13306949198152279 -0.48097188075211372 0 0.13005591102157349 -0.499999999999999 0 0.13816753614658001 -0.49999999999999978 0 0.13816753614658001 -0.49999999999999978 0 0.1479932778736352 -0.48602935045688628 0 0.1672844672645005 -0.49999999999999822 0 0.1479932778736352 -0.48602935045688628 0 0.1672844672645005 -0.49999999999999822 0 0.16020152091798959 -0.47830770099649939 0 0.1672844672645005 -0.49999999999999822 0 0.16020152091798959 -0.47830770099649939 0 0.1672844672645005 -0.49999999999999822 0 0.16020152091798959 -0.47830770099649939 0 0.1840535910961478 -0.47067263842953649 0 0.1693356417290188 -0.458761066482753 0 0.16020152091798959 -0.47830770099649939 0 0.1840535910961478 -0.47067263842953649 0 0.073450389100651381 -0.48906228157240911 0 0.086431653246600515 -0.5 0 0.060389507498995521 -0.5 0 0.073450389100651381 -0.48906228157240911 0 0.055075810604600248 -0.47558271215801012 0 0.060389507498995521 -0.5 0 0.076245324095965267 -0.47470134003215508 0 0.069602641702812162 -0.45973664429315281 0 0.055075810604600248 -0.47558271215801012 0 0.073450389100651381 -0.48906228157240911 0 0.076245324095965267 -0.47470134003215508 0 0.055075810604600248 -0.47558271215801012 0 0.091581949550862768 -0.46902064275810201 0 0.08857591373711593 -0.4893523332575882 0 0.073450389100651381 -0.48906228157240911 0 0.076245324095965267 -0.47470134003215508 0 0.08857591373711593 -0.4893523332575882 0 0.076245324095965267 -0.47470134003215508 0 0.091581949550862768 -0.46902064275810201 0 0.08857591373711593 -0.4893523332575882 0 0.073450389100651381 -0.48906228157240911 0 0.08857591373711593 -0.4893523332575882 0 0.086431653246600515 -0.5 0 0.08857591373711593 -0.4893523332575882 0 0.1124737989942054 -0.50000000000000178 0 0.10353089217940931 -0.47434447612930869 0 0.1124737989942054 -0.50000000000000178 0 0.10353089217940931 -0.47434447612930869 0 0.08857591373711593 -0.4893523332575882 0 0.086431653246600515 -0.5 0 0.1124737989942054 -0.50000000000000178 0 0.13005591102157349 -0.499999999999999 0 0.1124737989942054 -0.50000000000000178 0 0.1192704078393776 -0.47588150308255439 0 0.13005591102157349 -0.499999999999999 0 0.1192704078393776 -0.47588150308255439 0 0.1124737989942054 -0.50000000000000178 0 0.1192704078393776 -0.47588150308255439 0 0.10353089217940931 -0.47434447612930869 0 0.091581949550862768 -0.46902064275810201 0 0.08857591373711593 -0.4893523332575882 0 0.10353089217940931 -0.47434447612930869 0 0.091581949550862768 -0.46902064275810201 0 0.10353089217940931 -0.47434447612930869 0 0.094587985364611729 -0.44868895225861599 0 0.10353089217940931 -0.47434447612930869 0 0.094587985364611729 -0.44868895225861599 0 0.10353089217940931 -0.47434447612930869 0 0.094587985364611729 -0.44868895225861599 0 0.10848490465718121 -0.45176300616510989 0 0.1192704078393776 -0.47588150308255439 0 0.10848490465718121 -0.45176300616510989 0 0.1192704078393776 -0.47588150308255439 0 0.10353089217940931 -0.47434447612930869 0 0.10848490465718121 -0.45176300616510989 0 0.12797144781646569 -0.46194376150422772 0 0.1192704078393776 -0.47588150308255439 0 0.10848490465718121 -0.45176300616510989 0 0.1245497394169599 -0.44190198818346049 0 0.10848490465718121 -0.45176300616510989 0 0.11374348638435069 -0.43470844824313692 0 0.12797144781646569 -0.46194376150422772 0 0.1245497394169599 -0.44190198818346049 0 0.10848490465718121 -0.45176300616510989 0 0.10848490465718121 -0.45176300616510989 0 0.097699401474984987 -0.42764450924766528 0 0.10848490465718121 -0.45176300616510989 0 0.097699401474984987 -0.42764450924766528 0 0.11374348638435069 -0.43470844824313692 0 0.094587985364611729 -0.44868895225861599 0 0.097699401474984987 -0.42764450924766528 0 0.094587985364611729 -0.44868895225861599 0 0.10848490465718121 -0.45176300616510989 0 0.097699401474984987 -0.42764450924766528 0 0.094587985364611729 -0.44868895225861599 0 0.081831622783651206 -0.45922481300022922 0 0.077140213204002259 -0.44397648565912062 0 0.094587985364611729 -0.44868895225861599 0 0.077140213204002259 -0.44397648565912062 0 0.086956260669733901 -0.42679496419199459 0 0.094587985364611729 -0.44868895225861599 0 0.086956260669733901 -0.42679496419199459 0 0.091581949550862768 -0.46902064275810201 0 0.094587985364611729 -0.44868895225861599 0 0.081831622783651206 -0.45922481300022922 0 0.091581949550862768 -0.46902064275810201 0 0.094587985364611729 -0.44868895225861599 0 0.076245324095965267 -0.47470134003215508 0 0.091581949550862768 -0.46902064275810201 0 0.081831622783651206 -0.45922481300022922 0 0.081831622783651206 -0.45922481300022922 0 0.069602641702812162 -0.45973664429315281 0 0.077140213204002259 -0.44397648565912062 0 0.076245324095965267 -0.47470134003215508 0 0.081831622783651206 -0.45922481300022922 0 0.069602641702812162 -0.45973664429315281 0 0.077140213204002259 -0.44397648565912062 0 0.066697104073226987 -0.42958585462081572 0 0.057152150643914712 -0.44794116064022171 0 0.069602641702812162 -0.45973664429315281 0 0.077140213204002259 -0.44397648565912062 0 0.057152150643914712 -0.44794116064022171 0 0.077140213204002259 -0.44397648565912062 0 0.066697104073226987 -0.42958585462081572 0 0.086956260669733901 -0.42679496419199459 0 0.066697104073226987 -0.42958585462081572 0 0.086956260669733901 -0.42679496419199459 0 0.066697104073226987 -0.42958585462081572 0 0.069279597456553391 -0.41622467572584387 0 0.086956260669733901 -0.42679496419199459 0 0.066697104073226987 -0.42958585462081572 0 0.069279597456553391 -0.41622467572584387 0 0.055279885066050687 -0.42098816916578269 0 0.069279597456553391 -0.41622467572584387 0 0.069267677408717421 -0.40317633509340361 0 0.05704257805567127 -0.40743771462581679 0 0.069279597456553391 -0.41622467572584387 0 0.08078470343239022 -0.40908992294521951 0 0.069267677408717421 -0.40317633509340361 0 0.08078470343239022 -0.40908992294521951 0 0.089113208108525716 -0.41905515263114701 0 0.086956260669733901 -0.42679496419199459 0 0.08078470343239022 -0.40908992294521951 0 0.086956260669733901 -0.42679496419199459 0 0.069279597456553391 -0.41622467572584387 0 0.08078470343239022 -0.40908992294521951 0 0.086956260669733901 -0.42679496419199459 0 0.08078470343239022 -0.40908992294521951 0 0.09199374664339896 -0.41488554787674298 0 0.094290385366713428 -0.40776253247841848 0 0.089113208108525716 -0.41905515263114701 0 0.09199374664339896 -0.41488554787674298 0 0.098050980492927889 -0.42526656160438098 0 0.08078470343239022 -0.40908992294521951 0 0.089113208108525716 -0.41905515263114701 0 0.09199374664339896 -0.41488554787674298 0 0.086956260669733901 -0.42679496419199459 0 0.098050980492927889 -0.42526656160438098 0 0.089113208108525716 -0.41905515263114701 0 0.086956260669733901 -0.42679496419199459 0 0.098050980492927889 -0.42526656160438098 0 0.094587985364611729 -0.44868895225861599 0 0.086956260669733901 -0.42679496419199459 0 0.097699401474984987 -0.42764450924766528 0 0.098050980492927889 -0.42526656160438098 0 0.1143996361017304 -0.42301437967146849 0 0.097699401474984987 -0.42764450924766528 0 0.11374348638435069 -0.43470844824313692 0 0.1143996361017304 -0.42301437967146849 0 0.098050980492927889 -0.42526656160438098 0 0.1143996361017304 -0.42301437967146849 0 0.1056633638451295 -0.41784717496823748 0 0.097699401474984987 -0.42764450924766528 0 0.098050980492927889 -0.42526656160438098 0 0.1143996361017304 -0.42301437967146849 0 0.086956260669733901 -0.42679496419199459 0 0.097699401474984987 -0.42764450924766528 0 0.098050980492927889 -0.42526656160438098 0 0.097699401474984987 -0.42764450924766528 0 0.098050980492927889 -0.42526656160438098 0 0.13074829171053301 -0.42076219773855661 0 0.1143996361017304 -0.42301437967146849 0 0.13074829171053301 -0.42076219773855661 0 0.1143996361017304 -0.42301437967146849 0 0.1236754377553515 -0.43039209820907742 0 0.11374348638435069 -0.43470844824313692 0 0.1143996361017304 -0.42301437967146849 0 0.1236754377553515 -0.43039209820907742 0 0.1245497394169599 -0.44190198818346049 0 0.11374348638435069 -0.43470844824313692 0 0.1236754377553515 -0.43039209820907742 0 0.13074829171053301 -0.42076219773855661 0 0.1274201169581797 -0.41304789503624811 0 0.1143996361017304 -0.42301437967146849 0 0.1274201169581797 -0.41304789503624811 0 0.1143996361017304 -0.42301437967146849 0 0.1190569944609506 -0.40775928120961341 0 0.1143996361017304 -0.42301437967146849 0 0.1094854912680568 -0.41054077923307969 0 0.1056633638451295 -0.41784717496823748 0 0.1143996361017304 -0.42301437967146849 0 0.1190569944609506 -0.40775928120961341 0 0.1094854912680568 -0.41054077923307969 0 0.1094854912680568 -0.41054077923307969 0 0.099907772822980134 -0.41270791981980959 0 0.10101576913919549 -0.4053515642312101 0 0.1094854912680568 -0.41054077923307969 0 0.1056633638451295 -0.41784717496823748 0 0.099907772822980134 -0.41270791981980959 0 0.098050980492927889 -0.42526656160438098 0 0.1056633638451295 -0.41784717496823748 0 0.099907772822980134 -0.41270791981980959 0 0.09199374664339896 -0.41488554787674298 0 0.098050980492927889 -0.42526656160438098 0 0.099907772822980134 -0.41270791981980959 0 0.09199374664339896 -0.41488554787674298 0 0.098050980492927889 -0.42526656160438098 0 0.098050980492927889 -0.42526656160438098 0 0.099907772822980134 -0.41270791981980959 0 0.09199374664339896 -0.41488554787674298 0 0.099907772822980134 -0.41270791981980959 0 0.094290385366713428 -0.40776253247841848 0 0.099907772822980134 -0.41270791981980959 0 0.094290385366713428 -0.40776253247841848 0 0.10101576913919549 -0.4053515642312101 0 0.10101576913919549 -0.4053515642312101 0 0.1075680354707028 -0.39854716912160643 0 0.092167188445463469 -0.39821544589132107 0 0.094290385366713428 -0.40776253247841848 0 0.10101576913919549 -0.4053515642312101 0 0.092167188445463469 -0.39821544589132107 0 0.1075680354707028 -0.39854716912160643 0 0.099087246855468908 -0.38700370948410762 0 0.092167188445463469 -0.39821544589132107 0 0.1075680354707028 -0.39854716912160643 0 0.1092907620074134 -0.38895119151054708 0 0.099087246855468908 -0.38700370948410762 0 0.1094854912680568 -0.41054077923307969 0 0.10101576913919549 -0.4053515642312101 0 0.1075680354707028 -0.39854716912160643 0 0.1190569944609506 -0.40775928120961341 0 0.1094854912680568 -0.41054077923307969 0 0.1075680354707028 -0.39854716912160643 0 0.1190569944609506 -0.40775928120961341 0 0.1075680354707028 -0.39854716912160643 0 0.11935549250789571 -0.39497932281681752 0 0.1075680354707028 -0.39854716912160643 0 0.11935549250789571 -0.39497932281681752 0 0.1092907620074134 -0.38895119151054708 0 0.1305338955574028 -0.40524458828845977 0 0.1190569944609506 -0.40775928120961341 0 0.11935549250789571 -0.39497932281681752 0 0.13033266989277431 -0.38683107310293258 0 0.1111522731955862 -0.37527456461965719 0 0.1227251518143609 -0.36881486341050729 0 0.13310550277339139 -0.39532317751689799 0 0.11935549250789571 -0.39497932281681752 0 0.1111522731955862 -0.37527456461965719 0 0.13310550277339139 -0.39532317751689799 0 0.1111522731955862 -0.37527456461965719 0 0.11935549250789571 -0.39497932281681752 0 0.1111522731955862 -0.37527456461965719 0 0.1092907620074134 -0.38895119151054708 0 0.13033266989277431 -0.38683107310293258 0 0.13310550277339139 -0.39532317751689799 0 0.1111522731955862 -0.37527456461965719 0 0.1111522731955862 -0.37527456461965719 0 0.099087246855468908 -0.38700370948410762 0 0.086472143871208385 -0.37571689348112342 0 0.1111522731955862 -0.37527456461965719 0 0.1092907620074134 -0.38895119151054708 0 0.099087246855468908 -0.38700370948410762 0 0.086472143871208385 -0.37571689348112342 0 0.088084931341796791 -0.38808023263874908 0 0.074613146195046415 -0.39138488169844438 0 0.099087246855468908 -0.38700370948410762 0 0.086472143871208385 -0.37571689348112342 0 0.088084931341796791 -0.38808023263874908 0 0.088084931341796791 -0.38808023263874908 0 0.092167188445463469 -0.39821544589132107 0 0.074613146195046415 -0.39138488169844438 0 0.099087246855468908 -0.38700370948410762 0 0.088084931341796791 -0.38808023263874908 0 0.092167188445463469 -0.39821544589132107 0 0.08078470343239022 -0.40908992294521951 0 0.092167188445463469 -0.39821544589132107 0 0.074613146195046415 -0.39138488169844438 0 0.08078470343239022 -0.40908992294521951 0 0.094290385366713428 -0.40776253247841848 0 0.092167188445463469 -0.39821544589132107 0 0.08078470343239022 -0.40908992294521951 0 0.074613146195046415 -0.39138488169844438 0 0.069267677408717421 -0.40317633509340361 0 0.08078470343239022 -0.40908992294521951 0 0.074613146195046415 -0.39138488169844438 0 0.074613146195046415 -0.39138488169844438 0 0.069267677408717421 -0.40317633509340361 0 0.059761256535141027 -0.38909699855738822 0 0.074613146195046415 -0.39138488169844438 0 0.059761256535141027 -0.38909699855738822 0 0.067889817323807 -0.37408598804828408 0 0.086472143871208385 -0.37571689348112342 0 0.074613146195046415 -0.39138488169844438 0 0.067889817323807 -0.37408598804828408 0 0.059761256535141027 -0.38909699855738822 0 0.046676214150745181 -0.38295165855917229 0 0.054843283362288588 -0.37152396371064761 0 0.059761256535141027 -0.38909699855738822 0 0.067889817323807 -0.37408598804828408 0 0.054843283362288588 -0.37152396371064761 0 0.059761256535141027 -0.38909699855738822 0 0.044005930845458459 -0.397602488566631 0 0.046676214150745181 -0.38295165855917229 0 0.069267677408717421 -0.40317633509340361 0 0.059761256535141027 -0.38909699855738822 0 0.05704257805567127 -0.40743771462581679 0 0.059761256535141027 -0.38909699855738822 0 0.044005930845458459 -0.397602488566631 0 0.05704257805567127 -0.40743771462581679 0 0.044005930845458459 -0.397602488566631 0 0.03149309236810905 -0.38665814906574841 0 0.027138580379393509 -0.40406308624539422 0 0.044005930845458459 -0.397602488566631 0 0.027138580379393509 -0.40406308624539422 0 0.041923863583690768 -0.41540732434626643 0 0.03149309236810905 -0.38665814906574841 0 0.046676214150745181 -0.38295165855917229 0 0.042154611720303783 -0.37050660738608399 0 0.044005930845458459 -0.397602488566631 0 0.03149309236810905 -0.38665814906574841 0 0.046676214150745181 -0.38295165855917229 0 0.016123720227985121 -0.38451191405680041 0 0.02655522260569124 -0.36653179145999731 0 0.03149309236810905 -0.38665814906574841 0 0.016123720227985121 -0.38451191405680041 0 0.02655522260569124 -0.36653179145999731 0 0.03149309236810905 -0.38665814906574841 0 0.016123720227985121 -0.38451191405680041 0 0.019497615772296851 -0.39533505282639869 0 0.0045228664842730752 -0.39440243472052311 0 0.0071494440540374234 -0.37041485116327771 0 -0.0086217703430182466 -0.38130647667589812 0 0.0045228664842730752 -0.39440243472052311 0 0.0071494440540374234 -0.37041485116327771 0 0.016123720227985121 -0.38451191405680041 0 0.0045228664842730752 -0.39440243472052311 0 0.0071494440540374234 -0.37041485116327771 0 0.016123720227985121 -0.38451191405680041 0 0.0045228664842730752 -0.39440243472052311 0 0.0056922178502882143 -0.40249203665360889 0 0.016123720227985121 -0.38451191405680041 0 0.0056922178502882143 -0.40249203665360889 0 0.019497615772296851 -0.39533505282639869 0 -0.0086217703430182466 -0.38130647667589812 0 0.0045228664842730752 -0.39440243472052311 0 0.0056922178502882143 -0.40249203665360889 0 0.016123720227985121 -0.38451191405680041 0 0.0056922178502882143 -0.40249203665360889 0 0.03149309236810905 -0.38665814906574841 0 0.027138580379393509 -0.40406308624539422 0 0.019497615772296851 -0.39533505282639869 0 0.0056922178502882143 -0.40249203665360889 0 0.027138580379393509 -0.40406308624539422 0 0.019497615772296851 -0.39533505282639869 0 0.027138580379393509 -0.40406308624539422 0 0.02215341543506151 -0.42685559515507432 0 0.041923863583690768 -0.41540732434626643 0 0.0056922178502882143 -0.40249203665360889 0 0.027138580379393509 -0.40406308624539422 0 0.02215341543506151 -0.42685559515507432 0 -0.0050107976581378628 -0.42094014930591922 0 0.0056922178502882143 -0.40249203665360889 0 0.0056922178502882143 -0.40249203665360889 0 0.02215341543506151 -0.42685559515507432 0 -0.0050107976581378628 -0.42094014930591922 0 0.0056922178502882143 -0.40249203665360889 0 0.02215341543506151 -0.42685559515507432 0 -0.0050107976581378628 -0.42094014930591922 0 0.0030629123088906892 -0.4367870233209421 0 0.02215341543506151 -0.42685559515507432 0 0.0030629123088906892 -0.4367870233209421 0 0.02215341543506151 -0.42685559515507432 0 0.015876255392261542 -0.44710555586725731 0 0.02215341543506151 -0.42685559515507432 0 0.046437947476719969 -0.43237674504963602 0 0.038614613019830851 -0.45121915365654219 0 0.02215341543506151 -0.42685559515507432 0 0.046437947476719969 -0.43237674504963602 0 0.041923863583690768 -0.41540732434626643 0 0.044005930845458459 -0.397602488566631 0 0.041923863583690768 -0.41540732434626643 0 0.05704257805567127 -0.40743771462581679 0 0.041923863583690768 -0.41540732434626643 0 0.05704257805567127 -0.40743771462581679 0 0.055279885066050687 -0.42098816916578269 0 0.069279597456553391 -0.41622467572584387 0 0.05704257805567127 -0.40743771462581679 0 0.055279885066050687 -0.42098816916578269 0 0.066697104073226987 -0.42958585462081572 0 0.046437947476719969 -0.43237674504963602 0 0.055279885066050687 -0.42098816916578269 0 0.046437947476719969 -0.43237674504963602 0 0.041923863583690768 -0.41540732434626643 0 0.055279885066050687 -0.42098816916578269 0 0.066697104073226987 -0.42958585462081572 0 0.046437947476719969 -0.43237674504963602 0 0.066697104073226987 -0.42958585462081572 0 0.046437947476719969 -0.43237674504963602 0 0.057152150643914712 -0.44794116064022171 0 0.046437947476719969 -0.43237674504963602 0 0.057152150643914712 -0.44794116064022171 0 0.038614613019830851 -0.45121915365654219 0 0.069602641702812162 -0.45973664429315281 0 0.057152150643914712 -0.44794116064022171 0 0.055075810604600248 -0.47558271215801012 0 0.057152150643914712 -0.44794116064022171 0 0.038614613019830851 -0.45121915365654219 0 0.055075810604600248 -0.47558271215801012 0 0.038614613019830851 -0.45121915365654219 0 0.026573261527890989 -0.4598935272442764 0 0.033295965181021132 -0.47336098770755197 0 0.038614613019830851 -0.45121915365654219 0 0.033295965181021132 -0.47336098770755197 0 0.055075810604600248 -0.47558271215801012 0 0.038614613019830851 -0.45121915365654219 0 0.055075810604600248 -0.47558271215801012 0 0.038614613019830851 -0.45121915365654219 0 0.015876255392261542 -0.44710555586725731 0 0.026573261527890989 -0.4598935272442764 0 0.02215341543506151 -0.42685559515507432 0 0.038614613019830851 -0.45121915365654219 0 0.015876255392261542 -0.44710555586725731 0 0.02215341543506151 -0.42685559515507432 0 0.038614613019830851 -0.45121915365654219 0 -0.0019904984581769741 -0.44964555431822473 0 0.015876255392261542 -0.44710555586725731 0 0.01173281625019917 -0.45990284667821368 0 -0.0019904984581769741 -0.44964555431822473 0 0.0030629123088906892 -0.4367870233209421 0 0.015876255392261542 -0.44710555586725731 0 -0.003274393485622269 -0.46542614792238601 0 0.01173281625019917 -0.45990284667821368 0 0.014113664806465949 -0.47852387978762301 0 -0.0019904984581769741 -0.44964555431822473 0 -0.003274393485622269 -0.46542614792238601 0 0.01173281625019917 -0.45990284667821368 0 -0.0019904984581769741 -0.44964555431822473 0 0.01173281625019917 -0.45990284667821368 0 0.01173281625019917 -0.45990284667821368 0 0.026573261527890989 -0.4598935272442764 0 0.014113664806465949 -0.47852387978762301 0 0.015876255392261542 -0.44710555586725731 0 0.01173281625019917 -0.45990284667821368 0 0.026573261527890989 -0.4598935272442764 0 0.014113664806465949 -0.47852387978762301 0 0.034347361751390533 -0.5 0 0.033295965181021132 -0.47336098770755197 0 0.026573261527890989 -0.4598935272442764 0 0.014113664806465949 -0.47852387978762301 0 0.033295965181021132 -0.47336098770755197 0 -0.003274393485622269 -0.46542614792238601 0 -0.0056314431322174582 -0.48603990800993291 0 0.014113664806465949 -0.47852387978762301 0 -0.0056314431322174582 -0.48603990800993291 0 0.014113664806465949 -0.47852387978762301 0 0.0083052160037855316 -0.5 0 0.014113664806465949 -0.47852387978762301 0 0.0083052160037855316 -0.5 0 0.034347361751390533 -0.5 0 0.034347361751390533 -0.5 0 0.033295965181021132 -0.47336098770755197 0 0.055075810604600248 -0.47558271215801012 0 0.034347361751390533 -0.5 0 0.055075810604600248 -0.47558271215801012 0 0.060389507498995521 -0.5 0 0.086165147959637867 -0.29619501593746811 0 0.069852228083213924 -0.27961200651655649 0 0.086964265806907762 -0.27843400565892568 0 0.086165147959637867 -0.29619501593746811 0 0.085041343189528981 -0.31166358160345731 0 0.099301311693575728 -0.30504263102337797 0 0.085041343189528981 -0.31166358160345731 0 0.099301311693575728 -0.30504263102337797 0 0.095048384386810472 -0.31451995776596148 0 0.086165147959637867 -0.29619501593746811 0 0.085041343189528981 -0.31166358160345731 0 0.070834948064506451 -0.30909342817283958 0 0.086165147959637867 -0.29619501593746811 0 0.070834948064506451 -0.30909342817283958 0 0.069882128913043101 -0.2959811399193657 0 0.070834948064506451 -0.30909342817283958 0 0.069882128913043101 -0.2959811399193657 0 0.057837577595386873 -0.30099560285920107 0 0.086165147959637867 -0.29619501593746811 0 0.069882128913043101 -0.2959811399193657 0 0.069852228083213924 -0.27961200651655649 0 0.069882128913043101 -0.2959811399193657 0 0.069852228083213924 -0.27961200651655649 0 0.053596172733235969 -0.2847837549057044 0 0.063590521313109216 -0.26374388295806911 0 0.086964265806907762 -0.27843400565892568 0 0.069852228083213924 -0.27961200651655649 0 0.063590521313109216 -0.26374388295806911 0 0.086964265806907762 -0.27843400565892568 0 0.063590521313109216 -0.26374388295806911 0 0.079612116552146686 -0.25932312836825222 0 0.086964265806907762 -0.27843400565892568 0 0.063590521313109216 -0.26374388295806911 0 0.071806209037987789 -0.24644840678853869 0 0.063590521313109216 -0.26374388295806911 0 0.061057326404360013 -0.25112753476493038 0 0.071806209037987789 -0.24644840678853869 0 0.063590521313109216 -0.26374388295806911 0 0.079612116552146686 -0.25932312836825222 0 0.071806209037987789 -0.24644840678853869 0 0.079612116552146686 -0.25932312836825222 0 0.071806209037987789 -0.24644840678853869 0 0.084127138674996035 -0.24728832084968769 0 0.079612116552146686 -0.25932312836825222 0 0.09208926361193745 -0.26024839820709461 0 0.084127138674996035 -0.24728832084968769 0 0.09208926361193745 -0.26024839820709461 0 0.084127138674996035 -0.24728832084968769 0 0.095741447878656141 -0.24843749938630291 0 0.079612116552146686 -0.25932312836825222 0 0.09208926361193745 -0.26024839820709461 0 0.086964265806907762 -0.27843400565892568 0 0.086964265806907762 -0.27843400565892568 0 0.1024089184131268 -0.27172445281230079 0 0.11029754397425789 -0.28750781335805031 0 0.09208926361193745 -0.26024839820709461 0 0.086964265806907762 -0.27843400565892568 0 0.1024089184131268 -0.27172445281230079 0 0.1032215270576279 -0.2570968693315816 0 0.11663258994343211 -0.26465379024019048 0 0.1081179803622451 -0.24254202366521979 0 0.09208926361193745 -0.26024839820709461 0 0.1032215270576279 -0.2570968693315816 0 0.095741447878656141 -0.24843749938630291 0 0.09208926361193745 -0.26024839820709461 0 0.1024089184131268 -0.27172445281230079 0 0.1032215270576279 -0.2570968693315816 0 0.1024089184131268 -0.27172445281230079 0 0.1032215270576279 -0.2570968693315816 0 0.11663258994343211 -0.26465379024019048 0 0.11663258994343211 -0.26465379024019048 0 0.1081179803622451 -0.24254202366521979 0 0.13274476674662339 -0.25198867347775072 0 0.11663258994343211 -0.26465379024019048 0 0.12271910577429609 -0.24269635312249871 0 0.11663258994343211 -0.26465379024019048 0 0.12271910577429609 -0.24269635312249871 0 0.11663258994343211 -0.26465379024019048 0 0.12387259936023259 -0.28345552115907652 0 0.11663258994343211 -0.26465379024019048 0 0.11029754397425789 -0.28750781335805031 0 0.1024089184131268 -0.27172445281230079 0 0.11663258994343211 -0.26465379024019048 0 0.11029754397425789 -0.28750781335805031 0 0.13086806922610419 -0.26612429505825952 0 0.11663258994343211 -0.26465379024019048 0 0.12387259936023259 -0.28345552115907652 0 0.11663258994343211 -0.26465379024019048 0 0.12387259936023259 -0.28345552115907652 0 0.11029754397425789 -0.28750781335805031 0 0.12856705140703389 -0.29600385802773588 0 0.118510539443737 -0.29025694087325932 0 0.1103380103007064 -0.29312412835978219 0 0.12387259936023259 -0.28345552115907652 0 0.118510539443737 -0.29025694087325932 0 0.11029754397425789 -0.28750781335805031 0 0.12856705140703389 -0.29600385802773588 0 0.12387259936023259 -0.28345552115907652 0 0.118510539443737 -0.29025694087325932 0 0.118510539443737 -0.29025694087325932 0 0.1103380103007064 -0.29312412835978219 0 0.11029754397425789 -0.28750781335805031 0 0.086964265806907762 -0.27843400565892568 0 0.1103380103007064 -0.29312412835978219 0 0.086964265806907762 -0.27843400565892568 0 0.1103380103007064 -0.29312412835978219 0 0.11029754397425789 -0.28750781335805031 0 0.086165147959637867 -0.29619501593746811 0 0.086964265806907762 -0.27843400565892568 0 0.1103380103007064 -0.29312412835978219 0 0.086165147959637867 -0.29619501593746811 0 0.1103380103007064 -0.29312412835978219 0 0.099301311693575728 -0.30504263102337797 0 0.1103380103007064 -0.29312412835978219 0 0.099301311693575728 -0.30504263102337797 0 0.114431265804626 -0.30925316979776257 0 0.099301311693575728 -0.30504263102337797 0 0.095048384386810472 -0.31451995776596148 0 0.1047945029054989 -0.31479571404925177 0 0.099301311693575728 -0.30504263102337797 0 0.114431265804626 -0.30925316979776257 0 0.1047945029054989 -0.31479571404925177 0 0.13371175479450509 -0.30781425106063892 0 0.1103380103007064 -0.29312412835978219 0 0.114431265804626 -0.30925316979776257 0 0.13371175479450509 -0.30781425106063892 0 0.12856705140703389 -0.29600385802773588 0 0.1103380103007064 -0.29312412835978219 0 0.13371175479450509 -0.30781425106063892 0 0.1103380103007064 -0.29312412835978219 0 0.13600218991958979 -0.31889149286591728 0 0.114431265804626 -0.30925316979776257 0 0.1219572704141363 -0.32270369190739762 0 0.114431265804626 -0.30925316979776257 0 0.1109825327702165 -0.32249303098190418 0 0.1047945029054989 -0.31479571404925177 0 0.114431265804626 -0.30925316979776257 0 0.1109825327702165 -0.32249303098190418 0 0.1219572704141363 -0.32270369190739762 0 0.1109825327702165 -0.32249303098190418 0 0.1219572704141363 -0.32270369190739762 0 0.1174897428073042 -0.33157463556070771 0 0.12521507679061969 -0.3416049529093918 0 0.1301854130361749 -0.33099236336707583 0 0.1174897428073042 -0.33157463556070771 0 0.1301854130361749 -0.33099236336707583 0 0.1219572704141363 -0.32270369190739762 0 0.1174897428073042 -0.33157463556070771 0 0.12521507679061969 -0.3416049529093918 0 0.1174897428073042 -0.33157463556070771 0 0.10853854460107309 -0.34243991319780742 0 0.1174897428073042 -0.33157463556070771 0 0.10662113614856809 -0.3320658079756254 0 0.10853854460107309 -0.34243991319780742 0 0.1109825327702165 -0.32249303098190418 0 0.1174897428073042 -0.33157463556070771 0 0.10662113614856809 -0.3320658079756254 0 0.10662113614856809 -0.3320658079756254 0 0.10853854460107309 -0.34243991319780742 0 0.095642453714029976 -0.34219567356575881 0 0.10662113614856809 -0.3320658079756254 0 0.095642453714029976 -0.34219567356575881 0 0.097336684702837406 -0.33227769487265602 0 0.095642453714029976 -0.34219567356575881 0 0.097336684702837406 -0.33227769487265602 0 0.089625278642369952 -0.33043755045085982 0 0.097336684702837406 -0.33227769487265602 0 0.09824932921959606 -0.32396009806554887 0 0.089625278642369952 -0.33043755045085982 0 0.10662113614856809 -0.3320658079756254 0 0.097336684702837406 -0.33227769487265602 0 0.09824932921959606 -0.32396009806554887 0 0.09824932921959606 -0.32396009806554887 0 0.095048384386810472 -0.31451995776596148 0 0.1047945029054989 -0.31479571404925177 0 0.1109825327702165 -0.32249303098190418 0 0.10662113614856809 -0.3320658079756254 0 0.09824932921959606 -0.32396009806554887 0 0.1109825327702165 -0.32249303098190418 0 0.09824932921959606 -0.32396009806554887 0 0.1047945029054989 -0.31479571404925177 0 0.1227251518143609 -0.36881486341050729 0 0.114520027998571 -0.36273712606242231 0 0.1196676826553366 -0.35215782221189368 0 0.1111522731955862 -0.37527456461965719 0 0.114520027998571 -0.36273712606242231 0 0.10453500432900011 -0.35470125400763081 0 0.1111522731955862 -0.37527456461965719 0 0.1227251518143609 -0.36881486341050729 0 0.114520027998571 -0.36273712606242231 0 0.13147191054686261 -0.35449769416360538 0 0.1227251518143609 -0.36881486341050729 0 0.1196676826553366 -0.35215782221189368 0 0.12521507679061969 -0.3416049529093918 0 0.10853854460107309 -0.34243991319780742 0 0.1196676826553366 -0.35215782221189368 0 0.114520027998571 -0.36273712606242231 0 0.1196676826553366 -0.35215782221189368 0 0.10453500432900011 -0.35470125400763081 0 0.10853854460107309 -0.34243991319780742 0 0.1196676826553366 -0.35215782221189368 0 0.10453500432900011 -0.35470125400763081 0 0.10853854460107309 -0.34243991319780742 0 0.095642453714029976 -0.34219567356575881 0 0.10453500432900011 -0.35470125400763081 0 0.095642453714029976 -0.34219567356575881 0 0.10453500432900011 -0.35470125400763081 0 0.089199043617781332 -0.355225951722416 0 0.1111522731955862 -0.37527456461965719 0 0.10453500432900011 -0.35470125400763081 0 0.089199043617781332 -0.355225951722416 0 0.1111522731955862 -0.37527456461965719 0 0.086472143871208385 -0.37571689348112342 0 0.089199043617781332 -0.355225951722416 0 0.1111522731955862 -0.37527456461965719 0 0.089199043617781332 -0.355225951722416 0 0.086472143871208385 -0.37571689348112342 0 0.079047786318191593 -0.36376732307262322 0 0.089199043617781332 -0.355225951722416 0 0.079047786318191593 -0.36376732307262322 0 0.089199043617781332 -0.355225951722416 0 0.071283447654791401 -0.35595892822613567 0 0.089199043617781332 -0.355225951722416 0 0.06724581403997687 -0.33517733882517442 0 0.095642453714029976 -0.34219567356575881 0 0.089199043617781332 -0.355225951722416 0 0.06724581403997687 -0.33517733882517442 0 0.089199043617781332 -0.355225951722416 0 0.067607275257621266 -0.34710276575737847 0 0.071283447654791401 -0.35595892822613567 0 0.089199043617781332 -0.355225951722416 0 0.067607275257621266 -0.34710276575737847 0 0.06724581403997687 -0.33517733882517442 0 0.067607275257621266 -0.34710276575737847 0 0.071283447654791401 -0.35595892822613567 0 0.059729196985315453 -0.35303886132495133 0 0.071283447654791401 -0.35595892822613567 0 0.063027441322828198 -0.36299237014509861 0 0.059729196985315453 -0.35303886132495133 0 0.079047786318191593 -0.36376732307262322 0 0.071283447654791401 -0.35595892822613567 0 0.063027441322828198 -0.36299237014509861 0 0.086472143871208385 -0.37571689348112342 0 0.079047786318191593 -0.36376732307262322 0 0.067889817323807 -0.37408598804828408 0 0.079047786318191593 -0.36376732307262322 0 0.063027441322828198 -0.36299237014509861 0 0.067889817323807 -0.37408598804828408 0 0.087258852195677597 -0.32196596614178158 0 0.08036437345481387 -0.32976471555023351 0 0.075224404280946372 -0.3214498934146291 0 0.087258852195677597 -0.32196596614178158 0 0.089625278642369952 -0.33043755045085982 0 0.08036437345481387 -0.32976471555023351 0 0.085041343189528981 -0.31166358160345731 0 0.087258852195677597 -0.32196596614178158 0 0.075224404280946372 -0.3214498934146291 0 0.085041343189528981 -0.31166358160345731 0 0.095048384386810472 -0.31451995776596148 0 0.087258852195677597 -0.32196596614178158 0 0.09824932921959606 -0.32396009806554887 0 0.095048384386810472 -0.31451995776596148 0 0.087258852195677597 -0.32196596614178158 0 0.09824932921959606 -0.32396009806554887 0 0.087258852195677597 -0.32196596614178158 0 0.089625278642369952 -0.33043755045085982 0 0.095642453714029976 -0.34219567356575881 0 0.08036437345481387 -0.32976471555023351 0 0.06724581403997687 -0.33517733882517442 0 0.095642453714029976 -0.34219567356575881 0 0.06724581403997687 -0.33517733882517442 0 0.095642453714029976 -0.34219567356575881 0 0.089625278642369952 -0.33043755045085982 0 0.08036437345481387 -0.32976471555023351 0 0.08036437345481387 -0.32976471555023351 0 0.06724581403997687 -0.33517733882517442 0 0.069800214617986286 -0.32807192184373402 0 0.067607275257621266 -0.34710276575737847 0 0.06724581403997687 -0.33517733882517442 0 0.06132763752576563 -0.34045084259749092 0 0.06724581403997687 -0.33517733882517442 0 0.063234689702005034 -0.33151421131814057 0 0.069800214617986286 -0.32807192184373402 0 0.06724581403997687 -0.33517733882517442 0 0.063234689702005034 -0.33151421131814057 0 0.063234689702005034 -0.33151421131814057 0 0.064733785284288664 -0.32204770392176613 0 0.069800214617986286 -0.32807192184373402 0 0.064733785284288664 -0.32204770392176613 0 0.069800214617986286 -0.32807192184373402 0 0.075224404280946372 -0.3214498934146291 0 0.08036437345481387 -0.32976471555023351 0 0.069800214617986286 -0.32807192184373402 0 0.075224404280946372 -0.3214498934146291 0 0.085041343189528981 -0.31166358160345731 0 0.070834948064506451 -0.30909342817283958 0 0.075224404280946372 -0.3214498934146291 0 0.070834948064506451 -0.30909342817283958 0 0.064733785284288664 -0.32204770392176613 0 0.075224404280946372 -0.3214498934146291 0 0.070834948064506451 -0.30909342817283958 0 0.064733785284288664 -0.32204770392176613 0 0.056645285855359703 -0.31399538390497261 0 0.064733785284288664 -0.32204770392176613 0 0.056645285855359703 -0.31399538390497261 0 0.056536299346998789 -0.32345942925495053 0 0.056645285855359703 -0.31399538390497261 0 0.048014244558451033 -0.31980017346584422 0 0.056536299346998789 -0.32345942925495053 0 0.056645285855359703 -0.31399538390497261 0 0.048014244558451033 -0.31980017346584422 0 0.043601824153362112 -0.30582362685333953 0 0.048014244558451033 -0.31980017346584422 0 0.056536299346998789 -0.32345942925495053 0 0.050426644806732437 -0.33102041881307409 0 0.063234689702005034 -0.33151421131814057 0 0.064733785284288664 -0.32204770392176613 0 0.056536299346998789 -0.32345942925495053 0 0.06724581403997687 -0.33517733882517442 0 0.063234689702005034 -0.33151421131814057 0 0.050426644806732437 -0.33102041881307409 0 0.06724581403997687 -0.33517733882517442 0 0.055975311692676812 -0.33796007730319749 0 0.050426644806732437 -0.33102041881307409 0 0.06724581403997687 -0.33517733882517442 0 0.050426644806732437 -0.33102041881307409 0 0.063234689702005034 -0.33151421131814057 0 0.056536299346998789 -0.32345942925495053 0 0.050426644806732437 -0.33102041881307409 0 0.06724581403997687 -0.33517733882517442 0 0.06132763752576563 -0.34045084259749092 0 0.055975311692676812 -0.33796007730319749 0 0.06132763752576563 -0.34045084259749092 0 0.055975311692676812 -0.33796007730319749 0 0.056149070171977331 -0.34416331283563922 0 0.055975311692676812 -0.33796007730319749 0 0.04802188415332577 -0.34052663470329858 0 0.056149070171977331 -0.34416331283563922 0 0.055975311692676812 -0.33796007730319749 0 0.04802188415332577 -0.34052663470329858 0 0.050426644806732437 -0.33102041881307409 0 0.04802188415332577 -0.34052663470329858 0 0.050426644806732437 -0.33102041881307409 0 0.04230359660120301 -0.33591862075116569 0 0.04230359660120301 -0.33591862075116569 0 0.033607475573487942 -0.32686349880097437 0 0.037372178758725068 -0.34526991821343428 0 0.050426644806732437 -0.33102041881307409 0 0.033607475573487942 -0.32686349880097437 0 0.050426644806732437 -0.33102041881307409 0 0.04230359660120301 -0.33591862075116569 0 0.033607475573487942 -0.32686349880097437 0 0.04802188415332577 -0.34052663470329858 0 0.04230359660120301 -0.33591862075116569 0 0.037372178758725068 -0.34526991821343428 0 0.048014244558451033 -0.31980017346584422 0 0.033607475573487942 -0.32686349880097437 0 0.043601824153362112 -0.30582362685333953 0 0.048014244558451033 -0.31980017346584422 0 0.050426644806732437 -0.33102041881307409 0 0.033607475573487942 -0.32686349880097437 0 0.033607475573487942 -0.32686349880097437 0 0.043601824153362112 -0.30582362685333953 0 0.033607475573487942 -0.32686349880097437 0 0.026188709162829449 -0.31190822039614519 0 0.043601824153362112 -0.30582362685333953 0 0.046676214150745181 -0.38295165855917229 0 0.054843283362288588 -0.37152396371064761 0 0.042154611720303783 -0.37050660738608399 0 0.063027441322828198 -0.36299237014509861 0 0.067889817323807 -0.37408598804828408 0 0.054843283362288588 -0.37152396371064761 0 0.063027441322828198 -0.36299237014509861 0 0.054843283362288588 -0.37152396371064761 0 0.052211612515348282 -0.35891393261388188 0 0.054843283362288588 -0.37152396371064761 0 0.052211612515348282 -0.35891393261388188 0 0.042154611720303783 -0.37050660738608399 0 0.052211612515348282 -0.35891393261388188 0 0.059729196985315453 -0.35303886132495133 0 0.047551749005837002 -0.34959654093262549 0 0.063027441322828198 -0.36299237014509861 0 0.052211612515348282 -0.35891393261388188 0 0.059729196985315453 -0.35303886132495133 0 0.067607275257621266 -0.34710276575737847 0 0.059729196985315453 -0.35303886132495133 0 0.056149070171977331 -0.34416331283563922 0 0.067607275257621266 -0.34710276575737847 0 0.06132763752576563 -0.34045084259749092 0 0.056149070171977331 -0.34416331283563922 0 0.059729196985315453 -0.35303886132495133 0 0.056149070171977331 -0.34416331283563922 0 0.047551749005837002 -0.34959654093262549 0 0.04802188415332577 -0.34052663470329858 0 0.056149070171977331 -0.34416331283563922 0 0.047551749005837002 -0.34959654093262549 0 0.047551749005837002 -0.34959654093262549 0 0.037372178758725068 -0.34526991821343428 0 0.040065796175779829 -0.35813172934958909 0 0.04802188415332577 -0.34052663470329858 0 0.047551749005837002 -0.34959654093262549 0 0.037372178758725068 -0.34526991821343428 0 0.037372178758725068 -0.34526991821343428 0 0.040065796175779829 -0.35813172934958909 0 0.031230672875121209 -0.35587158302290162 0 0.052211612515348282 -0.35891393261388188 0 0.047551749005837002 -0.34959654093262549 0 0.040065796175779829 -0.35813172934958909 0 0.03149309236810905 -0.38665814906574841 0 0.042154611720303783 -0.37050660738608399 0 0.02655522260569124 -0.36653179145999731 0 0.052211612515348282 -0.35891393261388188 0 0.040065796175779829 -0.35813172934958909 0 0.042154611720303783 -0.37050660738608399 0 0.040065796175779829 -0.35813172934958909 0 0.042154611720303783 -0.37050660738608399 0 0.02655522260569124 -0.36653179145999731 0 0.040065796175779829 -0.35813172934958909 0 0.02655522260569124 -0.36653179145999731 0 0.031230672875121209 -0.35587158302290162 0 0.016123720227985121 -0.38451191405680041 0 0.02655522260569124 -0.36653179145999731 0 0.015849850524655321 -0.36346336503842053 0 0.02655522260569124 -0.36653179145999731 0 0.015849850524655321 -0.36346336503842053 0 0.0209294939602887 -0.35355289306858562 0 0.037372178758725068 -0.34526991821343428 0 0.0209294939602887 -0.35355289306858562 0 0.031230672875121209 -0.35587158302290162 0 0.02655522260569124 -0.36653179145999731 0 0.0209294939602887 -0.35355289306858562 0 0.031230672875121209 -0.35587158302290162 0 0.0097760216238017734 -0.34642726760603237 0 0.0071494440540374234 -0.37041485116327771 0 -0.005044399714458447 -0.35694206374877219 0 0.0097760216238017734 -0.34642726760603237 0 0.0071494440540374234 -0.37041485116327771 0 0.015849850524655321 -0.36346336503842053 0 0.0209294939602887 -0.35355289306858562 0 0.0097760216238017734 -0.34642726760603237 0 -0.0028639800660775418 -0.34487494837923161 0 -0.005044399714458447 -0.35694206374877219 0 0.0097760216238017734 -0.34642726760603237 0 0.015849850524655321 -0.36346336503842053 0 0.0097760216238017734 -0.34642726760603237 0 0.0071494440540374234 -0.37041485116327771 0 0.016123720227985121 -0.38451191405680041 0 0.015849850524655321 -0.36346336503842053 0 0.0071494440540374234 -0.37041485116327771 0 0.020402940134739131 -0.32359994892793298 0 0.01240259919356611 -0.32243968404878709 0 0.026188709162829449 -0.31190822039614519 0 0.033607475573487942 -0.32686349880097437 0 0.020402940134739131 -0.32359994892793298 0 0.033607475573487942 -0.32686349880097437 0 0.020402940134739131 -0.32359994892793298 0 0.026188709162829449 -0.31190822039614519 0 0.033607475573487942 -0.32686349880097437 0 0.0209294939602887 -0.35355289306858562 0 0.020402940134739131 -0.32359994892793298 0 0.0209294939602887 -0.35355289306858562 0 0.0097760216238017734 -0.34642726760603237 0 0.020402940134739131 -0.32359994892793298 0 0.033607475573487942 -0.32686349880097437 0 0.037372178758725068 -0.34526991821343428 0 0.0209294939602887 -0.35355289306858562 0 0.033607475573487942 -0.32686349880097437 0 0.0209294939602887 -0.35355289306858562 0 -0.0012659684323979539 -0.33308060515601762 0 0.0097760216238017734 -0.34642726760603237 0 0.01240259919356611 -0.32243968404878709 0 0.0097760216238017734 -0.34642726760603237 0 0.020402940134739131 -0.32359994892793298 0 0.01240259919356611 -0.32243968404878709 0 0.0097760216238017734 -0.34642726760603237 0 0.01240259919356611 -0.32243968404878709 0 -0.0012659684323979539 -0.33308060515601762 0 -0.0028639800660775418 -0.34487494837923161 0 0.0097760216238017734 -0.34642726760603237 0 -0.00080927065402618982 -0.32345324707213119 0 -0.0012659684323979539 -0.33308060515601762 0 0.01240259919356611 -0.32243968404878709 0 -0.00080927065402618982 -0.32345324707213119 0 -0.0026532156142901431 -0.31404969460252902 0 0.01240259919356611 -0.32243968404878709 0 -0.0026532156142901431 -0.31404969460252902 0 0.01240259919356611 -0.32243968404878709 0 0.015029176763330441 -0.29845210049154192 0 -0.006997839033917503 -0.2973705540437831 0 -0.0026532156142901431 -0.31404969460252902 0 0.015029176763330441 -0.29845210049154192 0 0.01240259919356611 -0.32243968404878709 0 0.015029176763330441 -0.29845210049154192 0 -0.006997839033917503 -0.2973705540437831 0 0.01006187057637337 -0.28321772828678038 0 0.0023374952316131039 -0.27020674657716282 0 -0.006997839033917503 -0.2973705540437831 0 0.015029176763330441 -0.29845210049154192 0 0.01006187057637337 -0.28321772828678038 0 0.015029176763330441 -0.29845210049154192 0 0.01006187057637337 -0.28321772828678038 0 0.024436664217920592 -0.27986589351031438 0 0.015029176763330441 -0.29845210049154192 0 0.033632106127566973 -0.29338372629059678 0 0.024436664217920592 -0.27986589351031438 0 0.01240259919356611 -0.32243968404878709 0 0.015029176763330441 -0.29845210049154192 0 0.026188709162829449 -0.31190822039614519 0 0.015029176763330441 -0.29845210049154192 0 0.026188709162829449 -0.31190822039614519 0 0.033632106127566973 -0.29338372629059678 0 0.026188709162829449 -0.31190822039614519 0 0.043601824153362112 -0.30582362685333953 0 0.033632106127566973 -0.29338372629059678 0 0.033632106127566973 -0.29338372629059678 0 0.053596172733235969 -0.2847837549057044 0 0.038940089734723272 -0.27946876158653572 0 0.043601824153362112 -0.30582362685333953 0 0.033632106127566973 -0.29338372629059678 0 0.053596172733235969 -0.2847837549057044 0 0.033632106127566973 -0.29338372629059678 0 0.038940089734723272 -0.27946876158653572 0 0.024436664217920592 -0.27986589351031438 0 0.043601824153362112 -0.30582362685333953 0 0.053596172733235969 -0.2847837549057044 0 0.069882128913043101 -0.2959811399193657 0 0.053596172733235969 -0.2847837549057044 0 0.057837577595386873 -0.30099560285920107 0 0.043601824153362112 -0.30582362685333953 0 0.053596172733235969 -0.2847837549057044 0 0.057837577595386873 -0.30099560285920107 0 0.070834948064506451 -0.30909342817283958 0 0.056645285855359703 -0.31399538390497261 0 0.057837577595386873 -0.30099560285920107 0 0.056645285855359703 -0.31399538390497261 0 0.043601824153362112 -0.30582362685333953 0 0.057837577595386873 -0.30099560285920107 0 0.047863045699788158 -0.25804850210769692 0 0.05508693562185852 -0.25839947965825277 0 0.049199900653644137 -0.26819968570414671 0 0.047863045699788158 -0.25804850210769692 0 0.053518379687248603 -0.25041434845444421 0 0.05508693562185852 -0.25839947965825277 0 0.047863045699788158 -0.25804850210769692 0 0.053518379687248603 -0.25041434845444421 0 0.042897346298023623 -0.24802138935512619 0 0.063590521313109216 -0.26374388295806911 0 0.061057326404360013 -0.25112753476493038 0 0.05508693562185852 -0.25839947965825277 0 0.053518379687248603 -0.25041434845444421 0 0.061057326404360013 -0.25112753476493038 0 0.05508693562185852 -0.25839947965825277 0 0.063590521313109216 -0.26374388295806911 0 0.05508693562185852 -0.25839947965825277 0 0.049199900653644137 -0.26819968570414671 0 0.063590521313109216 -0.26374388295806911 0 0.05508693562185852 -0.25839947965825277 0 0.069852228083213924 -0.27961200651655649 0 0.063590521313109216 -0.26374388295806911 0 0.053596172733235969 -0.2847837549057044 0 0.053596172733235969 -0.2847837549057044 0 0.049199900653644137 -0.26819968570414671 0 0.038940089734723272 -0.27946876158653572 0 0.063590521313109216 -0.26374388295806911 0 0.053596172733235969 -0.2847837549057044 0 0.049199900653644137 -0.26819968570414671 0 0.063590521313109216 -0.26374388295806911 0 0.053596172733235969 -0.2847837549057044 0 0.049199900653644137 -0.26819968570414671 0 0.038940089734723272 -0.27946876158653572 0 0.038612666238165887 -0.26520760736651439 0 0.038940089734723272 -0.27946876158653572 0 0.038612666238165887 -0.26520760736651439 0 0.024436664217920592 -0.27986589351031438 0 0.038612666238165887 -0.26520760736651439 0 0.022617420764818472 -0.25911406796614461 0 0.042897346298023623 -0.24802138935512619 0 0.047863045699788158 -0.25804850210769692 0 0.038612666238165887 -0.26520760736651439 0 0.042897346298023623 -0.24802138935512619 0 0.022617420764818472 -0.25911406796614461 0 0.028260595025501239 -0.24585618151740421 0 0.042897346298023623 -0.24802138935512619 0 0.022617420764818472 -0.25911406796614461 0 0.042897346298023623 -0.24802138935512619 0 0.047863045699788158 -0.25804850210769692 0 0.049199900653644137 -0.26819968570414671 0 0.038612666238165887 -0.26520760736651439 0 0.022617420764818472 -0.25911406796614461 0 0.028260595025501239 -0.24585618151740421 0 0.018104898617097069 -0.24841330132233719 0 0.022617420764818472 -0.25911406796614461 0 0.007913561711975629 -0.25398159684118321 0 0.018104898617097069 -0.24841330132233719 0 0.038612666238165887 -0.26520760736651439 0 0.022617420764818472 -0.25911406796614461 0 0.024436664217920592 -0.27986589351031438 0 0.022617420764818472 -0.25911406796614461 0 0.024436664217920592 -0.27986589351031438 0 0.014863362697681379 -0.2731011090851006 0 0.01006187057637337 -0.28321772828678038 0 0.024436664217920592 -0.27986589351031438 0 0.014863362697681379 -0.2731011090851006 0 0.022617420764818472 -0.25911406796614461 0 0.014863362697681379 -0.2731011090851006 0 0.0023374952316131039 -0.27020674657716282 0 0.01006187057637337 -0.28321772828678038 0 0.014863362697681379 -0.2731011090851006 0 0.0023374952316131039 -0.27020674657716282 0 0.022617420764818472 -0.25911406796614461 0 0.0023374952316131039 -0.27020674657716282 0 0.022617420764818472 -0.25911406796614461 0 0.0023374952316131039 -0.27020674657716282 0 0.007913561711975629 -0.25398159684118321 0 0.0023374952316131039 -0.27020674657716282 0 0.007913561711975629 -0.25398159684118321 0 0.0023374952316131039 -0.27020674657716282 0 0.007913561711975629 -0.25398159684118321 0 0.00081356834396824167 -0.25216419879611068 0 -0.002011564974510906 -0.24006976274168809 0 0.00081356834396824167 -0.25216419879611068 0 0.0032495753844552781 -0.2375765246753716 0 0.00081356834396824167 -0.25216419879611068 0 0.01308154228195664 -0.2298940960215575 0 0.007913561711975629 -0.25398159684118321 0 0.00081356834396824167 -0.25216419879611068 0 0.013489628192338459 -0.23775644710520349 0 0.00081356834396824167 -0.25216419879611068 0 0.0032495753844552781 -0.2375765246753716 0 0.01308154228195664 -0.2298940960215575 0 0.007913561711975629 -0.25398159684118321 0 0.013489628192338459 -0.23775644710520349 0 0.007913561711975629 -0.25398159684118321 0 0.013489628192338459 -0.23775644710520349 0 0.018104898617097069 -0.24841330132233719 0 0.00081356834396824167 -0.25216419879611068 0 0.013489628192338459 -0.23775644710520349 0 0.01308154228195664 -0.2298940960215575 0 -0.002011564974510906 -0.24006976274168809 0 0.0032495753844552781 -0.2375765246753716 0 0.0011147558864071331 -0.22817804114213031 0 0.0032495753844552781 -0.2375765246753716 0 0.0011147558864071331 -0.22817804114213031 0 0.01308154228195664 -0.2298940960215575 0 -0.007348021490666809 -0.21888339270897031 0 0.0011147558864071331 -0.22817804114213031 0 0.0079579067736352746 -0.2171933631649649 0 0.0011147558864071331 -0.22817804114213031 0 0.01308154228195664 -0.2298940960215575 0 0.0079579067736352746 -0.2171933631649649 0 0.013489628192338459 -0.23775644710520349 0 0.01308154228195664 -0.2298940960215575 0 0.02206828838110712 -0.23336941588230189 0 0.01308154228195664 -0.2298940960215575 0 0.025349516219945009 -0.2076239932470044 0 0.01308154228195664 -0.2298940960215575 0 0.02206828838110712 -0.23336941588230189 0 0.033677614362875218 -0.22026780318846301 0 0.01308154228195664 -0.2298940960215575 0 0.025349516219945009 -0.2076239932470044 0 0.033677614362875218 -0.22026780318846301 0 0.02206828838110712 -0.23336941588230189 0 0.032719281950014459 -0.23342257772495401 0 0.033677614362875218 -0.22026780318846301 0 0.02206828838110712 -0.23336941588230189 0 0.02292853843321167 -0.23976358471044021 0 0.032719281950014459 -0.23342257772495401 0 0.028260595025501239 -0.24585618151740421 0 0.02292853843321167 -0.23976358471044021 0 0.032719281950014459 -0.23342257772495401 0 0.028260595025501239 -0.24585618151740421 0 0.018104898617097069 -0.24841330132233719 0 0.02292853843321167 -0.23976358471044021 0 0.013489628192338459 -0.23775644710520349 0 0.018104898617097069 -0.24841330132233719 0 0.02292853843321167 -0.23976358471044021 0 0.013489628192338459 -0.23775644710520349 0 0.02206828838110712 -0.23336941588230189 0 0.02292853843321167 -0.23976358471044021 0 0.010017581166572229 -0.192143398998987 0 0.011597378988362239 -0.2060132621557226 0 0.001912996936125549 -0.20615992725240201 0 0.011597378988362239 -0.2060132621557226 0 0.0079579067736352746 -0.2171933631649649 0 0.025349516219945009 -0.2076239932470044 0 0.01308154228195664 -0.2298940960215575 0 0.0079579067736352746 -0.2171933631649649 0 0.025349516219945009 -0.2076239932470044 0 0.011597378988362239 -0.2060132621557226 0 0.001912996936125549 -0.20615992725240201 0 0.0079579067736352746 -0.2171933631649649 0 -0.007348021490666809 -0.21888339270897031 0 0.001912996936125549 -0.20615992725240201 0 0.0079579067736352746 -0.2171933631649649 0 0.010017581166572229 -0.192143398998987 0 0.025349516219945009 -0.2076239932470044 0 0.024545494741124021 -0.18669208604503601 0 0.025349516219945009 -0.2076239932470044 0 0.035380981228891703 -0.18689827975135481 0 0.024545494741124021 -0.18669208604503601 0 0.010017581166572229 -0.192143398998987 0 0.011597378988362239 -0.2060132621557226 0 0.025349516219945009 -0.2076239932470044 0 0.025349516219945009 -0.2076239932470044 0 0.037617490157933031 -0.18535389047245121 0 0.025349516219945009 -0.2076239932470044 0 0.038996221629090153 -0.19580011626280269 0 0.037617490157933031 -0.18535389047245121 0 0.025349516219945009 -0.2076239932470044 0 0.035380981228891703 -0.18689827975135481 0 0.037617490157933031 -0.18535389047245121 0 0.025349516219945009 -0.2076239932470044 0 0.038996221629090153 -0.19580011626280269 0 0.042434417138208308 -0.20382965718232821 0 0.042471606951986762 -0.19058266938536561 0 0.037617490157933031 -0.18535389047245121 0 0.046595730997356012 -0.18722444502448221 0 0.042471606951986762 -0.19058266938536561 0 0.038996221629090153 -0.19580011626280269 0 0.037617490157933031 -0.18535389047245121 0 0.046676985023567853 -0.19395222578172611 0 0.042471606951986762 -0.19058266938536561 0 0.046595730997356012 -0.18722444502448221 0 0.046676985023567853 -0.19395222578172611 0 0.042471606951986762 -0.19058266938536561 0 0.038996221629090153 -0.19580011626280269 0 0.046676985023567853 -0.19395222578172611 0 0.038996221629090153 -0.19580011626280269 0 0.042434417138208308 -0.20382965718232821 0 0.051040136709746657 -0.21137323694618559 0 0.033677614362875218 -0.22026780318846301 0 0.049050117859148368 -0.22236164531490951 0 0.025349516219945009 -0.2076239932470044 0 0.042434417138208308 -0.20382965718232821 0 0.033677614362875218 -0.22026780318846301 0 0.042434417138208308 -0.20382965718232821 0 0.051040136709746657 -0.21137323694618559 0 0.033677614362875218 -0.22026780318846301 0 0.051040136709746657 -0.21137323694618559 0 0.049050117859148368 -0.22236164531490951 0 0.06444904244464246 -0.22036695076504079 0 0.051040136709746657 -0.21137323694618559 0 0.062165544318866478 -0.2059189627809678 0 0.06444904244464246 -0.22036695076504079 0 0.051040136709746657 -0.21137323694618559 0 0.062165544318866478 -0.2059189627809678 0 0.053905929005834727 -0.19976919320279121 0 0.042434417138208308 -0.20382965718232821 0 0.051040136709746657 -0.21137323694618559 0 0.053905929005834727 -0.19976919320279121 0 0.046676985023567853 -0.19395222578172611 0 0.042434417138208308 -0.20382965718232821 0 0.053905929005834727 -0.19976919320279121 0 0.062165544318866478 -0.2059189627809678 0 0.053905929005834727 -0.19976919320279121 0 0.065965524278404603 -0.19410734069073149 0 0.053905929005834727 -0.19976919320279121 0 0.05515296656621449 -0.18943373583480819 0 0.065965524278404603 -0.19410734069073149 0 0.05515296656621449 -0.18943373583480819 0 0.065965524278404603 -0.19410734069073149 0 0.061850937123452777 -0.18198963482306679 0 0.046676985023567853 -0.19395222578172611 0 0.05515296656621449 -0.18943373583480819 0 0.046595730997356012 -0.18722444502448221 0 0.046676985023567853 -0.19395222578172611 0 0.053905929005834727 -0.19976919320279121 0 0.05515296656621449 -0.18943373583480819 0 0.042897346298023623 -0.24802138935512619 0 0.032719281950014459 -0.23342257772495401 0 0.049168969799781082 -0.2344728160989025 0 0.028260595025501239 -0.24585618151740421 0 0.042897346298023623 -0.24802138935512619 0 0.032719281950014459 -0.23342257772495401 0 0.032719281950014459 -0.23342257772495401 0 0.049050117859148368 -0.22236164531490951 0 0.049168969799781082 -0.2344728160989025 0 0.032719281950014459 -0.23342257772495401 0 0.033677614362875218 -0.22026780318846301 0 0.049050117859148368 -0.22236164531490951 0 0.049050117859148368 -0.22236164531490951 0 0.056701606726891909 -0.22852109871891471 0 0.049168969799781082 -0.2344728160989025 0 0.056701606726891909 -0.22852109871891471 0 0.06317727183122876 -0.23692871074410771 0 0.06444904244464246 -0.22036695076504079 0 0.049050117859148368 -0.22236164531490951 0 0.056701606726891909 -0.22852109871891471 0 0.06444904244464246 -0.22036695076504079 0 0.056701606726891909 -0.22852109871891471 0 0.049168969799781082 -0.2344728160989025 0 0.06317727183122876 -0.23692871074410771 0 0.042897346298023623 -0.24802138935512619 0 0.06317727183122876 -0.23692871074410771 0 0.053518379687248603 -0.25041434845444421 0 0.042897346298023623 -0.24802138935512619 0 0.06317727183122876 -0.23692871074410771 0 0.042897346298023623 -0.24802138935512619 0 0.049168969799781082 -0.2344728160989025 0 0.06317727183122876 -0.23692871074410771 0 0.053518379687248603 -0.25041434845444421 0 0.061057326404360013 -0.25112753476493038 0 0.06317727183122876 -0.23692871074410771 0 0.061057326404360013 -0.25112753476493038 0 0.06317727183122876 -0.23692871074410771 0 0.071806209037987789 -0.24644840678853869 0 0.06317727183122876 -0.23692871074410771 0 0.071806209037987789 -0.24644840678853869 0 0.076221888545052324 -0.23377529142048231 0 0.071806209037987789 -0.24644840678853869 0 0.084127138674996035 -0.24728832084968769 0 0.076221888545052324 -0.23377529142048231 0 0.084127138674996035 -0.24728832084968769 0 0.091151329686474131 -0.23501188487793079 0 0.076221888545052324 -0.23377529142048231 0 0.084127138674996035 -0.24728832084968769 0 0.091151329686474131 -0.23501188487793079 0 0.095741447878656141 -0.24843749938630291 0 0.091151329686474131 -0.23501188487793079 0 0.082495532482300918 -0.21926710712989819 0 0.099603370781057354 -0.2204302570902493 0 0.091151329686474131 -0.23501188487793079 0 0.082495532482300918 -0.21926710712989819 0 0.076221888545052324 -0.23377529142048231 0 0.082495532482300918 -0.21926710712989819 0 0.076221888545052324 -0.23377529142048231 0 0.06444904244464246 -0.22036695076504079 0 0.06317727183122876 -0.23692871074410771 0 0.076221888545052324 -0.23377529142048231 0 0.06444904244464246 -0.22036695076504079 0 0.082495532482300918 -0.21926710712989819 0 0.06444904244464246 -0.22036695076504079 0 0.075028279209139848 -0.20555351963525109 0 0.062165544318866478 -0.2059189627809678 0 0.06444904244464246 -0.22036695076504079 0 0.075028279209139848 -0.20555351963525109 0 0.062165544318866478 -0.2059189627809678 0 0.075028279209139848 -0.20555351963525109 0 0.065965524278404603 -0.19410734069073149 0 0.075028279209139848 -0.20555351963525109 0 0.065965524278404603 -0.19410734069073149 0 0.078117369487951102 -0.19249525142097709 0 0.065965524278404603 -0.19410734069073149 0 0.078117369487951102 -0.19249525142097709 0 0.072810761665885168 -0.18299720541580991 0 0.09108876119986957 -0.19831849051527889 0 0.099178329647412786 -0.18595163143793431 0 0.086407527776201351 -0.18176432224939509 0 0.078117369487951102 -0.19249525142097709 0 0.09108876119986957 -0.19831849051527889 0 0.086407527776201351 -0.18176432224939509 0 0.075028279209139848 -0.20555351963525109 0 0.078117369487951102 -0.19249525142097709 0 0.09108876119986957 -0.19831849051527889 0 0.082495532482300918 -0.21926710712989819 0 0.075028279209139848 -0.20555351963525109 0 0.09108876119986957 -0.19831849051527889 0 0.082495532482300918 -0.21926710712989819 0 0.09108876119986957 -0.19831849051527889 0 0.099603370781057354 -0.2204302570902493 0 0.09108876119986957 -0.19831849051527889 0 0.1065933293896988 -0.19669352257070721 0 0.099603370781057354 -0.2204302570902493 0 0.09108876119986957 -0.19831849051527889 0 0.099603370781057354 -0.2204302570902493 0 0.1065933293896988 -0.19669352257070721 0 0.11698179924479039 -0.20849738227467191 0 0.099603370781057354 -0.2204302570902493 0 0.09108876119986957 -0.19831849051527889 0 0.1065933293896988 -0.19669352257070721 0 0.099178329647412786 -0.18595163143793431 0 0.1065933293896988 -0.19669352257070721 0 0.11121276548648661 -0.1827495250392985 0 0.099178329647412786 -0.18595163143793431 0 0.1198088980166104 -0.19218538145095701 0 0.11698179924479039 -0.20849738227467191 0 0.12869338222844709 -0.19525138080403839 0 0.1065933293896988 -0.19669352257070721 0 0.1198088980166104 -0.19218538145095701 0 0.11698179924479039 -0.20849738227467191 0 0.1065933293896988 -0.19669352257070721 0 0.1198088980166104 -0.19218538145095701 0 0.11121276548648661 -0.1827495250392985 0 0.11698179924479039 -0.20849738227467191 0 0.1178821633201122 -0.21963043690387421 0 0.099603370781057354 -0.2204302570902493 0 0.12464043040152201 -0.2119120535176171 0 0.1178821633201122 -0.21963043690387421 0 0.12880562160516101 -0.22073891600480711 0 0.11698179924479039 -0.20849738227467191 0 0.12464043040152201 -0.2119120535176171 0 0.1178821633201122 -0.21963043690387421 0 0.12092990926139489 -0.228267685902275 0 0.12271910577429609 -0.24269635312249871 0 0.12880562160516101 -0.22073891600480711 0 0.1178821633201122 -0.21963043690387421 0 0.1143127463460101 -0.2300050375779201 0 0.099603370781057354 -0.2204302570902493 0 0.1178821633201122 -0.21963043690387421 0 0.12092990926139489 -0.228267685902275 0 0.12880562160516101 -0.22073891600480711 0 0.1178821633201122 -0.21963043690387421 0 0.1143127463460101 -0.2300050375779201 0 0.12092990926139489 -0.228267685902275 0 0.1143127463460101 -0.2300050375779201 0 0.12092990926139489 -0.228267685902275 0 0.12271910577429609 -0.24269635312249871 0 0.11663258994343211 -0.26465379024019048 0 0.12271910577429609 -0.24269635312249871 0 0.1081179803622451 -0.24254202366521979 0 0.1143127463460101 -0.2300050375779201 0 0.12271910577429609 -0.24269635312249871 0 0.1081179803622451 -0.24254202366521979 0 0.091151329686474131 -0.23501188487793079 0 0.1081179803622451 -0.24254202366521979 0 0.095741447878656141 -0.24843749938630291 0 0.1032215270576279 -0.2570968693315816 0 0.1081179803622451 -0.24254202366521979 0 0.095741447878656141 -0.24843749938630291 0 0.1081179803622451 -0.24254202366521979 0 0.099603370781057354 -0.2204302570902493 0 0.1143127463460101 -0.2300050375779201 0 0.1081179803622451 -0.24254202366521979 0 0.099603370781057354 -0.2204302570902493 0 0.091151329686474131 -0.23501188487793079 0 0.1081179803622451 -0.24254202366521979 0 0.099603370781057354 -0.2204302570902493 0 0.098294119751320158 -0.15498672470599081 0 0.10146445215370579 -0.14126528330595761 0 0.083827267055295182 -0.1534443894218902 0 0.10561261635980849 -0.14515156957345851 0 0.1053111779752849 -0.1386089817635893 0 0.1137582700209558 -0.14225739577149629 0 0.10561261635980849 -0.14515156957345851 0 0.098294119751320158 -0.15498672470599081 0 0.10146445215370579 -0.14126528330595761 0 0.10561261635980849 -0.14515156957345851 0 0.10146445215370579 -0.14126528330595761 0 0.1053111779752849 -0.1386089817635893 0 0.10561261635980849 -0.14515156957345851 0 0.1092025858287565 -0.14894408253578151 0 0.098294119751320158 -0.15498672470599081 0 0.098294119751320158 -0.15498672470599081 0 0.1095734986573319 -0.1561892380953932 0 0.1092025858287565 -0.14894408253578151 0 0.098294119751320158 -0.15498672470599081 0 0.1095734986573319 -0.1561892380953932 0 0.098294119751320158 -0.15498672470599081 0 0.10146445215370579 -0.14126528330595761 0 0.10146445215370579 -0.14126528330595761 0 0.095664490414351239 -0.12655710914015639 0 0.1073858249396237 -0.1159467245846289 0 0.10146445215370579 -0.14126528330595761 0 0.1053111779752849 -0.1386089817635893 0 0.1073858249396237 -0.1159467245846289 0 0.10146445215370579 -0.14126528330595761 0 0.088008216085426721 -0.1407476439101453 0 0.093231764660507949 -0.13532047874164649 0 0.10146445215370579 -0.14126528330595761 0 0.1073858249396237 -0.1159467245846289 0 0.10146445215370579 -0.14126528330595761 0 0.095664490414351239 -0.12655710914015639 0 0.093231764660507949 -0.13532047874164649 0 0.10146445215370579 -0.14126528330595761 0 0.1053111779752849 -0.1386089817635893 0 0.1053111779752849 -0.1386089817635893 0 0.1187481951884492 -0.12855951967903281 0 0.1073858249396237 -0.1159467245846289 0 0.1053111779752849 -0.1386089817635893 0 0.1187481951884492 -0.12855951967903281 0 0.1137582700209558 -0.14225739577149629 0 0.1187481951884492 -0.12855951967903281 0 0.1137582700209558 -0.14225739577149629 0 0.1260961374427722 -0.1435758614132828 0 0.1137582700209558 -0.14225739577149629 0 0.11748264271272529 -0.1505575427034217 0 0.1260961374427722 -0.1435758614132828 0 0.1095734986573319 -0.1561892380953932 0 0.11748264271272529 -0.1505575427034217 0 0.1264609325211889 -0.1600452056287022 0 0.11748264271272529 -0.1505575427034217 0 0.1264609325211889 -0.1600452056287022 0 0.1260961374427722 -0.1435758614132828 0 0.10561261635980849 -0.14515156957345851 0 0.1092025858287565 -0.14894408253578151 0 0.1137582700209558 -0.14225739577149629 0 0.1092025858287565 -0.14894408253578151 0 0.1137582700209558 -0.14225739577149629 0 0.11748264271272529 -0.1505575427034217 0 0.1092025858287565 -0.14894408253578151 0 0.1095734986573319 -0.1561892380953932 0 0.11748264271272529 -0.1505575427034217 0 0.1095734986573319 -0.1561892380953932 0 0.116627470420107 -0.17032109835476289 0 0.1264609325211889 -0.1600452056287022 0 0.116627470420107 -0.17032109835476289 0 0.13122252025391401 -0.1742611001861846 0 0.1264609325211889 -0.1600452056287022 0 0.1198088980166104 -0.19218538145095701 0 0.1224507753063967 -0.18181771555635581 0 0.1324604505328206 -0.18663405217076509 0 0.1198088980166104 -0.19218538145095701 0 0.1224507753063967 -0.18181771555635581 0 0.11121276548648661 -0.1827495250392985 0 0.116627470420107 -0.17032109835476289 0 0.1224507753063967 -0.18181771555635581 0 0.13122252025391401 -0.1742611001861846 0 0.116627470420107 -0.17032109835476289 0 0.1224507753063967 -0.18181771555635581 0 0.11121276548648661 -0.1827495250392985 0 0.116627470420107 -0.17032109835476289 0 0.11121276548648661 -0.1827495250392985 0 0.1013032710745526 -0.17049691821657281 0 0.11121276548648661 -0.1827495250392985 0 0.099178329647412786 -0.18595163143793431 0 0.1013032710745526 -0.17049691821657281 0 0.099178329647412786 -0.18595163143793431 0 0.1013032710745526 -0.17049691821657281 0 0.086407527776201351 -0.18176432224939509 0 0.098294119751320158 -0.15498672470599081 0 0.1013032710745526 -0.17049691821657281 0 0.083827267055295182 -0.1534443894218902 0 0.098294119751320158 -0.15498672470599081 0 0.1095734986573319 -0.1561892380953932 0 0.1013032710745526 -0.17049691821657281 0 0.1095734986573319 -0.1561892380953932 0 0.116627470420107 -0.17032109835476289 0 0.1013032710745526 -0.17049691821657281 0 0.1013032710745526 -0.17049691821657281 0 0.086356654984034817 -0.1685471619594972 0 0.083827267055295182 -0.1534443894218902 0 0.086356654984034817 -0.1685471619594972 0 0.074092343950848683 -0.16016670144946041 0 0.086356654984034817 -0.1685471619594972 0 0.077996765104989499 -0.17428453670412219 0 0.074092343950848683 -0.16016670144946041 0 0.074092343950848683 -0.16016670144946041 0 0.083827267055295182 -0.1534443894218902 0 0.086356654984034817 -0.1685471619594972 0 0.074092343950848683 -0.16016670144946041 0 0.083827267055295182 -0.1534443894218902 0 0.1013032710745526 -0.17049691821657281 0 0.086356654984034817 -0.1685471619594972 0 0.086407527776201351 -0.18176432224939509 0 0.086407527776201351 -0.18176432224939509 0 0.072810761665885168 -0.18299720541580991 0 0.077996765104989499 -0.17428453670412219 0 0.086356654984034817 -0.1685471619594972 0 0.086407527776201351 -0.18176432224939509 0 0.077996765104989499 -0.17428453670412219 0 0.078117369487951102 -0.19249525142097709 0 0.086407527776201351 -0.18176432224939509 0 0.072810761665885168 -0.18299720541580991 0 0.072810761665885168 -0.18299720541580991 0 0.077996765104989499 -0.17428453670412219 0 0.068521144979913448 -0.1744396748706831 0 0.072810761665885168 -0.18299720541580991 0 0.068521144979913448 -0.1744396748706831 0 0.061850937123452777 -0.18198963482306679 0 0.065965524278404603 -0.19410734069073149 0 0.072810761665885168 -0.18299720541580991 0 0.061850937123452777 -0.18198963482306679 0 0.074092343950848683 -0.16016670144946041 0 0.055854917054390912 -0.1727602959609558 0 0.06150580011801926 -0.16143313797442049 0 0.068521144979913448 -0.1744396748706831 0 0.074092343950848683 -0.16016670144946041 0 0.055854917054390912 -0.1727602959609558 0 0.074092343950848683 -0.16016670144946041 0 0.055854917054390912 -0.1727602959609558 0 0.077996765104989499 -0.17428453670412219 0 0.068521144979913448 -0.1744396748706831 0 0.074092343950848683 -0.16016670144946041 0 0.074092343950848683 -0.16016670144946041 0 0.060636398622520397 -0.15097197227599299 0 0.06150580011801926 -0.16143313797442049 0 0.073200024077968995 -0.14312670538672961 0 0.083827267055295182 -0.1534443894218902 0 0.060636398622520397 -0.15097197227599299 0 0.083827267055295182 -0.1534443894218902 0 0.060636398622520397 -0.15097197227599299 0 0.074092343950848683 -0.16016670144946041 0 0.083827267055295182 -0.1534443894218902 0 0.060636398622520397 -0.15097197227599299 0 0.074092343950848683 -0.16016670144946041 0 0.060636398622520397 -0.15097197227599299 0 0.073200024077968995 -0.14312670538672961 0 0.060635975180232393 -0.1395374429746134 0 0.060636398622520397 -0.15097197227599299 0 0.10146445215370579 -0.14126528330595761 0 0.083827267055295182 -0.1534443894218902 0 0.088008216085426721 -0.1407476439101453 0 0.10146445215370579 -0.14126528330595761 0 0.083827267055295182 -0.1534443894218902 0 0.083827267055295182 -0.1534443894218902 0 0.081424295301118027 -0.14336465831841039 0 0.088008216085426721 -0.1407476439101453 0 0.073200024077968995 -0.14312670538672961 0 0.083827267055295182 -0.1534443894218902 0 0.081424295301118027 -0.14336465831841039 0 0.098294119751320158 -0.15498672470599081 0 0.083827267055295182 -0.1534443894218902 0 0.095664490414351239 -0.12655710914015639 0 0.08098235697013563 -0.1327329312509187 0 0.082260007331430865 -0.11848132785895329 0 0.095664490414351239 -0.12655710914015639 0 0.093231764660507949 -0.13532047874164649 0 0.08098235697013563 -0.1327329312509187 0 0.088008216085426721 -0.1407476439101453 0 0.093231764660507949 -0.13532047874164649 0 0.08098235697013563 -0.1327329312509187 0 0.081424295301118027 -0.14336465831841039 0 0.088008216085426721 -0.1407476439101453 0 0.08098235697013563 -0.1327329312509187 0 0.073200024077968995 -0.14312670538672961 0 0.081424295301118027 -0.14336465831841039 0 0.08098235697013563 -0.1327329312509187 0 0.08098235697013563 -0.1327329312509187 0 0.067449638053983726 -0.1332516094269951 0 0.067308451905799468 -0.1198765322406433 0 0.073200024077968995 -0.14312670538672961 0 0.08098235697013563 -0.1327329312509187 0 0.067449638053983726 -0.1332516094269951 0 0.073200024077968995 -0.14312670538672961 0 0.067449638053983726 -0.1332516094269951 0 0.060635975180232393 -0.1395374429746134 0 0.067449638053983726 -0.1332516094269951 0 0.055121382135782153 -0.13098443528207049 0 0.067308451905799468 -0.1198765322406433 0 0.055121382135782153 -0.13098443528207049 0 0.060635975180232393 -0.1395374429746134 0 0.043845254880010107 -0.13949823219620339 0 0.055121382135782153 -0.13098443528207049 0 0.043845254880010107 -0.13949823219620339 0 0.042882328541884611 -0.1247996419154655 0 0.067449638053983726 -0.1332516094269951 0 0.055121382135782153 -0.13098443528207049 0 0.060635975180232393 -0.1395374429746134 0 0.060636398622520397 -0.15097197227599299 0 0.038111257141887657 -0.14857052939031939 0 0.060636398622520397 -0.15097197227599299 0 0.038111257141887657 -0.14857052939031939 0 0.043845254880010107 -0.13949823219620339 0 0.060635975180232393 -0.1395374429746134 0 0.060636398622520397 -0.15097197227599299 0 0.043845254880010107 -0.13949823219620339 0 0.060636398622520397 -0.15097197227599299 0 0.038111257141887657 -0.14857052939031939 0 0.053095958817360407 -0.15725576362766419 0 0.060636398622520397 -0.15097197227599299 0 0.043845254880010107 -0.13949823219620339 0 0.038111257141887657 -0.14857052939031939 0 0.053095958817360407 -0.15725576362766419 0 0.040258071956506748 -0.16063145022552519 0 0.038111257141887657 -0.14857052939031939 0 0.040258071956506748 -0.16063145022552519 0 0.03006942938572631 -0.15890765697925871 0 0.043845254880010107 -0.13949823219620339 0 0.027054111137508829 -0.12802449211640071 0 0.043845254880010107 -0.13949823219620339 0 0.027054111137508829 -0.12802449211640071 0 0.042882328541884611 -0.1247996419154655 0 0.038111257141887657 -0.14857052939031939 0 0.043845254880010107 -0.13949823219620339 0 0.027054111137508829 -0.12802449211640071 0 0.052396592283367717 -0.18192693388706269 0 0.055854917054390912 -0.1727602959609558 0 0.037617490157933031 -0.18535389047245121 0 0.05515296656621449 -0.18943373583480819 0 0.052396592283367717 -0.18192693388706269 0 0.046595730997356012 -0.18722444502448221 0 0.05515296656621449 -0.18943373583480819 0 0.052396592283367717 -0.18192693388706269 0 0.061850937123452777 -0.18198963482306679 0 0.068521144979913448 -0.1744396748706831 0 0.061850937123452777 -0.18198963482306679 0 0.055854917054390912 -0.1727602959609558 0 0.052396592283367717 -0.18192693388706269 0 0.061850937123452777 -0.18198963482306679 0 0.055854917054390912 -0.1727602959609558 0 0.053095958817360407 -0.15725576362766419 0 0.045356724487646882 -0.17130482705005781 0 0.055854917054390912 -0.1727602959609558 0 0.055325649999653018 -0.1650096887275837 0 0.045356724487646882 -0.17130482705005781 0 0.055325649999653018 -0.1650096887275837 0 0.053095958817360407 -0.15725576362766419 0 0.045356724487646882 -0.17130482705005781 0 0.055854917054390912 -0.1727602959609558 0 0.055325649999653018 -0.1650096887275837 0 0.06150580011801926 -0.16143313797442049 0 0.055325649999653018 -0.1650096887275837 0 0.06150580011801926 -0.16143313797442049 0 0.053095958817360407 -0.15725576362766419 0 0.060636398622520397 -0.15097197227599299 0 0.06150580011801926 -0.16143313797442049 0 0.053095958817360407 -0.15725576362766419 0 0.053095958817360407 -0.15725576362766419 0 0.040258071956506748 -0.16063145022552519 0 0.045356724487646882 -0.17130482705005781 0 0.040258071956506748 -0.16063145022552519 0 0.035090919839682599 -0.1685558284291708 0 0.03006942938572631 -0.15890765697925871 0 0.040258071956506748 -0.16063145022552519 0 0.035090919839682599 -0.1685558284291708 0 0.045356724487646882 -0.17130482705005781 0 0.055854917054390912 -0.1727602959609558 0 0.037617490157933031 -0.18535389047245121 0 0.055854917054390912 -0.1727602959609558 0 0.045356724487646882 -0.17130482705005781 0 0.037617490157933031 -0.18535389047245121 0 0.045356724487646882 -0.17130482705005781 0 0.037617490157933031 -0.18535389047245121 0 0.035090919839682599 -0.1685558284291708 0 0.045356724487646882 -0.17130482705005781 0 0.037965616687307052 -0.17617521762939889 0 0.045356724487646882 -0.17130482705005781 0 0.037965616687307052 -0.17617521762939889 0 0.037617490157933031 -0.18535389047245121 0 0.035090919839682599 -0.1685558284291708 0 0.037965616687307052 -0.17617521762939889 0 0.03064884002083235 -0.1776538285773083 0 0.037965616687307052 -0.17617521762939889 0 0.034410061043175552 -0.18193533679365781 0 0.03064884002083235 -0.1776538285773083 0 0.037965616687307052 -0.17617521762939889 0 0.034410061043175552 -0.18193533679365781 0 0.037617490157933031 -0.18535389047245121 0 0.034410061043175552 -0.18193533679365781 0 0.030732190217703809 -0.1834859249918806 0 0.03064884002083235 -0.1776538285773083 0 0.034410061043175552 -0.18193533679365781 0 0.035380981228891703 -0.18689827975135481 0 0.030732190217703809 -0.1834859249918806 0 0.035380981228891703 -0.18689827975135481 0 0.037617490157933031 -0.18535389047245121 0 0.034410061043175552 -0.18193533679365781 0 0.035380981228891703 -0.18689827975135481 0 0.037617490157933031 -0.18535389047245121 0 0.052396592283367717 -0.18192693388706269 0 0.037617490157933031 -0.18535389047245121 0 0.046595730997356012 -0.18722444502448221 0 0.024545494741124021 -0.18669208604503601 0 0.03064884002083235 -0.1776538285773083 0 0.021300782329299588 -0.1706113903466315 0 0.010017581166572229 -0.192143398998987 0 0.024545494741124021 -0.18669208604503601 0 0.021300782329299588 -0.1706113903466315 0 0.024545494741124021 -0.18669208604503601 0 0.030732190217703809 -0.1834859249918806 0 0.03064884002083235 -0.1776538285773083 0 0.035380981228891703 -0.18689827975135481 0 0.024545494741124021 -0.18669208604503601 0 0.030732190217703809 -0.1834859249918806 0 0.035090919839682599 -0.1685558284291708 0 0.03064884002083235 -0.1776538285773083 0 0.021300782329299588 -0.1706113903466315 0 0.021300782329299588 -0.1706113903466315 0 0.03006942938572631 -0.15890765697925871 0 0.015586115661254941 -0.1461690865046463 0 0.035090919839682599 -0.1685558284291708 0 0.021300782329299588 -0.1706113903466315 0 0.03006942938572631 -0.15890765697925871 0 0.021300782329299588 -0.1706113903466315 0 0.00083845406150376278 -0.16950274917103489 0 0.015586115661254941 -0.1461690865046463 0 0.00083845406150376278 -0.16950274917103489 0 0.015586115661254941 -0.1461690865046463 0 0.010017581166572229 -0.192143398998987 0 0.021300782329299588 -0.1706113903466315 0 0.00083845406150376278 -0.16950274917103489 0 0.027054111137508829 -0.12802449211640071 0 0.015586115661254941 -0.1461690865046463 0 0.005651203492742317 -0.13167830108118461 0 0.027054111137508829 -0.12802449211640071 0 0.015586115661254941 -0.1461690865046463 0 0.038111257141887657 -0.14857052939031939 0 0.027054111137508829 -0.12802449211640071 0 0.015586115661254941 -0.1461690865046463 0 0.038111257141887657 -0.14857052939031939 0 0.015586115661254941 -0.1461690865046463 0 0.038111257141887657 -0.14857052939031939 0 0.03006942938572631 -0.15890765697925871 0 0.015586115661254941 -0.1461690865046463 0 -0.0046733630300064728 -0.1440091897061109 0 0.015586115661254941 -0.1461690865046463 0 -0.0046733630300064728 -0.1440091897061109 0 0.00083845406150376278 -0.16950274917103489 0 0.015586115661254941 -0.1461690865046463 0 0.027054111137508829 -0.12802449211640071 0 0.005651203492742317 -0.13167830108118461 0 0.011358938096385621 -0.1172996517635095 0 -0.0046733630300064728 -0.1440091897061109 0 0.015586115661254941 -0.1461690865046463 0 0.005651203492742317 -0.13167830108118461 0 -0.0032364025572814 -0.1202862102981552 0 0.005651203492742317 -0.13167830108118461 0 0.011358938096385621 -0.1172996517635095 0 -0.0043362349447292926 -0.1065748114106063 0 -0.0032364025572814 -0.1202862102981552 0 0.011358938096385621 -0.1172996517635095 0 -0.0043362349447292926 -0.1065748114106063 0 0.011358938096385621 -0.1172996517635095 0 -0.0043362349447292926 -0.1065748114106063 0 0.011358938096385621 -0.1172996517635095 0 0.022595493909163291 -0.10655265178755249 0 0.027054111137508829 -0.12802449211640071 0 0.011358938096385621 -0.1172996517635095 0 0.022595493909163291 -0.10655265178755249 0 0.027054111137508829 -0.12802449211640071 0 0.022595493909163291 -0.10655265178755249 0 0.03717862952848941 -0.1120055391999086 0 0.027054111137508829 -0.12802449211640071 0 0.011358938096385621 -0.1172996517635095 0 0.022595493909163291 -0.10655265178755249 0 0.019045937009289519 -0.090369291454341527 0 0.04730314791947425 -0.095986586283419273 0 -0.0043362349447292926 -0.1065748114106063 0 0.022595493909163291 -0.10655265178755249 0 0.019045937009289519 -0.090369291454341527 0 -0.0043362349447292926 -0.1065748114106063 0 0.007896088688868378 -0.083773630776622796 0 -0.0043362349447292926 -0.1065748114106063 0 0.019045937009289519 -0.090369291454341527 0 -0.0043362349447292926 -0.1065748114106063 0 0.007896088688868378 -0.083773630776622796 0 0.019045937009289519 -0.090369291454341527 0 -0.0013757848549648751 -0.067692593236190063 0 0.007896088688868378 -0.083773630776622796 0 0.021324457298035771 -0.061789732716350951 0 0.007896088688868378 -0.083773630776622796 0 0.021324457298035771 -0.061789732716350951 0 0.007896088688868378 -0.083773630776622796 0 0.019982813360031049 -0.076063376931401749 0 0.021324457298035771 -0.061789732716350951 0 0.03076225124765225 -0.069876709042694038 0 0.021324457298035771 -0.061789732716350951 0 0.038590467435253642 -0.056984803077077067 0 0.019982813360031049 -0.076063376931401749 0 0.03076225124765225 -0.069876709042694038 0 0.021324457298035771 -0.061789732716350951 0 0.03076225124765225 -0.069876709042694038 0 0.019045937009289519 -0.090369291454341527 0 0.042428108963307433 -0.074163771498075404 0 0.019045937009289519 -0.090369291454341527 0 0.042428108963307433 -0.074163771498075404 0 0.019982813360031049 -0.076063376931401749 0 0.03076225124765225 -0.069876709042694038 0 0.019045937009289519 -0.090369291454341527 0 0.007896088688868378 -0.083773630776622796 0 0.019982813360031049 -0.076063376931401749 0 0.019045937009289519 -0.090369291454341527 0 0.042428108963307433 -0.074163771498075404 0 0.04730314791947425 -0.095986586283419273 0 0.019045937009289519 -0.090369291454341527 0 0.042428108963307433 -0.074163771498075404 0 0.04730314791947425 -0.095986586283419273 0 0.042428108963307433 -0.074163771498075404 0 0.046744315979324852 -0.065304851542109382 0 0.038590467435253642 -0.056984803077077067 0 0.042428108963307433 -0.074163771498075404 0 0.038590467435253642 -0.056984803077077067 0 0.03076225124765225 -0.069876709042694038 0 0.042428108963307433 -0.074163771498075404 0 0.038590467435253642 -0.056984803077077067 0 0.044742218276638789 -0.072559927991496048 0 0.042428108963307433 -0.074163771498075404 0 0.046744315979324852 -0.065304851542109382 0 0.044742218276638789 -0.072559927991496048 0 0.042428108963307433 -0.074163771498075404 0 0.044742218276638789 -0.072559927991496048 0 0.042428108963307433 -0.074163771498075404 0 0.058888540439399492 -0.077656246989334071 0 0.058888540439399492 -0.077656246989334071 0 0.05483477476441001 -0.066086251332341098 0 0.070473932959317503 -0.059325907695244283 0 0.046744315979324852 -0.065304851542109382 0 0.05483477476441001 -0.066086251332341098 0 0.053126010457014233 -0.056729503811557343 0 0.044742218276638789 -0.072559927991496048 0 0.046744315979324852 -0.065304851542109382 0 0.05483477476441001 -0.066086251332341098 0 0.044742218276638789 -0.072559927991496048 0 0.058888540439399492 -0.077656246989334071 0 0.05483477476441001 -0.066086251332341098 0 0.042428108963307433 -0.074163771498075404 0 0.058888540439399492 -0.077656246989334071 0 0.04730314791947425 -0.095986586283419273 0 0.058888540439399492 -0.077656246989334071 0 0.04730314791947425 -0.095986586283419273 0 0.058888540439399492 -0.077656246989334071 0 0.04730314791947425 -0.095986586283419273 0 0.067101621046239984 -0.091884434766455525 0 0.04730314791947425 -0.095986586283419273 0 0.061505006936685973 -0.10540852321115569 0 0.067101621046239984 -0.091884434766455525 0 0.04730314791947425 -0.095986586283419273 0 0.051212265027632063 -0.11348551078274401 0 0.04730314791947425 -0.095986586283419273 0 0.061505006936685973 -0.10540852321115569 0 0.051212265027632063 -0.11348551078274401 0 0.055121382135782153 -0.13098443528207049 0 0.051212265027632063 -0.11348551078274401 0 0.067308451905799468 -0.1198765322406433 0 0.055121382135782153 -0.13098443528207049 0 0.051212265027632063 -0.11348551078274401 0 0.042882328541884611 -0.1247996419154655 0 0.055121382135782153 -0.13098443528207049 0 0.051212265027632063 -0.11348551078274401 0 0.061505006936685973 -0.10540852321115569 0 0.051212265027632063 -0.11348551078274401 0 0.067308451905799468 -0.1198765322406433 0 0.027054111137508829 -0.12802449211640071 0 0.03717862952848941 -0.1120055391999086 0 0.027054111137508829 -0.12802449211640071 0 0.042882328541884611 -0.1247996419154655 0 0.03717862952848941 -0.1120055391999086 0 0.051212265027632063 -0.11348551078274401 0 0.042882328541884611 -0.1247996419154655 0 0.03717862952848941 -0.1120055391999086 0 0.04730314791947425 -0.095986586283419273 0 0.03717862952848941 -0.1120055391999086 0 0.04730314791947425 -0.095986586283419273 0 0.051212265027632063 -0.11348551078274401 0 0.03717862952848941 -0.1120055391999086 0 0.022595493909163291 -0.10655265178755249 0 0.04730314791947425 -0.095986586283419273 0 0.03717862952848941 -0.1120055391999086 0 0.029238391644584319 -0.0021909766244149272 0 0.010138315020404831 -0.0065203858659953822 0 0.023597683239801871 -0.022464228375389281 0 -0.0093952140255203868 -0.014450824162356841 0 -2.4069715675965691e-05 -0.033792571748980357 0 0.010138315020404831 -0.0065203858659953822 0 -2.4069715675965691e-05 -0.033792571748980357 0 0.010138315020404831 -0.0065203858659953822 0 0.023597683239801871 -0.022464228375389281 0 0.023597683239801871 -0.022464228375389281 0 0.016468342364280679 -0.03928852466480838 0 0.041095924084666877 -0.029421399451904511 0 0.016468342364280679 -0.03928852466480838 0 0.041095924084666877 -0.029421399451904511 0 0.016468342364280679 -0.03928852466480838 0 0.034388424979526058 -0.038174616111218022 0 0.041095924084666877 -0.029421399451904511 0 0.016468342364280679 -0.03928852466480838 0 0.034752825907201863 -0.039805834656078273 0 0.034388424979526058 -0.038174616111218022 0 -0.0081592393561052134 -0.04915564987771278 0 0.016468342364280679 -0.03928852466480838 0 -2.4069715675965691e-05 -0.033792571748980357 0 0.023597683239801871 -0.022464228375389281 0 0.016468342364280679 -0.03928852466480838 0 -2.4069715675965691e-05 -0.033792571748980357 0 -0.0081592393561052134 -0.04915564987771278 0 0.016468342364280679 -0.03928852466480838 0 -0.0081592393561052134 -0.04915564987771278 0 0.016468342364280679 -0.03928852466480838 0 0.0070644438628115914 -0.054481625123765552 0 -0.0013757848549648751 -0.067692593236190063 0 0.0070644438628115914 -0.054481625123765552 0 0.021324457298035771 -0.061789732716350951 0 0.016468342364280679 -0.03928852466480838 0 0.0070644438628115914 -0.054481625123765552 0 0.021324457298035771 -0.061789732716350951 0 0.016468342364280679 -0.03928852466480838 0 0.021324457298035771 -0.061789732716350951 0 0.034752825907201863 -0.039805834656078273 0 0.021324457298035771 -0.061789732716350951 0 0.034752825907201863 -0.039805834656078273 0 0.021324457298035771 -0.061789732716350951 0 0.038590467435253642 -0.056984803077077067 0 0.034752825907201863 -0.039805834656078273 0 0.038590467435253642 -0.056984803077077067 0 0.034752825907201863 -0.039805834656078273 0 0.038590467435253642 -0.056984803077077067 0 0.053126010457014233 -0.056729503811557343 0 0.046968397484484233 -0.040137954337254741 0 0.046744315979324852 -0.065304851542109382 0 0.038590467435253642 -0.056984803077077067 0 0.053126010457014233 -0.056729503811557343 0 0.053126010457014233 -0.056729503811557343 0 0.058808316762587728 -0.043162322689538367 0 0.070473932959317503 -0.059325907695244283 0 0.05483477476441001 -0.066086251332341098 0 0.053126010457014233 -0.056729503811557343 0 0.070473932959317503 -0.059325907695244283 0 0.058808316762587728 -0.043162322689538367 0 0.047142700565889317 -0.02699873768380984 0 0.053126010457014233 -0.056729503811557343 0 0.058808316762587728 -0.043162322689538367 0 0.046968397484484233 -0.040137954337254741 0 0.058808316762587728 -0.043162322689538367 0 0.046968397484484233 -0.040137954337254741 0 0.047142700565889317 -0.02699873768380984 0 0.038590467435253642 -0.056984803077077067 0 0.046968397484484233 -0.040137954337254741 0 0.034752825907201863 -0.039805834656078273 0 0.046968397484484233 -0.040137954337254741 0 0.041095924084666877 -0.029421399451904511 0 0.047142700565889317 -0.02699873768380984 0 0.046968397484484233 -0.040137954337254741 0 0.034752825907201863 -0.039805834656078273 0 0.041095924084666877 -0.029421399451904511 0 0.034752825907201863 -0.039805834656078273 0 0.041095924084666877 -0.029421399451904511 0 0.034752825907201863 -0.039805834656078273 0 0.034388424979526058 -0.038174616111218022 0 0.041095924084666877 -0.029421399451904511 0 0.034752825907201863 -0.039805834656078273 0 0.034388424979526058 -0.038174616111218022 0 0.029238391644584319 -0.0021909766244149272 0 0.023597683239801871 -0.022464228375389281 0 0.044669196040550772 -0.023571511896232342 0 0.023597683239801871 -0.022464228375389281 0 0.044669196040550772 -0.023571511896232342 0 0.041095924084666877 -0.029421399451904511 0 0.044669196040550772 -0.023571511896232342 0 0.041095924084666877 -0.029421399451904511 0 0.047142700565889317 -0.02699873768380984 0 0.044669196040550772 -0.023571511896232342 0 0.047142700565889317 -0.02699873768380984 0 0.044669196040550772 -0.023571511896232342 0 0.041095924084666877 -0.029421399451904511 0 0.041095924084666877 -0.029421399451904511 0 0.047142700565889317 -0.02699873768380984 0 0.058808316762587728 -0.043162322689538367 0 0.047142700565889317 -0.02699873768380984 0 0.072302188578914406 -0.016918502387639211 0 0.044669196040550772 -0.023571511896232342 0 0.047142700565889317 -0.02699873768380984 0 0.056449116712804587 -0.0042863267219035439 0 0.047142700565889317 -0.02699873768380984 0 0.072302188578914406 -0.016918502387639211 0 0.047142700565889317 -0.02699873768380984 0 0.056449116712804587 -0.0042863267219035439 0 0.072302188578914406 -0.016918502387639211 0 0.044669196040550772 -0.023571511896232342 0 0.056449116712804587 -0.0042863267219035439 0 0.043983183363565832 -0.0068139239671171914 0 0.044669196040550772 -0.023571511896232342 0 0.056449116712804587 -0.0042863267219035439 0 0.045576029056321993 0.002793119374080871 0 0.056449116712804587 -0.0042863267219035439 0 0.043983183363565832 -0.0068139239671171914 0 0.029238391644584319 -0.0021909766244149272 0 0.044669196040550772 -0.023571511896232342 0 0.045576029056321993 0.002793119374080871 0 0.029238391644584319 -0.0021909766244149272 0 0.043983183363565832 -0.0068139239671171914 0 0.029238391644584319 -0.0021909766244149272 0 0.044669196040550772 -0.023571511896232342 0 0.043983183363565832 -0.0068139239671171914 0 0.081657630785721871 0.0011819917310352389 0 0.089023894582702323 -0.01021889343755801 0 0.072302188578914406 -0.016918502387639211 0 0.089023894582702323 -0.01021889343755801 0 0.072302188578914406 -0.016918502387639211 0 0.081657630785721871 0.0011819917310352389 0 0.097757553091398872 0.0052071033216778426 0 0.089023894582702323 -0.01021889343755801 0 0.068147151578279469 0.0024892700255923841 0 0.081657630785721871 0.0011819917310352389 0 0.072302188578914406 -0.016918502387639211 0 0.068147151578279469 0.0024892700255923841 0 0.056449116712804587 -0.0042863267219035439 0 0.072302188578914406 -0.016918502387639211 0 0.068147151578279469 0.0024892700255923841 0 0.072302188578914406 -0.016918502387639211 0 0.090150978726066616 -0.02219065832493269 0 0.092654492554910206 -0.024231957928747948 0 0.078621417805206317 -0.046435005521539972 0 0.089023894582702323 -0.01021889343755801 0 0.072302188578914406 -0.016918502387639211 0 0.090150978726066616 -0.02219065832493269 0 0.072302188578914406 -0.016918502387639211 0 0.090150978726066616 -0.02219065832493269 0 0.078621417805206317 -0.046435005521539972 0 0.089023894582702323 -0.01021889343755801 0 0.090150978726066616 -0.02219065832493269 0 0.092654492554910206 -0.024231957928747948 0 0.090150978726066616 -0.02219065832493269 0 0.092654492554910206 -0.024231957928747948 0 0.092654492554910206 -0.024231957928747948 0 0.078621417805206317 -0.046435005521539972 0 0.095526355625112344 -0.045478485069761432 0 0.092654492554910206 -0.024231957928747948 0 0.078621417805206317 -0.046435005521539972 0 0.058808316762587728 -0.043162322689538367 0 0.072302188578914406 -0.016918502387639211 0 0.078621417805206317 -0.046435005521539972 0 0.072302188578914406 -0.016918502387639211 0 0.078621417805206317 -0.046435005521539972 0 0.058808316762587728 -0.043162322689538367 0 0.078621417805206317 -0.046435005521539972 0 0.070473932959317503 -0.059325907695244283 0 0.058808316762587728 -0.043162322689538367 0 0.070473932959317503 -0.059325907695244283 0 0.078621417805206317 -0.046435005521539972 0 0.070473932959317503 -0.059325907695244283 0 0.073503588198585379 -0.063523721953231763 0 0.078621417805206317 -0.046435005521539972 0 0.070473932959317503 -0.059325907695244283 0 0.070473932959317503 -0.059325907695244283 0 0.073503588198585379 -0.063523721953231763 0 0.078621417805206317 -0.046435005521539972 0 0.073503588198585379 -0.063523721953231763 0 0.083099098017532236 -0.067349812895570738 0 0.078621417805206317 -0.046435005521539972 0 0.083099098017532236 -0.067349812895570738 0 0.078621417805206317 -0.046435005521539972 0 0.089305608712729301 -0.056016266631890917 0 0.083099098017532236 -0.067349812895570738 0 0.078621417805206317 -0.046435005521539972 0 0.089305608712729301 -0.056016266631890917 0 0.095526355625112344 -0.045478485069761432 0 0.1011005277138558 -0.057482909784103968 0 0.1159497313388521 -0.043226285482519451 0 0.095526355625112344 -0.045478485069761432 0 0.089305608712729301 -0.056016266631890917 0 0.1011005277138558 -0.057482909784103968 0 0.093276365450552262 -0.065205554592238091 0 0.089305608712729301 -0.056016266631890917 0 0.1011005277138558 -0.057482909784103968 0 0.095526355625112344 -0.045478485069761432 0 0.1011005277138558 -0.057482909784103968 0 0.1159497313388521 -0.043226285482519451 0 0.1192285705114564 -0.065309607141971038 0 0.1159497313388521 -0.043226285482519451 0 0.1192285705114564 -0.065309607141971038 0 0.13924497012279449 -0.062220613036290923 0 0.1159497313388521 -0.043226285482519451 0 0.1219189309655196 -0.019610743386206449 0 0.13462815239871681 -0.038613087526817289 0 0.092654492554910206 -0.024231957928747948 0 0.1159497313388521 -0.043226285482519451 0 0.095526355625112344 -0.045478485069761432 0 0.092654492554910206 -0.024231957928747948 0 0.1159497313388521 -0.043226285482519451 0 0.092654492554910206 -0.024231957928747948 0 0.1219189309655196 -0.019610743386206449 0 0.10574560058648989 -0.003519284487475583 0 0.092654492554910206 -0.024231957928747948 0 0.1159497313388521 -0.043226285482519451 0 0.1219189309655196 -0.019610743386206449 0 0.12525309040336591 0.004296458316585686 0 0.1219189309655196 -0.019610743386206449 0 0.10574560058648989 -0.003519284487475583 0 0.092654492554910206 -0.024231957928747948 0 0.10574560058648989 -0.003519284487475583 0 0.089023894582702323 -0.01021889343755801 0 0.092654492554910206 -0.024231957928747948 0 0.10574560058648989 -0.003519284487475583 0 0.097757553091398872 0.0052071033216778426 0 0.089023894582702323 -0.01021889343755801 0 0.10574560058648989 -0.003519284487475583 0 0.089023894582702323 -0.01021889343755801 0 0.10574560058648989 -0.003519284487475583 0 0.092745188582579074 -0.107430514680529 0 0.074599548784288899 -0.1058095519825193 0 0.087576778229867952 -0.088264620269599442 0 0.095664490414351239 -0.12655710914015639 0 0.092745188582579074 -0.107430514680529 0 0.082260007331430865 -0.11848132785895329 0 0.092745188582579074 -0.107430514680529 0 0.082260007331430865 -0.11848132785895329 0 0.074599548784288899 -0.1058095519825193 0 0.082260007331430865 -0.11848132785895329 0 0.067308451905799468 -0.1198765322406433 0 0.074599548784288899 -0.1058095519825193 0 0.08098235697013563 -0.1327329312509187 0 0.082260007331430865 -0.11848132785895329 0 0.067308451905799468 -0.1198765322406433 0 0.061505006936685973 -0.10540852321115569 0 0.067308451905799468 -0.1198765322406433 0 0.074599548784288899 -0.1058095519825193 0 0.074599548784288899 -0.1058095519825193 0 0.067101621046239984 -0.091884434766455525 0 0.087576778229867952 -0.088264620269599442 0 0.061505006936685973 -0.10540852321115569 0 0.074599548784288899 -0.1058095519825193 0 0.067101621046239984 -0.091884434766455525 0 0.067101621046239984 -0.091884434766455525 0 0.073312208068339463 -0.077949092662654137 0 0.087576778229867952 -0.088264620269599442 0 0.058888540439399492 -0.077656246989334071 0 0.067101621046239984 -0.091884434766455525 0 0.073312208068339463 -0.077949092662654137 0 0.058888540439399492 -0.077656246989334071 0 0.070473932959317503 -0.059325907695244283 0 0.058888540439399492 -0.077656246989334071 0 0.070473932959317503 -0.059325907695244283 0 0.073503588198585379 -0.063523721953231763 0 0.058888540439399492 -0.077656246989334071 0 0.073312208068339463 -0.077949092662654137 0 0.073503588198585379 -0.063523721953231763 0 0.073312208068339463 -0.077949092662654137 0 0.073503588198585379 -0.063523721953231763 0 0.083099098017532236 -0.067349812895570738 0 0.083099098017532236 -0.067349812895570738 0 0.087576778229867952 -0.088264620269599442 0 0.073312208068339463 -0.077949092662654137 0 0.083099098017532236 -0.067349812895570738 0 0.087576778229867952 -0.088264620269599442 0 0.083099098017532236 -0.067349812895570738 0 0.091138338425986107 -0.074309370415063455 0 0.087576778229867952 -0.088264620269599442 0 0.089305608712729301 -0.056016266631890917 0 0.083099098017532236 -0.067349812895570738 0 0.093276365450552262 -0.065205554592238091 0 0.083099098017532236 -0.067349812895570738 0 0.091138338425986107 -0.074309370415063455 0 0.093276365450552262 -0.065205554592238091 0 0.091138338425986107 -0.074309370415063455 0 0.087576778229867952 -0.088264620269599442 0 0.1009995238843981 -0.073328451489777929 0 0.087576778229867952 -0.088264620269599442 0 0.1009995238843981 -0.073328451489777929 0 0.1133071977255401 -0.09062816586329997 0 0.1011005277138558 -0.057482909784103968 0 0.1009995238843981 -0.073328451489777929 0 0.1192285705114564 -0.065309607141971038 0 0.1011005277138558 -0.057482909784103968 0 0.093276365450552262 -0.065205554592238091 0 0.1009995238843981 -0.073328451489777929 0 0.091138338425986107 -0.074309370415063455 0 0.093276365450552262 -0.065205554592238091 0 0.1009995238843981 -0.073328451489777929 0 0.1192285705114564 -0.065309607141971038 0 0.1133071977255401 -0.09062816586329997 0 0.1009995238843981 -0.073328451489777929 0 0.1192285705114564 -0.065309607141971038 0 0.1133071977255401 -0.09062816586329997 0 0.1192285705114564 -0.065309607141971038 0 0.1133071977255401 -0.09062816586329997 0 0.13065508764545361 -0.081543446202391831 0 0.1133071977255401 -0.09062816586329997 0 0.1073858249396237 -0.1159467245846289 0 0.1133071977255401 -0.09062816586329997 0 0.1073858249396237 -0.1159467245846289 0 0.133696004840754 -0.1050322621795326 0 0.092745188582579074 -0.107430514680529 0 0.1133071977255401 -0.09062816586329997 0 0.1073858249396237 -0.1159467245846289 0 0.092745188582579074 -0.107430514680529 0 0.087576778229867952 -0.088264620269599442 0 0.1133071977255401 -0.09062816586329997 0 0.095664490414351239 -0.12655710914015639 0 0.092745188582579074 -0.107430514680529 0 0.1073858249396237 -0.1159467245846289 0 0.1187481951884492 -0.12855951967903281 0 0.1073858249396237 -0.1159467245846289 0 0.133696004840754 -0.1050322621795326 0 0.1187481951884492 -0.12855951967903281 0 0.133696004840754 -0.1050322621795326 0 0.13964238331010961 -0.13203150166643429 0 0.15568588635566469 -0.1132031627122434 0 0.13964238331010961 -0.13203150166643429 0 0.15568588635566469 -0.1132031627122434 0 0.133696004840754 -0.1050322621795326 0 0.13964238331010961 -0.13203150166643429 0 0.15568588635566469 -0.1132031627122434 0 0.133696004840754 -0.1050322621795326 0 0.15641917742376951 -0.097578544305667411 0 0.133696004840754 -0.1050322621795326 0 0.14779869502672319 -0.084526582790864613 0 0.15641917742376951 -0.097578544305667411 0 0.133696004840754 -0.1050322621795326 0 0.13065508764545361 -0.081543446202391831 0 0.14779869502672319 -0.084526582790864613 0 0.1133071977255401 -0.09062816586329997 0 0.133696004840754 -0.1050322621795326 0 0.13065508764545361 -0.081543446202391831 0 0.13065508764545361 -0.081543446202391831 0 0.14779869502672319 -0.084526582790864613 0 0.13924497012279449 -0.062220613036290923 0 0.1192285705114564 -0.065309607141971038 0 0.13065508764545361 -0.081543446202391831 0 0.13924497012279449 -0.062220613036290923 0 0.1625402089067349 -0.081214940590064566 0 0.13924497012279449 -0.062220613036290923 0 0.14779869502672319 -0.084526582790864613 0 0.1625402089067349 -0.081214940590064566 0 0.13924497012279449 -0.062220613036290923 0 0.1625402089067349 -0.081214940590064566 0 0.13924497012279449 -0.062220613036290923 0 0.15853300677986659 -0.062372386045472558 0 0.14779869502672319 -0.084526582790864613 0 0.1625402089067349 -0.081214940590064566 0 0.14779869502672319 -0.084526582790864613 0 0.16115002813376569 -0.090021554262369879 0 0.15641917742376951 -0.097578544305667411 0 0.14779869502672319 -0.084526582790864613 0 0.16115002813376569 -0.090021554262369879 0 0.1625402089067349 -0.081214940590064566 0 0.1625402089067349 -0.081214940590064566 0 0.1694964577560911 -0.086886883703230194 0 0.16115002813376569 -0.090021554262369879 0 0.1694964577560911 -0.086886883703230194 0 0.1717293894012199 -0.094374823758052506 0 0.16115002813376569 -0.090021554262369879 0 0.1625402089067349 -0.081214940590064566 0 0.1694964577560911 -0.086886883703230194 0 0.1625402089067349 -0.081214940590064566 0 0.16829479227697691 -0.068261450642036481 0 0.15853300677986659 -0.062372386045472558 0 0.16829479227697691 -0.068261450642036481 0 0.15853300677986659 -0.062372386045472558 0 0.17466407707859721 -0.05999938857916047 0 0.1625402089067349 -0.081214940590064566 0 0.16829479227697691 -0.068261450642036481 0 0.17744187634270889 -0.069459087353448343 0 0.1625402089067349 -0.081214940590064566 0 0.17744187634270889 -0.069459087353448343 0 0.1877728924467745 -0.07554648480386128 0 0.17744187634270889 -0.069459087353448343 0 0.17466407707859721 -0.05999938857916047 0 0.18472126515286311 -0.061182763814804537 0 0.16829479227697691 -0.068261450642036481 0 0.17744187634270889 -0.069459087353448343 0 0.17466407707859721 -0.05999938857916047 0 0.17744187634270889 -0.069459087353448343 0 0.1872414461904332 -0.067954317374388729 0 0.1877728924467745 -0.07554648480386128 0 0.17744187634270889 -0.069459087353448343 0 0.1872414461904332 -0.067954317374388729 0 0.18472126515286311 -0.061182763814804537 0 0.1872414461904332 -0.067954317374388729 0 0.18472126515286311 -0.061182763814804537 0 0.19053583385067799 -0.062559710948321537 0 0.1717293894012199 -0.094374823758052506 0 0.1877728924467745 -0.07554648480386128 0 0.1625402089067349 -0.081214940590064566 0 0.1694964577560911 -0.086886883703230194 0 0.1877728924467745 -0.07554648480386128 0 0.1694964577560911 -0.086886883703230194 0 0.1717293894012199 -0.094374823758052506 0 0.1877728924467745 -0.07554648480386128 0 0.1625402089067349 -0.081214940590064566 0 0.1877728924467745 -0.07554648480386128 0 0.18470274031444919 -0.08930198662929538 0 0.1717293894012199 -0.094374823758052506 0 0.1877728924467745 -0.07554648480386128 0 0.18470274031444919 -0.08930198662929538 0 0.18033463940699079 -0.097184890399219764 0 0.1717293894012199 -0.094374823758052506 0 0.18470274031444919 -0.08930198662929538 0 0.18033463940699079 -0.097184890399219764 0 0.18688873281235141 -0.1034291407003714 0 0.18033463940699079 -0.097184890399219764 0 0.17289116380672859 -0.1102167923081661 0 0.1717293894012199 -0.094374823758052506 0 0.18033463940699079 -0.097184890399219764 0 0.18688873281235141 -0.1034291407003714 0 0.17289116380672859 -0.1102167923081661 0 0.18688873281235141 -0.1034291407003714 0 0.17289116380672859 -0.1102167923081661 0 0.18087915628515219 -0.1324632079795236 0 0.18688873281235141 -0.1034291407003714 0 0.18087915628515219 -0.1324632079795236 0 0.15568588635566469 -0.1132031627122434 0 0.17289116380672859 -0.1102167923081661 0 0.18087915628515219 -0.1324632079795236 0 0.15568588635566469 -0.1132031627122434 0 0.15641917742376951 -0.097578544305667411 0 0.1717293894012199 -0.094374823758052506 0 0.15568588635566469 -0.1132031627122434 0 0.1717293894012199 -0.094374823758052506 0 0.15568588635566469 -0.1132031627122434 0 0.17289116380672859 -0.1102167923081661 0 0.1717293894012199 -0.094374823758052506 0 0.16115002813376569 -0.090021554262369879 0 0.15641917742376951 -0.097578544305667411 0 0.1717293894012199 -0.094374823758052506 0 0.14476058022024141 0.01211220112064822 0 0.1516265686228995 -0.0064385710098799759 0 0.13717412293123951 -0.0069479265305107136 0 0.1516265686228995 -0.0064385710098799759 0 0.13717412293123951 -0.0069479265305107136 0 0.1456282066213116 -0.02384730643076443 0 0.1516265686228995 -0.0064385710098799759 0 0.1456282066213116 -0.02384730643076443 0 0.1673018378401841 -0.01332580262646973 0 0.12525309040336591 0.004296458316585686 0 0.1219189309655196 -0.019610743386206449 0 0.13717412293123951 -0.0069479265305107136 0 0.1219189309655196 -0.019610743386206449 0 0.13717412293123951 -0.0069479265305107136 0 0.1456282066213116 -0.02384730643076443 0 0.1219189309655196 -0.019610743386206449 0 0.1456282066213116 -0.02384730643076443 0 0.13462815239871681 -0.038613087526817289 0 0.1456282066213116 -0.02384730643076443 0 0.15039892294510629 -0.044160489298305183 0 0.13462815239871681 -0.038613087526817289 0 0.1456282066213116 -0.02384730643076443 0 0.15039892294510629 -0.044160489298305183 0 0.16735411592109209 -0.032395132276272262 0 0.1159497313388521 -0.043226285482519451 0 0.13462815239871681 -0.038613087526817289 0 0.13924497012279449 -0.062220613036290923 0 0.1159497313388521 -0.043226285482519451 0 0.13924497012279449 -0.062220613036290923 0 0.15039892294510629 -0.044160489298305183 0 0.13462815239871681 -0.038613087526817289 0 0.13924497012279449 -0.062220613036290923 0 0.15039892294510629 -0.044160489298305183 0 0.13924497012279449 -0.062220613036290923 0 0.15853300677986659 -0.062372386045472558 0 0.15039892294510629 -0.044160489298305183 0 0.15853300677986659 -0.062372386045472558 0 0.1672790432265592 -0.047837569263334261 0 0.15853300677986659 -0.062372386045472558 0 0.1672790432265592 -0.047837569263334261 0 0.17466407707859721 -0.05999938857916047 0 0.1672790432265592 -0.047837569263334261 0 0.17466407707859721 -0.05999938857916047 0 0.18422598085567951 -0.049671335546016118 0 0.17466407707859721 -0.05999938857916047 0 0.18472126515286311 -0.061182763814804537 0 0.18422598085567951 -0.049671335546016118 0 0.18472126515286311 -0.061182763814804537 0 0.18422598085567951 -0.049671335546016118 0 0.1916759004154405 -0.055659244755520518 0 0.1672790432265592 -0.047837569263334261 0 0.18422598085567951 -0.049671335546016118 0 0.1806151013525813 -0.036933329567995887 0 0.18422598085567951 -0.049671335546016118 0 0.1806151013525813 -0.036933329567995887 0 0.19465676876117299 -0.03715665582456839 0 0.1672790432265592 -0.047837569263334261 0 0.1806151013525813 -0.036933329567995887 0 0.16735411592109209 -0.032395132276272262 0 0.15039892294510629 -0.044160489298305183 0 0.1672790432265592 -0.047837569263334261 0 0.16735411592109209 -0.032395132276272262 0 0.1456282066213116 -0.02384730643076443 0 0.16735411592109209 -0.032395132276272262 0 0.1673018378401841 -0.01332580262646973 0 0.16735411592109209 -0.032395132276272262 0 0.1895595979984025 -0.017605954929788441 0 0.16735411592109209 -0.032395132276272262 0 0.1673018378401841 -0.01332580262646973 0 0.1895595979984025 -0.017605954929788441 0 0.1806151013525813 -0.036933329567995887 0 0.16735411592109209 -0.032395132276272262 0 0.1895595979984025 -0.017605954929788441 0 0.1836450372417304 -0.0021006598367706371 0 0.1673018378401841 -0.01332580262646973 0 0.1895595979984025 -0.017605954929788441 0 0.16599750063566851 0.0024328087246573622 0 0.1836450372417304 -0.0021006598367706371 0 0.1673018378401841 -0.01332580262646973 0 0.16599750063566851 0.0024328087246573622 0 0.1516265686228995 -0.0064385710098799759 0 0.1673018378401841 -0.01332580262646973 0 0.21176508007571301 -0.0028167775833045599 0 0.1895595979984025 -0.017605954929788441 0 0.21022731988868229 -0.016142486990545539 0 0.21767752011173419 -0.0069268331399713542 0 0.21859481869340369 -0.01526856336678375 0 0.21022731988868229 -0.016142486990545539 0 0.21767752011173419 -0.0069268331399713542 0 0.21176508007571301 -0.0028167775833045599 0 0.21022731988868229 -0.016142486990545539 0 0.21176508007571301 -0.0028167775833045599 0 0.19785943878921189 -0.00072667358910256344 0 0.1895595979984025 -0.017605954929788441 0 0.21176508007571301 -0.0028167775833045599 0 0.1895595979984025 -0.017605954929788441 0 0.1836450372417304 -0.0021006598367706371 0 0.19785943878921189 -0.00072667358910256344 0 0.1895595979984025 -0.017605954929788441 0 0.1895595979984025 -0.017605954929788441 0 0.20667897474672661 -0.029900376021729631 0 0.19465676876117299 -0.03715665582456839 0 0.1895595979984025 -0.017605954929788441 0 0.20667897474672661 -0.029900376021729631 0 0.21022731988868229 -0.016142486990545539 0 0.1806151013525813 -0.036933329567995887 0 0.1895595979984025 -0.017605954929788441 0 0.19465676876117299 -0.03715665582456839 0 0.21859481869340369 -0.01526856336678375 0 0.21022731988868229 -0.016142486990545539 0 0.21756597737128611 -0.02501115121904305 0 0.20667897474672661 -0.029900376021729631 0 0.21756597737128611 -0.02501115121904305 0 0.2174991434496639 -0.037915937764798048 0 0.20667897474672661 -0.029900376021729631 0 0.21022731988868229 -0.016142486990545539 0 0.21756597737128611 -0.02501115121904305 0 0.2174991434496639 -0.037915937764798048 0 0.2107241351613478 -0.05185548661087204 0 0.22098061709725761 -0.048198568134043163 0 0.2174991434496639 -0.037915937764798048 0 0.20489222983391711 -0.042452289120031642 0 0.2107241351613478 -0.05185548661087204 0 0.20667897474672661 -0.029900376021729631 0 0.2174991434496639 -0.037915937764798048 0 0.20489222983391711 -0.042452289120031642 0 0.20667897474672661 -0.029900376021729631 0 0.20489222983391711 -0.042452289120031642 0 0.19465676876117299 -0.03715665582456839 0 0.18422598085567951 -0.049671335546016118 0 0.19465676876117299 -0.03715665582456839 0 0.19621860693575391 -0.0480870179294852 0 0.20489222983391711 -0.042452289120031642 0 0.19621860693575391 -0.0480870179294852 0 0.20338291831045219 -0.049961638290034902 0 0.20489222983391711 -0.042452289120031642 0 0.19465676876117299 -0.03715665582456839 0 0.19621860693575391 -0.0480870179294852 0 0.19853401583535321 -0.054220858540629989 0 0.19621860693575391 -0.0480870179294852 0 0.20338291831045219 -0.049961638290034902 0 0.19853401583535321 -0.054220858540629989 0 0.20380585186770789 -0.055513809913362543 0 0.20338291831045219 -0.049961638290034902 0 0.19853401583535321 -0.054220858540629989 0 0.19621860693575391 -0.0480870179294852 0 0.1916759004154405 -0.055659244755520518 0 0.18422598085567951 -0.049671335546016118 0 0.19621860693575391 -0.0480870179294852 0 0.1916759004154405 -0.055659244755520518 0 0.18472126515286311 -0.061182763814804537 0 0.1916759004154405 -0.055659244755520518 0 0.19053583385067799 -0.062559710948321537 0 0.1916759004154405 -0.055659244755520518 0 0.19612876068389179 -0.058787793732021698 0 0.19053583385067799 -0.062559710948321537 0 0.19612876068389179 -0.058787793732021698 0 0.20054097113227129 -0.058808653092227721 0 0.19873219886524829 -0.062684858800865773 0 0.19853401583535321 -0.054220858540629989 0 0.1916759004154405 -0.055659244755520518 0 0.19612876068389179 -0.058787793732021698 0 0.19853401583535321 -0.054220858540629989 0 0.19612876068389179 -0.058787793732021698 0 0.20054097113227129 -0.058808653092227721 0 0.19853401583535321 -0.054220858540629989 0 0.20054097113227129 -0.058808653092227721 0 0.20380585186770789 -0.055513809913362543 0 0.20054097113227129 -0.058808653092227721 0 0.19873219886524829 -0.062684858800865773 0 0.20498086501328319 -0.063233726775759752 0 0.20054097113227129 -0.058808653092227721 0 0.20380585186770789 -0.055513809913362543 0 0.20498086501328319 -0.063233726775759752 0 0.2107241351613478 -0.05185548661087204 0 0.20498086501328319 -0.063233726775759752 0 0.22010562252977139 -0.068283022293741266 0 0.2107241351613478 -0.05185548661087204 0 0.22098061709725761 -0.048198568134043163 0 0.22010562252977139 -0.068283022293741266 0 0.20380585186770789 -0.055513809913362543 0 0.2107241351613478 -0.05185548661087204 0 0.20498086501328319 -0.063233726775759752 0 0.20380585186770789 -0.055513809913362543 0 0.20338291831045219 -0.049961638290034902 0 0.2107241351613478 -0.05185548661087204 0 0.20489222983391711 -0.042452289120031642 0 0.20338291831045219 -0.049961638290034902 0 0.2107241351613478 -0.05185548661087204 0 0.23051315706269951 -0.051374991198413343 0 0.23813789883921549 -0.056035768775618368 0 0.22010562252977139 -0.068283022293741266 0 0.22098061709725761 -0.048198568134043163 0 0.23051315706269951 -0.051374991198413343 0 0.22010562252977139 -0.068283022293741266 0 0.22098061709725761 -0.048198568134043163 0 0.23051315706269951 -0.051374991198413343 0 0.22690589321708279 -0.042570834153825843 0 0.23813789883921549 -0.056035768775618368 0 0.24731293571999141 -0.062170971166262648 0 0.22010562252977139 -0.068283022293741266 0 0.25510634929850412 -0.05385062750281816 0 0.24731293571999141 -0.062170971166262648 0 0.2475310770970949 -0.054825672127586163 0 0.23813789883921549 -0.056035768775618368 0 0.24731293571999141 -0.062170971166262648 0 0.2475310770970949 -0.054825672127586163 0 0.23813789883921549 -0.056035768775618368 0 0.2475310770970949 -0.054825672127586163 0 0.24493296542039431 -0.048986852865314318 0 0.2519829815234535 -0.048114279702668433 0 0.2475310770970949 -0.054825672127586163 0 0.24493296542039431 -0.048986852865314318 0 0.24493296542039431 -0.048986852865314318 0 0.23843871205464731 -0.049599367440604683 0 0.2425464757104108 -0.043082193741059698 0 0.23051315706269951 -0.051374991198413343 0 0.23813789883921549 -0.056035768775618368 0 0.23843871205464731 -0.049599367440604683 0 0.23051315706269951 -0.051374991198413343 0 0.23843871205464731 -0.049599367440604683 0 0.23620104568094891 -0.043377615443364048 0 0.23813789883921549 -0.056035768775618368 0 0.24493296542039431 -0.048986852865314318 0 0.23843871205464731 -0.049599367440604683 0 0.23620104568094891 -0.043377615443364048 0 0.2425464757104108 -0.043082193741059698 0 0.24070913927322601 -0.035027660265821367 0 0.23843871205464731 -0.049599367440604683 0 0.23620104568094891 -0.043377615443364048 0 0.2425464757104108 -0.043082193741059698 0 0.2519829815234535 -0.048114279702668433 0 0.24493296542039431 -0.048986852865314318 0 0.24909414172835431 -0.041106740205341559 0 0.24493296542039431 -0.048986852865314318 0 0.2425464757104108 -0.043082193741059698 0 0.24909414172835431 -0.041106740205341559 0 0.2425464757104108 -0.043082193741059698 0 0.24909414172835431 -0.041106740205341559 0 0.24070913927322601 -0.035027660265821367 0 0.25256180884589902 -0.033838655748853183 0 0.24909414172835431 -0.041106740205341559 0 0.24704251225512791 -0.032900002588254942 0 0.24909414172835431 -0.041106740205341559 0 0.24704251225512791 -0.032900002588254942 0 0.24070913927322601 -0.035027660265821367 0 0.25256180884589902 -0.033838655748853183 0 0.25013189754110599 -0.0276182208177751 0 0.24704251225512791 -0.032900002588254942 0 0.24704251225512791 -0.032900002588254942 0 0.24070913927322601 -0.035027660265821367 0 0.24358549289388939 -0.027413004392330999 0 0.23620104568094891 -0.043377615443364048 0 0.24070913927322601 -0.035027660265821367 0 0.22933550279484419 -0.031987058228510577 0 0.23051315706269951 -0.051374991198413343 0 0.23620104568094891 -0.043377615443364048 0 0.22690589321708279 -0.042570834153825843 0 0.23620104568094891 -0.043377615443364048 0 0.22933550279484419 -0.031987058228510577 0 0.22690589321708279 -0.042570834153825843 0 0.2174991434496639 -0.037915937764798048 0 0.22098061709725761 -0.048198568134043163 0 0.22690589321708279 -0.042570834153825843 0 0.21756597737128611 -0.02501115121904305 0 0.2174991434496639 -0.037915937764798048 0 0.22933550279484419 -0.031987058228510577 0 0.2174991434496639 -0.037915937764798048 0 0.22933550279484419 -0.031987058228510577 0 0.22690589321708279 -0.042570834153825843 0 0.21756597737128611 -0.02501115121904305 0 0.22933550279484419 -0.031987058228510577 0 0.22677163524248639 -0.021879057634503742 0 0.21859481869340369 -0.01526856336678375 0 0.21756597737128611 -0.02501115121904305 0 0.22677163524248639 -0.021879057634503742 0 0.21859481869340369 -0.01526856336678375 0 0.22677163524248639 -0.021879057634503742 0 0.22567544986197749 -0.013236585541455549 0 0.22677163524248639 -0.021879057634503742 0 0.2333297005892781 -0.018558716157473159 0 0.23564038365279119 -0.02586298842053705 0 0.22677163524248639 -0.021879057634503742 0 0.2333297005892781 -0.018558716157473159 0 0.22567544986197749 -0.013236585541455549 0 0.22933550279484419 -0.031987058228510577 0 0.22677163524248639 -0.021879057634503742 0 0.23564038365279119 -0.02586298842053705 0 0.24070913927322601 -0.035027660265821367 0 0.23564038365279119 -0.02586298842053705 0 0.24358549289388939 -0.027413004392330999 0 0.24070913927322601 -0.035027660265821367 0 0.22933550279484419 -0.031987058228510577 0 0.23564038365279119 -0.02586298842053705 0 0.23564038365279119 -0.02586298842053705 0 0.24358549289388939 -0.027413004392330999 0 0.24058943461482449 -0.020526021790158101 0 0.25013189754110599 -0.0276182208177751 0 0.24358549289388939 -0.027413004392330999 0 0.2472119687894018 -0.021607752629691251 0 0.25013189754110599 -0.0276182208177751 0 0.24704251225512791 -0.032900002588254942 0 0.24358549289388939 -0.027413004392330999 0 0.25157225370259401 -0.016397115123457519 0 0.2472119687894018 -0.021607752629691251 0 0.24435066185358839 -0.01528884303592287 0 0.24358549289388939 -0.027413004392330999 0 0.2472119687894018 -0.021607752629691251 0 0.24058943461482449 -0.020526021790158101 0 0.2472119687894018 -0.021607752629691251 0 0.24058943461482449 -0.020526021790158101 0 0.24435066185358839 -0.01528884303592287 0 0.24058943461482449 -0.020526021790158101 0 0.2385128683148795 -0.014900868667385381 0 0.24435066185358839 -0.01528884303592287 0 0.2333297005892781 -0.018558716157473159 0 0.23564038365279119 -0.02586298842053705 0 0.24058943461482449 -0.020526021790158101 0 0.2333297005892781 -0.018558716157473159 0 0.24058943461482449 -0.020526021790158101 0 0.2385128683148795 -0.014900868667385381 0 0.2333297005892781 -0.018558716157473159 0 0.2385128683148795 -0.014900868667385381 0 0.2337799228372279 -0.011962568675471189 0 0.24051462167947871 -0.0081681936779015932 0 0.23259522781614611 -0.0042850683870557004 0 0.2337799228372279 -0.011962568675471189 0 0.24051462167947871 -0.0081681936779015932 0 0.2385128683148795 -0.014900868667385381 0 0.2337799228372279 -0.011962568675471189 0 0.24051462167947871 -0.0081681936779015932 0 0.2385128683148795 -0.014900868667385381 0 0.24435066185358839 -0.01528884303592287 0 0.24051462167947871 -0.0081681936779015932 0 0.24435066185358839 -0.01528884303592287 0 0.2492108076350239 -0.0094877814774923883 0 0.25157225370259401 -0.016397115123457519 0 0.24435066185358839 -0.01528884303592287 0 0.2492108076350239 -0.0094877814774923883 0 0.24051462167947871 -0.0081681936779015932 0 0.2492108076350239 -0.0094877814774923883 0 0.24602769701305291 -0.0025229196648674178 0 0.24052444875147541 0.0021151433797810659 0 0.24051462167947871 -0.0081681936779015932 0 0.24602769701305291 -0.0025229196648674178 0 0.24052444875147541 0.0021151433797810659 0 0.24051462167947871 -0.0081681936779015932 0 0.23259522781614611 -0.0042850683870557004 0 0.2274796899857203 -0.003119021826325822 0 0.23259522781614611 -0.0042850683870557004 0 0.22567544986197749 -0.013236585541455549 0 0.2333297005892781 -0.018558716157473159 0 0.2337799228372279 -0.011962568675471189 0 0.22567544986197749 -0.013236585541455549 0 0.23259522781614611 -0.0042850683870557004 0 0.2337799228372279 -0.011962568675471189 0 0.22567544986197749 -0.013236585541455549 0 0.21767752011173419 -0.0069268331399713542 0 0.21859481869340369 -0.01526856336678375 0 0.22567544986197749 -0.013236585541455549 0 0.21767752011173419 -0.0069268331399713542 0 0.2274796899857203 -0.003119021826325822 0 0.22567544986197749 -0.013236585541455549 0 0.21208772945151971 -0.10324456722998759 0 0.20552431408081381 -0.11405129648037 0 0.2235229652743308 -0.1096220176215966 0 0.21208772945151971 -0.10324456722998759 0 0.20552431408081381 -0.11405129648037 0 0.20255271715388659 -0.099013622770398463 0 0.21166325692503751 -0.094049606541106417 0 0.20255271715388659 -0.099013622770398463 0 0.20529768927963529 -0.089304791277494272 0 0.21166325692503751 -0.094049606541106417 0 0.21208772945151971 -0.10324456722998759 0 0.20255271715388659 -0.099013622770398463 0 0.21166325692503751 -0.094049606541106417 0 0.22313431313649859 -0.089274584210322527 0 0.21984053440164189 -0.098561664449687489 0 0.21166325692503751 -0.094049606541106417 0 0.21208772945151971 -0.10324456722998759 0 0.21984053440164189 -0.098561664449687489 0 0.21208772945151971 -0.10324456722998759 0 0.21984053440164189 -0.098561664449687489 0 0.2235229652743308 -0.1096220176215966 0 0.20552431408081381 -0.11405129648037 0 0.22258271884669151 -0.12728085788501239 0 0.20326812276804021 -0.13106646537804209 0 0.20552431408081381 -0.11405129648037 0 0.2235229652743308 -0.1096220176215966 0 0.22258271884669151 -0.12728085788501239 0 0.18688873281235141 -0.1034291407003714 0 0.20552431408081381 -0.11405129648037 0 0.18087915628515219 -0.1324632079795236 0 0.18688873281235141 -0.1034291407003714 0 0.20255271715388659 -0.099013622770398463 0 0.19752788307151611 -0.089909914407940827 0 0.18688873281235141 -0.1034291407003714 0 0.20552431408081381 -0.11405129648037 0 0.20255271715388659 -0.099013622770398463 0 0.18688873281235141 -0.1034291407003714 0 0.1928983093395514 -0.074395073421219482 0 0.18688873281235141 -0.1034291407003714 0 0.19752788307151611 -0.089909914407940827 0 0.1928983093395514 -0.074395073421219482 0 0.18470274031444919 -0.08930198662929538 0 0.18688873281235141 -0.1034291407003714 0 0.1928983093395514 -0.074395073421219482 0 0.18470274031444919 -0.08930198662929538 0 0.1877728924467745 -0.07554648480386128 0 0.1928983093395514 -0.074395073421219482 0 0.19752788307151611 -0.089909914407940827 0 0.1928983093395514 -0.074395073421219482 0 0.20462874158990321 -0.08085800355089845 0 0.19752788307151611 -0.089909914407940827 0 0.20529768927963529 -0.089304791277494272 0 0.20462874158990321 -0.08085800355089845 0 0.20255271715388659 -0.099013622770398463 0 0.19752788307151611 -0.089909914407940827 0 0.20529768927963529 -0.089304791277494272 0 0.19612876068389179 -0.058787793732021698 0 0.19422801123043579 -0.067970884630805112 0 0.19612876068389179 -0.058787793732021698 0 0.19053583385067799 -0.062559710948321537 0 0.19422801123043579 -0.067970884630805112 0 0.1872414461904332 -0.067954317374388729 0 0.19053583385067799 -0.062559710948321537 0 0.19422801123043579 -0.067970884630805112 0 0.19422801123043579 -0.067970884630805112 0 0.1928983093395514 -0.074395073421219482 0 0.19422801123043579 -0.067970884630805112 0 0.1877728924467745 -0.07554648480386128 0 0.1928983093395514 -0.074395073421219482 0 0.19422801123043579 -0.067970884630805112 0 0.1877728924467745 -0.07554648480386128 0 0.1872414461904332 -0.067954317374388729 0 0.19422801123043579 -0.067970884630805112 0 0.1877728924467745 -0.07554648480386128 0 0.1877728924467745 -0.07554648480386128 0 0.1928983093395514 -0.074395073421219482 0 0.19422801123043579 -0.067970884630805112 0 0.19873219886524829 -0.062684858800865773 0 0.20498086501328319 -0.063233726775759752 0 0.19612876068389179 -0.058787793732021698 0 0.19422801123043579 -0.067970884630805112 0 0.19873219886524829 -0.062684858800865773 0 0.19422801123043579 -0.067970884630805112 0 0.1928983093395514 -0.074395073421219482 0 0.20498086501328319 -0.063233726775759752 0 0.19422801123043579 -0.067970884630805112 0 0.19873219886524829 -0.062684858800865773 0 0.1928983093395514 -0.074395073421219482 0 0.20462874158990321 -0.08085800355089845 0 0.22010562252977139 -0.068283022293741266 0 0.1928983093395514 -0.074395073421219482 0 0.20498086501328319 -0.063233726775759752 0 0.22010562252977139 -0.068283022293741266 0 0.1928983093395514 -0.074395073421219482 0 0.22010562252977139 -0.068283022293741266 0 0.20462874158990321 -0.08085800355089845 0 0.21479731247482919 -0.083432597433665684 0 0.22010562252977139 -0.068283022293741266 0 0.21166325692503751 -0.094049606541106417 0 0.20529768927963529 -0.089304791277494272 0 0.21479731247482919 -0.083432597433665684 0 0.20529768927963529 -0.089304791277494272 0 0.20462874158990321 -0.08085800355089845 0 0.21479731247482919 -0.083432597433665684 0 0.21166325692503751 -0.094049606541106417 0 0.21479731247482919 -0.083432597433665684 0 0.22313431313649859 -0.089274584210322527 0 0.21479731247482919 -0.083432597433665684 0 0.22313431313649859 -0.089274584210322527 0 0.2251947614254568 -0.080840277560009444 0 0.2251947614254568 -0.080840277560009444 0 0.23273220207198769 -0.086525449630246665 0 0.235204356914197 -0.076685734232071118 0 0.22313431313649859 -0.089274584210322527 0 0.2251947614254568 -0.080840277560009444 0 0.23273220207198769 -0.086525449630246665 0 0.23273220207198769 -0.086525449630246665 0 0.24007101488576699 -0.0941454080393649 0 0.23012697750987951 -0.096155232502034726 0 0.22313431313649859 -0.089274584210322527 0 0.23273220207198769 -0.086525449630246665 0 0.23012697750987951 -0.096155232502034726 0 0.22010562252977139 -0.068283022293741266 0 0.235204356914197 -0.076685734232071118 0 0.24628665504492631 -0.067995218414571262 0 0.24731293571999141 -0.062170971166262648 0 0.22010562252977139 -0.068283022293741266 0 0.21479731247482919 -0.083432597433665684 0 0.2251947614254568 -0.080840277560009444 0 0.22010562252977139 -0.068283022293741266 0 0.2251947614254568 -0.080840277560009444 0 0.22010562252977139 -0.068283022293741266 0 0.235204356914197 -0.076685734232071118 0 0.24731293571999141 -0.062170971166262648 0 0.22010562252977139 -0.068283022293741266 0 0.24628665504492631 -0.067995218414571262 0 0.25462468070482253 -0.07497528226106713 0 0.24540002436349251 -0.076829810613576743 0 0.24628665504492631 -0.067995218414571262 0 0.235204356914197 -0.076685734232071118 0 0.24540002436349251 -0.076829810613576743 0 0.24628665504492631 -0.067995218414571262 0 0.23273220207198769 -0.086525449630246665 0 0.24156156618895661 -0.083696267910986277 0 0.24007101488576699 -0.0941454080393649 0 0.23273220207198769 -0.086525449630246665 0 0.235204356914197 -0.076685734232071118 0 0.24156156618895661 -0.083696267910986277 0 0.235204356914197 -0.076685734232071118 0 0.24540002436349251 -0.076829810613576743 0 0.24156156618895661 -0.083696267910986277 0 0.25018743081228723 -0.081462793694793798 0 0.24540002436349251 -0.076829810613576743 0 0.24156156618895661 -0.083696267910986277 0 0.25098500696337378 -0.091362413367682596 0 0.25018743081228723 -0.081462793694793798 0 0.24156156618895661 -0.083696267910986277 0 0.25098500696337378 -0.091362413367682596 0 0.24156156618895661 -0.083696267910986277 0 0.24007101488576699 -0.0941454080393649 0 0.25098500696337378 -0.091362413367682596 0 0.24800329184989889 -0.10171708286798251 0 0.24007101488576699 -0.0941454080393649 0 0.25071802735965321 -0.112171475008547 0 0.24800329184989889 -0.10171708286798251 0 0.23823886036004191 -0.1055513305799838 0 0.24800329184989889 -0.10171708286798251 0 0.23823886036004191 -0.1055513305799838 0 0.24007101488576699 -0.0941454080393649 0 0.23823886036004191 -0.1055513305799838 0 0.24007101488576699 -0.0941454080393649 0 0.23012697750987951 -0.096155232502034726 0 0.23823886036004191 -0.1055513305799838 0 0.23012697750987951 -0.096155232502034726 0 0.2235229652743308 -0.1096220176215966 0 0.23012697750987951 -0.096155232502034726 0 0.21984053440164189 -0.098561664449687489 0 0.2235229652743308 -0.1096220176215966 0 0.22313431313649859 -0.089274584210322527 0 0.23012697750987951 -0.096155232502034726 0 0.21984053440164189 -0.098561664449687489 0 0.2235229652743308 -0.1096220176215966 0 0.23672733677265451 -0.1190410580771015 0 0.22258271884669151 -0.12728085788501239 0 0.23823886036004191 -0.1055513305799838 0 0.2235229652743308 -0.1096220176215966 0 0.23672733677265451 -0.1190410580771015 0 0.25071802735965321 -0.112171475008547 0 0.23823886036004191 -0.1055513305799838 0 0.23672733677265451 -0.1190410580771015 0 0.25071802735965321 -0.112171475008547 0 0.23672733677265451 -0.1190410580771015 0 0.24864258366961109 -0.12617622316085189 0 0.24864258366961109 -0.12617622316085189 0 0.2499421978938475 -0.13584677324143971 0 0.23702300577125129 -0.13453027138846271 0 0.2499421978938475 -0.13584677324143971 0 0.23702300577125129 -0.13453027138846271 0 0.24222702002272209 -0.14177816267152529 0 0.23672733677265451 -0.1190410580771015 0 0.24864258366961109 -0.12617622316085189 0 0.23702300577125129 -0.13453027138846271 0 0.25011904706393501 -0.1534400469028207 0 0.2429128583745129 -0.1509207446006848 0 0.2485764299602313 -0.14550820242890999 0 0.2429128583745129 -0.1509207446006848 0 0.2415003840091198 -0.15474249351091901 0 0.24660053054023159 -0.15632187088039609 0 0.25011904706393501 -0.1534400469028207 0 0.2429128583745129 -0.1509207446006848 0 0.24660053054023159 -0.15632187088039609 0 0.2429128583745129 -0.1509207446006848 0 0.24222702002272209 -0.14177816267152529 0 0.2485764299602313 -0.14550820242890999 0 0.2499421978938475 -0.13584677324143971 0 0.24222702002272209 -0.14177816267152529 0 0.2485764299602313 -0.14550820242890999 0 0.2429128583745129 -0.1509207446006848 0 0.24222702002272209 -0.14177816267152529 0 0.23529160506088881 -0.1456161692257085 0 0.23702300577125129 -0.13453027138846271 0 0.24222702002272209 -0.14177816267152529 0 0.23529160506088881 -0.1456161692257085 0 0.23675247529284449 -0.15257245150227131 0 0.22762178807203359 -0.15088156593327581 0 0.23973567182889041 -0.15915490706032381 0 0.2429128583745129 -0.1509207446006848 0 0.23529160506088881 -0.1456161692257085 0 0.23675247529284449 -0.15257245150227131 0 0.2429128583745129 -0.1509207446006848 0 0.23675247529284449 -0.15257245150227131 0 0.2415003840091198 -0.15474249351091901 0 0.23675247529284449 -0.15257245150227131 0 0.2415003840091198 -0.15474249351091901 0 0.23973567182889041 -0.15915490706032381 0 0.22762178807203359 -0.15088156593327581 0 0.2162598259777414 -0.14335023134152031 0 0.2164061006941802 -0.16093631593300209 0 0.23529160506088881 -0.1456161692257085 0 0.23675247529284449 -0.15257245150227131 0 0.22762178807203359 -0.15088156593327581 0 0.23529160506088881 -0.1456161692257085 0 0.22762178807203359 -0.15088156593327581 0 0.22781263525202769 -0.1409950009007338 0 0.22762178807203359 -0.15088156593327581 0 0.22781263525202769 -0.1409950009007338 0 0.2162598259777414 -0.14335023134152031 0 0.22781263525202769 -0.1409950009007338 0 0.22258271884669151 -0.12728085788501239 0 0.2162598259777414 -0.14335023134152031 0 0.23672733677265451 -0.1190410580771015 0 0.23702300577125129 -0.13453027138846271 0 0.22258271884669151 -0.12728085788501239 0 0.23702300577125129 -0.13453027138846271 0 0.23529160506088881 -0.1456161692257085 0 0.22781263525202769 -0.1409950009007338 0 0.23702300577125129 -0.13453027138846271 0 0.22781263525202769 -0.1409950009007338 0 0.22258271884669151 -0.12728085788501239 0 0.22258271884669151 -0.12728085788501239 0 0.20326812276804021 -0.13106646537804209 0 0.2162598259777414 -0.14335023134152031 0 0.2162598259777414 -0.14335023134152031 0 0.20262060791269859 -0.14832502905104139 0 0.2164061006941802 -0.16093631593300209 0 0.20326812276804021 -0.13106646537804209 0 0.2162598259777414 -0.14335023134152031 0 0.20262060791269859 -0.14832502905104139 0 0.20262060791269859 -0.14832502905104139 0 0.19200634089657101 -0.15162103119425119 0 0.19320698657446131 -0.14082921561531711 0 0.20262060791269859 -0.14832502905104139 0 0.19200634089657101 -0.15162103119425119 0 0.19307652955947011 -0.16271772480568031 0 0.19200634089657101 -0.15162103119425119 0 0.18559823082601509 -0.14867885109757009 0 0.18596726830908361 -0.1568269809054213 0 0.19200634089657101 -0.15162103119425119 0 0.19320698657446131 -0.14082921561531711 0 0.18559823082601509 -0.14867885109757009 0 0.20326812276804021 -0.13106646537804209 0 0.19320698657446131 -0.14082921561531711 0 0.18087915628515219 -0.1324632079795236 0 0.20552431408081381 -0.11405129648037 0 0.20326812276804021 -0.13106646537804209 0 0.18087915628515219 -0.1324632079795236 0 0.20326812276804021 -0.13106646537804209 0 0.20262060791269859 -0.14832502905104139 0 0.19320698657446131 -0.14082921561531711 0 0.19649262091007469 -0.17795330805961021 0 0.21036567971859141 -0.1798256264667864 0 0.1932946268137293 -0.19420224397533661 0 0.19649262091007469 -0.17795330805961021 0 0.1932946268137293 -0.19420224397533661 0 0.18588304581272991 -0.18312125311832489 0 0.19649262091007469 -0.17795330805961021 0 0.19141740944088581 -0.16811795506691651 0 0.18659218206740549 -0.17688291147962509 0 0.19649262091007469 -0.17795330805961021 0 0.18659218206740549 -0.17688291147962509 0 0.18588304581272991 -0.18312125311832489 0 0.19141740944088581 -0.16811795506691651 0 0.19307652955947011 -0.16271772480568031 0 0.17994273312740561 -0.16894766008738479 0 0.19200634089657101 -0.15162103119425119 0 0.19307652955947011 -0.16271772480568031 0 0.18596726830908361 -0.1568269809054213 0 0.19649262091007469 -0.17795330805961021 0 0.19141740944088581 -0.16811795506691651 0 0.2028002748950942 -0.16944978417330159 0 0.19141740944088581 -0.16811795506691651 0 0.19307652955947011 -0.16271772480568031 0 0.2028002748950942 -0.16944978417330159 0 0.2028002748950942 -0.16944978417330159 0 0.2164061006941802 -0.16093631593300209 0 0.21036567971859141 -0.1798256264667864 0 0.2164061006941802 -0.16093631593300209 0 0.21036567971859141 -0.1798256264667864 0 0.22786366860946899 -0.17398152303845349 0 0.20262060791269859 -0.14832502905104139 0 0.19307652955947011 -0.16271772480568031 0 0.2164061006941802 -0.16093631593300209 0 0.19307652955947011 -0.16271772480568031 0 0.2028002748950942 -0.16944978417330159 0 0.2164061006941802 -0.16093631593300209 0 0.19307652955947011 -0.16271772480568031 0 0.2164061006941802 -0.16093631593300209 0 0.19649262091007469 -0.17795330805961021 0 0.2028002748950942 -0.16944978417330159 0 0.21036567971859141 -0.1798256264667864 0 0.21036567971859141 -0.1798256264667864 0 0.22786366860946899 -0.17398152303845349 0 0.22201765831729511 -0.18664536931715861 0 0.22786366860946899 -0.17398152303845349 0 0.22201765831729511 -0.18664536931715861 0 0.2416778311960521 -0.18449923205653471 0 0.2164061006941802 -0.16093631593300209 0 0.22786366860946899 -0.17398152303845349 0 0.23747336779581399 -0.15932765299096899 0 0.2164061006941802 -0.16093631593300209 0 0.23747336779581399 -0.15932765299096899 0 0.22762178807203359 -0.15088156593327581 0 0.2164061006941802 -0.16093631593300209 0 0.23747336779581399 -0.15932765299096899 0 0.23973567182889041 -0.15915490706032381 0 0.23747336779581399 -0.15932765299096899 0 0.2416778311960521 -0.18449923205653471 0 0.25931479494160148 -0.16291491832849439 0 0.23973567182889041 -0.15915490706032381 0 0.2416778311960521 -0.18449923205653471 0 0.25931479494160148 -0.16291491832849439 0 0.23973567182889041 -0.15915490706032381 0 0.24660053054023159 -0.15632187088039609 0 0.22762178807203359 -0.15088156593327581 0 0.23973567182889041 -0.15915490706032381 0 0.23747336779581399 -0.15932765299096899 0 0.23973567182889041 -0.15915490706032381 0 0.23747336779581399 -0.15932765299096899 0 0.2415003840091198 -0.15474249351091901 0 0.23973567182889041 -0.15915490706032381 0 0.24660053054023159 -0.15632187088039609 0 0.22786366860946899 -0.17398152303845349 0 0.23747336779581399 -0.15932765299096899 0 0.2416778311960521 -0.18449923205653471 0 0.23747336779581399 -0.15932765299096899 0 0.2416778311960521 -0.18449923205653471 0 0.2416778311960521 -0.18449923205653471 0 0.24602130187012561 -0.21038837831408341 0 0.23179956907786631 -0.1965883598521585 0 0.25577202557945972 -0.1956974386919649 0 0.2416778311960521 -0.18449923205653471 0 0.24602130187012561 -0.21038837831408341 0 0.2416778311960521 -0.18449923205653471 0 0.24602130187012561 -0.21038837831408341 0 0.2416778311960521 -0.18449923205653471 0 0.23179956907786631 -0.1965883598521585 0 0.24602130187012561 -0.21038837831408341 0 0.23339925521873639 -0.21272011467201779 0 0.23204763550654961 -0.22670403462628391 0 0.24602130187012561 -0.21038837831408341 0 0.23339925521873639 -0.21272011467201779 0 0.23179956907786631 -0.1965883598521585 0 0.23339925521873639 -0.21272011467201779 0 0.22192130695968071 -0.20867748764778241 0 0.23204763550654961 -0.22670403462628391 0 0.23339925521873639 -0.21272011467201779 0 0.22192130695968071 -0.20867748764778241 0 0.23179956907786631 -0.1965883598521585 0 0.22201765831729511 -0.18664536931715861 0 0.2416778311960521 -0.18449923205653471 0 0.23179956907786631 -0.1965883598521585 0 0.22192130695968071 -0.20867748764778241 0 0.23179956907786631 -0.1965883598521585 0 0.21194778817425389 -0.1962966155687659 0 0.22201765831729511 -0.18664536931715861 0 0.23179956907786631 -0.1965883598521585 0 0.21194778817425389 -0.1962966155687659 0 0.22192130695968071 -0.20867748764778241 0 0.23179956907786631 -0.1965883598521585 0 0.25036477254419898 -0.23627752457163231 0 0.23589212174048199 -0.24043102313983139 0 0.23204763550654961 -0.22670403462628391 0 0.25036477254419898 -0.23627752457163231 0 0.25470824321827251 -0.26216667082918121 0 0.2418638624582429 -0.25084912941786092 0 0.2418638624582429 -0.25084912941786092 0 0.23589212174048199 -0.24043102313983139 0 0.22636218681932779 -0.24657473899766161 0 0.25036477254419898 -0.23627752457163231 0 0.2418638624582429 -0.25084912941786092 0 0.23589212174048199 -0.24043102313983139 0 0.25036477254419898 -0.23627752457163231 0 0.24602130187012561 -0.21038837831408341 0 0.25036477254419898 -0.23627752457163231 0 0.24602130187012561 -0.21038837831408341 0 0.23204763550654961 -0.22670403462628391 0 0.22677722986365861 -0.23594477341538519 0 0.21783924028388271 -0.241713722304121 0 0.2172366796535222 -0.2247369284357861 0 0.22192130695968071 -0.20867748764778241 0 0.23204763550654961 -0.22670403462628391 0 0.2172366796535222 -0.2247369284357861 0 0.23204763550654961 -0.22670403462628391 0 0.22677722986365861 -0.23594477341538519 0 0.2172366796535222 -0.2247369284357861 0 0.23589212174048199 -0.24043102313983139 0 0.23204763550654961 -0.22670403462628391 0 0.22677722986365861 -0.23594477341538519 0 0.23589212174048199 -0.24043102313983139 0 0.22677722986365861 -0.23594477341538519 0 0.22636218681932779 -0.24657473899766161 0 0.22677722986365861 -0.23594477341538519 0 0.22636218681932779 -0.24657473899766161 0 0.21783924028388271 -0.241713722304121 0 0.21783924028388271 -0.241713722304121 0 0.1896828646955146 -0.2359870314138113 0 0.21783924028388271 -0.241713722304121 0 0.2035879866479503 -0.22544940641156971 0 0.1896828646955146 -0.2359870314138113 0 0.21783924028388271 -0.241713722304121 0 0.2172366796535222 -0.2247369284357861 0 0.2035879866479503 -0.22544940641156971 0 0.2172366796535222 -0.2247369284357861 0 0.2035879866479503 -0.22544940641156971 0 0.20515184184811169 -0.2106692348127461 0 0.2035879866479503 -0.22544940641156971 0 0.1896828646955146 -0.2359870314138113 0 0.1880293067587204 -0.21414011509138431 0 0.1978508546988918 -0.25356352151798278 0 0.21783924028388271 -0.241713722304121 0 0.1896828646955146 -0.2359870314138113 0 0.1978508546988918 -0.25356352151798278 0 0.17884810112737351 -0.2581751677974442 0 0.1896828646955146 -0.2359870314138113 0 0.21036567971859141 -0.1798256264667864 0 0.21194778817425389 -0.1962966155687659 0 0.1932946268137293 -0.19420224397533661 0 0.21194778817425389 -0.1962966155687659 0 0.20515184184811169 -0.2106692348127461 0 0.1932946268137293 -0.19420224397533661 0 0.21036567971859141 -0.1798256264667864 0 0.22201765831729511 -0.18664536931715861 0 0.21194778817425389 -0.1962966155687659 0 0.22192130695968071 -0.20867748764778241 0 0.2172366796535222 -0.2247369284357861 0 0.20515184184811169 -0.2106692348127461 0 0.22192130695968071 -0.20867748764778241 0 0.21194778817425389 -0.1962966155687659 0 0.20515184184811169 -0.2106692348127461 0 0.20515184184811169 -0.2106692348127461 0 0.1880293067587204 -0.21414011509138431 0 0.1932946268137293 -0.19420224397533661 0 0.2035879866479503 -0.22544940641156971 0 0.20515184184811169 -0.2106692348127461 0 0.1880293067587204 -0.21414011509138431 0 0.1932946268137293 -0.19420224397533661 0 0.17707444631893421 -0.18964370060815661 0 0.16934622146406461 -0.20282363088950819 0 0.1932946268137293 -0.19420224397533661 0 0.17707444631893421 -0.18964370060815661 0 0.18588304581272991 -0.18312125311832489 0 0.1880293067587204 -0.21414011509138431 0 0.17101746227165271 -0.21644623164850571 0 0.16934622146406461 -0.20282363088950819 0 0.1880293067587204 -0.21414011509138431 0 0.1932946268137293 -0.19420224397533661 0 0.16934622146406461 -0.20282363088950819 0 0.16934622146406461 -0.20282363088950819 0 0.15002822407252681 -0.20286604329315841 0 0.1542031165266966 -0.21482170013168811 0 0.17101746227165271 -0.21644623164850571 0 0.16934622146406461 -0.20282363088950819 0 0.1542031165266966 -0.21482170013168811 0 0.17707444631893421 -0.18964370060815661 0 0.16934622146406461 -0.20282363088950819 0 0.1537338947709776 -0.18856030428038151 0 0.16934622146406461 -0.20282363088950819 0 0.1537338947709776 -0.18856030428038151 0 0.15002822407252681 -0.20286604329315841 0 0.17884810112737351 -0.2581751677974442 0 0.1896828646955146 -0.2359870314138113 0 0.1622558454691588 -0.2490724743157757 0 0.1896828646955146 -0.2359870314138113 0 0.17101746227165271 -0.21644623164850571 0 0.1615264891071464 -0.2302603405235015 0 0.1896828646955146 -0.2359870314138113 0 0.1880293067587204 -0.21414011509138431 0 0.17101746227165271 -0.21644623164850571 0 0.1896828646955146 -0.2359870314138113 0 0.1615264891071464 -0.2302603405235015 0 0.17101746227165271 -0.21644623164850571 0 0.1615264891071464 -0.2302603405235015 0 0.1542031165266966 -0.21482170013168811 0 0.1896828646955146 -0.2359870314138113 0 0.1615264891071464 -0.2302603405235015 0 0.1622558454691588 -0.2490724743157757 0 0.1615264891071464 -0.2302603405235015 0 0.1622558454691588 -0.2490724743157757 0 0.14155871326779551 -0.24153996818768719 0 0.1615264891071464 -0.2302603405235015 0 0.13337011351877839 -0.22453364963319181 0 0.1615264891071464 -0.2302603405235015 0 0.14155871326779551 -0.24153996818768719 0 0.13337011351877839 -0.22453364963319181 0 0.1615264891071464 -0.2302603405235015 0 0.13337011351877839 -0.22453364963319181 0 0.1542031165266966 -0.21482170013168811 0 0.12271910577429609 -0.24269635312249871 0 0.12880562160516101 -0.22073891600480711 0 0.12271910577429609 -0.24269635312249871 0 0.12880562160516101 -0.22073891600480711 0 0.131750369569024 -0.2357881402862041 0 0.14155871326779551 -0.24153996818768719 0 0.13337011351877839 -0.22453364963319181 0 0.131750369569024 -0.2357881402862041 0 0.13337011351877839 -0.22453364963319181 0 0.12880562160516101 -0.22073891600480711 0 0.13993018872601079 -0.2120003048022629 0 0.13337011351877839 -0.22453364963319181 0 0.12880562160516101 -0.22073891600480711 0 0.131750369569024 -0.2357881402862041 0 0.13274476674662339 -0.25198867347775072 0 0.12271910577429609 -0.24269635312249871 0 0.131750369569024 -0.2357881402862041 0 0.13274476674662339 -0.25198867347775072 0 0.14155871326779551 -0.24153996818768719 0 0.131750369569024 -0.2357881402862041 0 0.14148140642305509 -0.18770189591869729 0 0.1537338947709776 -0.18856030428038151 0 0.13582492698567331 -0.1954163898198106 0 0.1537338947709776 -0.18856030428038151 0 0.13582492698567331 -0.1954163898198106 0 0.13489213743602421 -0.19878147888711509 0 0.1537338947709776 -0.18856030428038151 0 0.15002822407252681 -0.20286604329315841 0 0.13489213743602421 -0.19878147888711509 0 0.1537338947709776 -0.18856030428038151 0 0.13489213743602421 -0.19878147888711509 0 0.13337011351877839 -0.22453364963319181 0 0.1542031165266966 -0.21482170013168811 0 0.13993018872601079 -0.2120003048022629 0 0.15002822407252681 -0.20286604329315841 0 0.13993018872601079 -0.2120003048022629 0 0.13489213743602421 -0.19878147888711509 0 0.15002822407252681 -0.20286604329315841 0 0.1542031165266966 -0.21482170013168811 0 0.13993018872601079 -0.2120003048022629 0 0.11698179924479039 -0.20849738227467191 0 0.13489213743602421 -0.19878147888711509 0 0.12464043040152201 -0.2119120535176171 0 0.12880562160516101 -0.22073891600480711 0 0.13489213743602421 -0.19878147888711509 0 0.12880562160516101 -0.22073891600480711 0 0.13993018872601079 -0.2120003048022629 0 0.13489213743602421 -0.19878147888711509 0 0.11698179924479039 -0.20849738227467191 0 0.12464043040152201 -0.2119120535176171 0 0.13489213743602421 -0.19878147888711509 0 0.12880562160516101 -0.22073891600480711 0 0.13489213743602421 -0.19878147888711509 0 0.11698179924479039 -0.20849738227467191 0 0.13489213743602421 -0.19878147888711509 0 0.12869338222844709 -0.19525138080403839 0 0.13582492698567331 -0.1954163898198106 0 0.13489213743602421 -0.19878147888711509 0 0.12869338222844709 -0.19525138080403839 0 0.13582492698567331 -0.1954163898198106 0 0.13489213743602421 -0.19878147888711509 0 0.14148140642305509 -0.18770189591869729 0 0.13582492698567331 -0.1954163898198106 0 0.1324604505328206 -0.18663405217076509 0 0.1198088980166104 -0.19218538145095701 0 0.12869338222844709 -0.19525138080403839 0 0.1324604505328206 -0.18663405217076509 0 0.13582492698567331 -0.1954163898198106 0 0.12869338222844709 -0.19525138080403839 0 0.1324604505328206 -0.18663405217076509 0 0.1224507753063967 -0.18181771555635581 0 0.1324604505328206 -0.18663405217076509 0 0.13122252025391401 -0.1742611001861846 0 0.13122252025391401 -0.1742611001861846 0 0.1439063534027491 -0.1801968374038323 0 0.1464173872900498 -0.16628054255103669 0 0.14148140642305509 -0.18770189591869729 0 0.1324604505328206 -0.18663405217076509 0 0.1439063534027491 -0.1801968374038323 0 0.1324604505328206 -0.18663405217076509 0 0.13122252025391401 -0.1742611001861846 0 0.1439063534027491 -0.1801968374038323 0 0.1439063534027491 -0.1801968374038323 0 0.1464173872900498 -0.16628054255103669 0 0.15985096802774121 -0.1748831204802804 0 0.1537338947709776 -0.18856030428038151 0 0.1439063534027491 -0.1801968374038323 0 0.15985096802774121 -0.1748831204802804 0 0.14148140642305509 -0.18770189591869729 0 0.1537338947709776 -0.18856030428038151 0 0.1439063534027491 -0.1801968374038323 0 0.1464173872900498 -0.16628054255103669 0 0.1402365395578227 -0.1499231954711478 0 0.15586722121641911 -0.1542555595964549 0 0.1464173872900498 -0.16628054255103669 0 0.1264609325211889 -0.1600452056287022 0 0.1402365395578227 -0.1499231954711478 0 0.13122252025391401 -0.1742611001861846 0 0.1464173872900498 -0.16628054255103669 0 0.1264609325211889 -0.1600452056287022 0 0.1264609325211889 -0.1600452056287022 0 0.1402365395578227 -0.1499231954711478 0 0.1260961374427722 -0.1435758614132828 0 0.1402365395578227 -0.1499231954711478 0 0.1260961374427722 -0.1435758614132828 0 0.13964238331010961 -0.13203150166643429 0 0.1187481951884492 -0.12855951967903281 0 0.1260961374427722 -0.1435758614132828 0 0.13964238331010961 -0.13203150166643429 0 0.15568588635566469 -0.1132031627122434 0 0.13964238331010961 -0.13203150166643429 0 0.15605810271627971 -0.139270708933487 0 0.1402365395578227 -0.1499231954711478 0 0.13964238331010961 -0.13203150166643429 0 0.15605810271627971 -0.139270708933487 0 0.1402365395578227 -0.1499231954711478 0 0.15605810271627971 -0.139270708933487 0 0.15586722121641911 -0.1542555595964549 0 0.15605810271627971 -0.139270708933487 0 0.1668771180931832 -0.1513042173482444 0 0.18087915628515219 -0.1324632079795236 0 0.15605810271627971 -0.139270708933487 0 0.15586722121641911 -0.1542555595964549 0 0.1668771180931832 -0.1513042173482444 0 0.15568588635566469 -0.1132031627122434 0 0.15605810271627971 -0.139270708933487 0 0.18087915628515219 -0.1324632079795236 0 0.18087915628515219 -0.1324632079795236 0 0.17486957975795309 -0.16149727525867569 0 0.19320698657446131 -0.14082921561531711 0 0.18087915628515219 -0.1324632079795236 0 0.18559823082601509 -0.14867885109757009 0 0.18087915628515219 -0.1324632079795236 0 0.18559823082601509 -0.14867885109757009 0 0.17486957975795309 -0.16149727525867569 0 0.1668771180931832 -0.1513042173482444 0 0.18087915628515219 -0.1324632079795236 0 0.17486957975795309 -0.16149727525867569 0 0.18559823082601509 -0.14867885109757009 0 0.18596726830908361 -0.1568269809054213 0 0.17486957975795309 -0.16149727525867569 0 0.19141740944088581 -0.16811795506691651 0 0.17994273312740561 -0.16894766008738479 0 0.1725756521059317 -0.17833912967364901 0 0.19307652955947011 -0.16271772480568031 0 0.17486957975795309 -0.16149727525867569 0 0.1697469584247599 -0.16449913367835839 0 0.19307652955947011 -0.16271772480568031 0 0.18596726830908361 -0.1568269809054213 0 0.17486957975795309 -0.16149727525867569 0 0.19307652955947011 -0.16271772480568031 0 0.17994273312740561 -0.16894766008738479 0 0.1697469584247599 -0.16449913367835839 0 0.19307652955947011 -0.16271772480568031 0 0.1697469584247599 -0.16449913367835839 0 0.1728971161059803 -0.17106435721232011 0 0.17994273312740561 -0.16894766008738479 0 0.1697469584247599 -0.16449913367835839 0 0.19141740944088581 -0.16811795506691651 0 0.18659218206740549 -0.17688291147962509 0 0.1725756521059317 -0.17833912967364901 0 0.18659218206740549 -0.17688291147962509 0 0.18588304581272991 -0.18312125311832489 0 0.1725756521059317 -0.17833912967364901 0 0.19141740944088581 -0.16811795506691651 0 0.1725756521059317 -0.17833912967364901 0 0.17707444631893421 -0.18964370060815661 0 0.18588304581272991 -0.18312125311832489 0 0.1725756521059317 -0.17833912967364901 0 0.1728971161059803 -0.17106435721232011 0 0.17994273312740561 -0.16894766008738479 0 0.1725756521059317 -0.17833912967364901 0 0.1728971161059803 -0.17106435721232011 0 0.1725756521059317 -0.17833912967364901 0 0.15985096802774121 -0.1748831204802804 0 0.1537338947709776 -0.18856030428038151 0 0.1725756521059317 -0.17833912967364901 0 0.15985096802774121 -0.1748831204802804 0 0.17707444631893421 -0.18964370060815661 0 0.1537338947709776 -0.18856030428038151 0 0.1725756521059317 -0.17833912967364901 0 0.1537338947709776 -0.18856030428038151 0 0.1725756521059317 -0.17833912967364901 0 0.1464173872900498 -0.16628054255103669 0 0.15985096802774121 -0.1748831204802804 0 0.1697469584247599 -0.16449913367835839 0 0.1464173872900498 -0.16628054255103669 0 0.1697469584247599 -0.16449913367835839 0 0.1464173872900498 -0.16628054255103669 0 0.15586722121641911 -0.1542555595964549 0 0.1697469584247599 -0.16449913367835839 0 0.15586722121641911 -0.1542555595964549 0 0.1668771180931832 -0.1513042173482444 0 0.1697469584247599 -0.16449913367835839 0 0.1668771180931832 -0.1513042173482444 0 0.17486957975795309 -0.16149727525867569 0 0.1697469584247599 -0.16449913367835839 0 0.1728971161059803 -0.17106435721232011 0 0.15985096802774121 -0.1748831204802804 0 0.1697469584247599 -0.16449913367835839 0 
</DataArray>
</Points>
<Cells>
<DataArray type="UInt32" Name="connectivity" format="ascii">
0 1 2 3 4 5 6 7 8 9 10 11 12 13 14 15 16 17 18 19 20 21 22 23 24 25 26 27 28 29 30 31 32 33 34 35 36 37 38 39 40 41 42 43 44 45 46 47 48 49 50 51 52 53 54 55 56 57 58 59 60 61 62 63 64 65 66 67 68 69 70 71 72 73 74 75 76 77 78 79 80 81 82 83 84 85 86 87 88 89 90 91 92 93 94 95 96 97 98 99 100 101 102 103 104 105 106 107 108 109 110 111 112 113 114 115 116 117 118 119 120 121 122 123 124 125 126 127 128 129 130 131 132 133 134 135 136 137 138 139 140 141 142 143 144 145 146 147 148 149 150 151 152 153 154 155 156 157 158 159 160 161 162 163 164 165 166 167 168 169 170 171 172 173 174 175 176 177 178 179 180 181 182 183 184 185 186 187 188 189 190 191 192 193 194 195 196 197 198 199 200 201 202 203 204 205 206 207 208 209 210 211 212 213 214 215 216 217 218 219 220 221 222 223 224 225 226 227 228 229 230 231 232 233 234 235 236 237 238 239 240 241 242 243 244 245 246 247 248 249 250 251 252 253 254 255 256 257 258 259 260 261 262 263 264 265 266 267 268 269 270 271 272 273 274 275 276 277 278 279 280 281 282 283 284 285 286 287 288 289 290 291 292 293 294 295 296 297 298 299 300 301 302 303 304 305 306 307 308 309 310 311 312 313 314 315 316 317 318 319 320 321 322 323 324 325 326 327 328 329 330 331 332 333 334 335 336 337 338 339 340 341 342 343 344 345 346 347 348 349 350 351 352 353 354 355 356 357 358 359 360 361 362 363 364 365 366 367 368 369 370 371 372 373 374 375 376 377 378 379 380 381 382 383 384 385 386 387 388 389 390 391 392 393 394 395 396 397 398 399 400 401 402 403 404 405 406 407 408 409 410 411 412 413 414 415 416 417 418 419 420 421 422 423 424 425 426 427 428 429 430 431 432 433 434 435 436 437 438 439 440 441 442 443 444 445 446 447 448 449 450 451 452 453 454 455 456 457 458 459 460 461 462 463 464 465 466 467 468 469 470 471 472 473 474 475 476 477 478 479 480 481 482 483 484 485 486 487 488 489 490 491 492 493 494 495 496 497 498 499 500 501 502 503 504 505 506 507 508 509 510 511 512 513 514 515 516 517 518 519 520 521 522 523 524 525 526 527 528 529 530 531 532 533 534 535 536 537 538 539 540 541 542 543 544 545 546 547 548 549 550 551 552 553 554 555 556 557 558 559 560 561 562 563 564 565 566 567 568 569 570 571 572 573 574 575 576 577 578 579 580 581 582 583 584 585 586 587 588 589 590 591 592 593 594 595 596 597 598 599 600 601 602 603 604 605 606 607 608 609 610 611 612 613 614 615 616 617 618 619 620 621 622 623 624 625 626 627 628 629 630 631 632 633 634 635 636 637 638 639 640 641 642 643 644 645 646 647 648 649 650 651 652 653 654 655 656 657 658 659 660 661 662 663 664 665 666 667 668 669 670 671 672 673 674 675 676 677 678 679 680 681 682 683 684 685 686 687 688 689 690 691 692 693 694 695 696 697 698 699 700 701 702 703 704 705 706 707 708 709 710 711 712 713 714 715 716 717 718 719 720 721 722 723 724 725 726 727 728 729 730 731 732 733 734 735 736 737 738 739 740 741 742 743 744 745 746 747 748 749 750 751 752 753 754 755 756 757 758 759 760 761 762 763 764 765 766 767 768 769 770 771 772 773 774 775 776 777 778 779 780 781 782 783 784 785 786 787 788 789 790 791 792 793 794 795 796 797 798 799 800 801 802 803 804 805 806 807 808 809 810 811 812 813 814 815 816 817 818 819 820 821 822 823 824 825 826 827 828 829 830 831 832 833 834 835 836 837 838 839 840 841 842 843 844 845 846 847 848 849 850 851 852 853 854 855 856 857 858 859 860 861 862 863 864 865 866 867 868 869 870 871 872 873 874 875 876 877 878 879 880 881 882 883 884 885 886 887 888 889 890 891 892 893 894 895 896 897 898 899 900 901 902 903 904 905 906 907 908 909 910 911 912 913 914 915 916 917 918 919 920 921 922 923 924 925 926 927 928 929 930 931 932 933 934 935 936 937 938 939 940 941 942 943 944 945 946 947 948 949 950 951 952 953 954 955 956 957 958 959 960 961 962 963 964 965 966 967 968 969 970 971 972 973 974 975 976 977 978 979 980 981 982 983 984 985 986 987 988 989 990 991 992 993 994 995 996 997 998 999 1000 1001 1002 1003 1004 1005 1006 1007 1008 1009 1010 1011 1012 1013 1014 1015 1016 1017 1018 1019 1020 1021 1022 1023 1024 1025 1026 1027 1028 1029 1030 1031 1032 1033 1034 1035 1036 1037 1038 1039 1040 1041 1042 1043 1044 1045 1046 1047 1048 1049 1050 1051 1052 1053 1054 1055 1056 1057 1058 1059 1060 1061 1062 1063 1064 1065 1066 1067 1068 1069 1070 1071 1072 1073 1074 1075 1076 1077 1078 1079 1080 1081 1082 1083 1084 1085 1086 1087 1088 1089 1090 1091 1092 1093 1094 1095 1096 1097 1098 1099 1100 1101 1102 1103 1104 1105 1106 1107 1108 1109 1110 1111 1112 1113 1114 1115 1116 1117 1118 1119 1120 1121 1122 1123 1124 1125 1126 1127 1128 1129 1130 1131 1132 1133 1134 1135 1136 1137 1138 1139 1140 1141 1142 1143 1144 1145 1146 1147 1148 1149 1150 1151 1152 1153 1154 1155 1156 1157 1158 1159 1160 1161 1162 1163 1164 1165 1166 1167 1168 1169 1170 1171 1172 1173 1174 1175 1176 1177 1178 1179 1180 1181 1182 1183 1184 1185 1186 1187 1188 1189 1190 1191 1192 1193 1194 1195 1196 1197 1198 1199 1200 1201 1202 1203 1204 1205 1206 1207 1208 1209 1210 1211 1212 1213 1214 1215 1216 1217 1218 1219 1220 1221 1222 1223 1224 1225 1226 1227 1228 1229 1230 1231 1232 1233 1234 1235 1236 1237 1238 1239 1240 1241 1242 1243 1244 1245 1246 1247 1248 1249 1250 1251 1252 1253 1254 1255 1256 1257 1258 1259 1260 1261 1262 1263 1264 1265 1266 1267 1268 1269 1270 1271 1272 1273 1274 1275 1276 1277 1278 1279 1280 1281 1282 1283 1284 1285 1286 1287 1288 1289 1290 1291 1292 1293 1294 1295 1296 1297 1298 1299 1300 1301 1302 1303 1304 1305 1306 1307 1308 1309 1310 1311 1312 1313 1314 1315 1316 1317 1318 1319 1320 1321 1322 1323 1324 1325 1326 1327 1328 1329 1330 1331 1332 1333 1334 1335 1336 1337 1338 1339 1340 1341 1342 1343 1344 1345 1346 1347 1348 1349 1350 1351 1352 1353 1354 1355 1356 1357 1358 1359 1360 1361 1362 1363 1364 1365 1366 1367 1368 1369 1370 1371 1372 1373 1374 1375 1376 1377 1378 1379 1380 1381 1382 1383 1384 1385 1386 1387 1388 1389 1390 1391 1392 1393 1394 1395 1396 1397 1398 1399 1400 1401 1402 1403 1404 1405 1406 1407 1408 1409 1410 1411 1412 1413 1414 1415 1416 1417 1418 1419 1420 1421 1422 1423 1424 1425 1426 1427 1428 1429 1430 1431 1432 1433 1434 1435 1436 1437 1438 1439 1440 1441 1442 1443 1444 1445 1446 1447 1448 1449 1450 1451 1452 1453 1454 1455 1456 1457 1458 1459 1460 1461 1462 1463 1464 1465 1466 1467 1468 1469 1470 1471 1472 1473 1474 1475 1476 1477 1478 1479 1480 1481 1482 1483 1484 1485 1486 1487 1488 1489 1490 1491 1492 1493 1494 1495 1496 1497 1498 1499 1500 1501 1502 1503 1504 1505 1506 1507 1508 1509 1510 1511 1512 1513 1514 1515 1516 1517 1518 1519 1520 1521 1522 1523 1524 1525 1526 1527 1528 1529 1530 1531 1532 1533 1534 1535 1536 1537 1538 1539 1540 1541 1542 1543 1544 1545 1546 1547 1548 1549 1550 1551 1552 1553 1554 1555 1556 1557 1558 1559 1560 1561 1562 1563 1564 1565 1566 1567 1568 1569 1570 1571 1572 1573 1574 1575 1576 1577 1578 1579 1580 1581 1582 1583 1584 1585 1586 1587 1588 1589 1590 1591 1592 1593 1594 1595 1596 1597 1598 1599 1600 1601 1602 1603 1604 1605 1606 1607 1608 1609 1610 1611 1612 1613 1614 1615 1616 1617 1618 1619 1620 1621 1622 1623 1624 1625 1626 1627 1628 1629 1630 1631 1632 1633 1634 1635 1636 1637 1638 1639 1640 1641 1642 1643 1644 1645 1646 1647 1648 1649 1650 1651 1652 1653 1654 1655 1656 1657 1658 1659 1660 1661 1662 1663 1664 1665 1666 1667 1668 1669 1670 1671 1672 1673 1674 1675 1676 1677 1678 1679 1680 1681 1682 1683 1684 1685 1686 1687 1688 1689 1690 1691 1692 1693 1694 1695 1696 1697 1698 1699 1700 1701 1702 1703 1704 1705 1706 1707 1708 1709 1710 1711 1712 1713 1714 1715 1716 1717 1718 1719 1720 1721 1722 1723 1724 1725 1726 1727 1728 1729 1730 1731 1732 1733 1734 1735 1736 1737 1738 1739 1740 1741 1742 1743 1744 1745 1746 1747 1748 1749 1750 1751 1752 1753 1754 1755 1756 1757 1758 1759 1760 1761 1762 1763 1764 1765 1766 1767 1768 1769 1770 1771 1772 1773 1774 1775 1776 1777 1778 1779 1780 1781 1782 1783 1784 1785 1786 1787 1788 1789 1790 1791 1792 1793 1794 1795 1796 1797 1798 1799 1800 1801 1802 1803 1804 1805 1806 1807 1808 1809 1810 1811 1812 1813 1814 1815 1816 1817 1818 1819 1820 1821 1822 1823 1824 1825 1826 1827 1828 1829 1830 1831 1832 1833 1834 1835 1836 1837 1838 1839 1840 1841 1842 1843 1844 1845 1846 1847 1848 1849 1850 1851 1852 1853 1854 1855 1856 1857 1858 1859 1860 1861 1862 1863 1864 1865 1866 1867 1868 1869 1870 1871 1872 1873 1874 1875 1876 1877 1878 1879 1880 1881 1882 1883 1884 1885 1886 1887 1888 1889 1890 1891 1892 1893 1894 1895 1896 1897 1898 1899 1900 1901 1902 1903 1904 1905 1906 1907 1908 1909 1910 1911 1912 1913 1914 1915 1916 1917 1918 1919 1920 1921 1922 1923 1924 1925 1926 1927 1928 1929 1930 1931 1932 1933 1934 1935 1936 1937 1938 1939 1940 1941 1942 1943 1944 1945 1946 1947 1948 1949 1950 1951 1952 1953 1954 1955 1956 1957 1958 1959 1960 1961 1962 1963 1964 1965 1966 1967 1968 1969 1970 1971 1972 1973 1974 1975 1976 1977 1978 1979 1980 1981 1982 1983 1984 1985 1986 1987 1988 1989 1990 1991 1992 1993 1994 1995 1996 1997 1998 1999 2000 2001 2002 2003 2004 2005 2006 2007 2008 2009 2010 2011 2012 2013 2014 2015 2016 2017 2018 2019 2020 2021 2022 2023 2024 2025 2026 2027 2028 2029 2030 2031 2032 2033 2034 2035 2036 2037 2038 2039 2040 2041 2042 2043 2044 2045 2046 2047 2048 2049 2050 2051 2052 2053 2054 2055 2056 2057 2058 2059 2060 2061 2062 2063 2064 2065 2066 2067 2068 2069 2070 2071 2072 2073 2074 2075 2076 2077 2078 2079 2080 2081 2082 2083 2084 2085 2086 2087 2088 2089 2090 2091 2092 2093 2094 2095 2096 2097 2098 2099 2100 2101 2102 2103 2104 2105 2106 2107 2108 2109 2110 2111 2112 2113 2114 2115 2116 2117 2118 2119 2120 2121 2122 2123 2124 2125 2126 2127 2128 2129 2130 2131 2132 2133 2134 2135 2136 2137 2138 2139 2140 2141 2142 2143 2144 2145 2146 2147 2148 2149 2150 2151 2152 2153 2154 2155 2156 2157 2158 2159 2160 2161 2162 2163 2164 2165 2166 2167 2168 2169 2170 2171 2172 2173 2174 2175 2176 2177 2178 2179 2180 2181 2182 2183 2184 2185 2186 2187 2188 2189 2190 2191 2192 2193 2194 2195 2196 2197 2198 2199 2200 2201 2202 2203 2204 2205 2206 2207 2208 2209 2210 2211 2212 2213 2214 2215 2216 2217 2218 2219 2220 2221 2222 2223 2224 2225 2226 2227 2228 2229 2230 2231 2232 2233 2234 2235 2236 2237 2238 2239 2240 2241 2242 2243 2244 2245 2246 2247 2248 2249 2250 2251 2252 2253 2254 2255 2256 2257 2258 2259 2260 2261 2262 2263 2264 2265 2266 2267 2268 2269 2270 2271 2272 2273 2274 2275 2276 2277 2278 2279 2280 2281 2282 2283 2284 2285 2286 2287 2288 2289 2290 2291 2292 2293 2294 2295 2296 2297 2298 2299 2300 2301 2302 2303 2304 2305 2306 2307 2308 2309 2310 2311 2312 2313 2314 2315 2316 2317 2318 2319 2320 2321 2322 2323 2324 2325 2326 2327 2328 2329 2330 2331 2332 2333 2334 2335 2336 2337 2338 2339 2340 2341 2342 2343 2344 2345 2346 2347 2348 2349 2350 2351 2352 2353 2354 2355 2356 2357 2358 2359 2360 2361 2362 2363 2364 2365 2366 2367 2368 2369 2370 2371 2372 2373 2374 2375 2376 2377 2378 2379 2380 2381 2382 2383 2384 2385 2386 2387 2388 2389 2390 2391 2392 2393 2394 2395 2396 2397 2398 2399 2400 2401 2402 2403 2404 2405 2406 2407 2408 2409 2410 2411 2412 2413 2414 2415 2416 2417 2418 2419 2420 2421 2422 2423 2424 2425 2426 2427 2428 2429 2430 2431 2432 2433 2434 2435 2436 2437 2438 2439 2440 2441 2442 2443 2444 2445 2446 2447 2448 2449 2450 2451 2452 2453 2454 2455 2456 2457 2458 2459 2460 2461 2462 2463 2464 2465 2466 2467 2468 2469 2470 2471 2472 2473 2474 2475 2476 2477 2478 2479 2480 2481 2482 2483 2484 2485 2486 2487 2488 2489 2490 2491 2492 2493 2494 2495 2496 2497 2498 2499 2500 2501 2502 2503 2504 2505 2506 2507 2508 2509 2510 2511 2512 2513 2514 2515 2516 2517 2518 2519 2520 2521 2522 2523 2524 2525 2526 2527 2528 2529 2530 2531 2532 2533 2534 2535 2536 2537 2538 2539 2540 2541 2542 2543 2544 2545 2546 2547 2548 2549 2550 2551 2552 2553 2554 2555 2556 2557 2558 2559 2560 2561 2562 2563 2564 2565 2566 2567 2568 2569 2570 2571 2572 2573 2574 2575 2576 2577 2578 2579 2580 2581 2582 2583 2584 2585 2586 2587 2588 2589 2590 2591 2592 2593 2594 2595 2596 2597 2598 2599 2600 2601 2602 2603 2604 2605 2606 2607 2608 2609 2610 2611 2612 2613 2614 2615 2616 2617 2618 2619 2620 2621 2622 2623 2624 2625 2626 2627 2628 2629 2630 2631 2632 2633 2634 2635 2636 2637 2638 2639 2640 2641 2642 2643 2644 2645 2646 2647 2648 2649 2650 2651 2652 2653 2654 2655 2656 2657 2658 2659 2660 2661 2662 2663 2664 2665 2666 2667 2668 2669 2670 2671 2672 2673 2674 2675 2676 2677 2678 2679 2680 2681 2682 2683 2684 2685 2686 2687 2688 2689 2690 2691 2692 2693 2694 2695 2696 2697 2698 2699 2700 2701 2702 2703 2704 2705 2706 2707 2708 2709 2710 2711 2712 2713 2714 2715 2716 2717 2718 2719 2720 2721 2722 2723 2724 2725 2726 2727 2728 2729 2730 2731 2732 2733 2734 2735 2736 2737 2738 2739 2740 2741 2742 2743 2744 2745 2746 2747 2748 2749 2750 2751 2752 2753 2754 2755 2756 2757 2758 2759 2760 2761 2762 2763 2764 2765 2766 2767 2768 2769 2770 2771 2772 2773 2774 2775 2776 2777 2778 2779 2780 2781 2782 2783 2784 2785 2786 2787 2788 2789 2790 2791 2792 2793 2794 2795 2796 2797 2798 2799 2800 2801 2802 2803 2804 2805 2806 2807 2808 2809 2810 2811 2812 2813 2814 2815 2816 2817 2818 2819 2820 2821 2822 2823 2824 2825 2826 2827 2828 2829 2830 2831 2832 2833 2834 2835 2836 2837 2838 2839 2840 2841 2842 2843 2844 2845 2846 2847 2848 2849 2850 2851 2852 2853 2854 2855 2856 2857 2858 2859 2860 2861 2862 2863 2864 2865 2866 2867 2868 2869 2870 2871 2872 2873 2874 2875 2876 2877 2878 2879 2880 2881 2882 2883 2884 2885 2886 2887 2888 2889 2890 2891 2892 2893 2894 2895 2896 2897 2898 2899 2900 2901 2902 2903 2904 2905 2906 2907 2908 2909 2910 2911 2912 2913 2914 2915 2916 2917 2918 2919 2920 2921 2922 2923 2924 2925 2926 2927 2928 2929 2930 2931 2932 2933 2934 2935 2936 2937 2938 2939 2940 2941 2942 2943 2944 2945 2946 2947 2948 2949 2950 2951 2952 2953 2954 2955 2956 2957 2958 2959 2960 2961 2962 2963 2964 2965 2966 2967 2968 2969 2970 2971 2972 2973 2974 2975 2976 2977 2978 2979 2980 2981 2982 2983 2984 2985 2986 2987 2988 2989 2990 2991 2992 2993 2994 2995 2996 2997 2998 2999 3000 3001 3002 3003 3004 3005 3006 3007 3008 3009 3010 3011 3012 3013 3014 3015 3016 3017 3018 3019 3020 3021 3022 3023 3024 3025 3026 3027 3028 3029 3030 3031 3032 3033 3034 3035 3036 3037 3038 3039 3040 3041 3042 3043 3044 3045 3046 3047 3048 3049 3050 3051 3052 3053 3054 3055 3056 3057 3058 3059 3060 3061 3062 3063 3064 3065 3066 3067 3068 3069 3070 3071 3072 3073 3074 3075 3076 3077 3078 3079 3080 3081 3082 3083 3084 3085 3086 3087 3088 3089 3090 3091 3092 3093 3094 3095 3096 3097 3098 3099 3100 3101 3102 3103 3104 3105 3106 3107 3108 3109 3110 3111 3112 3113 3114 3115 3116 3117 3118 3119 3120 3121 3122 3123 3124 3125 3126 3127 3128 3129 3130 3131 3132 3133 3134 3135 3136 3137 3138 3139 3140 3141 3142 3143 3144 3145 3146 3147 3148 3149 3150 3151 3152 3153 3154 3155 3156 3157 3158 3159 3160 3161 3162 3163 3164 3165 3166 3167 3168 3169 3170 3171 3172 3173 3174 3175 3176 3177 3178 3179 3180 3181 3182 3183 3184 3185 3186 3187 3188 3189 3190 3191 3192 3193 3194 3195 3196 3197 3198 3199 3200 3201 3202 3203 3204 3205 3206 3207 3208 3209 3210 3211 3212 3213 3214 3215 3216 3217 3218 3219 3220 3221 3222 3223 3224 3225 3226 3227 3228 3229 3230 3231 3232 3233 3234 3235 3236 3237 3238 3239 3240 3241 3242 3243 3244 3245 3246 3247 3248 3249 3250 3251 3252 3253 3254 3255 3256 3257 3258 3259 3260 3261 3262 3263 3264 3265 3266 3267 3268 3269 3270 3271 3272 3273 3274 3275 3276 3277 3278 3279 3280 3281 3282 3283 3284 3285 3286 3287 3288 3289 3290 3291 3292 3293 3294 3295 3296 3297 3298 3299 3300 3301 3302 3303 3304 3305 3306 3307 3308 3309 3310 3311 3312 3313 3314 3315 3316 3317 3318 3319 3320 3321 3322 3323 3324 3325 3326 3327 3328 3329 3330 3331 3332 3333 3334 3335 3336 3337 3338 3339 3340 3341 3342 3343 3344 3345 3346 3347 3348 3349 3350 3351 3352 3353 3354 3355 3356 3357 3358 3359 3360 3361 3362 3363 3364 3365 3366 3367 3368 3369 3370 3371 3372 3373 3374 3375 3376 3377 3378 3379 3380 3381 3382 3383 3384 3385 3386 3387 3388 3389 3390 3391 3392 3393 3394 3395 3396 3397 3398 3399 3400 3401 3402 3403 3404 3405 3406 3407 3408 3409 3410 3411 3412 3413 3414 3415 3416 3417 3418 3419 3420 3421 3422 3423 3424 3425 3426 3427 3428 3429 3430 3431 3432 3433 3434 3435 3436 3437 3438 3439 3440 3441 3442 3443 3444 3445 3446 3447 3448 3449 3450 3451 3452 3453 3454 3455 3456 3457 3458 3459 3460 3461 3462 3463 3464 3465 3466 3467 3468 3469 3470 3471 3472 3473 3474 3475 3476 3477 3478 3479 3480 3481 3482 3483 3484 3485 3486 3487 3488 3489 3490 3491 3492 3493 3494 3495 3496 3497 3498 3499 3500 3501 3502 3503 3504 3505 3506 3507 3508 3509 3510 3511 3512 3513 3514 3515 3516 3517 3518 3519 3520 3521 3522 3523 3524 3525 3526 3527 3528 3529 3530 3531 3532 3533 3534 3535 3536 3537 3538 3539 3540 3541 3542 3543 3544 3545 3546 3547 3548 3549 3550 3551 3552 3553 3554 3555 3556 3557 3558 3559 3560 3561 3562 3563 3564 3565 3566 3567 3568 3569 3570 3571 3572 3573 3574 3575 3576 3577 3578 3579 3580 3581 3582 3583 3584 3585 3586 3587 3588 3589 3590 3591 3592 3593 3594 3595 3596 3597 3598 3599 3600 3601 3602 3603 3604 3605 3606 3607 3608 3609 3610 3611 3612 3613 3614 3615 3616 3617 3618 3619 3620 3621 3622 3623 3624 3625 3626 3627 3628 3629 3630 3631 3632 3633 3634 3635 3636 3637 3638 3639 3640 3641 3642 3643 3644 3645 3646 3647 3648 3649 3650 3651 3652 3653 3654 3655 3656 3657 3658 3659 3660 3661 3662 3663 3664 3665 3666 3667 3668 3669 3670 3671 3672 3673 3674 3675 3676 3677 3678 3679 3680 3681 3682 3683 3684 3685 3686 3687 3688 3689 3690 3691 3692 3693 3694 3695 3696 3697 3698 3699 3700 3701 3702 3703 3704 3705 3706 3707 3708 3709 3710 3711 3712 3713 3714 3715 3716 3717 3718 3719 3720 3721 3722 3723 3724 3725 3726 3727 3728 3729 3730 3731 3732 3733 3734 3735 3736 3737 3738 3739 3740 3741 3742 3743 3744 3745 3746 3747 3748 3749 3750 3751 3752 3753 3754 3755 3756 3757 3758 3759 3760 3761 3762 3763 3764 3765 3766 3767 3768 3769 3770 3771 3772 3773 3774 3775 3776 3777 3778 3779 3780 3781 3782 3783 3784 3785 3786 3787 3788 3789 3790 3791 3792 3793 3794 3795 3796 3797 3798 3799 3800 3801 3802 3803 3804 3805 3806 3807 3808 3809 3810 3811 3812 3813 3814 3815 3816 3817 3818 3819 3820 3821 3822 3823 3824 3825 3826 3827 3828 3829 3830 3831 3832 3833 3834 3835 3836 3837 3838 3839 3840 3841 3842 3843 3844 3845 3846 3847 3848 3849 3850 3851 3852 3853 3854 3855 3856 3857 3858 3859 3860 3861 3862 3863 3864 3865 3866 3867 3868 3869 3870 3871 3872 3873 3874 3875 3876 3877 3878 3879 3880 3881 3882 3883 3884 3885 3886 3887 3888 3889 3890 3891 3892 3893 3894 3895 3896 3897 3898 3899 3900 3901 3902 3903 3904 3905 3906 3907 3908 3909 3910 3911 3912 3913 3914 3915 3916 3917 3918 3919 3920 3921 3922 3923 3924 3925 3926 3927 3928 3929 3930 3931 3932 3933 3934 3935 3936 3937 3938 3939 3940 3941 3942 3943 3944 3945 3946 3947 3948 3949 3950 3951 3952 3953 3954 3955 3956 3957 3958 3959 3960 3961 3962 3963 3964 3965 3966 3967 3968 3969 3970 3971 3972 3973 3974 3975 3976 3977 3978 3979 3980 3981 3982 3983 3984 3985 3986 3987 3988 3989 3990 3991 3992 3993 3994 3995 3996 3997 3998 3999 4000 4001 4002 4003 4004 4005 4006 4007 4008 4009 4010 4011 4012 4013 4014 4015 4016 4017 4018 4019 4020 4021 4022 4023 4024 4025 4026 4027 4028 4029 4030 4031 4032 4033 4034 4035 4036 4037 4038 4039 4040 4041 4042 4043 4044 4045 4046 4047 4048 4049 4050 4051 4052 4053 4054 4055 4056 4057 4058 4059 4060 4061 4062 4063 4064 4065 4066 4067 4068 4069 4070 4071 4072 4073 4074 4075 4076 4077 4078 4079 4080 4081 4082 4083 4084 4085 4086 4087 4088 4089 4090 4091 4092 4093 4094 4095 4096 4097 4098 4099 4100 4101 4102 4103 4104 4105 4106 4107 4108 4109 4110 4111 4112 4113 4114 4115 4116 4117 4118 4119 4120 4121 4122 4123 4124 4125 4126 4127 4128 4129 4130 4131 4132 4133 4134 4135 4136 4137 4138 4139 4140 4141 4142 4143 4144 4145 4146 4147 4148 4149 4150 4151 4152 4153 4154 4155 4156 4157 4158 4159 4160 4161 4162 4163 4164 4165 4166 4167 4168 4169 4170 4171 4172 4173 4174 4175 4176 4177 4178 4179 4180 4181 4182 4183 4184 4185 4186 4187 4188 4189 4190 4191 4192 4193 4194 4195 4196 4197 4198 4199 4200 4201 4202 4203 4204 4205 4206 4207 4208 4209 4210 4211 4212 4213 4214 4215 4216 4217 4218 4219 4220 4221 4222 4223 4224 4225 4226 4227 4228 4229 4230 4231 4232 4233 4234 4235 4236 4237 4238 4239 4240 4241 4242 4243 4244 4245 4246 4247 4248 4249 4250 4251 4252 4253 4254 4255 4256 4257 4258 4259 4260 4261 4262 4263 4264 4265 4266 4267 4268 4269 4270 4271 4272 4273 4274 4275 4276 4277 4278 4279 4280 4281 4282 4283 4284 4285 4286 4287 4288 4289 4290 4291 4292 4293 4294 4295 4296 4297 4298 4299 4300 4301 4302 4303 4304 4305 4306 4307 4308 4309 4310 4311 4312 4313 4314 4315 4316 4317 4318 4319 4320 4321 4322 4323 4324 4325 4326 4327 4328 4329 4330 4331 4332 4333 4334 4335 4336 4337 4338 4339 4340 4341 4342 4343 4344 4345 4346 4347 4348 4349 4350 4351 4352 4353 4354 4355 4356 4357 4358 4359 4360 4361 4362 4363 4364 4365 4366 4367 4368 4369 4370 4371 4372 4373 4374 4375 4376 4377 4378 4379 4380 4381 4382 4383 4384 4385 4386 4387 4388 4389 4390 4391 4392 4393 4394 4395 4396 4397 4398 4399 4400 4401 4402 4403 4404 4405 4406 4407 4408 4409 4410 4411 4412 4413 4414 4415 4416 4417 4418 4419 4420 4421 4422 4423 4424 4425 4426 4427 4428 4429 4430 4431 4432 4433 4434 4435 4436 4437 4438 4439 4440 4441 4442 4443 4444 4445 4446 4447 4448 4449 4450 4451 4452 4453 4454 4455 4456 4457 4458 4459 4460 4461 4462 4463 4464 4465 4466 4467 4468 4469 4470 4471 4472 4473 4474 4475 4476 4477 4478 4479 4480 4481 4482 4483 4484 4485 4486 4487 4488 4489 4490 4491 4492 4493 4494 4495 4496 4497 4498 4499 4500 4501 4502 4503 4504 4505 4506 4507 4508 4509 4510 4511 4512 4513 4514 4515 4516 4517 4518 4519 4520 4521 4522 4523 4524 4525 4526 4527 4528 4529 4530 4531 4532 4533 4534 4535 4536 4537 4538 4539 4540 4541 4542 4543 4544 4545 4546 4547 4548 4549 4550 4551 4552 4553 4554 4555 4556 4557 4558 4559 4560 4561 4562 4563 4564 4565 4566 4567 4568 4569 4570 4571 4572 4573 4574 4575 4576 4577 4578 4579 4580 4581 4582 4583 4584 4585 4586 4587 4588 4589 4590 4591 4592 4593 4594 4595 4596 4597 4598 4599 4600 4601 4602 4603 4604 4605 4606 4607 4608 4609 4610 4611 4612 4613 4614 4615 4616 4617 4618 4619 4620 4621 4622 4623 4624 4625 4626 4627 4628 4629 4630 4631 4632 4633 4634 4635 4636 4637 4638 4639 4640 4641 4642 4643 4644 4645 4646 4647 4648 4649 4650 4651 4652 4653 4654 4655 4656 4657 4658 4659 4660 4661 4662 4663 4664 4665 4666 4667 4668 4669 4670 4671 4672 4673 4674 4675 4676 4677 4678 4679 4680 4681 4682 4683 4684 4685 4686 4687 4688 4689 4690 4691 4692 4693 4694 4695 4696 4697 4698 4699 4700 4701 4702 4703 4704 4705 4706 4707 4708 4709 4710 4711 4712 4713 4714 4715 4716 4717 4718 4719 4720 4721 4722 4723 4724 4725 4726 4727 4728 4729 4730 4731 4732 4733 4734 4735 4736 4737 4738 4739 4740 4741 4742 4743 4744 4745 4746 4747 4748 4749 4750 4751 4752 4753 4754 4755 4756 4757 4758 4759 4760 4761 4762 4763 4764 4765 4766 4767 4768 4769 4770 4771 4772 4773 4774 4775 4776 4777 4778 4779 4780 4781 4782 4783 4784 4785 4786 4787 4788 4789 4790 4791 4792 4793 4794 4795 4796 4797 4798 4799 4800 4801 4802 4803 4804 4805 4806 4807 4808 4809 4810 4811 4812 4813 4814 4815 4816 4817 4818 4819 4820 4821 4822 4823 4824 4825 4826 4827 4828 4829 4830 4831 4832 4833 4834 4835 4836 4837 4838 4839 4840 4841 4842 4843 4844 4845 4846 4847 4848 4849 4850 4851 4852 4853 4854 4855 4856 4857 4858 4859 4860 4861 4862 4863 4864 4865 4866 4867 4868 4869 4870 4871 4872 4873 4874 4875 4876 4877 4878 4879 4880 4881 4882 4883 4884 4885 4886 4887 4888 4889 4890 4891 4892 4893 4894 4895 4896 4897 4898 4899 4900 4901 4902 4903 4904 4905 4906 4907 4908 4909 4910 4911 4912 4913 4914 4915 4916 4917 4918 4919 4920 4921 4922 4923 4924 4925 4926 4927 4928 4929 4930 4931 4932 4933 4934 4935 4936 4937 4938 4939 4940 4941 4942 4943 4944 4945 4946 4947 4948 4949 4950 4951 4952 4953 4954 4955 4956 4957 4958 4959 4960 4961 4962 4963 4964 4965 4966 4967 4968 4969 4970 4971 4972 4973 4974 4975 4976 4977 4978 4979 4980 4981 4982 4983 4984 4985 4986 4987 4988 4989 4990 4991 4992 4993 4994 4995 4996 4997 4998 4999 5000 5001 5002 5003 5004 5005 5006 5007 5008 5009 5010 5011 5012 5013 5014 5015 5016 5017 5018 5019 5020 5021 5022 5023 5024 5025 5026 5027 5028 5029 5030 5031 5032 5033 5034 5035 5036 5037 5038 5039 5040 5041 5042 5043 5044 5045 5046 5047 5048 5049 5050 5051 5052 5053 5054 5055 5056 5057 5058 5059 5060 5061 5062 5063 5064 5065 5066 5067 5068 5069 5070 5071 5072 5073 5074 5075 5076 5077 5078 5079 5080 5081 5082 5083 5084 5085 5086 5087 5088 5089 5090 5091 5092 5093 5094 5095 5096 5097 5098 5099 5100 5101 5102 5103 5104 5105 5106 5107 5108 5109 5110 5111 5112 5113 5114 5115 5116 5117 5118 5119 5120 5121 5122 5123 5124 5125 5126 5127 5128 5129 5130 5131 5132 5133 5134 5135 5136 5137 5138 5139 5140 5141 5142 5143 5144 5145 5146 5147 5148 5149 5150 5151 5152 5153 5154 5155 5156 5157 5158 5159 5160 5161 5162 5163 5164 5165 5166 5167 5168 5169 5170 5171 5172 5173 5174 5175 5176 5177 5178 5179 5180 5181 5182 5183 5184 5185 5186 5187 5188 5189 5190 5191 5192 5193 5194 5195 5196 5197 5198 5199 5200 5201 5202 5203 5204 5205 5206 5207 5208 5209 5210 5211 5212 5213 5214 5215 5216 5217 5218 5219 5220 5221 5222 5223 5224 5225 5226 5227 5228 5229 5230 5231 5232 5233 5234 5235 5236 5237 5238 5239 5240 5241 5242 5243 5244 5245 5246 5247 5248 5249 5250 5251 5252 5253 5254 5255 5256 5257 5258 5259 5260 5261 5262 5263 5264 5265 5266 5267 5268 5269 5270 5271 5272 5273 5274 5275 5276 5277 5278 5279 5280 5281 5282 5283 5284 5285 5286 5287 5288 5289 5290 5291 5292 5293 5294 5295 5296 5297 5298 5299 5300 5301 5302 5303 5304 5305 5306 5307 5308 5309 5310 5311 5312 5313 5314 5315 5316 5317 5318 5319 5320 5321 5322 5323 5324 5325 5326 5327 5328 5329 5330 5331 5332 5333 5334 5335 5336 5337 5338 5339 5340 5341 5342 5343 5344 5345 5346 5347 5348 5349 5350 5351 5352 5353 5354 5355 5356 5357 5358 5359 5360 5361 5362 5363 5364 5365 5366 5367 5368 5369 5370 5371 5372 5373 5374 5375 5376 5377 5378 5379 5380 5381 5382 5383 5384 5385 5386 5387 5388 5389 5390 5391 5392 5393 5394 5395 5396 5397 5398 5399 5400 5401 5402 5403 5404 5405 5406 5407 5408 5409 5410 5411 5412 5413 5414 5415 5416 5417 5418 5419 5420 5421 5422 5423 5424 5425 5426 5427 5428 5429 5430 5431 5432 5433 5434 5435 5436 5437 5438 5439 5440 5441 5442 5443 5444 5445 5446 5447 5448 5449 5450 5451 5452 5453 5454 5455 5456 5457 5458 5459 5460 5461 5462 5463 5464 5465 5466 5467 5468 5469 5470 5471 5472 5473 5474 5475 5476 5477 5478 5479 5480 5481 5482 5483 5484 5485 5486 5487 5488 5489 5490 5491 5492 5493 5494 5495 5496 5497 5498 5499 5500 5501 5502 5503 5504 5505 5506 5507 5508 5509 5510 5511 5512 5513 5514 5515 5516 5517 5518 5519 5520 5521 5522 5523 5524 5525 5526 5527 5528 5529 5530 5531 5532 5533 5534 5535 5536 5537 5538 5539 5540 5541 5542 5543 5544 5545 5546 5547 5548 5549 5550 5551 5552 5553 5554 5555 5556 5557 5558 5559 5560 5561 5562 5563 5564 5565 5566 5567 5568 5569 5570 5571 5572 5573 5574 5575 5576 5577 5578 5579 5580 5581 5582 5583 5584 5585 5586 5587 5588 5589 5590 5591 5592 5593 5594 5595 5596 5597 5598 5599 5600 5601 5602 5603 5604 5605 5606 5607 5608 5609 5610 5611 5612 5613 5614 5615 5616 5617 5618 5619 5620 5621 5622 5623 5624 5625 5626 5627 5628 5629 5630 5631 5632 5633 5634 5635 5636 5637 5638 5639 5640 5641 5642 5643 5644 5645 5646 5647 5648 5649 5650 5651 5652 5653 5654 5655 5656 5657 5658 5659 5660 5661 5662 5663 5664 5665 5666 5667 5668 5669 5670 5671 5672 5673 5674 5675 5676 5677 5678 5679 5680 5681 5682 5683 5684 5685 5686 5687 5688 5689 5690 5691 5692 5693 5694 5695 5696 5697 5698 5699 5700 5701 5702 5703 5704 5705 5706 5707 5708 5709 5710 5711 5712 5713 5714 5715 5716 5717 5718 5719 5720 5721 5722 5723 5724 5725 5726 5727 5728 5729 5730 5731 5732 5733 5734 5735 5736 5737 5738 5739 5740 5741 5742 5743 5744 5745 5746 5747 5748 5749 5750 5751 5752 5753 5754 5755 5756 5757 5758 5759 5760 5761 5762 5763 5764 5765 5766 5767 5768 5769 5770 5771 5772 5773 5774 5775 5776 5777 5778 5779 5780 5781 5782 5783 5784 5785 5786 5787 5788 5789 5790 5791 5792 5793 5794 5795 5796 5797 5798 5799 5800 5801 5802 5803 5804 5805 5806 5807 5808 5809 5810 5811 5812 5813 5814 5815 5816 5817 5818 5819 5820 5821 5822 5823 5824 5825 5826 5827 5828 5829 5830 5831 5832 5833 5834 5835 5836 5837 5838 5839 5840 5841 5842 5843 5844 5845 5846 5847 5848 5849 5850 5851 5852 5853 5854 5855 5856 5857 5858 5859 5860 5861 5862 5863 5864 5865 5866 5867 5868 5869 5870 5871 5872 5873 5874 5875 5876 5877 5878 5879 5880 5881 5882 5883 5884 5885 5886 5887 5888 5889 5890 5891 5892 5893 5894 5895 5896 5897 5898 5899 5900 5901 5902 5903 5904 5905 5906 5907 5908 5909 5910 5911 5912 5913 5914 5915 5916 5917 5918 5919 5920 5921 5922 5923 5924 5925 5926 5927 5928 5929 5930 5931 5932 5933 5934 5935 5936 5937 5938 5939 5940 5941 5942 5943 5944 5945 5946 5947 5948 5949 5950 5951 5952 5953 5954 5955 5956 5957 5958 5959 5960 5961 5962 5963 5964 5965 5966 5967 5968 5969 5970 5971 5972 5973 5974 5975 5976 5977 5978 5979 5980 5981 5982 5983 5984 5985 5986 5987 5988 5989 5990 5991 5992 5993 5994 5995 5996 5997 5998 5999 6000 6001 6002 6003 6004 6005 6006 6007 6008 6009 6010 6011 6012 6013 6014 6015 6016 6017 6018 6019 6020 6021 6022 6023 6024 6025 6026 6027 6028 6029 6030 6031 6032 6033 6034 6035 6036 6037 6038 6039 6040 6041 6042 6043 6044 6045 6046 6047 6048 6049 6050 6051 6052 6053 6054 6055 6056 6057 6058 6059 6060 6061 6062 6063 6064 6065 6066 6067 6068 6069 6070 6071 6072 6073 6074 6075 6076 6077 6078 6079 6080 6081 6082 6083 6084 6085 6086 6087 6088 6089 6090 6091 6092 6093 6094 6095 6096 6097 6098 6099 6100 6101 6102 6103 6104 6105 6106 6107 6108 6109 6110 6111 6112 6113 6114 6115 6116 6117 6118 6119 6120 6121 6122 6123 6124 6125 6126 6127 6128 6129 6130 6131 6132 6133 6134 6135 6136 6137 6138 6139 6140 6141 6142 6143 6144 6145 6146 6147 6148 6149 6150 6151 6152 6153 6154 6155 6156 6157 6158 6159 6160 6161 6162 6163 6164 6165 6166 6167 6168 6169 6170 6171 6172 6173 6174 6175 6176 6177 6178 6179 6180 6181 6182 6183 6184 6185 6186 6187 6188 6189 6190 6191 6192 6193 6194 6195 6196 6197 6198 6199 6200 6201 6202 6203 6204 6205 6206 6207 6208 6209 6210 6211 6212 6213 6214 6215 6216 6217 6218 6219 6220 6221 6222 6223 6224 6225 6226 6227 6228 6229 6230 6231 6232 6233 6234 6235 6236 6237 6238 6239 6240 6241 6242 6243 6244 6245 6246 6247 6248 6249 6250 6251 6252 6253 6254 6255 6256 6257 6258 6259 6260 6261 6262 6263 6264 6265 6266 6267 6268 6269 6270 6271 6272 6273 6274 6275 6276 6277 6278 6279 6280 6281 6282 6283 6284 6285 6286 6287 6288 6289 6290 6291 6292 6293 6294 6295 6296 6297 6298 6299 6300 6301 6302 6303 6304 6305 6306 6307 6308 6309 6310 6311 6312 6313 6314 6315 6316 6317 6318 6319 6320 6321 6322 6323 6324 6325 6326 6327 6328 6329 6330 6331 6332 6333 6334 6335 6336 6337 6338 6339 6340 6341 6342 6343 6344 6345 6346 6347 6348 6349 6350 6351 6352 6353 6354 6355 6356 6357 6358 6359 6360 6361 6362 6363 6364 6365 6366 6367 6368 6369 6370 6371 6372 6373 6374 6375 6376 6377 6378 6379 6380 6381 6382 6383 6384 6385 6386 6387 6388 6389 6390 6391 6392 6393 6394 6395 6396 6397 6398 6399 6400 6401 6402 6403 6404 6405 6406 6407 6408 6409 6410 6411 6412 6413 6414 6415 6416 6417 6418 6419 6420 6421 6422 6423 6424 6425 6426 6427 6428 6429 6430 6431 6432 6433 6434 6435 6436 6437 6438 6439 6440 6441 6442 6443 6444 6445 6446 6447 6448 6449 6450 6451 6452 6453 6454 6455 6456 6457 6458 6459 6460 6461 6462 6463 6464 6465 6466 6467 6468 6469 6470 6471 6472 6473 6474 6475 6476 6477 6478 6479 6480 6481 6482 6483 6484 6485 6486 6487 6488 6489 6490 6491 6492 6493 6494 6495 6496 6497 6498 6499 6500 6501 6502 6503 6504 6505 6506 6507 6508 6509 6510 6511 6512 6513 6514 6515 6516 6517 6518 6519 6520 6521 6522 6523 6524 6525 6526 6527 6528 6529 6530 6531 6532 6533 6534 6535 6536 6537 6538 6539 6540 6541 6542 6543 6544 6545 6546 6547 6548 6549 6550 6551 6552 6553 6554 6555 6556 6557 6558 6559 6560 6561 6562 6563 6564 6565 6566 6567 6568 6569 6570 6571 6572 6573 6574 6575 6576 6577 6578 6579 6580 6581 6582 6583 6584 6585 6586 6587 6588 6589 6590 6591 6592 6593 6594 6595 6596 6597 6598 6599 6600 6601 6602 6603 6604 6605 6606 6607 6608 6609 6610 6611 6612 6613 6614 6615 6616 6617 6618 6619 6620 6621 6622 6623 6624 6625 6626 6627 6628 6629 6630 6631 6632 6633 6634 6635 6636 6637 6638 6639 6640 6641 6642 6643 6644 6645 6646 6647 6648 6649 6650 6651 6652 6653 6654 6655 6656 6657 6658 6659 6660 6661 6662 6663 6664 6665 6666 6667 6668 6669 6670 6671 6672 6673 6674 6675 6676 6677 6678 6679 6680 6681 6682 6683 6684 6685 6686 6687 6688 6689 6690 6691 6692 6693 6694 6695 6696 6697 6698 6699 6700 6701 6702 6703 6704 6705 6706 6707 6708 6709 6710 6711 6712 6713 6714 6715 6716 6717 6718 6719 6720 6721 6722 6723 6724 6725 6726 6727 6728 6729 6730 6731 6732 6733 6734 6735 6736 6737 6738 6739 6740 6741 6742 6743 6744 6745 6746 6747 6748 6749 6750 6751 6752 6753 6754 6755 6756 6757 6758 6759 6760 6761 6762 6763 6764 6765 6766 6767 6768 6769 6770 6771 6772 6773 6774 6775 6776 6777 6778 6779 6780 6781 6782 6783 6784 6785 6786 6787 6788 6789 6790 6791 6792 6793 6794 6795 6796 6797 6798 6799 6800 6801 6802 6803 6804 6805 6806 6807 6808 6809 6810 6811 6812 6813 6814 6815 6816 6817 6818 6819 6820 6821 6822 6823 6824 6825 6826 6827 6828 6829 6830 6831 6832 6833 6834 6835 6836 6837 6838 6839 6840 6841 6842 6843 6844 6845 6846 6847 6848 6849 6850 6851 6852 6853 6854 6855 6856 6857 6858 6859 6860 6861 6862 6863 6864 6865 6866 6867 6868 6869 6870 6871 6872 6873 6874 6875 6876 6877 6878 6879 6880 6881 6882 6883 6884 6885 6886 6887 6888 6889 6890 6891 6892 6893 6894 6895 6896 6897 6898 6899 6900 6901 6902 6903 6904 6905 6906 6907 6908 6909 6910 6911 6912 6913 6914 6915 6916 6917 6918 6919 6920 6921 6922 6923 6924 6925 6926 6927 6928 6929 6930 6931 6932 6933 6934 6935 6936 6937 6938 6939 6940 6941 6942 6943 6944 6945 6946 6947 6948 6949 6950 6951 6952 6953 6954 6955 6956 6957 6958 6959 6960 6961 6962 6963 6964 6965 6966 6967 6968 6969 6970 6971 6972 6973 6974 6975 6976 6977 6978 6979 6980 6981 6982 6983 6984 6985 6986 6987 6988 6989 6990 6991 6992 6993 6994 6995 6996 6997 6998 6999 7000 7001 7002 7003 7004 7005 7006 7007 7008 7009 7010 7011 7012 7013 7014 7015 7016 7017 7018 7019 7020 7021 7022 7023 7024 7025 7026 7027 7028 7029 7030 7031 7032 7033 7034 7035 7036 7037 7038 7039 7040 7041 7042 7043 7044 7045 7046 7047 7048 7049 7050 7051 7052 7053 7054 7055 7056 7057 7058 7059 7060 7061 7062 7063 7064 7065 7066 7067 7068 7069 7070 7071 7072 7073 7074 7075 7076 7077 7078 7079 7080 7081 7082 7083 7084 7085 7086 7087 7088 7089 7090 7091 7092 7093 7094 7095 7096 7097 7098 7099 7100 7101 7102 7103 7104 7105 7106 7107 7108 7109 7110 7111 7112 7113 7114 7115 7116 7117 7118 7119 7120 7121 7122 7123 7124 7125 7126 7127 7128 7129 7130 7131 7132 7133 7134 7135 7136 7137 7138 7139 7140 7141 7142 7143 7144 7145 7146 7147 7148 7149 7150 7151 7152 7153 7154 7155 7156 7157 7158 7159 7160 7161 7162 7163 7164 7165 7166 7167 7168 7169 7170 7171 7172 7173 7174 7175 7176 7177 7178 7179 7180 7181 7182 7183 7184 7185 7186 7187 7188 7189 7190 7191 7192 7193 7194 7195 7196 7197 7198 7199 7200 7201 7202 7203 7204 7205 7206 7207 7208 7209 7210 7211 7212 7213 7214 7215 7216 7217 7218 7219 7220 7221 7222 7223 7224 7225 7226 7227 7228 7229 7230 7231 7232 7233 7234 7235 7236 7237 7238 7239 7240 7241 7242 7243 7244 7245 7246 7247 7248 7249 7250 7251 7252 7253 7254 7255 7256 7257 7258 7259 7260 7261 7262 7263 7264 7265 7266 7267 7268 7269 7270 7271 7272 7273 7274 7275 7276 7277 7278 7279 7280 7281 7282 7283 7284 7285 7286 7287 7288 7289 7290 7291 7292 7293 7294 7295 7296 7297 7298 7299 7300 7301 7302 7303 7304 7305 7306 7307 7308 7309 7310 7311 7312 7313 7314 7315 7316 7317 7318 7319 7320 7321 7322 7323 7324 7325 7326 7327 7328 7329 7330 7331 7332 7333 7334 7335 7336 7337 7338 7339 7340 7341 7342 7343 7344 7345 7346 7347 7348 7349 7350 7351 7352 7353 7354 7355 7356 7357 7358 7359 7360 7361 7362 7363 7364 7365 7366 7367 7368 7369 7370 7371 7372 7373 7374 7375 7376 7377 7378 7379 7380 7381 7382 7383 7384 7385 7386 7387 7388 7389 7390 7391 7392 7393 7394 7395 7396 7397 7398 7399 7400 7401 7402 7403 7404 7405 7406 7407 7408 7409 7410 7411 7412 7413 7414 7415 7416 7417 7418 7419 7420 7421 7422 7423 7424 7425 7426 7427 7428 7429 7430 7431 7432 7433 7434 7435 7436 7437 7438 7439 7440 7441 7442 7443 7444 7445 7446 7447 7448 7449 7450 7451 7452 7453 7454 7455 7456 7457 7458 7459 7460 7461 7462 7463 7464 7465 7466 7467 7468 7469 7470 7471 7472 7473 7474 7475 7476 7477 7478 7479 7480 7481 7482 7483 7484 7485 7486 7487 7488 7489 7490 7491 7492 7493 7494 7495 7496 7497 7498 7499 7500 7501 7502 7503 7504 7505 7506 7507 7508 7509 7510 7511 7512 7513 7514 7515 7516 7517 7518 7519 7520 7521 7522 7523 7524 7525 7526 7527 7528 7529 7530 7531 7532 7533 7534 7535 7536 7537 7538 7539 7540 7541 7542 7543 7544 7545 7546 7547 7548 7549 7550 7551 7552 7553 7554 7555 7556 7557 7558 7559 7560 7561 7562 7563 7564 7565 7566 7567 7568 7569 7570 7571 7572 7573 7574 7575 7576 7577 7578 7579 7580 7581 7582 7583 7584 7585 7586 7587 7588 7589 7590 7591 7592 7593 7594 7595 7596 7597 7598 7599 7600 7601 7602 7603 7604 7605 7606 7607 7608 7609 7610 7611 7612 7613 7614 7615 7616 7617 7618 7619 7620 7621 7622 7623 7624 7625 7626 7627 7628 7629 7630 7631 7632 7633 7634 7635 7636 7637 7638 7639 7640 7641 7642 7643 7644 7645 7646 7647 7648 7649 7650 7651 7652 7653 7654 7655 7656 7657 7658 7659 7660 7661 7662 7663 7664 7665 7666 7667 7668 7669 7670 7671 7672 7673 7674 7675 7676 7677 7678 7679 7680 7681 7682 7683 7684 7685 7686 7687 7688 7689 7690 7691 7692 7693 7694 7695 7696 7697 7698 7699 7700 7701 7702 7703 7704 7705 7706 7707 7708 7709 7710 7711 7712 7713 7714 7715 7716 7717 7718 7719 7720 7721 7722 7723 7724 7725 7726 7727 7728 7729 7730 7731 7732 7733 7734 7735 7736 7737 7738 7739 7740 7741 7742 7743 7744 7745 7746 7747 7748 7749 7750 7751 7752 7753 7754 7755 7756 7757 7758 7759 7760 7761 7762 7763 7764 7765 7766 7767 7768 7769 7770 7771 7772 7773 7774 7775 7776 7777 7778 7779 7780 7781 7782 7783 7784 7785 7786 7787 7788 7789 7790 7791 7792 7793 7794 7795 7796 7797 7798 7799 7800 7801 7802 7803 7804 7805 7806 7807 7808 7809 7810 7811 7812 7813 7814 7815 7816 7817 7818 7819 7820 7821 7822 7823 7824 7825 7826 7827 7828 7829 7830 7831 7832 7833 7834 7835 7836 7837 7838 7839 7840 7841 7842 7843 7844 7845 7846 7847 7848 7849 7850 7851 7852 7853 7854 7855 7856 7857 7858 7859 7860 7861 7862 7863 7864 7865 7866 7867 7868 7869 7870 7871 7872 7873 7874 7875 7876 7877 7878 7879 7880 7881 7882 7883 7884 7885 7886 7887 7888 7889 7890 7891 7892 7893 7894 7895 7896 7897 7898 7899 7900 7901 7902 7903 7904 7905 7906 7907 7908 7909 7910 7911 7912 7913 7914 7915 7916 7917 7918 7919 7920 7921 7922 7923 7924 7925 7926 7927 7928 7929 7930 7931 7932 7933 7934 7935 7936 7937 7938 7939 7940 7941 7942 7943 7944 7945 7946 7947 7948 7949 7950 7951 7952 7953 7954 7955 7956 7957 7958 7959 7960 7961 7962 7963 7964 7965 7966 7967 7968 7969 7970 7971 7972 7973 7974 7975 7976 7977 7978 7979 7980 7981 7982 7983 7984 7985 7986 7987 7988 7989 7990 7991 7992 7993 7994 7995 7996 7997 7998 7999 8000 8001 8002 8003 8004 8005 8006 8007 8008 8009 8010 8011 8012 8013 8014 8015 8016 8017 8018 8019 8020 8021 8022 8023 8024 8025 8026 8027 8028 8029 8030 8031 8032 8033 8034 8035 8036 8037 8038 8039 8040 8041 8042 8043 8044 8045 8046 8047 8048 8049 8050 8051 8052 8053 8054 8055 8056 8057 8058 8059 8060 8061 8062 8063 8064 8065 8066 8067 8068 8069 8070 8071 8072 8073 8074 8075 8076 8077 8078 8079 8080 8081 8082 8083 8084 8085 8086 8087 8088 8089 8090 8091 8092 8093 8094 8095 8096 8097 8098 8099 8100 8101 8102 8103 8104 8105 8106 8107 8108 8109 8110 8111 8112 8113 8114 8115 8116 8117 8118 8119 8120 8121 8122 8123 8124 8125 8126 8127 8128 8129 8130 8131 8132 8133 8134 8135 8136 8137 8138 8139 8140 8141 8142 8143 8144 8145 8146 8147 8148 8149 8150 8151 8152 8153 8154 8155 8156 8157 8158 8159 8160 8161 8162 8163 8164 8165 8166 8167 8168 8169 8170 8171 8172 8173 8174 8175 8176 8177 8178 8179 8180 8181 8182 8183 8184 8185 8186 8187 8188 8189 8190 8191 8192 8193 8194 8195 8196 8197 8198 8199 8200 8201 8202 8203 8204 8205 8206 8207 8208 8209 8210 8211 8212 8213 8214 8215 8216 8217 8218 8219 8220 8221 8222 8223 8224 8225 8226 8227 8228 8229 8230 8231 8232 8233 8234 8235 8236 8237 8238 8239 8240 8241 8242 8243 8244 8245 8246 8247 8248 8249 8250 8251 8252 8253 8254 8255 8256 8257 8258 8259 8260 8261 8262 8263 8264 8265 8266 8267 8268 8269 8270 8271 8272 8273 8274 8275 8276 8277 8278 8279 8280 8281 8282 8283 8284 8285 8286 8287 8288 8289 8290 8291 8292 8293 8294 8295 8296 8297 8298 8299 8300 8301 8302 8303 8304 8305 8306 8307 8308 8309 8310 8311 8312 8313 8314 8315 8316 8317 8318 8319 8320 8321 8322 8323 8324 8325 8326 8327 8328 8329 8330 8331 8332 8333 8334 8335 8336 8337 8338 8339 8340 8341 8342 8343 8344 8345 8346 8347 8348 8349 8350 8351 8352 8353 8354 8355 8356 8357 8358 8359 8360 8361 8362 8363 8364 8365 8366 8367 8368 8369 8370 8371 8372 8373 8374 8375 8376 8377 8378 8379 8380 8381 8382 8383 8384 8385 8386 8387 8388 8389 8390 8391 8392 8393 8394 8395 8396 8397 8398 8399 8400 8401 8402 8403 8404 8405 8406 8407 8408 8409 8410 8411 8412 8413 8414 8415 8416 8417 8418 8419 8420 8421 8422 8423 8424 8425 8426 8427 8428 8429 8430 8431 8432 8433 8434 8435 8436 8437 8438 8439 8440 8441 8442 8443 8444 8445 8446 8447 8448 8449 8450 8451 8452 8453 8454 8455 8456 8457 8458 8459 8460 8461 8462 8463 8464 8465 8466 8467 8468 8469 8470 8471 8472 8473 8474 8475 8476 8477 8478 8479 8480 8481 8482 8483 8484 8485 8486 8487 8488 8489 8490 8491 8492 8493 8494 8495 8496 8497 8498 8499 8500 8501 8502 8503 8504 8505 8506 8507 8508 8509 8510 8511 8512 8513 8514 8515 8516 8517 8518 8519 8520 8521 8522 8523 8524 8525 8526 8527 8528 8529 8530 8531 8532 8533 8534 8535 8536 8537 8538 8539 8540 8541 8542 8543 8544 8545 8546 8547 8548 8549 8550 8551 8552 8553 8554 8555 8556 8557 8558 8559 8560 8561 8562 8563 8564 8565 8566 8567 8568 8569 8570 8571 8572 8573 8574 8575 8576 8577 8578 8579 8580 8581 8582 8583 8584 8585 8586 8587 8588 8589 8590 8591 8592 8593 8594 8595 8596 8597 8598 8599 8600 8601 8602 8603 8604 8605 8606 8607 8608 8609 8610 8611 8612 8613 8614 8615 8616 8617 8618 8619 8620 8621 8622 8623 8624 8625 8626 8627 8628 8629 8630 8631 8632 8633 8634 8635 8636 8637 8638 8639 8640 8641 8642 8643 8644 8645 8646 8647 8648 8649 8650 8651 8652 8653 8654 8655 8656 8657 8658 8659 8660 8661 8662 8663 8664 8665 8666 8667 8668 8669 8670 8671 8672 8673 8674 8675 8676 8677 8678 8679 8680 8681 8682 8683 8684 8685 8686 8687 8688 8689 8690 8691 8692 8693 8694 8695 8696 8697 8698 8699 8700 8701 8702 8703 8704 8705 8706 8707 8708 8709 8710 8711 8712 8713 8714 8715 8716 8717 8718 8719 8720 8721 8722 8723 8724 8725 8726 8727 8728 8729 8730 8731 8732 8733 8734 8735 8736 8737 8738 8739 8740 8741 8742 8743 8744 8745 8746 8747 8748 8749 8750 8751 8752 8753 8754 8755 8756 8757 8758 8759 8760 8761 8762 8763 8764 8765 8766 8767 8768 8769 8770 8771 8772 8773 8774 8775 8776 8777 8778 8779 8780 8781 8782 8783 8784 8785 8786 8787 8788 8789 8790 8791 8792 8793 8794 8795 8796 8797 8798 8799 8800 8801 8802 8803 8804 8805 8806 8807 8808 8809 8810 8811 8812 8813 8814 8815 8816 8817 8818 8819 8820 8821 8822 8823 8824 8825 8826 8827 8828 8829 8830 8831 8832 8833 8834 8835 8836 8837 8838 8839 8840 8841 8842 8843 8844 8845 8846 8847 8848 8849 8850 8851 8852 8853 8854 8855 8856 8857 8858 8859 8860 8861 8862 8863 8864 8865 8866 8867 8868 8869 8870 8871 8872 8873 8874 8875 8876 8877 8878 8879 8880 8881 8882 8883 8884 8885 8886 8887 8888 8889 8890 8891 8892 8893 8894 8895 8896 8897 8898 8899 8900 8901 8902 8903 8904 8905 8906 8907 8908 8909 8910 8911 8912 8913 8914 8915 8916 8917 8918 8919 8920 8921 8922 8923 8924 8925 8926 8927 8928 8929 8930 8931 8932 8933 8934 8935 8936 8937 8938 8939 8940 8941 8942 8943 8944 8945 8946 8947 8948 8949 8950 8951 8952 8953 8954 8955 8956 8957 8958 8959 8960 8961 8962 8963 8964 8965 8966 8967 8968 8969 8970 8971 8972 8973 8974 8975 8976 8977 8978 8979 8980 8981 8982 8983 8984 8985 8986 8987 8988 8989 8990 8991 8992 8993 8994 8995 8996 8997 8998 8999 9000 9001 9002 9003 9004 9005 9006 9007 9008 9009 9010 9011 9012 9013 9014 9015 9016 9017 9018 9019 9020 9021 9022 9023 9024 9025 9026 9027 9028 9029 9030 9031 9032 9033 9034 9035 9036 9037 9038 9039 9040 9041 9042 9043 9044 9045 9046 9047 9048 9049 9050 9051 9052 9053 9054 9055 9056 9057 9058 9059 9060 9061 9062 9063 9064 9065 9066 9067 9068 9069 9070 9071 9072 9073 9074 9075 9076 9077 9078 9079 9080 9081 9082 9083 9084 9085 9086 9087 9088 9089 9090 9091 9092 9093 9094 9095 9096 9097 9098 9099 9100 9101 9102 9103 9104 9105 9106 9107 9108 9109 9110 9111 9112 9113 9114 9115 9116 9117 9118 9119 9120 9121 9122 9123 9124 9125 9126 9127 9128 9129 9130 9131 9132 9133 9134 9135 9136 9137 9138 9139 9140 9141 9142 9143 9144 9145 9146 9147 9148 9149 9150 9151 9152 9153 9154 9155 9156 9157 9158 9159 9160 9161 9162 9163 9164 9165 9166 9167 9168 9169 9170 9171 9172 9173 9174 9175 9176 9177 9178 9179 9180 9181 9182 9183 9184 9185 9186 9187 9188 9189 9190 9191 9192 9193 9194 9195 9196 9197 9198 9199 9200 9201 9202 9203 9204 9205 9206 9207 9208 9209 9210 9211 9212 9213 9214 9215 9216 9217 9218 9219 9220 9221 9222 9223 9224 9225 9226 9227 9228 9229 9230 9231 9232 9233 9234 9235 9236 9237 9238 9239 9240 9241 9242 9243 9244 9245 9246 9247 9248 9249 9250 9251 9252 9253 9254 9255 9256 9257 9258 9259 9260 9261 9262 9263 9264 9265 9266 9267 9268 9269 9270 9271 9272 9273 9274 9275 9276 9277 9278 9279 9280 9281 9282 9283 9284 9285 9286 9287 9288 9289 9290 9291 9292 9293 9294 9295 9296 9297 9298 9299 9300 9301 9302 9303 9304 9305 9306 9307 9308 9309 9310 9311 9312 9313 9314 9315 9316 9317 9318 9319 9320 9321 9322 9323 9324 9325 9326 9327 9328 9329 9330 9331 9332 9333 9334 9335 9336 9337 9338 9339 9340 9341 9342 9343 9344 9345 9346 9347 9348 9349 9350 9351 9352 9353 9354 9355 9356 9357 9358 9359 9360 9361 9362 9363 9364 9365 9366 9367 9368 9369 9370 9371 9372 9373 9374 9375 9376 9377 9378 9379 9380 9381 9382 9383 9384 9385 9386 9387 9388 9389 9390 9391 9392 9393 9394 9395 9396 9397 9398 9399 9400 9401 9402 9403 9404 9405 9406 9407 9408 9409 9410 9411 9412 9413 9414 9415 9416 9417 9418 9419 9420 9421 9422 9423 9424 9425 9426 9427 9428 9429 9430 9431 9432 9433 9434 9435 9436 9437 9438 9439 9440 9441 9442 9443 9444 9445 9446 9447 9448 9449 9450 9451 9452 9453 9454 9455 9456 9457 9458 9459 9460 9461 9462 9463 9464 9465 9466 9467 9468 9469 9470 9471 9472 9473 9474 9475 9476 9477 9478 9479 9480 9481 9482 9483 9484 9485 9486 9487 9488 9489 9490 9491 9492 9493 9494 9495 9496 9497 9498 9499 9500 9501 9502 9503 9504 9505 9506 9507 9508 9509 9510 9511 9512 9513 9514 9515 9516 9517 9518 9519 9520 9521 9522 9523 9524 9525 9526 9527 9528 9529 9530 9531 9532 9533 9534 9535 9536 9537 9538 9539 9540 9541 9542 9543 9544 9545 9546 9547 9548 9549 9550 9551 9552 9553 9554 9555 9556 9557 9558 9559 9560 9561 9562 9563 9564 9565 9566 9567 9568 9569 9570 9571 9572 9573 9574 9575 9576 9577 9578 9579 9580 9581 9582 9583 9584 9585 9586 9587 9588 9589 9590 9591 9592 9593 9594 9595 9596 9597 9598 9599 9600 9601 9602 9603 9604 9605 9606 9607 9608 9609 9610 9611 9612 9613 9614 9615 9616 9617 9618 9619 9620 9621 9622 9623 9624 9625 9626 9627 9628 9629 9630 9631 9632 9633 9634 9635 9636 9637 9638 9639 9640 9641 9642 9643 9644 9645 9646 9647 9648 9649 9650 9651 9652 9653 9654 9655 9656 9657 9658 9659 9660 9661 9662 9663 9664 9665 9666 9667 9668 9669 9670 9671 9672 9673 9674 9675 9676 9677 9678 9679 9680 9681 9682 9683 9684 9685 9686 9687 9688 9689 9690 9691 9692 9693 9694 9695 9696 9697 9698 9699 9700 9701 9702 9703 9704 9705 9706 9707 9708 9709 9710 9711 9712 9713 9714 9715 9716 9717 9718 9719 9720 9721 9722 9723 9724 9725 9726 9727 9728 9729 9730 9731 9732 9733 9734 9735 9736 9737 9738 9739 9740 9741 9742 9743 9744 9745 9746 9747 9748 9749 9750 9751 9752 9753 9754 9755 9756 9757 9758 9759 9760 9761 9762 9763 9764 9765 9766 9767 9768 9769 9770 9771 9772 9773 9774 9775 9776 9777 9778 9779 9780 9781 9782 9783 9784 9785 9786 9787 9788 9789 9790 9791 9792 9793 9794 9795 9796 9797 9798 9799 9800 9801 9802 9803 9804 9805 9806 9807 9808 9809 9810 9811 9812 9813 9814 9815 9816 9817 9818 9819 9820 9821 9822 9823 9824 9825 9826 9827 9828 9829 9830 9831 9832 9833 9834 9835 9836 9837 9838 9839 9840 9841 9842 9843 9844 9845 9846 9847 9848 9849 9850 9851 9852 9853 9854 9855 9856 9857 9858 9859 9860 9861 9862 9863 9864 9865 9866 9867 9868 9869 9870 9871 9872 9873 9874 9875 9876 9877 9878 9879 9880 9881 9882 9883 9884 9885 9886 9887 9888 9889 9890 9891 9892 9893 9894 9895 9896 9897 9898 9899 9900 9901 9902 9903 9904 9905 9906 9907 9908 9909 9910 9911 9912 9913 9914 9915 9916 9917 9918 9919 9920 9921 9922 9923 9924 9925 9926 9927 9928 9929 9930 9931 9932 9933 9934 9935 9936 9937 9938 9939 9940 9941 9942 9943 9944 9945 9946 9947 9948 9949 9950 9951 9952 9953 9954 9955 9956 9957 9958 9959 9960 9961 9962 9963 9964 9965 9966 9967 9968 9969 9970 9971 9972 9973 9974 9975 9976 9977 9978 9979 9980 9981 9982 9983 9984 9985 9986 9987 9988 9989 9990 9991 9992 9993 9994 9995 9996 9997 9998 9999 10000 10001 10002 10003 10004 10005 10006 10007 10008 10009 10010 10011 10012 10013 10014 10015 10016 10017 10018 10019 10020 10021 10022 10023 10024 10025 10026 10027 10028 10029 10030 10031 10032 10033 10034 10035 10036 10037 10038 10039 10040 10041 10042 10043 10044 10045 10046 10047 10048 10049 10050 10051 10052 10053 10054 10055 10056 10057 10058 10059 10060 10061 10062 10063 10064 10065 10066 10067 10068 10069 10070 10071 10072 10073 10074 10075 10076 10077 10078 10079 10080 10081 10082 10083 10084 10085 10086 10087 10088 10089 10090 10091 10092 10093 10094 10095 10096 10097 10098 10099 10100 10101 10102 10103 10104 10105 10106 10107 10108 10109 10110 10111 10112 10113 10114 10115 10116 10117 10118 10119 10120 10121 10122 10123 10124 10125 10126 10127 10128 10129 10130 10131 10132 10133 10134 10135 10136 10137 10138 10139 10140 10141 10142 10143 10144 10145 10146 10147 10148 10149 10150 10151 10152 10153 10154 10155 10156 10157 10158 10159 10160 10161 10162 10163 10164 10165 10166 10167 10168 10169 10170 10171 10172 10173 10174 10175 10176 10177 10178 10179 10180 10181 10182 10183 10184 10185 10186 10187 10188 10189 10190 10191 10192 10193 10194 10195 10196 10197 10198 10199 10200 10201 10202 10203 10204 10205 10206 10207 10208 10209 10210 10211 10212 10213 10214 10215 10216 10217 10218 10219 10220 10221 10222 10223 10224 10225 10226 10227 10228 10229 10230 10231 10232 10233 10234 10235 10236 10237 10238 10239 10240 10241 10242 10243 10244 10245 10246 10247 10248 10249 10250 10251 10252 10253 10254 10255 10256 10257 10258 10259 10260 10261 10262 10263 10264 10265 10266 10267 10268 10269 10270 10271 10272 10273 10274 10275 10276 10277 10278 10279 10280 10281 10282 10283 10284 10285 10286 10287 10288 10289 10290 10291 10292 10293 10294 10295 10296 10297 10298 10299 10300 10301 10302 10303 10304 10305 10306 10307 10308 10309 10310 10311 10312 10313 10314 10315 10316 10317 10318 10319 10320 10321 10322 10323 10324 10325 10326 10327 10328 10329 10330 10331 10332 10333 10334 10335 10336 10337 10338 10339 10340 10341 10342 10343 10344 10345 10346 10347 10348 10349 10350 10351 10352 10353 10354 10355 10356 10357 10358 10359 10360 10361 10362 10363 10364 10365 10366 10367 10368 10369 10370 10371 10372 10373 10374 10375 10376 10377 10378 10379 10380 10381 10382 10383 10384 10385 10386 10387 10388 10389 10390 10391 10392 10393 10394 10395 10396 10397 10398 10399 10400 10401 10402 10403 10404 10405 10406 10407 10408 10409 10410 10411 10412 10413 10414 10415 10416 10417 10418 10419 10420 10421 10422 10423 10424 10425 10426 10427 10428 10429 10430 10431 10432 10433 10434 10435 10436 10437 10438 10439 10440 10441 10442 10443 10444 10445 10446 10447 10448 10449 10450 10451 10452 10453 10454 10455 10456 10457 10458 10459 10460 10461 10462 10463 10464 10465 10466 10467 10468 10469 10470 10471 10472 10473 10474 10475 10476 10477 10478 10479 10480 10481 10482 10483 10484 10485 10486 10487 10488 10489 10490 10491 10492 10493 10494 10495 10496 10497 10498 10499 10500 10501 10502 10503 10504 10505 10506 10507 10508 10509 10510 10511 10512 10513 10514 10515 10516 10517 10518 10519 10520 10521 10522 10523 10524 10525 10526 10527 10528 10529 10530 10531 10532 10533 10534 10535 10536 10537 10538 10539 10540 10541 10542 10543 10544 10545 10546 10547 10548 10549 10550 10551 10552 10553 10554 10555 10556 10557 10558 10559 10560 10561 10562 10563 10564 10565 10566 10567 10568 10569 10570 10571 10572 10573 10574 10575 10576 10577 10578 10579 10580 10581 10582 10583 10584 10585 10586 10587 10588 10589 10590 10591 10592 10593 10594 10595 10596 10597 10598 10599 10600 10601 10602 10603 10604 10605 10606 10607 10608 10609 10610 10611 10612 10613 10614 10615 10616 10617 10618 10619 10620 10621 10622 10623 10624 10625 10626 10627 10628 10629 10630 10631 10632 10633 10634 10635 10636 10637 10638 10639 10640 10641 10642 10643 10644 10645 10646 10647 10648 10649 10650 10651 10652 10653 10654 10655 10656 10657 10658 10659 10660 10661 10662 10663 10664 10665 10666 10667 10668 10669 10670 10671 10672 10673 10674 10675 10676 10677 10678 10679 10680 10681 10682 10683 10684 10685 10686 10687 10688 10689 10690 10691 10692 10693 10694 10695 10696 10697 10698 10699 10700 10701 10702 10703 10704 10705 10706 10707 10708 10709 10710 10711 10712 10713 10714 10715 10716 10717 10718 10719 10720 10721 10722 10723 10724 10725 10726 10727 10728 10729 10730 10731 10732 10733 10734 10735 10736 10737 10738 10739 10740 10741 10742 10743 10744 10745 10746 10747 10748 10749 10750 10751 10752 10753 10754 10755 10756 10757 10758 10759 10760 10761 10762 10763 10764 10765 10766 10767 10768 10769 10770 10771 10772 10773 10774 10775 10776 10777 10778 10779 10780 10781 10782 10783 10784 10785 10786 10787 10788 10789 10790 10791 10792 10793 10794 10795 10796 10797 10798 10799 10800 10801 10802 10803 10804 10805 10806 10807 10808 10809 10810 10811 10812 10813 10814 10815 10816 10817 10818 10819 10820 10821 10822 10823 10824 10825 10826 10827 10828 10829 10830 10831 10832 10833 10834 10835 10836 10837 10838 10839 10840 10841 10842 10843 10844 10845 10846 10847 10848 10849 10850 10851 10852 10853 10854 10855 10856 10857 10858 10859 10860 10861 10862 10863 10864 10865 10866 10867 10868 10869 10870 10871 10872 10873 10874 10875 10876 10877 10878 10879 10880 10881 10882 10883 10884 10885 10886 10887 10888 10889 10890 10891 10892 10893 10894 10895 10896 10897 10898 10899 10900 10901 10902 10903 10904 10905 10906 10907 10908 10909 10910 10911 10912 10913 10914 10915 10916 10917 10918 10919 10920 10921 10922 10923 10924 10925 10926 10927 10928 10929 10930 10931 10932 10933 10934 10935 10936 10937 10938 10939 10940 10941 10942 10943 10944 10945 10946 10947 10948 10949 10950 10951 10952 10953 10954 10955 10956 10957 10958 10959 10960 10961 10962 10963 10964 10965 10966 10967 10968 10969 10970 10971 10972 10973 10974 10975 10976 10977 10978 10979 10980 10981 10982 10983 10984 10985 10986 10987 10988 10989 10990 10991 10992 10993 10994 10995 10996 10997 10998 10999 11000 11001 11002 11003 11004 11005 11006 11007 11008 11009 11010 11011 11012 11013 11014 11015 11016 11017 11018 11019 11020 11021 11022 11023 11024 11025 11026 11027 11028 11029 11030 11031 11032 11033 11034 11035 11036 11037 11038 11039 11040 11041 11042 11043 11044 11045 11046 11047 11048 11049 11050 11051 11052 11053 11054 11055 11056 11057 11058 11059 11060 11061 11062 11063 11064 11065 11066 11067 11068 11069 11070 11071 11072 11073 11074 11075 11076 11077 11078 11079 11080 11081 11082 11083 11084 11085 11086 11087 11088 11089 11090 11091 11092 11093 11094 11095 11096 11097 11098 11099 11100 11101 11102 11103 11104 11105 11106 11107 11108 11109 11110 11111 11112 11113 11114 11115 11116 11117 11118 11119 11120 11121 11122 11123 11124 11125 11126 11127 11128 11129 11130 11131 11132 11133 11134 11135 11136 11137 11138 11139 11140 11141 11142 11143 11144 11145 11146 11147 11148 11149 11150 11151 11152 11153 11154 11155 11156 11157 11158 11159 11160 11161 11162 11163 11164 11165 11166 11167 11168 11169 11170 11171 11172 11173 11174 11175 11176 11177 11178 11179 11180 11181 11182 11183 11184 11185 11186 11187 11188 11189 11190 11191 11192 11193 11194 11195 11196 11197 11198 11199 11200 11201 11202 11203 11204 11205 11206 11207 11208 11209 11210 11211 11212 11213 11214 11215 11216 11217 11218 11219 11220 11221 11222 11223 11224 11225 11226 11227 11228 11229 11230 11231 11232 11233 11234 11235 11236 11237 11238 11239 11240 11241 11242 11243 11244 11245 11246 11247 11248 11249 11250 11251 11252 11253 11254 11255 11256 11257 11258 11259 11260 11261 11262 11263 11264 11265 11266 11267 11268 11269 11270 11271 11272 11273 11274 11275 11276 11277 11278 11279 11280 11281 11282 11283 11284 11285 11286 11287 11288 11289 11290 11291 11292 11293 11294 11295 11296 11297 11298 11299 11300 11301 11302 11303 11304 11305 11306 11307 11308 11309 11310 11311 11312 11313 11314 11315 11316 11317 11318 11319 11320 11321 11322 11323 11324 11325 11326 11327 11328 11329 11330 11331 11332 11333 11334 11335 11336 11337 11338 11339 11340 11341 11342 11343 11344 11345 11346 11347 11348 11349 11350 11351 11352 11353 11354 11355 11356 11357 11358 11359 11360 11361 11362 11363 11364 11365 11366 11367 11368 11369 11370 11371 11372 11373 11374 11375 11376 11377 11378 11379 11380 11381 11382 11383 11384 11385 11386 11387 11388 11389 11390 11391 11392 11393 11394 11395 11396 11397 11398 11399 11400 11401 11402 11403 11404 11405 11406 11407 11408 11409 11410 11411 11412 11413 11414 11415 11416 11417 11418 11419 11420 11421 11422 11423 11424 11425 11426 11427 11428 11429 11430 11431 11432 11433 11434 11435 11436 11437 11438 11439 11440 11441 11442 11443 11444 11445 11446 11447 11448 11449 11450 11451 11452 11453 11454 11455 11456 11457 11458 11459 11460 11461 11462 11463 11464 11465 11466 11467 11468 11469 11470 11471 11472 11473 11474 11475 11476 11477 11478 11479 11480 11481 11482 11483 11484 11485 11486 11487 11488 11489 11490 11491 11492 11493 11494 11495 11496 11497 11498 11499 11500 11501 11502 11503 11504 11505 11506 11507 11508 11509 11510 11511 11512 11513 11514 11515 11516 11517 11518 11519 11520 11521 11522 11523 11524 11525 11526 11527 11528 11529 11530 11531 11532 11533 11534 11535 11536 11537 11538 11539 11540 11541 11542 11543 11544 11545 11546 11547 11548 11549 11550 11551 11552 11553 11554 11555 11556 11557 11558 11559 11560 11561 11562 11563 11564 11565 11566 11567 11568 11569 11570 11571 11572 11573 11574 11575 11576 11577 11578 11579 11580 11581 11582 11583 11584 11585 11586 11587 11588 11589 11590 11591 11592 11593 11594 11595 11596 11597 11598 11599 11600 11601 11602 11603 11604 11605 11606 11607 11608 11609 11610 11611 11612 11613 11614 11615 11616 11617 11618 11619 11620 11621 11622 11623 11624 11625 11626 11627 11628 11629 11630 11631 11632 11633 11634 11635 11636 11637 11638 11639 11640 11641 11642 11643 11644 11645 11646 11647 11648 11649 11650 11651 11652 11653 11654 11655 11656 11657 11658 11659 11660 11661 11662 11663 11664 11665 11666 11667 11668 11669 11670 11671 11672 11673 11674 11675 11676 11677 11678 11679 11680 11681 11682 11683 11684 11685 11686 11687 11688 11689 11690 11691 11692 11693 11694 11695 11696 11697 11698 11699 11700 11701 11702 11703 11704 11705 11706 11707 11708 11709 11710 11711 11712 11713 11714 11715 11716 11717 11718 11719 11720 11721 11722 11723 11724 11725 11726 11727 11728 11729 11730 11731 11732 11733 11734 11735 11736 11737 11738 11739 11740 11741 11742 11743 11744 11745 11746 11747 11748 11749 11750 11751 11752 11753 11754 11755 11756 11757 11758 11759 11760 11761 11762 11763 11764 11765 11766 11767 11768 11769 11770 11771 11772 11773 11774 11775 11776 11777 11778 11779 11780 11781 11782 11783 11784 11785 11786 11787 11788 11789 11790 11791 11792 11793 11794 11795 11796 11797 11798 11799 11800 11801 11802 11803 11804 11805 11806 11807 11808 11809 11810 11811 11812 11813 11814 11815 11816 11817 11818 11819 11820 11821 11822 11823 11824 11825 11826 11827 11828 11829 11830 11831 11832 11833 11834 11835 11836 11837 11838 11839 11840 11841 11842 11843 11844 11845 11846 11847 11848 11849 11850 11851 11852 11853 11854 11855 11856 11857 11858 11859 11860 11861 11862 11863 11864 11865 11866 11867 11868 11869 11870 11871 11872 11873 11874 11875 11876 11877 11878 11879 11880 11881 11882 11883 11884 11885 11886 11887 11888 11889 11890 11891 11892 11893 11894 11895 11896 11897 11898 11899 11900 11901 11902 11903 11904 11905 11906 11907 11908 11909 11910 11911 11912 11913 11914 11915 11916 11917 11918 11919 11920 11921 11922 11923 11924 11925 11926 11927 11928 11929 11930 11931 11932 11933 11934 11935 11936 11937 11938 11939 11940 11941 11942 11943 11944 11945 11946 11947 11948 11949 11950 11951 11952 11953 11954 11955 11956 11957 11958 11959 11960 11961 11962 11963 11964 11965 11966 11967 11968 11969 11970 11971 11972 11973 11974 11975 11976 11977 11978 11979 11980 11981 11982 11983 11984 11985 11986 11987 11988 11989 11990 11991 11992 11993 11994 11995 11996 11997 11998 11999 12000 12001 12002 12003 12004 12005 12006 12007 12008 12009 12010 12011 12012 12013 12014 12015 12016 12017 12018 12019 12020 12021 12022 12023 12024 12025 12026 12027 12028 12029 12030 12031 12032 12033 12034 12035 12036 12037 12038 12039 12040 12041 12042 12043 12044 12045 12046 12047 12048 12049 12050 12051 12052 12053 12054 12055 12056 12057 12058 12059 12060 12061 12062 12063 12064 12065 12066 12067 12068 12069 12070 12071 12072 12073 12074 12075 12076 12077 12078 12079 12080 12081 12082 12083 12084 12085 12086 12087 12088 12089 12090 12091 12092 12093 12094 12095 12096 12097 12098 12099 12100 12101 12102 12103 12104 12105 12106 12107 12108 12109 12110 12111 12112 12113 12114 12115 12116 12117 12118 12119 12120 12121 12122 12123 12124 12125 12126 12127 12128 12129 12130 12131 12132 12133 12134 12135 12136 12137 12138 12139 12140 12141 12142 12143 12144 12145 12146 12147 12148 12149 12150 12151 12152 12153 12154 12155 12156 12157 12158 12159 12160 12161 12162 12163 12164 12165 12166 12167 12168 12169 12170 12171 12172 12173 12174 12175 12176 12177 12178 12179 12180 12181 12182 12183 12184 12185 12186 12187 12188 12189 12190 12191 12192 12193 12194 12195 12196 12197 12198 12199 12200 12201 12202 12203 12204 12205 12206 12207 12208 12209 12210 12211 12212 12213 12214 12215 12216 12217 12218 12219 12220 12221 12222 12223 12224 12225 12226 12227 12228 12229 12230 12231 12232 12233 12234 12235 12236 12237 12238 12239 12240 12241 12242 12243 12244 12245 12246 12247 12248 12249 12250 12251 12252 12253 12254 12255 12256 12257 12258 12259 12260 12261 12262 12263 12264 12265 12266 12267 12268 12269 12270 12271 12272 12273 12274 12275 12276 12277 12278 12279 12280 12281 12282 12283 12284 12285 12286 12287 12288 12289 12290 12291 12292 12293 12294 12295 12296 12297 12298 12299 12300 12301 12302 12303 12304 12305 12306 12307 12308 12309 12310 12311 12312 12313 12314 12315 12316 12317 12318 12319 12320 12321 12322 12323 12324 12325 12326 12327 12328 12329 12330 12331 12332 12333 12334 12335 12336 12337 12338 12339 12340 12341 12342 12343 12344 12345 12346 12347 12348 12349 12350 12351 12352 12353 12354 12355 12356 12357 12358 12359 12360 12361 12362 12363 12364 12365 12366 12367 12368 12369 12370 12371 12372 12373 12374 12375 12376 12377 12378 12379 12380 12381 12382 12383 12384 12385 12386 12387 12388 12389 12390 12391 12392 12393 12394 12395 12396 12397 12398 12399 12400 12401 12402 12403 12404 12405 12406 12407 12408 12409 12410 12411 12412 12413 12414 12415 12416 12417 12418 12419 12420 12421 12422 12423 12424 12425 12426 12427 12428 12429 12430 12431 12432 12433 12434 12435 12436 12437 12438 12439 12440 12441 12442 12443 12444 12445 12446 12447 12448 12449 12450 12451 12452 12453 12454 12455 12456 12457 12458 12459 12460 12461 12462 12463 12464 12465 12466 12467 12468 12469 12470 12471 12472 12473 12474 12475 12476 12477 12478 12479 12480 12481 12482 12483 12484 12485 12486 12487 12488 12489 12490 12491 12492 12493 12494 12495 12496 12497 12498 12499 12500 12501 12502 12503 12504 12505 12506 12507 12508 12509 12510 12511 12512 12513 12514 12515 12516 12517 12518 12519 12520 12521 12522 12523 12524 12525 12526 12527 12528 12529 12530 12531 12532 12533 12534 12535 12536 12537 12538 12539 12540 12541 12542 12543 12544 12545 12546 12547 12548 12549 12550 12551 12552 12553 12554 12555 12556 12557 12558 12559 12560 12561 12562 12563 12564 12565 12566 12567 12568 12569 12570 12571 12572 12573 12574 12575 12576 12577 12578 12579 12580 12581 12582 12583 12584 12585 12586 12587 12588 12589 12590 12591 12592 12593 12594 12595 12596 12597 12598 12599 12600 12601 12602 12603 12604 12605 12606 12607 12608 12609 12610 12611 12612 12613 12614 12615 12616 12617 12618 12619 12620 12621 12622 12623 12624 12625 12626 12627 12628 12629 12630 12631 12632 12633 12634 12635 12636 12637 12638 12639 12640 12641 12642 12643 12644 12645 12646 12647 12648 12649 12650 12651 12652 12653 12654 12655 12656 12657 12658 12659 12660 12661 12662 12663 12664 12665 12666 12667 12668 12669 12670 12671 12672 12673 12674 12675 12676 12677 12678 12679 12680 12681 12682 12683 12684 12685 12686 12687 12688 12689 12690 12691 12692 12693 12694 12695 12696 12697 12698 12699 12700 12701 12702 12703 12704 12705 12706 12707 12708 12709 12710 12711 12712 12713 12714 12715 12716 12717 12718 12719 12720 12721 12722 12723 12724 12725 12726 12727 12728 12729 12730 12731 12732 12733 12734 12735 12736 12737 12738 12739 12740 12741 12742 12743 12744 12745 12746 12747 12748 12749 12750 12751 12752 12753 12754 12755 12756 12757 12758 12759 12760 12761 12762 12763 12764 12765 12766 12767 12768 12769 12770 12771 12772 12773 12774 12775 12776 12777 12778 12779 12780 12781 12782 12783 12784 12785 12786 12787 12788 12789 12790 12791 12792 12793 12794 12795 12796 12797 12798 12799 12800 12801 12802 12803 12804 12805 12806 12807 12808 12809 12810 12811 12812 12813 12814 12815 12816 12817 12818 12819 12820 12821 12822 12823 12824 12825 12826 12827 12828 12829 12830 12831 12832 12833 12834 12835 12836 12837 12838 12839 12840 12841 12842 12843 12844 12845 12846 12847 12848 12849 12850 12851 12852 12853 12854 12855 12856 12857 12858 12859 12860 12861 12862 12863 12864 12865 12866 12867 12868 12869 12870 12871 12872 12873 12874 12875 12876 12877 12878 12879 12880 12881 12882 12883 12884 12885 12886 12887 12888 12889 12890 12891 12892 12893 12894 12895 12896 12897 12898 12899 12900 12901 12902 12903 12904 12905 12906 12907 12908 12909 12910 12911 12912 12913 12914 12915 12916 12917 12918 12919 12920 12921 12922 12923 12924 12925 12926 12927 12928 12929 12930 12931 12932 12933 12934 12935 12936 12937 12938 12939 12940 12941 12942 12943 12944 12945 12946 12947 12948 12949 12950 12951 12952 12953 12954 12955 12956 12957 12958 12959 12960 12961 12962 12963 12964 12965 12966 12967 12968 12969 12970 12971 12972 12973 12974 12975 12976 12977 12978 12979 12980 12981 12982 12983 12984 12985 12986 12987 12988 12989 12990 12991 12992 12993 12994 12995 12996 12997 12998 12999 13000 13001 13002 13003 13004 13005 13006 13007 13008 13009 13010 13011 13012 13013 13014 13015 13016 13017 13018 13019 13020 13021 13022 13023 13024 13025 13026 13027 13028 13029 13030 13031 13032 13033 13034 13035 13036 13037 13038 13039 13040 13041 13042 13043 13044 13045 13046 13047 13048 13049 13050 13051 13052 13053 13054 13055 13056 13057 13058 13059 13060 13061 13062 13063 13064 13065 13066 13067 13068 13069 13070 13071 13072 13073 13074 13075 13076 13077 13078 13079 13080 13081 13082 13083 13084 13085 13086 13087 13088 13089 13090 13091 13092 13093 13094 13095 13096 13097 13098 13099 13100 13101 13102 13103 13104 13105 13106 13107 13108 13109 13110 13111 13112 13113 13114 13115 13116 13117 13118 13119 13120 13121 13122 13123 13124 13125 13126 13127 13128 13129 13130 13131 13132 13133 13134 13135 13136 13137 13138 13139 13140 13141 13142 13143 13144 13145 13146 13147 13148 13149 13150 13151 13152 13153 13154 13155 13156 13157 13158 13159 13160 13161 13162 13163 13164 13165 13166 13167 13168 13169 13170 13171 13172 13173 13174 13175 13176 13177 13178 13179 13180 13181 13182 13183 13184 13185 13186 13187 13188 13189 13190 13191 13192 13193 13194 13195 13196 13197 13198 13199 13200 13201 13202 13203 13204 13205 13206 13207 13208 13209 13210 13211 13212 13213 13214 13215 13216 13217 13218 13219 13220 13221 13222 13223 13224 13225 13226 13227 13228 13229 13230 13231 13232 13233 13234 13235 13236 13237 13238 13239 13240 13241 13242 13243 13244 13245 13246 13247 13248 13249 13250 13251 13252 13253 13254 13255 13256 13257 13258 13259 13260 13261 13262 13263 13264 13265 13266 13267 13268 13269 13270 13271 13272 13273 13274 13275 13276 13277 13278 13279 13280 13281 13282 13283 13284 13285 13286 13287 13288 13289 13290 13291 13292 13293 13294 13295 13296 13297 13298 13299 13300 13301 13302 13303 13304 13305 13306 13307 13308 13309 13310 13311 13312 13313 13314 13315 13316 13317 13318 13319 13320 13321 13322 13323 13324 13325 13326 13327 13328 13329 13330 13331 13332 13333 13334 13335 13336 13337 13338 13339 13340 13341 13342 13343 13344 13345 13346 13347 13348 13349 13350 13351 13352 13353 13354 13355 13356 13357 13358 13359 13360 13361 13362 13363 13364 13365 13366 13367 13368 13369 13370 13371 13372 13373 13374 13375 13376 13377 13378 13379 13380 13381 13382 13383 13384 13385 13386 13387 13388 13389 13390 13391 13392 13393 13394 13395 13396 13397 13398 13399 13400 13401 13402 13403 13404 13405 13406 13407 13408 13409 13410 13411 13412 13413 13414 13415 13416 13417 13418 13419 13420 13421 13422 13423 13424 13425 13426 13427 13428 13429 13430 13431 13432 13433 13434 13435 13436 13437 13438 13439 13440 13441 13442 13443 13444 13445 13446 13447 13448 13449 13450 13451 13452 13453 13454 13455 13456 13457 13458 13459 13460 13461 13462 13463 13464 13465 13466 13467 13468 13469 13470 13471 13472 13473 13474 13475 13476 13477 13478 13479 13480 13481 13482 13483 13484 13485 13486 13487 13488 13489 13490 13491 13492 13493 13494 13495 13496 13497 13498 13499 13500 13501 13502 13503 13504 13505 13506 13507 13508 13509 13510 13511 13512 13513 13514 13515 13516 13517 13518 13519 13520 13521 13522 13523 13524 13525 13526 13527 13528 13529 13530 13531 13532 13533 13534 13535 13536 13537 13538 13539 13540 13541 13542 13543 13544 13545 13546 13547 13548 13549 13550 13551 13552 13553 13554 13555 13556 13557 13558 13559 13560 13561 13562 13563 13564 13565 13566 13567 13568 13569 13570 13571 13572 13573 13574 13575 13576 13577 13578 13579 13580 13581 13582 13583 13584 13585 13586 13587 13588 13589 13590 13591 13592 13593 13594 13595 13596 13597 13598 13599 13600 13601 13602 13603 13604 13605 13606 13607 13608 13609 13610 13611 13612 13613 13614 13615 13616 13617 13618 13619 13620 13621 13622 13623 13624 13625 13626 13627 13628 13629 13630 13631 13632 13633 13634 13635 13636 13637 13638 13639 13640 13641 13642 13643 13644 13645 13646 13647 13648 13649 13650 13651 13652 13653 13654 13655 13656 13657 13658 13659 13660 13661 13662 13663 13664 13665 13666 13667 13668 13669 13670 13671 13672 13673 13674 13675 13676 13677 13678 13679 13680 13681 13682 13683 13684 13685 13686 13687 13688 13689 13690 13691 13692 13693 13694 13695 13696 13697 13698 13699 13700 13701 13702 13703 13704 13705 13706 13707 13708 13709 13710 13711 13712 13713 13714 13715 13716 13717 13718 13719 13720 13721 13722 13723 13724 13725 13726 13727 13728 13729 13730 13731 13732 13733 13734 13735 13736 13737 13738 13739 13740 13741 13742 13743 13744 13745 13746 13747 13748 13749 13750 13751 13752 13753 13754 13755 13756 13757 13758 13759 13760 13761 13762 13763 13764 13765 13766 13767 13768 13769 13770 13771 13772 13773 13774 13775 13776 13777 13778 13779 13780 13781 13782 13783 13784 13785 13786 13787 13788 13789 13790 13791 13792 13793 13794 13795 13796 13797 13798 13799 13800 13801 13802 13803 13804 13805 13806 13807 13808 13809 13810 13811 13812 13813 13814 13815 13816 13817 13818 13819 13820 13821 13822 13823 13824 13825 13826 13827 13828 13829 13830 13831 13832 13833 13834 13835 13836 13837 13838 13839 13840 13841 13842 13843 13844 13845 13846 13847 13848 13849 13850 13851 13852 13853 13854 13855 13856 13857 13858 13859 13860 13861 13862 13863 13864 13865 13866 13867 13868 13869 13870 13871 13872 13873 13874 13875 13876 13877 13878 13879 13880 13881 13882 13883 13884 13885 13886 13887 13888 13889 13890 13891 13892 13893 13894 13895 13896 13897 13898 13899 13900 13901 13902 13903 13904 13905 13906 13907 13908 13909 13910 13911 13912 13913 13914 13915 13916 13917 13918 13919 13920 13921 13922 13923 13924 13925 13926 13927 13928 13929 13930 13931 13932 13933 13934 13935 13936 13937 13938 13939 13940 13941 13942 13943 13944 13945 13946 13947 13948 13949 13950 13951 13952 13953 13954 13955 13956 13957 13958 13959 13960 13961 13962 13963 13964 13965 13966 13967 13968 13969 13970 13971 13972 13973 13974 13975 13976 13977 13978 13979 13980 13981 13982 13983 13984 13985 13986 13987 13988 13989 13990 13991 13992 13993 13994 13995 13996 13997 13998 13999 14000 14001 14002 14003 14004 14005 14006 14007 14008 14009 14010 14011 14012 14013 14014 14015 14016 14017 14018 14019 14020 14021 14022 14023 14024 14025 14026 14027 14028 14029 14030 14031 14032 14033 14034 14035 14036 14037 14038 14039 14040 14041 14042 14043 14044 14045 14046 14047 14048 14049 14050 14051 14052 14053 14054 14055 14056 14057 14058 14059 14060 14061 14062 14063 14064 14065 14066 14067 14068 14069 14070 14071 14072 14073 14074 14075 14076 14077 14078 14079 14080 14081 14082 14083 14084 14085 14086 14087 14088 14089 14090 14091 14092 14093 14094 14095 14096 14097 14098 14099 14100 14101 14102 14103 14104 14105 14106 14107 14108 14109 14110 14111 14112 14113 14114 14115 14116 14117 14118 14119 14120 14121 14122 14123 14124 14125 14126 14127 14128 14129 14130 14131 14132 14133 14134 14135 14136 14137 14138 14139 14140 14141 14142 14143 14144 14145 14146 14147 14148 14149 14150 14151 14152 14153 14154 14155 14156 14157 14158 14159 14160 14161 14162 14163 14164 14165 14166 14167 14168 14169 14170 14171 14172 14173 14174 14175 14176 14177 14178 14179 14180 14181 14182 14183 14184 14185 14186 14187 14188 14189 14190 14191 14192 14193 14194 14195 14196 14197 14198 14199 14200 14201 14202 14203 14204 14205 14206 14207 14208 14209 14210 14211 14212 14213 14214 14215 14216 14217 14218 14219 14220 14221 14222 14223 14224 14225 14226 14227 14228 14229 14230 14231 14232 14233 14234 14235 14236 14237 14238 14239 14240 14241 14242 14243 14244 14245 14246 14247 14248 14249 14250 14251 14252 14253 14254 14255 14256 14257 14258 14259 14260 14261 14262 14263 14264 14265 14266 14267 14268 14269 14270 14271 14272 14273 14274 14275 14276 14277 14278 14279 14280 14281 14282 14283 14284 14285 14286 14287 14288 14289 14290 14291 14292 14293 14294 14295 14296 14297 14298 14299 14300 14301 14302 14303 14304 14305 14306 14307 14308 14309 14310 14311 14312 14313 14314 14315 14316 14317 14318 14319 14320 14321 14322 14323 14324 14325 14326 14327 14328 14329 14330 14331 14332 14333 14334 14335 14336 14337 14338 14339 14340 14341 14342 14343 14344 14345 14346 14347 14348 14349 14350 14351 14352 14353 14354 14355 14356 14357 14358 14359 14360 14361 14362 14363 14364 14365 14366 14367 14368 14369 14370 14371 14372 14373 14374 14375 14376 14377 14378 14379 14380 14381 14382 14383 14384 14385 14386 14387 14388 14389 14390 14391 14392 14393 14394 14395 14396 14397 14398 14399 14400 14401 14402 14403 14404 14405 14406 14407 14408 14409 14410 14411 14412 14413 14414 14415 14416 14417 14418 14419 14420 14421 14422 14423 14424 14425 14426 14427 14428 14429 14430 14431 14432 14433 14434 14435 14436 14437 14438 14439 14440 14441 14442 14443 14444 14445 14446 14447 14448 14449 14450 14451 14452 14453 14454 14455 14456 14457 14458 14459 14460 14461 14462 14463 14464 14465 14466 14467 14468 14469 14470 14471 14472 14473 14474 14475 14476 14477 14478 14479 14480 14481 14482 14483 14484 14485 14486 14487 14488 14489 14490 14491 14492 14493 14494 14495 14496 14497 14498 14499 14500 14501 14502 14503 14504 14505 14506 14507 14508 14509 14510 14511 14512 14513 14514 14515 14516 14517 14518 14519 14520 14521 14522 14523 14524 14525 14526 14527 14528 14529 14530 14531 14532 14533 14534 14535 14536 14537 14538 14539 14540 14541 14542 14543 14544 14545 14546 14547 14548 14549 14550 14551 14552 14553 14554 14555 14556 14557 14558 14559 14560 14561 14562 14563 14564 14565 14566 14567 14568 14569 14570 14571 14572 14573 14574 14575 14576 14577 14578 14579 14580 14581 14582 14583 14584 14585 14586 14587 14588 14589 14590 14591 14592 14593 14594 14595 14596 14597 14598 14599 14600 14601 14602 14603 14604 14605 14606 14607 14608 14609 14610 14611 14612 14613 14614 14615 14616 14617 14618 14619 14620 14621 14622 14623 14624 14625 14626 14627 14628 14629 14630 14631 14632 14633 14634 14635 14636 14637 14638 14639 14640 14641 14642 14643 14644 14645 14646 14647 14648 14649 14650 14651 14652 14653 14654 14655 14656 14657 14658 14659 14660 14661 14662 14663 14664 14665 14666 14667 14668 14669 14670 14671 14672 14673 14674 14675 14676 14677 14678 14679 14680 14681 14682 14683 14684 14685 14686 14687 14688 14689 14690 14691 14692 14693 14694 14695 14696 14697 14698 14699 14700 14701 14702 14703 14704 14705 14706 14707 14708 14709 14710 14711 14712 14713 14714 14715 14716 14717 14718 14719 14720 14721 14722 14723 14724 14725 14726 14727 14728 14729 14730 14731 14732 14733 14734 14735 14736 14737 14738 14739 14740 14741 14742 14743 14744 14745 14746 14747 14748 14749 14750 14751 14752 14753 14754 14755 14756 14757 14758 14759 14760 14761 14762 14763 14764 14765 14766 14767 14768 14769 14770 14771 14772 14773 14774 14775 14776 14777 14778 14779 14780 14781 14782 14783 14784 14785 14786 14787 14788 14789 14790 14791 14792 14793 14794 14795 14796 14797 14798 14799 14800 14801 14802 14803 14804 14805 14806 14807 14808 14809 14810 14811 14812 14813 14814 14815 14816 14817 14818 14819 14820 14821 14822 14823 14824 14825 14826 14827 14828 14829 14830 14831 14832 14833 14834 14835 14836 14837 14838 14839 14840 14841 14842 14843 14844 14845 14846 14847 14848 14849 14850 14851 14852 14853 14854 14855 14856 14857 14858 14859 14860 14861 14862 14863 14864 14865 14866 14867 14868 14869 14870 14871 14872 14873 14874 14875 14876 14877 14878 14879 14880 14881 14882 14883 14884 14885 14886 14887 14888 14889 14890 14891 14892 14893 14894 14895 14896 14897 14898 14899 14900 14901 14902 14903 14904 14905 14906 14907 14908 14909 14910 14911 14912 14913 14914 14915 14916 14917 14918 14919 14920 14921 14922 14923 14924 14925 14926 14927 14928 14929 14930 14931 14932 14933 14934 14935 14936 14937 14938 14939 14940 14941 14942 14943 14944 14945 14946 14947 14948 14949 14950 14951 14952 14953 14954 14955 14956 14957 14958 14959 14960 14961 14962 14963 14964 14965 14966 14967 14968 14969 14970 14971 14972 14973 14974 14975 14976 14977 14978 14979 14980 14981 14982 14983 14984 14985 14986 14987 14988 14989 14990 14991 14992 14993 14994 14995 14996 14997 14998 14999 15000 15001 15002 15003 15004 15005 15006 15007 15008 15009 15010 15011 15012 15013 15014 15015 15016 15017 15018 15019 15020 15021 15022 15023 15024 15025 15026 15027 15028 15029 15030 15031 15032 15033 15034 15035 15036 15037 15038 15039 15040 15041 15042 15043 15044 15045 15046 15047 15048 15049 15050 15051 15052 15053 15054 15055 15056 15057 15058 15059 15060 15061 15062 15063 15064 15065 15066 15067 15068 15069 15070 15071 15072 15073 15074 15075 15076 15077 15078 15079 15080 15081 15082 15083 15084 15085 15086 15087 15088 15089 15090 15091 15092 15093 15094 15095 15096 15097 15098 15099 15100 15101 15102 15103 15104 15105 15106 15107 15108 15109 15110 15111 15112 15113 15114 15115 15116 15117 15118 15119 15120 15121 15122 15123 15124 15125 15126 15127 15128 15129 15130 15131 15132 15133 15134 15135 15136 15137 15138 15139 15140 15141 15142 15143 15144 15145 15146 15147 15148 15149 15150 15151 15152 15153 15154 15155 15156 15157 15158 15159 15160 15161 15162 15163 15164 15165 15166 15167 15168 15169 15170 15171 15172 15173 15174 15175 15176 15177 15178 15179 15180 15181 15182 15183 15184 15185 15186 15187 15188 15189 15190 15191 15192 15193 15194 15195 15196 15197 15198 15199 15200 15201 15202 15203 15204 15205 15206 15207 15208 15209 15210 15211 15212 15213 15214 15215 15216 15217 15218 15219 15220 15221 15222 15223 15224 15225 15226 15227 15228 15229 15230 15231 15232 15233 15234 15235 15236 15237 15238 15239 15240 15241 15242 15243 15244 15245 15246 15247 15248 15249 15250 15251 15252 15253 15254 15255 15256 15257 15258 15259 15260 15261 15262 15263 15264 15265 15266 15267 15268 15269 15270 15271 15272 15273 15274 15275 15276 15277 15278 15279 15280 15281 15282 15283 15284 15285 15286 15287 15288 15289 15290 15291 15292 15293 15294 15295 15296 15297 15298 15299 15300 15301 15302 15303 15304 15305 15306 15307 15308 15309 15310 15311 15312 15313 15314 15315 15316 15317 15318 15319 15320 15321 15322 15323 15324 15325 15326 15327 15328 15329 15330 15331 15332 15333 15334 15335 15336 15337 15338 15339 15340 15341 15342 15343 15344 15345 15346 15347 15348 15349 15350 15351 15352 15353 15354 15355 15356 15357 15358 15359 15360 15361 15362 15363 15364 15365 15366 15367 15368 15369 15370 15371 15372 15373 15374 15375 15376 15377 15378 15379 15380 15381 15382 15383 15384 15385 15386 15387 15388 15389 15390 15391 15392 15393 15394 15395 15396 15397 15398 15399 15400 15401 15402 15403 15404 15405 15406 15407 15408 15409 15410 15411 15412 15413 15414 15415 15416 15417 15418 15419 15420 15421 15422 15423 15424 15425 15426 15427 15428 15429 15430 15431 15432 15433 15434 15435 15436 15437 15438 15439 15440 15441 15442 15443 15444 15445 15446 15447 15448 15449 15450 15451 15452 15453 15454 15455 15456 15457 15458 15459 15460 15461 15462 15463 15464 15465 15466 15467 15468 15469 15470 15471 15472 15473 15474 15475 15476 15477 15478 15479 15480 15481 15482 15483 15484 15485 15486 15487 15488 15489 15490 15491 15492 15493 15494 15495 15496 15497 15498 15499 15500 15501 15502 15503 15504 15505 15506 15507 15508 15509 15510 15511 15512 15513 15514 15515 15516 15517 15518 15519 15520 15521 15522 15523 15524 15525 15526 15527 15528 15529 15530 15531 15532 15533 15534 15535 15536 15537 15538 15539 15540 15541 15542 15543 15544 15545 15546 15547 15548 15549 15550 15551 15552 15553 15554 15555 15556 15557 15558 15559 15560 15561 15562 15563 15564 15565 15566 15567 15568 15569 15570 15571 15572 15573 15574 15575 15576 15577 15578 15579 15580 15581 15582 15583 15584 15585 15586 15587 15588 15589 15590 15591 15592 15593 15594 15595 15596 15597 15598 15599 15600 15601 15602 15603 15604 15605 15606 15607 15608 15609 15610 15611 15612 15613 15614 15615 15616 15617 15618 15619 15620 15621 15622 15623 15624 15625 15626 15627 15628 15629 15630 15631 15632 15633 15634 15635 15636 15637 15638 15639 15640 15641 15642 15643 15644 15645 15646 15647 15648 15649 15650 15651 15652 15653 15654 15655 15656 15657 15658 15659 15660 15661 15662 15663 15664 15665 15666 15667 15668 15669 15670 15671 15672 15673 15674 15675 15676 15677 15678 15679 15680 15681 15682 15683 15684 15685 15686 15687 15688 15689 15690 15691 15692 15693 15694 15695 15696 15697 15698 15699 15700 15701 15702 15703 15704 15705 15706 15707 15708 15709 15710 15711 15712 15713 15714 15715 15716 15717 15718 15719 15720 15721 15722 15723 15724 15725 15726 15727 15728 15729 15730 15731 15732 15733 15734 15735 15736 15737 15738 15739 15740 15741 15742 15743 15744 15745 15746 15747 15748 15749 15750 15751 15752 15753 15754 15755 15756 15757 15758 15759 15760 15761 15762 15763 15764 15765 15766 15767 15768 15769 15770 15771 15772 15773 15774 15775 15776 15777 15778 15779 15780 15781 15782 15783 15784 15785 15786 15787 15788 15789 15790 15791 15792 15793 15794 15795 15796 15797 15798 15799 15800 15801 15802 15803 15804 15805 15806 15807 15808 15809 15810 15811 15812 15813 15814 15815 15816 15817 15818 15819 15820 15821 15822 15823 15824 15825 15826 15827 15828 15829 15830 15831 15832 15833 15834 15835 15836 15837 15838 15839 15840 15841 15842 15843 15844 15845 15846 15847 15848 15849 15850 15851 15852 15853 15854 15855 15856 15857 15858 15859 15860 15861 15862 15863 15864 15865 15866 15867 15868 15869 15870 15871 15872 15873 15874 15875 15876 15877 15878 15879 15880 15881 15882 15883 15884 15885 15886 15887 15888 15889 15890 15891 15892 15893 15894 15895 15896 15897 15898 15899 15900 15901 15902 15903 15904 15905 15906 15907 15908 15909 15910 15911 15912 15913 15914 15915 15916 15917 15918 15919 15920 15921 15922 15923 15924 15925 15926 15927 15928 15929 15930 15931 15932 15933 15934 15935 15936 15937 15938 15939 15940 15941 15942 15943 15944 15945 15946 15947 15948 15949 15950 15951 15952 15953 15954 15955 15956 15957 15958 15959 15960 15961 15962 15963 15964 15965 15966 15967 15968 15969 15970 15971 15972 15973 15974 15975 15976 15977 15978 15979 15980 15981 15982 15983 15984 15985 15986 15987 15988 15989 15990 15991 15992 15993 15994 15995 15996 15997 15998 15999 16000 16001 16002 16003 16004 16005 16006 16007 16008 16009 16010 16011 16012 16013 16014 16015 16016 16017 16018 16019 16020 16021 16022 16023 16024 16025 16026 16027 16028 16029 16030 16031 16032 16033 16034 16035 16036 16037 16038 16039 16040 16041 16042 16043 16044 16045 16046 16047 16048 16049 16050 16051 16052 16053 16054 16055 16056 16057 16058 16059 16060 16061 16062 16063 16064 16065 16066 16067 16068 16069 16070 16071 16072 16073 16074 16075 16076 16077 16078 16079 16080 16081 16082 16083 16084 16085 16086 16087 16088 16089 16090 16091 16092 16093 16094 16095 16096 16097 16098 16099 16100 16101 16102 16103 16104 16105 16106 16107 16108 16109 16110 16111 16112 16113 16114 16115 16116 16117 16118 16119 16120 16121 16122 16123 16124 16125 16126 16127 16128 16129 16130 16131 16132 16133 16134 16135 16136 16137 16138 16139 16140 16141 16142 16143 16144 16145 16146 16147 16148 16149 16150 16151 16152 16153 16154 16155 16156 16157 16158 16159 16160 16161 16162 16163 16164 16165 16166 16167 16168 16169 16170 16171 16172 16173 16174 16175 16176 16177 16178 16179 16180 16181 16182 16183 16184 16185 16186 16187 16188 16189 16190 16191 16192 16193 16194 16195 16196 16197 16198 16199 16200 16201 16202 16203 16204 16205 16206 16207 16208 16209 16210 16211 16212 16213 16214 16215 16216 16217 16218 16219 16220 16221 16222 16223 16224 16225 16226 16227 16228 16229 16230 16231 16232 16233 16234 16235 16236 16237 16238 16239 16240 16241 16242 16243 16244 16245 16246 16247 16248 16249 16250 16251 16252 16253 16254 16255 16256 16257 16258 16259 16260 16261 16262 16263 16264 16265 16266 16267 16268 16269 16270 16271 16272 16273 16274 16275 16276 16277 16278 16279 16280 16281 16282 16283 16284 16285 16286 16287 16288 16289 16290 16291 16292 16293 16294 16295 16296 16297 16298 16299 16300 16301 16302 16303 16304 16305 16306 16307 16308 16309 16310 16311 16312 16313 16314 16315 16316 16317 16318 16319 16320 16321 16322 16323 16324 16325 16326 16327 16328 16329 16330 16331 16332 16333 16334 16335 16336 16337 16338 16339 16340 16341 16342 16343 16344 16345 16346 16347 16348 16349 16350 16351 16352 16353 16354 16355 16356 16357 16358 16359 16360 16361 16362 16363 16364 16365 16366 16367 16368 16369 16370 16371 16372 16373 16374 16375 16376 16377 16378 16379 16380 16381 16382 16383 16384 16385 16386 16387 16388 16389 16390 16391 16392 16393 16394 16395 16396 16397 16398 16399 16400 16401 16402 16403 16404 16405 16406 16407 16408 16409 16410 16411 16412 16413 16414 16415 16416 16417 16418 16419 16420 16421 16422 16423 16424 16425 16426 16427 16428 16429 16430 16431 16432 16433 16434 16435 16436 16437 16438 16439 16440 16441 16442 16443 16444 16445 16446 16447 16448 16449 16450 16451 16452 16453 16454 16455 16456 16457 16458 16459 16460 16461 16462 16463 16464 16465 16466 16467 16468 16469 16470 16471 16472 16473 16474 16475 16476 16477 16478 16479 16480 16481 16482 16483 16484 16485 16486 16487 16488 16489 16490 16491 16492 16493 16494 16495 16496 16497 16498 16499 16500 16501 16502 16503 16504 16505 16506 16507 16508 16509 16510 16511 16512 16513 16514 16515 16516 16517 16518 16519 16520 16521 16522 16523 16524 16525 16526 16527 16528 16529 16530 16531 16532 16533 16534 16535 16536 16537 16538 16539 16540 16541 16542 16543 16544 16545 16546 16547 16548 16549 16550 16551 16552 16553 16554 16555 16556 16557 16558 16559 16560 16561 16562 16563 16564 16565 16566 16567 16568 16569 16570 16571 16572 16573 16574 16575 16576 16577 16578 16579 16580 16581 16582 16583 16584 16585 16586 16587 16588 16589 16590 16591 16592 16593 16594 16595 16596 16597 16598 16599 16600 16601 16602 16603 16604 16605 16606 16607 16608 16609 16610 16611 16612 16613 16614 16615 16616 16617 16618 16619 16620 16621 16622 16623 16624 16625 16626 16627 16628 16629 16630 16631 16632 16633 16634 16635 16636 16637 16638 16639 16640 16641 16642 16643 16644 16645 16646 16647 16648 16649 16650 16651 16652 16653 16654 16655 16656 16657 16658 16659 16660 16661 16662 16663 16664 16665 16666 16667 16668 16669 16670 16671 16672 16673 16674 16675 16676 16677 16678 16679 16680 16681 16682 16683 16684 16685 16686 16687 16688 16689 16690 16691 16692 16693 16694 16695 16696 16697 16698 16699 16700 16701 16702 16703 16704 16705 16706 16707 16708 16709 16710 16711 16712 16713 16714 16715 16716 16717 16718 16719 16720 16721 16722 16723 16724 16725 16726 16727 16728 16729 16730 16731 16732 16733 16734 16735 16736 16737 16738 16739 16740 16741 16742 16743 16744 16745 16746 16747 16748 16749 16750 16751 16752 16753 16754 16755 16756 16757 16758 16759 16760 16761 16762 16763 16764 16765 16766 16767 16768 16769 16770 16771 16772 16773 16774 16775 16776 16777 16778 16779 16780 16781 16782 16783 16784 16785 16786 16787 16788 16789 16790 16791 16792 16793 16794 16795 16796 16797 16798 16799 16800 16801 16802 16803 16804 16805 16806 16807 16808 16809 16810 16811 16812 16813 16814 16815 16816 16817 16818 16819 16820 16821 16822 16823 16824 16825 16826 16827 16828 16829 16830 16831 16832 16833 16834 16835 16836 16837 16838 16839 16840 16841 16842 16843 16844 16845 16846 16847 16848 16849 16850 16851 16852 16853 16854 16855 16856 16857 16858 16859 16860 16861 16862 16863 16864 16865 16866 16867 16868 16869 16870 16871 16872 16873 16874 16875 16876 16877 16878 16879 16880 16881 16882 16883 16884 16885 16886 16887 16888 16889 16890 16891 16892 16893 16894 16895 16896 16897 16898 16899 16900 16901 16902 16903 16904 16905 16906 16907 16908 16909 16910 16911 16912 16913 16914 16915 16916 16917 16918 16919 16920 16921 16922 16923 16924 16925 16926 16927 16928 16929 16930 16931 16932 16933 16934 16935 16936 16937 16938 16939 16940 16941 16942 16943 16944 16945 16946 16947 16948 16949 16950 16951 16952 16953 16954 16955 16956 16957 16958 16959 16960 16961 16962 16963 16964 16965 16966 16967 16968 16969 16970 16971 16972 16973 16974 16975 16976 16977 16978 16979 16980 16981 16982 16983 16984 16985 16986 16987 16988 16989 16990 16991 16992 16993 16994 16995 16996 16997 16998 16999 17000 17001 17002 17003 17004 17005 17006 17007 17008 17009 17010 17011 17012 17013 17014 17015 17016 17017 17018 17019 17020 17021 17022 17023 17024 17025 17026 17027 17028 17029 17030 17031 17032 17033 17034 17035 17036 17037 17038 17039 17040 17041 17042 17043 17044 17045 17046 17047 17048 17049 17050 17051 17052 17053 17054 17055 17056 17057 17058 17059 17060 17061 17062 17063 17064 17065 17066 17067 17068 17069 17070 17071 17072 17073 17074 17075 17076 17077 17078 17079 17080 17081 17082 17083 17084 17085 17086 17087 17088 17089 17090 17091 17092 17093 17094 17095 17096 17097 17098 17099 17100 17101 17102 17103 17104 17105 17106 17107 17108 17109 17110 17111 17112 17113 17114 17115 17116 17117 17118 17119 17120 17121 17122 17123 17124 17125 17126 17127 17128 17129 17130 17131 17132 17133 17134 17135 17136 17137 17138 17139 17140 17141 17142 17143 17144 17145 17146 17147 17148 17149 17150 17151 17152 17153 17154 17155 17156 17157 17158 17159 17160 17161 17162 17163 17164 17165 17166 17167 17168 17169 17170 17171 17172 17173 17174 17175 17176 17177 17178 17179 17180 17181 17182 17183 17184 17185 17186 17187 17188 17189 17190 17191 17192 17193 17194 17195 17196 17197 17198 17199 17200 17201 17202 17203 17204 17205 17206 17207 17208 17209 17210 17211 17212 17213 17214 17215 17216 17217 17218 17219 17220 17221 17222 17223 17224 17225 17226 17227 17228 17229 17230 17231 17232 17233 17234 17235 17236 17237 17238 17239 17240 17241 17242 17243 17244 17245 17246 17247 17248 17249 17250 17251 17252 17253 17254 17255 17256 17257 17258 17259 17260 17261 17262 17263 17264 17265 17266 17267 17268 17269 17270 17271 17272 17273 17274 17275 17276 17277 17278 17279 17280 17281 17282 17283 17284 17285 17286 17287 17288 17289 17290 17291 17292 17293 17294 17295 17296 17297 17298 17299 17300 17301 17302 17303 17304 17305 17306 17307 17308 17309 17310 17311 17312 17313 17314 17315 17316 17317 17318 17319 17320 17321 17322 17323 17324 17325 17326 17327 17328 17329 17330 17331 17332 17333 17334 17335 17336 17337 17338 17339 17340 17341 17342 17343 17344 17345 17346 17347 17348 17349 17350 17351 17352 17353 17354 17355 17356 17357 17358 17359 17360 17361 17362 17363 17364 17365 17366 17367 17368 17369 17370 17371 17372 17373 17374 17375 17376 17377 17378 17379 17380 17381 17382 17383 17384 17385 17386 17387 17388 17389 17390 17391 17392 17393 17394 17395 17396 17397 17398 17399 17400 17401 17402 17403 17404 17405 17406 17407 17408 17409 17410 17411 17412 17413 17414 17415 17416 17417 17418 17419 17420 17421 17422 17423 17424 17425 17426 17427 17428 17429 17430 17431 17432 17433 17434 17435 17436 17437 17438 17439 17440 17441 17442 17443 17444 17445 17446 17447 17448 17449 17450 17451 17452 17453 17454 17455 17456 17457 17458 17459 17460 17461 17462 17463 17464 17465 17466 17467 17468 17469 17470 17471 17472 17473 17474 17475 17476 17477 17478 17479 17480 17481 17482 17483 17484 17485 17486 17487 17488 17489 17490 17491 17492 17493 17494 17495 17496 17497 17498 17499 17500 17501 17502 17503 17504 17505 17506 17507 17508 17509 17510 17511 17512 17513 17514 17515 17516 17517 17518 17519 17520 17521 17522 17523 17524 17525 17526 17527 17528 17529 17530 17531 17532 17533 17534 17535 17536 17537 17538 17539 17540 17541 17542 17543 17544 17545 17546 17547 17548 17549 17550 17551 17552 17553 17554 17555 17556 17557 17558 17559 17560 17561 17562 17563 17564 17565 17566 17567 17568 17569 17570 17571 17572 17573 17574 17575 17576 17577 17578 17579 17580 17581 17582 17583 17584 17585 17586 17587 17588 17589 17590 17591 17592 17593 17594 17595 17596 17597 17598 17599 17600 17601 17602 17603 17604 17605 17606 17607 17608 17609 17610 17611 17612 17613 17614 17615 17616 17617 17618 17619 17620 17621 17622 17623 17624 17625 17626 17627 17628 17629 17630 17631 17632 17633 17634 17635 17636 17637 17638 17639 17640 17641 17642 17643 17644 17645 17646 17647 17648 17649 17650 17651 17652 17653 17654 17655 17656 17657 17658 17659 17660 17661 17662 17663 17664 17665 17666 17667 17668 17669 17670 17671 17672 17673 17674 17675 17676 17677 17678 17679 17680 17681 17682 17683 17684 17685 17686 17687 17688 17689 17690 17691 17692 17693 17694 17695 17696 17697 17698 17699 17700 17701 17702 17703 17704 17705 17706 17707 17708 17709 17710 17711 17712 17713 17714 17715 17716 17717 17718 17719 17720 17721 17722 17723 17724 17725 17726 17727 17728 17729 17730 17731 17732 17733 17734 17735 17736 17737 17738 17739 17740 17741 17742 17743 17744 17745 17746 17747 17748 17749 17750 17751 17752 17753 17754 17755 17756 17757 17758 17759 17760 17761 17762 17763 17764 17765 17766 17767 17768 17769 17770 17771 17772 17773 17774 17775 17776 17777 17778 17779 17780 17781 17782 17783 17784 17785 17786 17787 17788 17789 17790 17791 17792 17793 17794 17795 17796 17797 17798 17799 17800 17801 17802 17803 17804 17805 17806 17807 17808 17809 17810 17811 17812 17813 17814 17815 17816 17817 17818 17819 17820 17821 17822 17823 17824 17825 17826 17827 17828 17829 17830 17831 17832 17833 17834 17835 17836 17837 17838 17839 17840 17841 17842 17843 17844 17845 17846 17847 17848 17849 17850 17851 17852 17853 17854 17855 17856 17857 17858 17859 17860 17861 17862 17863 17864 17865 17866 17867 17868 17869 17870 17871 17872 17873 17874 17875 17876 17877 17878 17879 17880 17881 17882 17883 17884 17885 17886 17887 17888 17889 17890 17891 17892 17893 17894 17895 17896 17897 17898 17899 17900 17901 17902 17903 17904 17905 17906 17907 17908 17909 17910 17911 17912 17913 17914 17915 17916 17917 17918 17919 17920 17921 17922 17923 17924 17925 17926 17927 17928 17929 17930 17931 17932 17933 17934 17935 17936 17937 17938 17939 17940 17941 17942 17943 17944 17945 17946 17947 17948 17949 17950 17951 17952 17953 17954 17955 17956 17957 17958 17959 17960 17961 17962 17963 17964 17965 17966 17967 17968 17969 17970 17971 17972 17973 17974 17975 17976 17977 17978 17979 17980 17981 17982 17983 17984 17985 17986 17987 17988 17989 17990 17991 17992 17993 17994 17995 17996 17997 17998 17999 18000 18001 18002 18003 18004 18005 18006 18007 18008 18009 18010 18011 18012 18013 18014 18015 18016 18017 18018 18019 18020 18021 18022 18023 18024 18025 18026 18027 18028 18029 18030 18031 18032 18033 18034 18035 18036 18037 18038 18039 18040 18041 18042 18043 18044 18045 18046 18047 18048 18049 18050 18051 18052 18053 18054 18055 18056 18057 18058 18059 18060 18061 18062 18063 18064 18065 18066 18067 18068 18069 18070 18071 18072 18073 18074 18075 18076 18077 18078 18079 18080 18081 18082 18083 18084 18085 18086 18087 18088 18089 18090 18091 18092 18093 18094 18095 18096 18097 18098 18099 18100 18101 18102 18103 18104 18105 18106 18107 18108 18109 18110 18111 18112 18113 18114 18115 18116 18117 18118 18119 18120 18121 18122 18123 18124 18125 18126 18127 18128 18129 18130 18131 18132 18133 18134 18135 18136 18137 18138 18139 18140 18141 18142 18143 18144 18145 18146 18147 18148 18149 18150 18151 18152 18153 18154 18155 18156 18157 18158 18159 18160 18161 18162 18163 18164 18165 18166 18167 18168 18169 18170 18171 18172 18173 18174 18175 18176 18177 18178 18179 18180 18181 18182 18183 18184 18185 18186 18187 18188 18189 18190 18191 18192 18193 18194 18195 18196 18197 18198 18199 18200 18201 18202 18203 18204 18205 18206 18207 18208 18209 18210 18211 18212 18213 18214 18215 18216 18217 18218 18219 18220 18221 18222 18223 18224 18225 18226 18227 18228 18229 18230 18231 18232 18233 18234 18235 18236 18237 18238 18239 18240 18241 18242 18243 18244 18245 18246 18247 18248 18249 18250 18251 18252 18253 18254 18255 18256 18257 18258 18259 18260 18261 18262 18263 18264 18265 18266 18267 18268 18269 18270 18271 18272 18273 18274 18275 18276 18277 18278 18279 18280 18281 18282 18283 18284 18285 18286 18287 18288 18289 18290 18291 18292 18293 18294 18295 18296 18297 18298 18299 18300 18301 18302 18303 18304 18305 18306 18307 18308 18309 18310 18311 18312 18313 18314 18315 18316 18317 18318 18319 18320 18321 18322 18323 18324 18325 18326 18327 18328 18329 18330 18331 18332 18333 18334 18335 18336 18337 18338 18339 18340 18341 18342 18343 18344 18345 18346 18347 18348 18349 18350 18351 18352 18353 18354 18355 18356 18357 18358 18359 18360 18361 18362 18363 18364 18365 18366 18367 18368 18369 18370 18371 18372 18373 18374 18375 18376 18377 18378 18379 18380 18381 18382 18383 18384 18385 18386 18387 18388 18389 18390 18391 18392 18393 18394 18395 18396 18397 18398 18399 18400 18401 18402 18403 18404 18405 18406 18407 18408 18409 18410 18411 18412 18413 18414 18415 18416 18417 18418 18419 18420 18421 18422 18423 18424 18425 18426 18427 18428 18429 18430 18431 18432 18433 18434 18435 18436 18437 18438 18439 18440 18441 18442 18443 18444 18445 18446 18447 18448 18449 18450 18451 18452 18453 18454 18455 18456 18457 18458 18459 18460 18461 18462 18463 18464 18465 18466 18467 18468 18469 18470 18471 18472 18473 18474 18475 18476 18477 18478 18479 18480 18481 18482 18483 18484 18485 18486 18487 18488 18489 18490 18491 18492 18493 18494 18495 18496 18497 18498 18499 18500 18501 18502 18503 18504 18505 18506 18507 18508 18509 18510 18511 18512 18513 18514 18515 18516 18517 18518 18519 18520 18521 18522 18523 18524 18525 18526 18527 18528 18529 18530 18531 18532 18533 18534 18535 18536 18537 18538 18539 18540 18541 18542 18543 18544 18545 18546 18547 18548 18549 18550 18551 18552 18553 18554 18555 18556 18557 18558 18559 18560 18561 18562 18563 18564 18565 18566 18567 18568 18569 18570 18571 18572 18573 18574 18575 18576 18577 18578 18579 18580 18581 18582 18583 18584 18585 18586 18587 18588 18589 18590 18591 18592 18593 18594 18595 18596 18597 18598 18599 18600 18601 18602 18603 18604 18605 18606 18607 18608 18609 18610 18611 18612 18613 18614 18615 18616 18617 18618 18619 18620 18621 18622 18623 18624 18625 18626 18627 18628 18629 18630 18631 18632 18633 18634 18635 18636 18637 18638 18639 18640 18641 18642 18643 18644 18645 18646 18647 18648 18649 18650 18651 18652 18653 18654 18655 18656 18657 18658 18659 18660 18661 18662 18663 18664 18665 18666 18667 18668 18669 18670 18671 18672 18673 18674 18675 18676 18677 18678 18679 18680 18681 18682 18683 18684 18685 18686 18687 18688 18689 18690 18691 18692 18693 18694 18695 18696 18697 18698 18699 18700 18701 18702 18703 18704 18705 18706 18707 18708 18709 18710 18711 18712 18713 18714 18715 18716 18717 18718 18719 18720 18721 18722 18723 18724 18725 18726 18727 18728 18729 18730 18731 18732 18733 18734 18735 18736 18737 18738 18739 18740 18741 18742 18743 18744 18745 18746 18747 18748 18749 18750 18751 18752 18753 18754 18755 18756 18757 18758 18759 18760 18761 18762 18763 18764 18765 18766 18767 18768 18769 18770 18771 18772 18773 18774 18775 18776 18777 18778 18779 18780 18781 18782 18783 18784 18785 18786 18787 18788 18789 18790 18791 18792 18793 18794 18795 18796 18797 18798 18799 18800 18801 18802 18803 18804 18805 18806 18807 18808 18809 18810 18811 18812 18813 18814 18815 18816 18817 18818 18819 18820 18821 18822 18823 18824 18825 18826 18827 18828 18829 18830 18831 18832 18833 18834 18835 18836 18837 18838 18839 18840 18841 18842 18843 18844 18845 18846 18847 18848 18849 18850 18851 18852 18853 18854 18855 18856 18857 18858 18859 18860 18861 18862 18863 18864 18865 18866 18867 18868 18869 18870 18871 18872 18873 18874 18875 18876 18877 18878 18879 18880 18881 18882 18883 18884 18885 18886 18887 18888 18889 18890 18891 18892 18893 18894 18895 18896 18897 18898 18899 18900 18901 18902 18903 18904 18905 18906 18907 18908 18909 18910 18911 18912 18913 18914 18915 18916 18917 18918 18919 18920 18921 18922 18923 18924 18925 18926 18927 18928 18929 18930 18931 18932 18933 18934 18935 18936 18937 18938 18939 18940 18941 18942 18943 18944 18945 18946 18947 18948 18949 18950 18951 18952 18953 18954 18955 18956 18957 18958 18959 18960 18961 18962 18963 18964 18965 18966 18967 18968 18969 18970 18971 18972 18973 18974 18975 18976 18977 18978 18979 18980 18981 18982 18983 18984 18985 18986 18987 18988 18989 18990 18991 18992 18993 18994 18995 18996 18997 18998 18999 19000 19001 19002 19003 19004 19005 19006 19007 19008 19009 19010 19011 19012 19013 19014 19015 19016 19017 19018 19019 19020 19021 19022 19023 19024 19025 19026 19027 19028 19029 19030 19031 19032 19033 19034 19035 19036 19037 19038 19039 19040 19041 19042 19043 19044 19045 19046 19047 19048 19049 19050 19051 19052 19053 19054 19055 19056 19057 19058 19059 19060 19061 19062 19063 19064 19065 19066 19067 19068 19069 19070 19071 19072 19073 19074 19075 19076 19077 19078 19079 19080 19081 19082 19083 19084 19085 19086 19087 19088 19089 19090 19091 19092 19093 19094 19095 19096 19097 19098 19099 19100 19101 19102 19103 19104 19105 19106 19107 19108 19109 19110 19111 19112 19113 19114 19115 19116 19117 19118 19119 19120 19121 19122 19123 19124 19125 19126 19127 19128 19129 19130 19131 19132 19133 19134 19135 19136 19137 19138 19139 19140 19141 19142 19143 19144 19145 19146 19147 19148 19149 19150 19151 19152 19153 19154 19155 19156 19157 19158 19159 19160 19161 19162 19163 19164 19165 19166 19167 19168 19169 19170 19171 19172 19173 19174 19175 19176 19177 19178 19179 19180 19181 19182 19183 19184 19185 19186 19187 19188 19189 19190 19191 19192 19193 19194 19195 19196 19197 19198 19199 19200 19201 19202 19203 19204 19205 19206 19207 19208 19209 19210 19211 19212 19213 19214 19215 19216 19217 19218 19219 19220 19221 19222 19223 19224 19225 19226 19227 19228 19229 19230 19231 19232 19233 19234 19235 19236 19237 19238 19239 19240 19241 19242 19243 19244 19245 19246 19247 19248 19249 19250 19251 19252 19253 19254 19255 19256 19257 19258 19259 19260 19261 19262 19263 19264 19265 19266 19267 19268 19269 19270 19271 19272 19273 19274 19275 19276 19277 19278 19279 19280 19281 19282 19283 19284 19285 19286 19287 19288 19289 19290 19291 19292 19293 19294 19295 19296 19297 19298 19299 19300 19301 19302 19303 19304 19305 19306 19307 19308 19309 19310 19311 19312 19313 19314 19315 19316 19317 19318 19319 19320 19321 19322 19323 19324 19325 19326 19327 19328 19329 19330 19331 19332 19333 19334 19335 19336 19337 19338 19339 19340 19341 19342 19343 19344 19345 19346 19347 19348 19349 19350 19351 19352 19353 19354 19355 19356 19357 19358 19359 19360 19361 19362 19363 19364 19365 19366 19367 19368 19369 19370 19371 19372 19373 19374 19375 19376 19377 19378 19379 19380 19381 19382 19383 19384 19385 19386 19387 19388 19389 19390 19391 19392 19393 19394 19395 19396 19397 19398 19399 19400 19401 19402 19403 19404 19405 19406 19407 19408 19409 19410 19411 19412 19413 19414 19415 19416 19417 19418 19419 19420 19421 19422 19423 19424 19425 19426 19427 19428 19429 19430 19431 19432 19433 19434 19435 19436 19437 19438 19439 19440 19441 19442 19443 19444 19445 19446 19447 19448 19449 19450 19451 19452 19453 19454 19455 19456 19457 19458 19459 19460 19461 19462 19463 19464 19465 19466 19467 19468 19469 19470 19471 19472 19473 19474 19475 19476 19477 19478 19479 19480 19481 19482 19483 19484 19485 19486 19487 19488 19489 19490 19491 19492 19493 19494 19495 19496 19497 19498 19499 19500 19501 19502 19503 19504 19505 19506 19507 19508 19509 19510 19511 19512 19513 19514 19515 19516 19517 19518 19519 19520 19521 19522 19523 19524 19525 19526 19527 19528 19529 19530 19531 19532 19533 19534 19535 19536 19537 19538 19539 19540 19541 19542 19543 19544 19545 19546 19547 19548 19549 19550 19551 19552 19553 19554 19555 19556 19557 19558 19559 19560 19561 19562 19563 19564 19565 19566 19567 19568 19569 19570 19571 19572 19573 19574 19575 19576 19577 19578 19579 19580 19581 19582 19583 19584 19585 19586 19587 19588 19589 19590 19591 19592 19593 19594 19595 19596 19597 19598 19599 19600 19601 19602 19603 19604 19605 19606 19607 19608 19609 19610 19611 19612 19613 19614 19615 19616 19617 19618 19619 19620 19621 19622 19623 19624 19625 19626 19627 19628 19629 19630 19631 19632 19633 19634 19635 19636 19637 19638 19639 19640 19641 19642 19643 19644 19645 19646 19647 19648 19649 19650 19651 19652 19653 19654 19655 19656 19657 19658 19659 19660 19661 19662 19663 19664 19665 19666 19667 19668 19669 19670 19671 19672 19673 19674 19675 19676 19677 19678 19679 19680 19681 19682 19683 19684 19685 19686 19687 19688 19689 19690 19691 19692 19693 19694 19695 19696 19697 19698 19699 19700 19701 19702 19703 19704 19705 19706 19707 19708 19709 19710 19711 19712 19713 19714 19715 19716 19717 19718 19719 19720 19721 19722 19723 19724 19725 19726 19727 19728 19729 19730 19731 19732 19733 19734 19735 19736 19737 19738 19739 19740 19741 19742 19743 19744 19745 19746 19747 19748 19749 19750 19751 19752 19753 19754 19755 19756 19757 19758 19759 19760 19761 19762 19763 19764 19765 19766 19767 19768 19769 19770 19771 19772 19773 19774 19775 19776 19777 19778 19779 19780 19781 19782 19783 19784 19785 19786 19787 19788 19789 19790 19791 19792 19793 19794 19795 19796 19797 19798 19799 19800 19801 19802 19803 19804 19805 19806 19807 19808 19809 19810 19811 19812 19813 19814 19815 19816 19817 19818 19819 19820 19821 19822 19823 19824 19825 19826 19827 19828 19829 19830 19831 19832 19833 19834 19835 19836 19837 19838 19839 19840 19841 19842 19843 19844 19845 19846 19847 19848 19849 19850 19851 19852 19853 19854 19855 19856 19857 19858 19859 19860 19861 19862 19863 19864 19865 19866 19867 19868 19869 19870 19871 19872 19873 19874 19875 19876 19877 19878 19879 19880 19881 19882 19883 19884 19885 19886 19887 19888 19889 19890 19891 19892 19893 19894 19895 19896 19897 19898 19899 19900 19901 19902 19903 19904 19905 19906 19907 19908 19909 19910 19911 19912 19913 19914 19915 19916 19917 19918 19919 19920 19921 19922 19923 19924 19925 19926 19927 19928 19929 19930 19931 19932 19933 19934 19935 19936 19937 19938 19939 19940 19941 19942 19943 19944 19945 19946 19947 19948 19949 19950 19951 19952 19953 19954 19955 19956 19957 19958 19959 19960 19961 19962 19963 19964 19965 19966 19967 19968 19969 19970 19971 19972 19973 19974 19975 19976 19977 19978 19979 19980 19981 19982 19983 19984 19985 19986 19987 19988 19989 19990 19991 19992 19993 19994 19995 19996 19997 19998 19999 20000 20001 20002 20003 20004 20005 20006 20007 20008 20009 20010 20011 20012 20013 20014 20015 20016 20017 20018 20019 20020 20021 20022 20023 20024 20025 20026 20027 20028 20029 20030 20031 20032 20033 20034 20035 20036 20037 20038 20039 20040 20041 20042 20043 20044 20045 20046 20047 20048 20049 20050 20051 20052 20053 20054 20055 20056 20057 20058 20059 20060 20061 20062 20063 20064 20065 20066 20067 20068 20069 20070 20071 20072 20073 20074 20075 20076 20077 20078 20079 20080 20081 20082 20083 20084 20085 20086 20087 20088 20089 20090 20091 20092 20093 20094 20095 20096 20097 20098 20099 20100 20101 20102 20103 20104 20105 20106 20107 20108 20109 20110 20111 20112 20113 20114 20115 20116 20117 20118 20119 20120 20121 20122 20123 20124 20125 20126 20127 20128 20129 20130 20131 20132 20133 20134 20135 20136 20137 20138 20139 20140 20141 20142 20143 20144 20145 20146 20147 20148 20149 20150 20151 20152 20153 20154 20155 20156 20157 20158 20159 20160 20161 20162 20163 20164 20165 20166 20167 20168 20169 20170 20171 20172 20173 20174 20175 20176 20177 20178 20179 20180 20181 20182 20183 20184 20185 20186 20187 20188 20189 20190 20191 20192 20193 20194 20195 20196 20197 20198 20199 20200 20201 20202 20203 20204 20205 20206 20207 20208 20209 20210 20211 20212 20213 20214 20215 20216 20217 20218 20219 20220 20221 20222 20223 20224 20225 20226 20227 20228 20229 20230 20231 20232 20233 20234 20235 20236 20237 20238 20239 20240 20241 20242 20243 20244 20245 20246 20247 20248 20249 20250 20251 20252 20253 20254 20255 20256 20257 20258 20259 20260 20261 20262 20263 20264 20265 20266 20267 20268 20269 20270 20271 20272 20273 20274 20275 20276 20277 20278 20279 20280 20281 20282 20283 20284 20285 20286 20287 20288 20289 20290 20291 20292 20293 20294 20295 20296 20297 20298 20299 20300 20301 20302 20303 20304 20305 20306 20307 20308 20309 20310 20311 20312 20313 20314 20315 20316 20317 20318 20319 20320 20321 20322 20323 20324 20325 20326 20327 20328 20329 20330 20331 20332 20333 20334 20335 20336 20337 20338 20339 20340 20341 20342 20343 20344 20345 20346 20347 20348 20349 20350 20351 20352 20353 20354 20355 20356 20357 20358 20359 20360 20361 20362 20363 20364 20365 20366 20367 20368 20369 20370 20371 20372 20373 20374 20375 20376 20377 20378 20379 20380 20381 20382 20383 20384 20385 20386 20387 20388 20389 20390 20391 20392 20393 20394 20395 20396 20397 20398 20399 20400 20401 20402 20403 20404 20405 20406 20407 20408 20409 20410 20411 20412 20413 20414 20415 20416 20417 20418 20419 20420 20421 20422 20423 20424 20425 20426 20427 20428 20429 20430 20431 20432 20433 20434 20435 20436 20437 20438 20439 20440 20441 20442 20443 20444 20445 20446 20447 20448 20449 20450 20451 20452 20453 20454 20455 20456 20457 20458 20459 20460 20461 20462 20463 20464 20465 20466 20467 20468 20469 20470 20471 20472 20473 20474 20475 20476 20477 20478 20479 20480 20481 20482 20483 20484 20485 20486 20487 20488 20489 20490 20491 20492 20493 20494 20495 20496 20497 20498 20499 20500 20501 20502 20503 20504 20505 20506 20507 20508 20509 20510 20511 20512 20513 20514 20515 20516 20517 20518 20519 20520 20521 20522 20523 20524 20525 20526 20527 20528 20529 20530 20531 20532 20533 20534 20535 20536 20537 20538 20539 20540 20541 20542 20543 20544 20545 20546 20547 20548 20549 20550 20551 20552 20553 20554 20555 20556 20557 20558 20559 20560 20561 20562 20563 20564 20565 20566 20567 20568 20569 20570 20571 20572 20573 20574 20575 20576 20577 20578 20579 20580 20581 20582 20583 20584 20585 20586 20587 20588 20589 20590 20591 20592 20593 20594 20595 20596 20597 20598 20599 20600 20601 20602 20603 20604 20605 20606 20607 20608 20609 20610 20611 20612 20613 20614 20615 20616 20617 20618 20619 20620 20621 20622 20623 20624 20625 20626 20627 20628 20629 20630 20631 20632 20633 20634 20635 20636 20637 20638 20639 20640 20641 20642 20643 20644 20645 20646 20647 20648 20649 20650 20651 20652 20653 20654 20655 20656 20657 20658 20659 20660 20661 20662 20663 20664 20665 20666 20667 20668 20669 20670 20671 20672 20673 20674 20675 20676 20677 20678 20679 20680 20681 20682 20683 20684 20685 20686 20687 20688 20689 20690 20691 20692 20693 20694 20695 20696 20697 20698 20699 20700 20701 20702 20703 20704 20705 20706 20707 20708 20709 20710 20711 20712 20713 20714 20715 20716 20717 20718 20719 20720 20721 20722 20723 20724 20725 20726 20727 20728 20729 20730 20731 20732 20733 20734 20735 20736 20737 20738 20739 20740 20741 20742 20743 20744 20745 20746 20747 20748 20749 20750 20751 20752 20753 20754 20755 20756 20757 20758 20759 20760 20761 20762 20763 20764 20765 20766 20767 20768 20769 20770 20771 20772 20773 20774 20775 20776 20777 20778 20779 20780 20781 20782 20783 20784 20785 20786 20787 20788 20789 20790 20791 20792 20793 20794 20795 20796 20797 20798 20799 20800 20801 20802 20803 20804 20805 20806 20807 20808 20809 20810 20811 20812 20813 20814 20815 20816 20817 20818 20819 20820 20821 20822 20823 20824 20825 20826 20827 20828 20829 20830 20831 20832 20833 20834 20835 20836 20837 20838 20839 20840 20841 20842 20843 20844 20845 20846 20847 20848 20849 20850 20851 20852 20853 20854 20855 20856 20857 20858 20859 20860 20861 20862 20863 20864 20865 20866 20867 20868 20869 20870 20871 20872 20873 20874 20875 20876 20877 20878 20879 20880 20881 20882 20883 20884 20885 20886 20887 20888 20889 20890 20891 20892 20893 20894 20895 20896 20897 20898 20899 20900 20901 20902 20903 20904 20905 20906 20907 20908 20909 20910 20911 20912 20913 20914 20915 20916 20917 20918 20919 20920 20921 20922 20923 20924 20925 20926 20927 20928 20929 20930 20931 20932 20933 20934 20935 20936 20937 20938 20939 20940 20941 20942 20943 20944 20945 20946 20947 20948 20949 20950 20951 20952 20953 20954 20955 20956 20957 20958 20959 20960 20961 20962 20963 20964 20965 20966 20967 20968 20969 20970 20971 20972 20973 20974 20975 20976 20977 20978 20979 20980 20981 20982 20983 20984 20985 20986 20987 20988 20989 20990 20991 20992 20993 20994 20995 20996 20997 20998 20999 21000 21001 21002 21003 21004 21005 21006 21007 21008 21009 21010 21011 21012 21013 21014 21015 21016 21017 21018 21019 21020 21021 21022 21023 21024 21025 21026 21027 21028 21029 21030 21031 21032 21033 21034 21035 21036 21037 21038 21039 21040 21041 21042 21043 21044 21045 21046 21047 21048 21049 21050 21051 21052 21053 21054 21055 21056 21057 21058 21059 21060 21061 21062 21063 21064 21065 21066 21067 21068 21069 21070 21071 21072 21073 21074 21075 21076 21077 21078 21079 21080 21081 21082 21083 21084 21085 21086 21087 21088 21089 21090 21091 21092 21093 21094 21095 21096 21097 21098 21099 21100 21101 21102 21103 21104 21105 21106 21107 21108 21109 21110 21111 21112 21113 21114 21115 21116 21117 21118 21119 21120 21121 21122 21123 21124 21125 21126 21127 21128 21129 21130 21131 21132 21133 21134 21135 21136 21137 21138 21139 21140 21141 21142 21143 21144 21145 21146 21147 21148 21149 21150 21151 21152 21153 21154 21155 21156 21157 21158 21159 21160 21161 21162 21163 21164 21165 21166 21167 21168 21169 21170 21171 21172 21173 21174 21175 21176 21177 21178 21179 21180 21181 21182 21183 21184 21185 21186 21187 21188 21189 21190 21191 21192 21193 21194 21195 21196 21197 21198 21199 21200 21201 21202 21203 21204 21205 21206 21207 21208 21209 21210 21211 21212 21213 21214 21215 21216 21217 21218 21219 21220 21221 21222 21223 21224 21225 21226 21227 21228 21229 21230 21231 21232 21233 21234 21235 21236 21237 21238 21239 21240 21241 21242 21243 21244 21245 21246 21247 21248 21249 21250 21251 21252 21253 21254 21255 21256 21257 21258 21259 21260 21261 21262 21263 21264 21265 21266 21267 21268 21269 21270 21271 21272 21273 21274 21275 21276 21277 21278 21279 21280 21281 21282 21283 21284 21285 21286 21287 21288 21289 21290 21291 21292 21293 21294 21295 21296 21297 21298 21299 21300 21301 21302 21303 21304 21305 21306 21307 21308 21309 21310 21311 21312 21313 21314 21315 21316 21317 21318 21319 21320 21321 21322 21323 21324 21325 21326 21327 21328 21329 21330 21331 21332 21333 21334 21335 21336 21337 21338 21339 21340 21341 21342 21343 21344 21345 21346 21347 21348 21349 21350 21351 21352 21353 21354 21355 21356 21357 21358 21359 21360 21361 21362 21363 21364 21365 21366 21367 21368 21369 21370 21371 21372 21373 21374 21375 21376 21377 21378 21379 21380 21381 21382 21383 21384 21385 21386 21387 21388 21389 21390 21391 21392 21393 21394 21395 21396 21397 21398 21399 21400 21401 21402 21403 21404 21405 21406 21407 21408 21409 21410 21411 21412 21413 21414 21415 21416 21417 21418 21419 21420 21421 21422 21423 21424 21425 21426 21427 21428 21429 21430 21431 21432 21433 21434 21435 21436 21437 21438 21439 21440 21441 21442 21443 21444 21445 21446 21447 21448 21449 21450 21451 21452 21453 21454 21455 21456 21457 21458 21459 21460 21461 21462 21463 21464 21465 21466 21467 21468 21469 21470 21471 21472 21473 21474 21475 21476 21477 21478 21479 21480 21481 21482 21483 21484 21485 21486 21487 21488 21489 21490 21491 21492 21493 21494 21495 21496 21497 21498 21499 21500 21501 21502 21503 21504 21505 21506 21507 21508 21509 21510 21511 21512 21513 21514 21515 21516 21517 21518 21519 21520 21521 21522 21523 21524 21525 21526 21527 21528 21529 21530 21531 21532 21533 21534 21535 21536 21537 21538 21539 21540 21541 21542 21543 21544 21545 21546 21547 21548 21549 21550 21551 21552 21553 21554 21555 21556 21557 21558 21559 21560 21561 21562 21563 21564 21565 21566 21567 21568 21569 21570 21571 21572 21573 21574 21575 21576 21577 21578 21579 21580 21581 21582 21583 21584 21585 21586 21587 21588 21589 21590 21591 21592 21593 21594 21595 21596 21597 21598 21599 21600 21601 21602 21603 21604 21605 21606 21607 21608 21609 21610 21611 21612 21613 21614 21615 21616 21617 21618 21619 21620 21621 21622 21623 21624 21625 21626 21627 21628 21629 21630 21631 21632 21633 21634 21635 21636 21637 21638 21639 21640 21641 21642 21643 21644 21645 21646 21647 21648 21649 21650 21651 21652 21653 21654 21655 21656 21657 21658 21659 21660 21661 21662 21663 21664 21665 21666 21667 21668 21669 21670 21671 21672 21673 21674 21675 21676 21677 21678 21679 21680 21681 21682 21683 21684 21685 21686 21687 21688 21689 21690 21691 21692 21693 21694 21695 21696 21697 21698 21699 21700 21701 21702 21703 21704 21705 21706 21707 21708 21709 21710 21711 21712 21713 21714 21715 21716 21717 21718 21719 21720 21721 21722 21723 21724 21725 21726 21727 21728 21729 21730 21731 21732 21733 21734 21735 21736 21737 21738 21739 21740 21741 21742 21743 21744 21745 21746 21747 21748 21749 21750 21751 21752 21753 21754 21755 21756 21757 21758 21759 21760 21761 21762 21763 21764 21765 21766 21767 21768 21769 21770 21771 21772 21773 21774 21775 21776 21777 21778 21779 21780 21781 21782 21783 21784 21785 21786 21787 21788 21789 21790 21791 21792 21793 21794 21795 21796 21797 21798 21799 21800 21801 21802 21803 21804 21805 21806 21807 21808 21809 21810 21811 21812 21813 21814 21815 21816 21817 21818 21819 21820 21821 21822 21823 21824 21825 21826 21827 21828 21829 21830 21831 21832 21833 21834 21835 21836 21837 21838 21839 21840 21841 21842 21843 21844 21845 21846 21847 21848 21849 21850 21851 21852 21853 21854 21855 21856 21857 21858 21859 21860 21861 21862 21863 21864 21865 21866 21867 21868 21869 21870 21871 21872 21873 21874 21875 21876 21877 21878 21879 21880 21881 21882 21883 21884 21885 21886 21887 21888 21889 21890 21891 21892 21893 21894 21895 21896 21897 21898 21899 21900 21901 21902 21903 21904 21905 21906 21907 21908 21909 21910 21911 21912 21913 21914 21915 21916 21917 21918 21919 21920 21921 21922 21923 21924 21925 21926 21927 21928 21929 21930 21931 21932 21933 21934 21935 21936 21937 21938 21939 21940 21941 21942 21943 21944 21945 21946 21947 21948 21949 21950 21951 21952 21953 21954 21955 21956 21957 21958 21959 21960 21961 21962 21963 21964 21965 21966 21967 21968 21969 21970 21971 21972 21973 21974 21975 21976 21977 21978 21979 21980 21981 21982 21983 21984 21985 21986 21987 21988 21989 21990 21991 21992 21993 21994 21995 21996 21997 21998 21999 22000 22001 22002 22003 22004 22005 22006 22007 22008 22009 22010 22011 22012 22013 22014 22015 22016 22017 22018 22019 22020 22021 22022 22023 22024 22025 22026 22027 22028 22029 22030 22031 22032 22033 22034 22035 22036 22037 22038 22039 22040 22041 22042 22043 22044 22045 22046 22047 22048 22049 22050 22051 22052 22053 22054 22055 22056 22057 22058 22059 22060 22061 22062 22063 22064 22065 22066 22067 22068 22069 22070 22071 22072 22073 22074 22075 22076 22077 22078 22079 22080 22081 22082 22083 22084 22085 22086 22087 22088 22089 22090 22091 22092 22093 22094 22095 22096 22097 22098 22099 22100 22101 22102 22103 22104 22105 22106 22107 22108 22109 22110 22111 22112 22113 22114 22115 22116 22117 22118 22119 22120 22121 22122 22123 22124 22125 22126 22127 22128 22129 22130 22131 22132 22133 22134 22135 22136 22137 22138 22139 22140 22141 22142 22143 22144 22145 22146 22147 22148 22149 22150 22151 22152 22153 22154 22155 22156 22157 22158 22159 22160 22161 22162 22163 22164 22165 22166 22167 22168 22169 22170 22171 22172 22173 22174 22175 22176 22177 22178 22179 22180 22181 22182 22183 22184 22185 22186 22187 22188 22189 22190 22191 22192 22193 22194 22195 22196 22197 22198 22199 22200 22201 22202 22203 22204 22205 22206 22207 22208 22209 22210 22211 22212 22213 22214 22215 22216 22217 22218 22219 22220 22221 22222 22223 22224 22225 22226 22227 22228 22229 22230 22231 22232 22233 22234 22235 22236 22237 22238 22239 22240 22241 22242 22243 22244 22245 22246 22247 22248 22249 22250 22251 22252 22253 22254 22255 22256 22257 22258 22259 22260 22261 22262 22263 22264 22265 22266 22267 22268 22269 22270 22271 22272 22273 22274 22275 22276 22277 22278 22279 22280 22281 22282 22283 22284 22285 22286 22287 22288 22289 22290 22291 22292 22293 22294 22295 22296 22297 22298 22299 22300 22301 22302 22303 22304 22305 22306 22307 22308 22309 22310 22311 22312 22313 22314 22315 22316 22317 22318 22319 22320 22321 22322 22323 22324 22325 22326 22327 22328 22329 22330 22331 22332 22333 22334 22335 22336 22337 22338 22339 22340 22341 22342 22343 22344 22345 22346 22347 22348 22349 22350 22351 22352 22353 22354 22355 22356 22357 22358 22359 22360 22361 22362 22363 22364 22365 22366 22367 22368 22369 22370 22371 22372 22373 22374 22375 22376 22377 22378 22379 22380 22381 22382 22383 22384 22385 22386 22387 22388 22389 22390 22391 22392 22393 22394 22395 22396 22397 22398 22399 22400 22401 22402 22403 22404 22405 22406 22407 22408 22409 22410 22411 22412 22413 22414 22415 22416 22417 22418 22419 22420 22421 22422 22423 22424 22425 22426 22427 22428 22429 22430 22431 22432 22433 22434 22435 22436 22437 22438 22439 22440 22441 22442 22443 22444 22445 22446 22447 22448 22449 22450 22451 22452 22453 22454 22455 22456 22457 22458 22459 22460 22461 22462 22463 22464 22465 22466 22467 22468 22469 22470 22471 22472 22473 22474 22475 22476 22477 22478 22479 22480 22481 22482 22483 22484 22485 22486 22487 22488 22489 22490 22491 22492 22493 22494 22495 22496 22497 22498 22499 22500 22501 22502 22503 22504 22505 22506 22507 22508 22509 22510 22511 22512 22513 22514 22515 22516 22517 22518 22519 22520 22521 22522 22523 22524 22525 22526 22527 22528 22529 22530 22531 22532 22533 22534 22535 22536 22537 22538 22539 22540 22541 22542 22543 22544 22545 22546 22547 22548 22549 22550 22551 22552 22553 22554 22555 22556 22557 22558 22559 22560 22561 22562 22563 22564 22565 22566 22567 22568 22569 22570 22571 22572 22573 22574 22575 22576 22577 22578 22579 22580 22581 22582 22583 22584 22585 22586 22587 22588 22589 22590 22591 22592 22593 22594 22595 22596 22597 22598 22599 22600 22601 22602 22603 22604 22605 22606 22607 22608 22609 22610 22611 22612 22613 22614 22615 22616 22617 22618 22619 22620 22621 22622 22623 22624 22625 22626 22627 22628 22629 22630 22631 22632 22633 22634 22635 22636 22637 22638 22639 22640 22641 22642 22643 22644 22645 22646 22647 22648 22649 22650 22651 22652 22653 22654 22655 22656 22657 22658 22659 22660 22661 22662 22663 22664 22665 22666 22667 22668 22669 22670 22671 22672 22673 22674 22675 22676 22677 22678 22679 22680 22681 22682 22683 22684 22685 22686 22687 22688 22689 22690 22691 22692 22693 22694 22695 22696 22697 22698 22699 22700 22701 22702 22703 22704 22705 22706 22707 22708 22709 22710 22711 22712 22713 22714 22715 22716 22717 22718 22719 22720 22721 22722 22723 22724 22725 22726 22727 22728 22729 22730 22731 22732 22733 22734 22735 22736 22737 22738 22739 22740 22741 22742 22743 22744 22745 22746 22747 22748 22749 22750 22751 22752 22753 22754 22755 22756 22757 22758 22759 22760 22761 22762 22763 22764 22765 22766 22767 22768 22769 22770 22771 22772 22773 22774 22775 22776 22777 22778 22779 22780 22781 22782 22783 22784 22785 22786 22787 22788 22789 22790 22791 22792 22793 22794 22795 22796 22797 22798 22799 22800 22801 22802 22803 22804 22805 22806 22807 22808 22809 22810 22811 22812 22813 22814 22815 22816 22817 22818 22819 22820 22821 22822 22823 22824 22825 22826 22827 22828 22829 22830 22831 22832 22833 22834 22835 22836 22837 22838 22839 22840 22841 22842 22843 22844 22845 22846 22847 22848 22849 22850 22851 22852 22853 22854 22855 22856 22857 22858 22859 22860 22861 22862 22863 22864 22865 22866 22867 22868 22869 22870 22871 22872 22873 22874 22875 22876 22877 22878 22879 22880 22881 22882 22883 22884 22885 22886 22887 22888 22889 22890 22891 22892 22893 22894 22895 22896 22897 22898 22899 22900 22901 22902 22903 22904 22905 22906 22907 22908 22909 22910 22911 22912 22913 22914 22915 22916 22917 22918 22919 22920 22921 22922 22923 22924 22925 22926 22927 22928 22929 22930 22931 22932 22933 22934 22935 22936 22937 22938 22939 22940 22941 22942 22943 22944 22945 22946 22947 22948 22949 22950 22951 22952 22953 22954 22955 22956 22957 22958 22959 22960 22961 22962 22963 22964 22965 22966 22967 22968 22969 22970 22971 22972 22973 22974 22975 22976 22977 22978 22979 22980 22981 22982 22983 22984 22985 22986 22987 22988 22989 22990 22991 22992 22993 22994 22995 22996 22997 22998 22999 23000 23001 23002 23003 23004 23005 23006 23007 23008 23009 23010 23011 23012 23013 23014 23015 23016 23017 23018 23019 23020 23021 23022 23023 23024 23025 23026 23027 23028 23029 23030 23031 23032 23033 23034 23035 23036 23037 23038 23039 23040 23041 23042 23043 23044 23045 23046 23047 23048 23049 23050 23051 23052 23053 23054 23055 23056 23057 23058 23059 23060 23061 23062 23063 23064 23065 23066 23067 23068 23069 23070 23071 23072 23073 23074 23075 23076 23077 23078 23079 23080 23081 23082 23083 23084 23085 23086 23087 23088 23089 23090 23091 23092 23093 23094 23095 23096 23097 23098 23099 23100 23101 23102 23103 23104 23105 23106 23107 23108 23109 23110 23111 23112 23113 23114 23115 23116 23117 23118 23119 23120 23121 23122 23123 23124 23125 23126 23127 23128 23129 23130 23131 23132 23133 23134 23135 23136 23137 23138 23139 23140 23141 23142 23143 23144 23145 23146 23147 23148 23149 23150 23151 23152 23153 23154 23155 23156 23157 23158 23159 23160 23161 23162 23163 23164 23165 23166 23167 23168 23169 23170 23171 23172 23173 23174 23175 23176 23177 23178 23179 23180 23181 23182 23183 23184 23185 23186 23187 23188 23189 23190 23191 23192 23193 23194 23195 23196 23197 23198 23199 23200 23201 23202 23203 23204 23205 23206 23207 23208 23209 23210 23211 23212 23213 23214 23215 23216 23217 23218 23219 23220 23221 23222 23223 23224 23225 23226 23227 23228 23229 23230 23231 23232 23233 23234 23235 23236 23237 23238 23239 23240 23241 23242 23243 23244 23245 23246 23247 23248 23249 23250 23251 23252 23253 23254 23255 23256 23257 23258 23259 23260 23261 23262 23263 23264 23265 23266 23267 23268 23269 23270 23271 23272 23273 23274 23275 23276 23277 23278 23279 23280 23281 23282 23283 23284 23285 23286 23287 23288 23289 23290 23291 23292 23293 23294 23295 23296 23297 23298 23299 23300 23301 23302 23303 23304 23305 23306 23307 23308 23309 23310 23311 23312 23313 23314 23315 23316 23317 23318 23319 23320 23321 23322 23323 23324 23325 23326 23327 23328 23329 23330 23331 23332 23333 23334 23335 23336 23337 23338 23339 23340 23341 23342 23343 23344 23345 23346 23347 23348 23349 23350 23351 23352 23353 23354 23355 23356 23357 23358 23359 23360 23361 23362 23363 23364 23365 23366 23367 23368 23369 23370 23371 23372 23373 23374 23375 23376 23377 23378 23379 23380 23381 23382 23383 23384 23385 23386 23387 23388 23389 23390 23391 23392 23393 23394 23395 23396 23397 23398 23399 23400 23401 23402 23403 23404 23405 23406 23407 23408 23409 23410 23411 23412 23413 23414 23415 23416 23417 23418 23419 23420 23421 23422 23423 23424 23425 23426 23427 23428 23429 23430 23431 23432 23433 23434 23435 23436 23437 23438 23439 23440 23441 23442 23443 23444 23445 23446 23447 23448 23449 23450 23451 23452 23453 23454 23455 23456 23457 23458 23459 23460 23461 23462 23463 23464 23465 23466 23467 23468 23469 23470 23471 23472 23473 23474 23475 23476 23477 23478 23479 23480 23481 23482 23483 23484 23485 23486 23487 23488 23489 23490 23491 23492 23493 23494 23495 23496 23497 23498 23499 23500 23501 23502 23503 23504 23505 23506 23507 23508 23509 23510 23511 23512 23513 23514 23515 23516 23517 23518 23519 23520 23521 23522 23523 23524 23525 23526 23527 23528 23529 23530 23531 23532 23533 23534 23535 23536 23537 23538 23539 23540 23541 23542 23543 23544 23545 23546 23547 23548 23549 23550 23551 23552 23553 23554 23555 23556 23557 23558 23559 23560 23561 23562 23563 23564 23565 23566 23567 23568 23569 23570 23571 23572 23573 23574 23575 23576 23577 23578 23579 23580 23581 23582 23583 23584 23585 23586 23587 23588 23589 23590 23591 23592 23593 23594 23595 23596 23597 23598 23599 23600 23601 23602 23603 23604 23605 23606 23607 23608 23609 23610 23611 23612 23613 23614 23615 23616 23617 23618 23619 23620 23621 23622 23623 23624 23625 23626 23627 23628 23629 23630 23631 23632 23633 23634 23635 23636 23637 23638 23639 23640 23641 23642 23643 23644 23645 23646 23647 23648 23649 23650 23651 23652 23653 23654 23655 23656 23657 23658 23659 23660 23661 23662 23663 23664 23665 23666 23667 23668 23669 23670 23671 23672 23673 23674 23675 23676 23677 23678 23679 23680 23681 23682 23683 23684 23685 23686 23687 23688 23689 23690 23691 23692 23693 23694 23695 23696 23697 23698 23699 23700 23701 23702 23703 23704 23705 23706 23707 23708 23709 23710 23711 23712 23713 23714 23715 23716 23717 23718 23719 23720 23721 23722 23723 23724 23725 23726 23727 23728 23729 23730 23731 23732 23733 23734 23735 23736 23737 23738 23739 23740 23741 23742 23743 23744 23745 23746 23747 23748 23749 23750 23751 23752 23753 23754 23755 23756 23757 23758 23759 23760 23761 23762 23763 23764 23765 23766 23767 23768 23769 23770 23771 23772 23773 23774 23775 23776 23777 23778 23779 23780 23781 23782 23783 23784 23785 23786 23787 23788 23789 23790 23791 23792 23793 23794 23795 23796 23797 23798 23799 23800 23801 23802 23803 23804 23805 23806 23807 23808 23809 23810 23811 23812 23813 23814 23815 23816 23817 23818 23819 23820 23821 23822 23823 23824 23825 23826 23827 23828 23829 23830 23831 23832 23833 23834 23835 23836 23837 23838 23839 23840 23841 23842 23843 23844 23845 23846 23847 23848 23849 23850 23851 23852 23853 23854 23855 23856 23857 23858 23859 23860 23861 23862 23863 23864 23865 23866 23867 23868 23869 23870 23871 23872 23873 23874 23875 23876 23877 23878 23879 23880 23881 23882 23883 23884 23885 23886 23887 23888 23889 23890 23891 23892 23893 23894 23895 23896 23897 23898 23899 23900 23901 23902 23903 23904 23905 23906 23907 23908 23909 23910 23911 23912 23913 23914 23915 23916 23917 23918 23919 23920 23921 23922 23923 23924 23925 23926 23927 23928 23929 23930 23931 23932 23933 23934 23935 23936 23937 23938 23939 23940 23941 23942 23943 23944 23945 23946 23947 23948 23949 23950 23951 23952 23953 23954 23955 23956 23957 23958 23959 23960 23961 23962 23963 23964 23965 23966 23967 23968 23969 23970 23971 23972 23973 23974 23975 23976 23977 23978 23979 23980 23981 23982 23983 23984 23985 23986 23987 23988 23989 23990 23991 23992 23993 23994 23995 23996 23997 23998 23999 24000 24001 24002 24003 24004 24005 24006 24007 24008 24009 24010 24011 24012 24013 24014 24015 24016 24017 24018 24019 24020 24021 24022 24023 24024 24025 24026 24027 24028 24029 24030 24031 24032 24033 24034 24035 24036 24037 24038 24039 24040 24041 24042 24043 24044 24045 24046 24047 24048 24049 24050 24051 24052 24053 24054 24055 24056 24057 24058 24059 24060 24061 24062 24063 24064 24065 24066 24067 24068 24069 24070 24071 24072 24073 24074 24075 24076 24077 24078 24079 24080 24081 24082 24083 24084 24085 24086 24087 24088 24089 24090 24091 24092 24093 24094 24095 24096 24097 24098 24099 24100 24101 24102 24103 24104 24105 24106 24107 24108 24109 24110 24111 24112 24113 24114 24115 24116 24117 24118 24119 24120 24121 24122 24123 24124 24125 24126 24127 24128 24129 24130 24131 24132 24133 24134 24135 24136 24137 24138 24139 24140 24141 24142 24143 24144 24145 24146 24147 24148 24149 24150 24151 24152 24153 24154 24155 24156 24157 24158 24159 24160 24161 24162 24163 24164 24165 24166 24167 24168 24169 24170 24171 24172 24173 24174 24175 24176 24177 24178 24179 24180 24181 24182 24183 24184 24185 24186 24187 24188 24189 24190 24191 24192 24193 24194 24195 24196 24197 24198 24199 24200 24201 24202 24203 24204 24205 24206 24207 24208 24209 24210 24211 24212 24213 24214 24215 24216 24217 24218 24219 24220 24221 24222 24223 24224 24225 24226 24227 24228 24229 24230 24231 24232 24233 24234 24235 24236 24237 24238 24239 24240 24241 24242 24243 24244 24245 24246 24247 24248 24249 24250 24251 24252 24253 24254 24255 24256 24257 24258 24259 24260 24261 24262 24263 24264 24265 24266 24267 24268 24269 24270 24271 24272 24273 24274 24275 24276 24277 24278 24279 24280 24281 24282 24283 24284 24285 24286 24287 24288 24289 24290 24291 24292 24293 24294 24295 24296 24297 24298 24299 24300 24301 24302 24303 24304 24305 24306 24307 24308 24309 24310 24311 24312 24313 24314 24315 24316 24317 24318 24319 24320 24321 24322 24323 24324 24325 24326 24327 24328 24329 24330 24331 24332 24333 24334 24335 24336 24337 24338 24339 24340 24341 24342 24343 24344 24345 24346 24347 24348 24349 24350 24351 24352 24353 24354 24355 24356 24357 24358 24359 24360 24361 24362 24363 24364 24365 24366 24367 24368 24369 24370 24371 24372 24373 24374 24375 24376 24377 24378 24379 24380 24381 24382 24383 24384 24385 24386 24387 24388 24389 24390 24391 24392 24393 24394 24395 24396 24397 24398 24399 24400 24401 24402 24403 24404 24405 24406 24407 24408 24409 24410 24411 24412 24413 24414 24415 24416 24417 24418 24419 24420 24421 24422 24423 24424 24425 24426 24427 24428 24429 24430 24431 24432 24433 24434 24435 24436 24437 24438 24439 24440 24441 24442 24443 24444 24445 24446 24447 24448 24449 24450 24451 24452 24453 24454 24455 24456 24457 24458 24459 24460 24461 24462 24463 24464 24465 24466 24467 24468 24469 24470 24471 24472 24473 24474 24475 24476 24477 24478 24479 24480 24481 24482 24483 24484 24485 24486 24487 24488 24489 24490 24491 24492 24493 24494 24495 24496 24497 24498 24499 24500 24501 24502 24503 24504 24505 24506 24507 24508 24509 24510 24511 24512 24513 24514 24515 24516 24517 24518 24519 24520 24521 24522 24523 24524 24525 24526 24527 24528 24529 24530 24531 24532 24533 24534 24535 24536 24537 24538 24539 24540 24541 24542 24543 24544 24545 24546 24547 24548 24549 24550 24551 24552 24553 24554 24555 24556 24557 24558 24559 24560 24561 24562 24563 24564 24565 24566 24567 24568 24569 24570 24571 24572 24573 24574 24575 24576 24577 24578 24579 24580 24581 24582 24583 24584 24585 24586 24587 24588 24589 24590 24591 24592 24593 24594 24595 24596 24597 24598 24599 24600 24601 24602 24603 24604 24605 24606 24607 24608 24609 24610 24611 24612 24613 24614 24615 24616 24617 24618 24619 24620 24621 24622 24623 24624 24625 24626 24627 24628 24629 24630 24631 24632 24633 24634 24635 24636 24637 24638 24639 24640 24641 24642 24643 24644 24645 24646 24647 24648 24649 24650 24651 24652 24653 24654 24655 24656 24657 24658 24659 24660 24661 24662 24663 24664 24665 24666 24667 24668 24669 24670 24671 24672 24673 24674 24675 24676 24677 24678 24679 24680 24681 24682 24683 24684 24685 24686 24687 24688 24689 24690 24691 24692 24693 24694 24695 24696 24697 24698 24699 24700 24701 24702 24703 24704 24705 24706 24707 24708 24709 24710 24711 24712 24713 24714 24715 24716 24717 24718 24719 24720 24721 24722 24723 24724 24725 24726 24727 24728 24729 24730 24731 24732 24733 24734 24735 24736 24737 24738 24739 24740 24741 24742 24743 24744 24745 24746 24747 24748 24749 24750 24751 24752 24753 24754 24755 24756 24757 24758 24759 24760 24761 24762 24763 24764 24765 24766 24767 24768 24769 24770 24771 24772 24773 24774 24775 24776 24777 24778 24779 24780 24781 24782 24783 24784 24785 24786 24787 24788 24789 24790 24791 24792 24793 24794 24795 24796 24797 24798 24799 24800 24801 24802 24803 24804 24805 24806 24807 24808 24809 24810 24811 24812 24813 24814 24815 24816 24817 24818 24819 24820 24821 24822 24823 24824 24825 24826 24827 24828 24829 24830 24831 24832 24833 24834 24835 24836 24837 24838 24839 24840 24841 24842 24843 24844 24845 24846 24847 24848 24849 24850 24851 24852 24853 24854 24855 24856 24857 24858 24859 24860 24861 24862 24863 24864 24865 24866 24867 24868 24869 24870 24871 24872 24873 24874 24875 24876 24877 24878 24879 24880 24881 24882 24883 24884 24885 24886 24887 24888 24889 24890 24891 24892 24893 24894 24895 24896 24897 24898 24899 24900 24901 24902 24903 24904 24905 24906 24907 24908 24909 24910 24911 24912 24913 24914 24915 24916 24917 24918 24919 24920 24921 24922 24923 24924 24925 24926 24927 24928 24929 24930 24931 24932 24933 24934 24935 24936 24937 24938 24939 24940 24941 24942 24943 24944 24945 24946 24947 24948 24949 24950 24951 24952 24953 24954 24955 24956 24957 24958 24959 24960 24961 24962 24963 24964 24965 24966 24967 24968 24969 24970 24971 24972 24973 24974 24975 24976 24977 24978 24979 24980 24981 24982 24983 24984 24985 24986 24987 24988 24989 24990 24991 24992 24993 24994 24995 24996 24997 24998 24999 25000 25001 25002 25003 25004 25005 25006 25007 25008 25009 25010 25011 25012 25013 25014 25015 25016 25017 25018 25019 25020 25021 25022 25023 25024 25025 25026 25027 25028 25029 25030 25031 25032 25033 25034 25035 25036 25037 25038 25039 25040 25041 25042 25043 25044 25045 25046 25047 25048 25049 25050 25051 25052 25053 25054 25055 25056 25057 25058 25059 25060 25061 25062 25063 25064 25065 25066 25067 25068 25069 25070 25071 25072 25073 25074 25075 25076 25077 25078 25079 25080 25081 25082 25083 25084 25085 25086 25087 25088 25089 25090 25091 25092 25093 25094 25095 25096 25097 25098 25099 25100 25101 25102 25103 25104 25105 25106 25107 25108 25109 25110 25111 25112 25113 25114 25115 25116 25117 25118 25119 25120 25121 25122 25123 25124 25125 25126 25127 25128 25129 25130 25131 25132 25133 25134 25135 25136 25137 25138 25139 25140 25141 25142 25143 25144 25145 25146 25147 25148 25149 25150 25151 25152 25153 25154 25155 25156 25157 25158 25159 25160 25161 25162 25163 25164 25165 25166 25167 25168 25169 25170 25171 25172 25173 25174 25175 25176 25177 25178 25179 25180 25181 25182 25183 25184 25185 25186 25187 25188 25189 25190 25191 25192 25193 25194 25195 25196 25197 25198 25199 25200 25201 25202 25203 25204 25205 25206 25207 25208 25209 25210 25211 25212 25213 25214 25215 25216 25217 25218 25219 25220 25221 25222 25223 25224 25225 25226 25227 25228 25229 25230 25231 25232 25233 25234 25235 25236 25237 25238 25239 25240 25241 25242 25243 25244 25245 25246 25247 25248 25249 25250 25251 25252 25253 25254 25255 25256 25257 25258 25259 25260 25261 25262 25263 25264 25265 25266 25267 25268 25269 25270 25271 25272 25273 25274 25275 25276 25277 25278 25279 25280 25281 25282 25283 25284 25285 25286 25287 25288 25289 25290 25291 25292 25293 25294 25295 25296 25297 25298 25299 25300 25301 25302 25303 25304 25305 25306 25307 25308 25309 25310 25311 25312 25313 25314 25315 25316 25317 25318 25319 25320 25321 25322 25323 25324 25325 25326 25327 25328 25329 25330 25331 25332 25333 25334 25335 25336 25337 25338 25339 25340 25341 25342 25343 25344 25345 25346 25347 25348 25349 25350 25351 25352 25353 25354 25355 25356 25357 25358 25359 25360 25361 25362 25363 25364 25365 25366 25367 25368 25369 25370 25371 25372 25373 25374 25375 25376 25377 25378 25379 25380 25381 25382 25383 25384 25385 25386 25387 25388 25389 25390 25391 25392 25393 25394 25395 25396 25397 25398 25399 25400 25401 25402 25403 25404 25405 25406 25407 25408 25409 25410 25411 25412 25413 25414 25415 25416 25417 25418 25419 25420 25421 25422 25423 25424 25425 25426 25427 25428 25429 25430 25431 25432 25433 25434 25435 25436 25437 25438 25439 25440 25441 25442 25443 25444 25445 25446 25447 25448 25449 25450 25451 25452 25453 25454 25455 25456 25457 25458 25459 25460 25461 25462 25463 25464 25465 25466 25467 25468 25469 25470 25471 25472 25473 25474 25475 25476 25477 25478 25479 25480 25481 25482 25483 25484 25485 25486 25487 25488 25489 25490 25491 25492 25493 25494 25495 25496 25497 25498 25499 25500 25501 25502 25503 25504 25505 25506 25507 25508 25509 25510 25511 25512 25513 25514 25515 25516 25517 25518 25519 25520 25521 25522 25523 25524 25525 25526 25527 25528 25529 25530 25531 25532 25533 25534 25535 25536 25537 25538 25539 25540 25541 25542 25543 25544 25545 25546 25547 25548 25549 25550 25551 25552 25553 25554 25555 25556 25557 25558 25559 25560 25561 25562 25563 25564 25565 25566 25567 25568 25569 25570 25571 25572 25573 25574 25575 25576 25577 25578 25579 25580 25581 25582 25583 25584 25585 25586 25587 25588 25589 25590 25591 25592 25593 25594 25595 25596 25597 25598 25599 25600 25601 25602 25603 25604 25605 25606 25607 25608 25609 25610 25611 25612 25613 25614 25615 25616 25617 25618 25619 25620 25621 25622 25623 25624 25625 25626 25627 25628 25629 25630 25631 25632 25633 25634 25635 25636 25637 25638 25639 25640 25641 25642 25643 25644 25645 25646 25647 25648 25649 25650 25651 25652 25653 25654 25655 25656 25657 25658 25659 25660 25661 25662 25663 25664 25665 25666 25667 25668 25669 25670 25671 25672 25673 25674 25675 25676 25677 25678 25679 25680 25681 25682 25683 25684 25685 25686 25687 25688 25689 25690 25691 25692 25693 25694 25695 25696 25697 25698 25699 25700 25701 25702 25703 25704 25705 25706 25707 25708 25709 25710 25711 25712 25713 25714 25715 25716 25717 25718 25719 25720 25721 25722 25723 25724 25725 25726 25727 25728 25729 25730 25731 25732 25733 25734 25735 25736 25737 25738 25739 25740 25741 25742 25743 25744 25745 25746 25747 25748 25749 25750 25751 25752 25753 25754 25755 25756 25757 25758 25759 25760 25761 25762 25763 25764 25765 25766 25767 25768 25769 25770 25771 25772 25773 25774 25775 25776 25777 25778 25779 25780 25781 25782 25783 25784 25785 25786 25787 25788 25789 25790 25791 25792 25793 25794 25795 25796 25797 25798 25799 25800 25801 25802 25803 25804 25805 25806 25807 25808 25809 25810 25811 25812 25813 25814 25815 25816 25817 25818 25819 25820 25821 25822 25823 25824 25825 25826 25827 25828 25829 25830 25831 25832 25833 25834 25835 25836 25837 25838 25839 25840 25841 25842 25843 25844 25845 25846 25847 25848 25849 25850 25851 25852 25853 25854 25855 25856 25857 25858 25859 25860 25861 25862 25863 25864 25865 25866 25867 25868 25869 25870 25871 25872 25873 25874 25875 25876 25877 25878 25879 25880 25881 25882 25883 25884 25885 25886 25887 25888 25889 25890 25891 25892 25893 25894 25895 25896 25897 25898 25899 25900 25901 25902 25903 25904 25905 25906 25907 25908 25909 25910 25911 25912 25913 25914 25915 25916 25917 25918 25919 25920 25921 25922 25923 25924 25925 25926 25927 25928 25929 25930 25931 25932 25933 25934 25935 25936 25937 25938 25939 25940 25941 25942 25943 25944 25945 25946 25947 25948 25949 25950 25951 25952 25953 25954 25955 25956 25957 25958 25959 25960 25961 25962 25963 25964 25965 25966 25967 25968 25969 25970 25971 25972 25973 25974 25975 25976 25977 25978 25979 25980 25981 25982 25983 25984 25985 25986 25987 25988 25989 25990 25991 25992 25993 25994 25995 25996 25997 25998 25999 26000 26001 26002 26003 26004 26005 26006 26007 26008 26009 26010 26011 26012 26013 26014 26015 26016 26017 26018 26019 26020 26021 26022 26023 26024 26025 26026 26027 26028 26029 26030 26031 26032 26033 26034 26035 26036 26037 26038 26039 26040 26041 26042 26043 26044 26045 26046 26047 26048 26049 26050 26051 26052 26053 26054 26055 26056 26057 26058 26059 26060 26061 26062 26063 26064 26065 26066 26067 26068 26069 26070 26071 26072 26073 26074 26075 26076 26077 26078 26079 26080 26081 26082 26083 26084 26085 26086 26087 26088 26089 26090 26091 26092 26093 26094 26095 26096 26097 26098 26099 26100 26101 26102 26103 26104 26105 26106 26107 26108 26109 26110 26111 26112 26113 26114 26115 26116 26117 26118 26119 26120 26121 26122 26123 26124 26125 26126 26127 26128 26129 26130 26131 26132 26133 26134 26135 26136 26137 26138 26139 26140 26141 26142 26143 26144 26145 26146 26147 26148 26149 26150 26151 26152 26153 26154 26155 26156 26157 26158 26159 26160 26161 26162 26163 26164 26165 26166 26167 26168 26169 26170 26171 26172 26173 26174 26175 26176 26177 26178 26179 26180 26181 26182 26183 26184 26185 26186 26187 26188 26189 26190 26191 26192 26193 26194 26195 26196 26197 26198 26199 26200 26201 26202 26203 26204 26205 26206 26207 26208 26209 26210 26211 26212 26213 26214 26215 26216 26217 26218 26219 26220 26221 26222 26223 26224 26225 26226 26227 26228 26229 26230 26231 26232 26233 26234 26235 26236 26237 26238 26239 26240 26241 26242 26243 26244 26245 26246 26247 26248 26249 26250 26251 26252 26253 26254 26255 26256 26257 26258 26259 26260 26261 26262 26263 26264 26265 26266 26267 26268 26269 26270 26271 26272 26273 26274 26275 26276 26277 26278 26279 26280 26281 26282 26283 26284 26285 26286 26287 26288 26289 26290 26291 26292 26293 26294 26295 26296 26297 26298 26299 26300 26301 26302 26303 26304 26305 26306 26307 26308 26309 26310 26311 26312 26313 26314 26315 26316 26317 26318 26319 26320 26321 26322 26323 26324 26325 26326 26327 26328 26329 26330 26331 26332 26333 26334 26335 26336 26337 26338 26339 26340 26341 26342 26343 26344 26345 26346 26347 26348 26349 26350 26351 26352 26353 26354 26355 26356 26357 26358 26359 26360 26361 26362 26363 26364 26365 26366 26367 26368 26369 26370 26371 26372 26373 26374 26375 26376 26377 26378 26379 26380 26381 26382 26383 26384 26385 26386 26387 26388 26389 26390 26391 26392 26393 26394 26395 26396 26397 26398 26399 26400 26401 26402 26403 26404 26405 26406 26407 26408 26409 26410 26411 26412 26413 26414 26415 26416 26417 26418 26419 26420 26421 26422 26423 26424 26425 26426 26427 26428 26429 26430 26431 26432 26433 26434 26435 26436 26437 26438 26439 26440 26441 26442 26443 26444 26445 26446 26447 26448 26449 26450 26451 26452 26453 26454 26455 26456 26457 26458 26459 26460 26461 26462 26463 26464 26465 26466 26467 26468 26469 26470 26471 26472 26473 26474 26475 26476 26477 26478 26479 26480 26481 26482 26483 26484 26485 26486 26487 26488 26489 26490 26491 26492 26493 26494 26495 26496 26497 26498 26499 26500 26501 26502 26503 26504 26505 26506 26507 26508 26509 26510 26511 26512 26513 26514 26515 26516 26517 26518 26519 26520 26521 26522 26523 26524 26525 26526 26527 26528 26529 26530 26531 26532 26533 26534 26535 26536 26537 26538 26539 26540 26541 26542 26543 26544 26545 26546 26547 26548 26549 26550 26551 26552 26553 26554 26555 26556 26557 26558 26559 26560 26561 26562 26563 26564 26565 26566 26567 26568 26569 26570 26571 26572 26573 26574 26575 26576 26577 26578 26579 26580 26581 26582 26583 26584 26585 26586 26587 26588 26589 26590 26591 26592 26593 26594 26595 26596 26597 26598 26599 26600 26601 26602 26603 26604 26605 26606 26607 26608 26609 26610 26611 26612 26613 26614 26615 26616 26617 26618 26619 26620 26621 26622 26623 26624 26625 26626 26627 26628 26629 26630 26631 26632 26633 26634 26635 26636 26637 26638 26639 26640 26641 26642 26643 26644 26645 26646 26647 26648 26649 26650 26651 26652 26653 26654 26655 26656 26657 26658 26659 26660 26661 26662 26663 26664 26665 26666 26667 26668 26669 26670 26671 26672 26673 26674 26675 26676 26677 26678 26679 26680 26681 26682 26683 26684 26685 26686 26687 26688 26689 26690 26691 26692 26693 26694 26695 26696 26697 26698 26699 26700 26701 26702 26703 26704 26705 26706 26707 26708 26709 26710 26711 26712 26713 26714 26715 26716 26717 26718 26719 26720 26721 26722 26723 26724 26725 26726 26727 26728 26729 26730 26731 26732 26733 26734 26735 26736 26737 26738 26739 26740 26741 26742 26743 26744 26745 26746 26747 26748 26749 26750 26751 26752 26753 26754 26755 26756 26757 26758 26759 26760 26761 26762 26763 26764 26765 26766 26767 26768 26769 26770 26771 26772 26773 26774 26775 26776 26777 26778 26779 26780 26781 26782 26783 26784 26785 26786 26787 26788 26789 26790 26791 26792 26793 26794 26795 26796 26797 26798 26799 26800 26801 26802 26803 26804 26805 26806 26807 26808 26809 26810 26811 26812 26813 26814 26815 26816 26817 26818 26819 26820 26821 26822 26823 26824 26825 26826 26827 26828 26829 26830 26831 26832 26833 26834 26835 26836 26837 26838 26839 26840 26841 26842 26843 26844 26845 26846 26847 26848 26849 26850 26851 26852 26853 26854 26855 26856 26857 26858 26859 26860 26861 26862 26863 26864 26865 26866 26867 26868 26869 26870 26871 26872 26873 26874 26875 26876 26877 26878 26879 26880 26881 26882 26883 26884 26885 26886 26887 26888 26889 26890 26891 26892 26893 26894 26895 26896 26897 26898 26899 26900 26901 26902 26903 26904 26905 26906 26907 26908 26909 26910 26911 26912 26913 26914 26915 26916 26917 26918 26919 26920 26921 26922 26923 26924 26925 26926 26927 26928 26929 26930 26931 26932 26933 26934 26935 26936 26937 26938 26939 26940 26941 26942 26943 26944 26945 26946 26947 26948 26949 26950 26951 26952 26953 26954 26955 26956 26957 26958 26959 26960 26961 26962 26963 26964 26965 26966 26967 26968 26969 26970 26971 26972 26973 26974 26975 26976 26977 26978 26979 26980 26981 26982 26983 26984 26985 26986 26987 26988 26989 26990 26991 26992 26993 26994 26995 26996 26997 26998 26999 27000 27001 27002 27003 27004 27005 27006 27007 27008 27009 27010 27011 27012 27013 27014 27015 27016 27017 27018 27019 27020 27021 27022 27023 27024 27025 27026 27027 27028 27029 27030 27031 27032 27033 27034 27035 27036 27037 27038 27039 27040 27041 27042 27043 27044 27045 27046 27047 27048 27049 27050 27051 27052 27053 27054 27055 27056 27057 27058 27059 27060 27061 27062 27063 27064 27065 27066 27067 27068 27069 27070 27071 27072 27073 27074 27075 27076 27077 27078 27079 27080 27081 27082 27083 27084 27085 27086 27087 27088 27089 27090 27091 27092 27093 27094 27095 27096 27097 27098 27099 27100 27101 27102 27103 27104 27105 27106 27107 27108 27109 27110 27111 27112 27113 27114 27115 27116 27117 27118 27119 27120 27121 27122 27123 27124 27125 27126 27127 27128 27129 27130 27131 27132 27133 27134 27135 27136 27137 27138 27139 27140 27141 27142 27143 27144 27145 27146 27147 27148 27149 27150 27151 27152 27153 27154 27155 27156 27157 27158 27159 27160 27161 27162 27163 27164 27165 27166 27167 27168 27169 27170 27171 27172 27173 27174 27175 27176 27177 27178 27179 27180 27181 27182 27183 27184 27185 27186 27187 27188 27189 27190 27191 27192 27193 27194 27195 27196 27197 27198 27199 27200 27201 27202 27203 27204 27205 27206 27207 27208 27209 27210 27211 27212 27213 27214 27215 27216 27217 27218 27219 27220 27221 27222 27223 27224 27225 27226 27227 27228 27229 27230 27231 27232 27233 27234 27235 27236 27237 27238 27239 27240 27241 27242 27243 27244 27245 27246 27247 27248 27249 27250 27251 27252 27253 27254 27255 27256 27257 27258 27259 27260 27261 27262 27263 27264 27265 27266 27267 27268 27269 27270 27271 27272 27273 27274 27275 27276 27277 27278 27279 27280 27281 27282 27283 27284 27285 27286 27287 27288 27289 27290 27291 27292 27293 27294 27295 27296 27297 27298 27299 27300 27301 27302 27303 27304 27305 27306 27307 27308 27309 27310 27311 27312 27313 27314 27315 27316 27317 27318 27319 27320 27321 27322 27323 27324 27325 27326 27327 27328 27329 27330 27331 27332 27333 27334 27335 27336 27337 27338 27339 27340 27341 27342 27343 27344 27345 27346 27347 27348 27349 27350 27351 27352 27353 27354 27355 27356 27357 27358 27359 27360 27361 27362 27363 27364 27365 27366 27367 27368 27369 27370 27371 27372 27373 27374 27375 27376 27377 27378 27379 27380 27381 27382 27383 27384 27385 27386 27387 27388 27389 27390 27391 27392 27393 27394 27395 27396 27397 27398 27399 27400 27401 27402 27403 27404 27405 27406 27407 27408 27409 27410 27411 27412 27413 27414 27415 27416 27417 27418 27419 27420 27421 27422 27423 27424 27425 27426 27427 27428 27429 27430 27431 27432 27433 27434 27435 27436 27437 27438 27439 27440 27441 27442 27443 27444 27445 27446 27447 27448 27449 27450 27451 27452 27453 27454 27455 27456 27457 27458 27459 27460 27461 27462 27463 27464 27465 27466 27467 27468 27469 27470 27471 27472 27473 27474 27475 27476 27477 27478 27479 27480 27481 27482 27483 27484 27485 27486 27487 27488 27489 27490 27491 27492 27493 27494 27495 27496 27497 27498 27499 27500 27501 27502 27503 27504 27505 27506 27507 27508 27509 27510 27511 27512 27513 27514 27515 27516 27517 27518 27519 27520 27521 27522 27523 27524 27525 27526 27527 27528 27529 27530 27531 27532 27533 27534 27535 27536 27537 27538 27539 27540 27541 27542 27543 27544 27545 27546 27547 27548 27549 27550 27551 27552 27553 27554 27555 27556 27557 27558 27559 27560 27561 27562 27563 27564 27565 27566 27567 27568 27569 27570 27571 27572 27573 27574 27575 27576 27577 27578 27579 27580 27581 27582 27583 27584 27585 27586 27587 27588 27589 27590 27591 27592 27593 27594 27595 27596 27597 27598 27599 27600 27601 27602 27603 27604 27605 27606 27607 27608 27609 27610 27611 27612 27613 27614 27615 27616 27617 27618 27619 27620 27621 27622 27623 27624 27625 27626 27627 27628 27629 27630 27631 27632 27633 27634 27635 27636 27637 27638 27639 27640 27641 27642 27643 27644 27645 27646 27647 27648 27649 27650 27651 27652 27653 27654 27655 27656 27657 27658 27659 27660 27661 27662 27663 27664 27665 27666 27667 27668 27669 27670 27671 27672 27673 27674 27675 27676 27677 27678 27679 27680 27681 27682 27683 27684 27685 27686 27687 27688 27689 27690 27691 27692 27693 27694 27695 27696 27697 27698 27699 27700 27701 27702 27703 27704 27705 27706 27707 27708 27709 27710 27711 27712 27713 27714 27715 27716 27717 27718 27719 27720 27721 27722 27723 27724 27725 27726 27727 27728 27729 27730 27731 27732 27733 27734 27735 27736 27737 27738 27739 27740 27741 27742 27743 27744 27745 27746 27747 27748 27749 27750 27751 27752 27753 27754 27755 27756 27757 27758 27759 27760 27761 27762 27763 27764 27765 27766 27767 27768 27769 27770 27771 27772 27773 27774 27775 27776 27777 27778 27779 27780 27781 27782 27783 27784 27785 27786 27787 27788 27789 27790 27791 27792 27793 27794 27795 27796 27797 27798 27799 27800 27801 27802 27803 27804 27805 27806 27807 27808 27809 27810 27811 27812 27813 27814 27815 27816 27817 27818 27819 27820 27821 27822 27823 27824 27825 27826 27827 27828 27829 27830 27831 27832 27833 27834 27835 27836 27837 27838 27839 27840 27841 27842 27843 27844 27845 27846 27847 27848 27849 27850 27851 27852 27853 27854 27855 27856 27857 27858 27859 27860 27861 27862 27863 27864 27865 27866 27867 27868 27869 27870 27871 27872 27873 27874 27875 27876 27877 27878 27879 27880 27881 27882 27883 27884 27885 27886 27887 27888 27889 27890 27891 27892 27893 27894 27895 27896 27897 27898 27899 27900 27901 27902 27903 27904 27905 27906 27907 27908 27909 27910 27911 27912 27913 27914 27915 27916 27917 27918 27919 27920 27921 27922 27923 27924 27925 27926 27927 27928 27929 27930 27931 27932 27933 27934 27935 27936 27937 27938 27939 27940 27941 27942 27943 27944 27945 27946 27947 27948 27949 27950 27951 27952 27953 27954 27955 27956 27957 27958 27959 27960 27961 27962 27963 27964 27965 27966 27967 27968 27969 27970 27971 27972 27973 27974 27975 27976 27977 27978 27979 27980 27981 27982 27983 27984 27985 27986 27987 27988 27989 27990 27991 27992 27993 27994 27995 27996 27997 27998 27999 28000 28001 28002 28003 28004 28005 28006 28007 28008 28009 28010 28011 28012 28013 28014 28015 28016 28017 28018 28019 28020 28021 28022 28023 28024 28025 28026 28027 28028 28029 28030 28031 28032 28033 28034 28035 28036 28037 28038 28039 28040 28041 28042 28043 28044 28045 28046 28047 28048 28049 28050 28051 28052 28053 28054 28055 28056 28057 28058 28059 28060 28061 28062 28063 28064 28065 28066 28067 28068 28069 28070 28071 28072 28073 28074 28075 28076 28077 28078 28079 28080 28081 28082 28083 28084 28085 28086 28087 28088 28089 28090 28091 28092 28093 28094 28095 28096 28097 28098 28099 28100 28101 28102 28103 28104 28105 28106 28107 28108 28109 28110 28111 28112 28113 28114 28115 28116 28117 28118 28119 28120 28121 28122 28123 28124 28125 28126 28127 28128 28129 28130 28131 28132 28133 28134 28135 28136 28137 28138 28139 28140 28141 28142 28143 28144 28145 28146 28147 28148 28149 28150 28151 28152 28153 28154 28155 28156 28157 28158 28159 28160 28161 28162 28163 28164 28165 28166 28167 28168 28169 28170 28171 28172 28173 28174 28175 28176 28177 28178 28179 28180 28181 28182 28183 28184 28185 28186 28187 28188 28189 28190 28191 28192 28193 28194 28195 28196 28197 28198 28199 28200 28201 28202 28203 28204 28205 28206 28207 28208 28209 28210 28211 28212 28213 28214 28215 28216 28217 28218 28219 28220 28221 28222 28223 28224 28225 28226 28227 28228 28229 28230 28231 28232 28233 28234 28235 28236 28237 28238 28239 28240 28241 28242 28243 28244 28245 28246 28247 28248 28249 28250 28251 28252 28253 28254 28255 28256 28257 28258 28259 28260 28261 28262 28263 28264 28265 28266 28267 28268 28269 28270 28271 28272 28273 28274 28275 28276 28277 28278 28279 28280 28281 28282 28283 28284 28285 28286 28287 28288 28289 28290 28291 28292 28293 28294 28295 28296 28297 28298 28299 28300 28301 28302 28303 28304 28305 28306 28307 28308 28309 28310 28311 28312 28313 28314 28315 28316 28317 28318 28319 28320 28321 28322 28323 28324 28325 28326 28327 28328 28329 28330 28331 28332 28333 28334 28335 28336 28337 28338 28339 28340 28341 28342 28343 28344 28345 28346 28347 28348 28349 28350 28351 28352 28353 28354 28355 28356 28357 28358 28359 28360 28361 28362 28363 28364 28365 28366 28367 28368 28369 28370 28371 28372 28373 28374 28375 28376 28377 28378 28379 28380 28381 28382 28383 28384 28385 28386 28387 28388 28389 28390 28391 28392 28393 28394 28395 28396 28397 28398 28399 28400 28401 28402 28403 28404 28405 28406 28407 28408 28409 28410 28411 28412 28413 28414 28415 28416 28417 28418 28419 28420 28421 28422 28423 28424 28425 28426 28427 28428 28429 28430 28431 28432 28433 28434 28435 28436 28437 28438 28439 28440 28441 28442 28443 28444 28445 28446 28447 28448 28449 28450 28451 28452 28453 28454 28455 28456 28457 28458 28459 28460 28461 28462 28463 28464 28465 28466 28467 28468 28469 28470 28471 28472 28473 28474 28475 28476 28477 28478 28479 28480 28481 28482 28483 28484 28485 28486 28487 28488 28489 28490 28491 28492 28493 28494 28495 28496 28497 28498 28499 28500 28501 28502 28503 28504 28505 28506 28507 28508 28509 28510 28511 28512 28513 28514 28515 28516 28517 28518 28519 28520 28521 28522 28523 28524 28525 28526 28527 28528 28529 28530 28531 28532 28533 28534 28535 28536 28537 28538 28539 28540 28541 28542 28543 28544 28545 28546 28547 28548 28549 28550 28551 28552 28553 28554 28555 28556 28557 28558 28559 28560 28561 28562 28563 28564 28565 28566 28567 28568 28569 28570 28571 28572 28573 28574 28575 28576 28577 28578 28579 28580 28581 28582 28583 28584 28585 28586 28587 28588 28589 28590 28591 28592 28593 28594 28595 28596 28597 28598 28599 28600 28601 28602 28603 28604 28605 28606 28607 28608 28609 28610 28611 28612 28613 28614 28615 28616 28617 28618 28619 28620 28621 28622 28623 28624 28625 28626 28627 28628 28629 28630 28631 28632 28633 28634 28635 28636 28637 28638 28639 28640 28641 28642 28643 28644 28645 28646 28647 28648 28649 28650 28651 28652 28653 28654 28655 28656 28657 28658 28659 28660 28661 28662 28663 28664 28665 28666 28667 28668 28669 28670 28671 28672 28673 28674 28675 28676 28677 28678 28679 28680 28681 28682 28683 28684 28685 28686 28687 28688 28689 28690 28691 28692 28693 28694 28695 28696 28697 28698 28699 28700 28701 28702 28703 28704 28705 28706 28707 28708 28709 28710 28711 28712 28713 28714 28715 28716 28717 28718 28719 28720 28721 28722 28723 28724 28725 28726 28727 28728 28729 28730 28731 28732 28733 28734 28735 28736 28737 28738 28739 28740 28741 28742 28743 28744 28745 28746 28747 28748 28749 28750 28751 28752 28753 28754 28755 28756 28757 28758 28759 28760 28761 28762 28763 28764 28765 28766 28767 28768 28769 28770 28771 28772 28773 28774 28775 28776 28777 28778 28779 28780 28781 28782 28783 28784 28785 28786 28787 28788 28789 28790 28791 28792 28793 28794 28795 28796 28797 28798 28799 28800 28801 28802 28803 28804 28805 28806 28807 28808 28809 28810 28811 28812 28813 28814 28815 28816 28817 28818 28819 28820 28821 28822 28823 28824 28825 28826 28827 28828 28829 28830 28831 28832 28833 28834 28835 28836 28837 28838 28839 28840 28841 28842 28843 28844 28845 28846 28847 28848 28849 28850 28851 28852 28853 28854 28855 28856 28857 28858 28859 28860 28861 28862 28863 28864 28865 28866 28867 28868 28869 28870 28871 28872 28873 28874 28875 28876 28877 28878 28879 28880 28881 28882 28883 28884 28885 28886 28887 28888 28889 28890 28891 28892 28893 28894 28895 28896 28897 28898 28899 28900 28901 28902 28903 28904 28905 28906 28907 28908 28909 28910 28911 28912 28913 28914 28915 28916 28917 28918 28919 28920 28921 28922 28923 28924 28925 28926 28927 28928 28929 28930 28931 28932 28933 28934 28935 28936 28937 28938 28939 28940 28941 28942 28943 28944 28945 28946 28947 28948 28949 28950 28951 28952 28953 28954 28955 28956 28957 28958 28959 28960 28961 28962 28963 28964 28965 28966 28967 28968 28969 28970 28971 28972 28973 28974 28975 28976 28977 28978 28979 28980 28981 28982 28983 28984 28985 28986 28987 28988 28989 28990 28991 28992 28993 28994 28995 28996 28997 28998 28999 29000 29001 29002 29003 29004 29005 29006 29007 29008 29009 29010 29011 29012 29013 29014 29015 29016 29017 29018 29019 29020 29021 29022 29023 29024 29025 29026 29027 29028 29029 29030 29031 29032 29033 29034 29035 29036 29037 29038 29039 29040 29041 29042 29043 29044 29045 29046 29047 29048 29049 29050 29051 29052 29053 29054 29055 29056 29057 29058 29059 29060 29061 29062 29063 29064 29065 29066 29067 29068 29069 29070 29071 29072 29073 29074 29075 29076 29077 29078 29079 29080 29081 29082 29083 29084 29085 29086 29087 29088 29089 29090 29091 29092 29093 29094 29095 29096 29097 29098 29099 29100 29101 29102 29103 29104 29105 29106 29107 29108 29109 29110 29111 29112 29113 29114 29115 29116 29117 29118 29119 29120 29121 29122 29123 29124 29125 29126 29127 29128 29129 29130 29131 29132 29133 29134 29135 29136 29137 29138 29139 29140 29141 29142 29143 29144 29145 29146 29147 29148 29149 29150 29151 29152 29153 29154 29155 29156 29157 29158 29159 29160 29161 29162 29163 29164 29165 29166 29167 29168 29169 29170 29171 29172 29173 29174 29175 29176 29177 29178 29179 29180 29181 29182 29183 29184 29185 29186 29187 29188 29189 29190 29191 29192 29193 29194 29195 29196 29197 29198 29199 29200 29201 29202 29203 29204 29205 29206 29207 29208 29209 29210 29211 29212 29213 29214 29215 29216 29217 29218 29219 29220 29221 29222 29223 29224 29225 29226 29227 29228 29229 29230 29231 29232 29233 29234 29235 29236 29237 29238 29239 29240 29241 29242 29243 29244 29245 29246 29247 29248 29249 29250 29251 29252 29253 29254 29255 29256 29257 29258 29259 29260 29261 29262 29263 29264 29265 29266 29267 29268 29269 29270 29271 29272 29273 29274 29275 29276 29277 29278 29279 29280 29281 29282 29283 29284 29285 29286 29287 29288 29289 29290 29291 29292 29293 29294 29295 29296 29297 29298 29299 29300 29301 29302 29303 29304 29305 29306 29307 29308 29309 29310 29311 29312 29313 29314 29315 29316 29317 29318 29319 29320 29321 29322 29323 29324 29325 29326 29327 29328 29329 29330 29331 29332 29333 29334 29335 29336 29337 29338 29339 29340 29341 29342 29343 29344 29345 29346 29347 29348 29349 29350 29351 29352 29353 29354 29355 29356 29357 29358 29359 29360 29361 29362 29363 29364 29365 29366 29367 29368 29369 29370 29371 29372 29373 29374 29375 29376 29377 29378 29379 29380 29381 29382 29383 29384 29385 29386 29387 29388 29389 29390 29391 29392 29393 29394 29395 29396 29397 29398 29399 29400 29401 29402 29403 29404 29405 29406 29407 29408 29409 29410 29411 29412 29413 29414 29415 29416 29417 29418 29419 29420 29421 29422 29423 29424 29425 29426 29427 29428 29429 29430 29431 29432 29433 29434 29435 29436 29437 29438 29439 29440 29441 29442 29443 29444 29445 29446 29447 29448 29449 29450 29451 29452 29453 29454 29455 29456 29457 29458 29459 29460 29461 29462 29463 29464 29465 29466 29467 29468 29469 29470 29471 29472 29473 29474 29475 29476 29477 29478 29479 29480 29481 29482 29483 29484 29485 29486 29487 29488 29489 29490 29491 29492 29493 29494 29495 29496 29497 29498 29499 29500 29501 29502 29503 29504 29505 29506 29507 29508 29509 29510 29511 29512 29513 29514 29515 29516 29517 29518 29519 29520 29521 29522 29523 29524 29525 29526 29527 29528 29529 29530 29531 29532 29533 29534 29535 29536 29537 29538 29539 29540 29541 29542 29543 29544 29545 29546 29547 29548 29549 29550 29551 29552 29553 29554 29555 29556 29557 29558 29559 29560 29561 29562 29563 29564 29565 29566 29567 29568 29569 29570 29571 29572 29573 29574 29575 29576 29577 29578 29579 29580 29581 29582 29583 29584 29585 29586 29587 29588 29589 29590 29591 29592 29593 29594 29595 29596 29597 29598 29599 29600 29601 29602 29603 29604 29605 29606 29607 29608 29609 29610 29611 29612 29613 29614 29615 29616 29617 29618 29619 29620 29621 29622 29623 29624 29625 29626 29627 29628 29629 29630 29631 29632 29633 29634 29635 29636 29637 29638 29639 29640 29641 29642 29643 29644 29645 29646 29647 29648 29649 29650 29651 29652 29653 29654 29655 29656 29657 29658 29659 29660 29661 29662 29663 29664 29665 29666 29667 29668 29669 29670 29671 29672 29673 29674 29675 29676 29677 29678 29679 29680 29681 29682 29683 29684 29685 29686 29687 29688 29689 29690 29691 29692 29693 29694 29695 29696 29697 29698 29699 29700 29701 29702 29703 29704 29705 29706 29707 29708 29709 29710 29711 29712 29713 29714 29715 29716 29717 29718 29719 29720 29721 29722 29723 29724 29725 29726 29727 29728 29729 29730 29731 29732 29733 29734 29735 29736 29737 29738 29739 29740 29741 29742 29743 29744 29745 29746 29747 29748 29749 29750 29751 29752 29753 29754 29755 29756 29757 29758 29759 29760 29761 29762 29763 29764 29765 29766 29767 29768 29769 29770 29771 29772 29773 29774 29775 29776 29777 29778 29779 29780 29781 29782 29783 29784 29785 29786 29787 29788 29789 29790 29791 29792 29793 29794 29795 29796 29797 29798 29799 29800 29801 29802 29803 29804 29805 29806 29807 29808 29809 29810 29811 29812 29813 29814 29815 29816 29817 29818 29819 29820 29821 29822 29823 29824 29825 29826 29827 29828 29829 29830 29831 29832 29833 29834 29835 29836 29837 29838 29839 29840 29841 29842 29843 29844 29845 29846 29847 29848 29849 29850 29851 29852 29853 29854 29855 29856 29857 29858 29859 29860 29861 29862 29863 29864 29865 29866 29867 29868 29869 29870 29871 29872 29873 29874 29875 29876 29877 29878 29879 29880 29881 29882 29883 29884 29885 29886 29887 29888 29889 29890 29891 29892 29893 29894 29895 29896 29897 29898 29899 29900 29901 29902 29903 29904 29905 29906 29907 29908 29909 29910 29911 29912 29913 29914 29915 29916 29917 29918 29919 29920 29921 29922 29923 29924 29925 29926 29927 29928 29929 29930 29931 29932 29933 29934 29935 29936 29937 29938 29939 29940 29941 29942 29943 29944 29945 29946 29947 29948 29949 29950 29951 29952 29953 29954 29955 29956 29957 29958 29959 29960 29961 29962 29963 29964 29965 29966 29967 29968 29969 29970 29971 29972 29973 29974 29975 29976 29977 29978 29979 29980 29981 29982 29983 29984 29985 29986 29987 29988 29989 29990 29991 29992 29993 29994 29995 29996 29997 29998 29999 30000 30001 30002 30003 30004 30005 30006 30007 30008 30009 30010 30011 30012 30013 30014 30015 30016 30017 30018 30019 30020 30021 30022 30023 30024 30025 30026 30027 30028 30029 30030 30031 30032 30033 30034 30035 30036 30037 30038 30039 30040 30041 30042 30043 30044 30045 30046 30047 30048 30049 30050 30051 30052 30053 30054 30055 30056 30057 30058 30059 30060 30061 30062 30063 30064 30065 30066 30067 30068 30069 30070 30071 30072 30073 30074 30075 30076 30077 30078 30079 30080 30081 30082 30083 30084 30085 30086 30087 30088 30089 30090 30091 30092 30093 30094 30095 30096 30097 30098 30099 30100 30101 30102 30103 30104 30105 30106 30107 30108 30109 30110 30111 30112 30113 30114 30115 30116 30117 30118 30119 30120 30121 30122 30123 30124 30125 30126 30127 30128 30129 30130 30131 30132 30133 30134 30135 30136 30137 30138 30139 30140 30141 30142 30143 30144 30145 30146 30147 30148 30149 30150 30151 30152 30153 30154 30155 30156 30157 30158 30159 30160 30161 30162 30163 30164 30165 30166 30167 30168 30169 30170 30171 30172 30173 30174 30175 30176 30177 30178 30179 30180 30181 30182 30183 30184 30185 30186 30187 30188 30189 30190 30191 30192 30193 30194 30195 30196 30197 30198 30199 30200 30201 30202 30203 30204 30205 30206 30207 30208 30209 30210 30211 30212 30213 30214 30215 30216 30217 30218 30219 30220 30221 30222 30223 30224 30225 30226 30227 30228 30229 30230 30231 30232 30233 30234 30235 30236 30237 30238 30239 30240 30241 30242 30243 30244 30245 30246 30247 30248 30249 30250 30251 30252 30253 30254 30255 30256 30257 30258 30259 30260 30261 30262 30263 30264 30265 30266 30267 30268 30269 30270 30271 30272 30273 30274 30275 30276 30277 30278 30279 30280 30281 30282 30283 30284 30285 30286 30287 30288 30289 30290 30291 30292 30293 30294 30295 30296 30297 30298 30299 30300 30301 30302 30303 30304 30305 30306 30307 30308 30309 30310 30311 30312 30313 30314 30315 30316 30317 30318 30319 30320 30321 30322 30323 30324 30325 30326 30327 30328 30329 30330 30331 30332 30333 30334 30335 30336 30337 30338 30339 30340 30341 30342 30343 30344 30345 30346 30347 30348 30349 30350 30351 30352 30353 30354 30355 30356 30357 30358 30359 30360 30361 30362 30363 30364 30365 30366 30367 30368 30369 30370 30371 30372 30373 30374 30375 30376 30377 30378 30379 30380 30381 30382 30383 30384 30385 30386 30387 30388 30389 30390 30391 30392 30393 30394 30395 30396 30397 30398 30399 30400 30401 30402 30403 30404 30405 30406 30407 30408 30409 30410 30411 30412 30413 30414 30415 30416 30417 30418 30419 30420 30421 30422 30423 30424 30425 30426 30427 30428 30429 30430 30431 30432 30433 30434 30435 30436 30437 30438 30439 30440 30441 30442 30443 30444 30445 30446 30447 30448 30449 30450 30451 30452 30453 30454 30455 30456 30457 30458 30459 30460 30461 30462 30463 30464 30465 30466 30467 30468 30469 30470 30471 30472 30473 30474 30475 30476 30477 30478 30479 30480 30481 30482 30483 30484 30485 30486 30487 30488 30489 30490 30491 30492 30493 30494 30495 30496 30497 30498 30499 30500 30501 30502 30503 30504 30505 30506 30507 30508 30509 30510 30511 30512 30513 30514 30515 30516 30517 30518 30519 30520 30521 30522 30523 30524 30525 30526 30527 30528 30529 30530 30531 30532 30533 30534 30535 30536 30537 30538 30539 30540 30541 30542 30543 30544 30545 30546 30547 30548 30549 30550 30551 30552 30553 30554 30555 30556 30557 30558 30559 30560 30561 30562 30563 30564 30565 30566 30567 30568 30569 30570 30571 30572 30573 30574 30575 30576 30577 30578 30579 30580 30581 30582 30583 30584 30585 30586 30587 30588 30589 30590 30591 30592 30593 30594 30595 30596 30597 30598 30599 30600 30601 30602 30603 30604 30605 30606 30607 30608 30609 30610 30611 30612 30613 30614 30615 30616 30617 30618 30619 30620 30621 30622 30623 30624 30625 30626 30627 30628 30629 30630 30631 30632 30633 30634 30635 30636 30637 30638 30639 30640 30641 30642 30643 30644 30645 30646 30647 30648 30649 30650 30651 30652 30653 30654 30655 30656 30657 30658 30659 30660 30661 30662 30663 30664 30665 30666 30667 30668 30669 30670 30671 30672 30673 30674 30675 30676 30677 30678 30679 30680 30681 30682 30683 30684 30685 30686 30687 30688 30689 30690 30691 30692 30693 30694 30695 30696 30697 30698 30699 30700 30701 30702 30703 30704 30705 30706 30707 30708 30709 30710 30711 30712 30713 30714 30715 30716 30717 30718 30719 30720 30721 30722 30723 30724 30725 30726 30727 30728 30729 30730 30731 30732 30733 30734 30735 30736 30737 30738 30739 30740 30741 30742 30743 30744 30745 30746 30747 30748 30749 30750 30751 30752 30753 30754 30755 30756 30757 30758 30759 30760 30761 30762 30763 30764 30765 30766 30767 30768 30769 30770 30771 30772 30773 30774 30775 30776 30777 30778 30779 30780 30781 30782 30783 30784 30785 30786 30787 30788 30789 30790 30791 30792 30793 30794 30795 30796 30797 30798 30799 30800 30801 30802 30803 30804 30805 30806 30807 30808 30809 30810 30811 30812 30813 30814 30815 30816 30817 30818 30819 30820 30821 30822 30823 30824 30825 30826 30827 30828 30829 30830 30831 30832 30833 30834 30835 30836 30837 30838 30839 30840 30841 30842 30843 30844 30845 30846 30847 30848 30849 30850 30851 30852 30853 30854 30855 30856 30857 30858 30859 30860 30861 30862 30863 30864 30865 30866 30867 30868 30869 30870 30871 30872 30873 30874 30875 30876 30877 30878 30879 30880 30881 30882 30883 30884 30885 30886 30887 30888 30889 30890 30891 30892 30893 30894 30895 30896 30897 30898 30899 30900 30901 30902 30903 30904 30905 30906 30907 30908 30909 30910 30911 30912 30913 30914 30915 30916 30917 30918 30919 30920 30921 30922 30923 30924 30925 30926 30927 30928 30929 30930 30931 30932 30933 30934 30935 30936 30937 30938 30939 30940 30941 30942 30943 30944 30945 30946 30947 30948 30949 30950 30951 30952 30953 30954 
</DataArray>
<DataArray type="UInt32" Name="offsets" format="ascii">
3 6 9 11 13 16 19 22 25 28 31 34 36 39 42 44 47 50 52 55 58 61 64 67 70 73 76 79 82 85 88 91 94 97 99 102 105 108 110 113 116 119 122 125 128 131 134 137 139 142 145 148 151 154 156 159 162 165 168 171 174 177 179 182 185 188 191 194 197 200 203 206 209 212 215 218 221 224 227 230 233 236 239 242 245 248 251 254 257 260 263 266 269 272 275 278 281 284 287 290 293 296 299 302 305 308 311 314 317 320 323 326 329 331 334 337 340 343 346 349 351 354 357 360 363 366 369 372 374 377 379 382 385 387 390 393 396 399 402 405 408 411 414 417 420 423 426 429 432 435 438 441 444 447 450 453 456 459 462 465 468 471 474 477 480 483 486 489 492 495 498 501 504 507 510 513 516 518 521 524 527 530 532 535 538 541 544 547 550 553 556 559 562 565 568 571 574 577 580 583 586 589 592 595 598 601 604 607 610 613 616 619 622 625 628 631 634 637 640 643 646 649 652 655 658 661 664 667 670 673 676 679 682 685 688 691 694 697 700 703 706 708 711 714 717 720 723 726 729 732 735 738 741 744 747 750 753 756 759 762 765 768 771 774 777 780 783 786 788 791 793 796 799 802 805 807 810 813 815 817 819 822 824 827 830 832 835 838 840 843 845 847 850 853 856 859 862 864 867 870 873 876 878 881 883 886 889 892 895 898 901 903 906 909 912 915 918 921 924 927 930 933 936 939 942 945 948 951 954 957 959 962 964 966 969 971 974 976 979 982 985 988 991 994 996 999 1002 1005 1008 1011 1014 1016 1019 1022 1025 1028 1031 1033 1036 1039 1042 1045 1047 1050 1053 1056 1059 1062 1065 1068 1071 1073 1076 1079 1082 1085 1088 1091 1094 1097 1100 1103 1106 1109 1112 1115 1117 1120 1123 1126 1129 1131 1134 1137 1139 1142 1145 1148 1151 1154 1157 1160 1163 1165 1168 1170 1173 1175 1178 1181 1183 1186 1189 1191 1194 1196 1199 1201 1204 1206 1209 1212 1214 1217 1219 1221 1224 1227 1229 1232 1234 1236 1239 1241 1244 1247 1249 1252 1254 1257 1260 1263 1266 1269 1272 1275 1278 1281 1284 1287 1290 1293 1296 1299 1302 1304 1307 1310 1313 1316 1319 1322 1325 1328 1331 1334 1337 1340 1343 1346 1349 1351 1354 1357 1360 1363 1366 1369 1372 1374 1377 1380 1383 1386 1389 1392 1395 1398 1401 1404 1407 1410 1413 1416 1419 1422 1425 1428 1431 1434 1437 1440 1443 1446 1449 1452 1455 1458 1461 1464 1466 1469 1472 1474 1477 1480 1483 1486 1489 1492 1495 1498 1500 1503 1506 1509 1512 1514 1517 1520 1523 1526 1529 1531 1534 1537 1540 1542 1545 1548 1550 1552 1555 1558 1561 1564 1567 1569 1571 1574 1577 1580 1583 1585 1588 1591 1594 1597 1600 1603 1606 1609 1612 1614 1617 1620 1623 1626 1628 1631 1634 1636 1639 1642 1645 1648 1651 1653 1656 1659 1662 1665 1668 1671 1674 1677 1680 1683 1686 1689 1692 1695 1698 1701 1704 1707 1710 1713 1716 1718 1721 1724 1727 1730 1733 1736 1739 1742 1745 1748 1751 1754 1757 1760 1763 1766 1768 1771 1774 1777 1779 1782 1785 1787 1790 1792 1794 1797 1800 1803 1806 1809 1812 1815 1818 1820 1823 1826 1828 1831 1834 1837 1840 1843 1846 1849 1852 1854 1857 1860 1863 1866 1868 1871 1874 1877 1880 1883 1886 1889 1892 1895 1898 1901 1904 1907 1910 1913 1916 1919 1922 1925 1928 1931 1934 1937 1940 1943 1946 1949 1952 1955 1958 1960 1962 1965 1968 1971 1974 1977 1980 1983 1985 1988 1991 1994 1997 2000 2003 2005 2008 2011 2013 2015 2018 2020 2022 2025 2028 2031 2034 2037 2040 2042 2045 2047 2050 2052 2055 2058 2060 2063 2066 2069 2071 2074 2077 2080 2083 2086 2089 2091 2094 2097 2099 2102 2105 2108 2111 2114 2117 2120 2123 2125 2128 2131 2134 2137 2140 2143 2146 2149 2152 2155 2158 2161 2163 2166 2169 2172 2174 2177 2180 2183 2186 2189 2192 2194 2197 2200 2203 2205 2208 2211 2214 2217 2220 2223 2226 2229 2231 2234 2236 2239 2242 2245 2248 2251 2254 2257 2260 2263 2266 2268 2271 2274 2277 2279 2282 2285 2288 2290 2293 2296 2299 2301 2303 2306 2309 2311 2314 2317 2320 2322 2325 2328 2330 2333 2336 2339 2342 2344 2347 2349 2352 2355 2358 2361 2364 2367 2370 2373 2375 2378 2381 2384 2387 2390 2392 2395 2397 2400 2402 2405 2408 2411 2414 2417 2420 2423 2426 2429 2432 2435 2438 2441 2444 2447 2450 2453 2455 2458 2461 2464 2467 2470 2473 2475 2478 2481 2484 2487 2490 2493 2496 2499 2502 2505 2508 2511 2514 2517 2520 2523 2526 2529 2531 2534 2537 2540 2543 2546 2549 2552 2555 2558 2561 2564 2567 2569 2571 2574 2577 2580 2583 2586 2588 2590 2593 2596 2598 2601 2604 2607 2609 2612 2615 2618 2620 2623 2625 2628 2631 2634 2637 2640 2642 2645 2648 2651 2654 2656 2659 2662 2665 2667 2670 2673 2676 2678 2681 2684 2686 2689 2692 2695 2698 2701 2704 2707 2710 2712 2715 2718 2721 2724 2726 2729 2732 2735 2738 2741 2744 2747 2750 2753 2756 2759 2762 2765 2768 2771 2774 2776 2779 2782 2784 2787 2790 2793 2796 2799 2802 2805 2808 2810 2813 2816 2818 2821 2824 2827 2830 2833 2835 2838 2841 2844 2847 2849 2852 2855 2858 2861 2863 2866 2869 2871 2874 2877 2880 2883 2886 2889 2892 2895 2898 2900 2902 2905 2908 2911 2914 2917 2919 2922 2924 2927 2930 2933 2936 2939 2942 2945 2947 2950 2953 2956 2958 2961 2964 2967 2969 2972 2975 2978 2981 2984 2986 2988 2990 2992 2995 2998 3001 3004 3006 3009 3012 3015 3018 3021 3024 3027 3030 3033 3036 3039 3042 3045 3048 3051 3054 3057 3060 3062 3065 3068 3071 3073 3076 3079 3082 3085 3088 3091 3094 3097 3100 3103 3106 3109 3112 3115 3118 3121 3123 3126 3129 3132 3135 3138 3141 3144 3147 3150 3153 3156 3159 3162 3164 3167 3169 3172 3175 3178 3181 3184 3186 3188 3191 3194 3196 3199 3201 3204 3207 3210 3213 3216 3219 3222 3225 3228 3231 3233 3236 3239 3242 3245 3248 3251 3254 3257 3260 3263 3266 3269 3272 3275 3278 3281 3284 3286 3289 3292 3295 3298 3301 3304 3307 3310 3313 3316 3319 3322 3325 3328 3331 3334 3337 3340 3343 3346 3349 3352 3355 3357 3360 3362 3365 3368 3370 3373 3376 3379 3381 3384 3387 3390 3393 3396 3399 3402 3405 3408 3411 3414 3417 3420 3423 3426 3429 3432 3434 3437 3440 3443 3446 3449 3452 3455 3458 3461 3464 3467 3470 3473 3476 3479 3481 3484 3487 3490 3493 3496 3499 3502 3505 3508 3511 3514 3517 3520 3523 3526 3529 3532 3535 3538 3541 3544 3547 3549 3552 3555 3558 3561 3564 3567 3570 3573 3576 3579 3581 3584 3587 3590 3593 3596 3599 3601 3604 3607 3610 3613 3616 3619 3622 3625 3628 3631 3634 3637 3640 3643 3646 3649 3652 3655 3658 3661 3663 3666 3669 3672 3675 3678 3681 3684 3687 3690 3693 3696 3699 3701 3704 3707 3710 3712 3715 3718 3721 3724 3727 3729 3732 3735 3738 3740 3742 3745 3748 3751 3754 3757 3760 3763 3765 3768 3771 3774 3777 3780 3783 3786 3789 3792 3795 3798 3801 3804 3807 3809 3812 3815 3818 3820 3823 3826 3829 3832 3835 3838 3841 3844 3847 3850 3853 3856 3859 3862 3865 3868 3871 3873 3876 3879 3882 3885 3887 3890 3893 3895 3898 3901 3904 3906 3909 3912 3915 3918 3921 3924 3927 3930 3933 3936 3939 3942 3945 3948 3951 3954 3957 3960 3963 3966 3969 3972 3975 3978 3981 3983 3986 3989 3992 3995 3998 4001 4004 4007 4010 4013 4016 4019 4021 4024 4027 4030 4033 4036 4039 4042 4045 4048 4051 4054 4057 4060 4063 4066 4069 4072 4075 4077 4080 4083 4086 4089 4092 4095 4098 4101 4104 4107 4110 4112 4115 4118 4121 4124 4127 4129 4132 4134 4137 4140 4143 4146 4149 4152 4155 4158 4161 4164 4167 4170 4173 4176 4178 4181 4184 4187 4190 4193 4196 4199 4202 4205 4208 4211 4214 4217 4220 4223 4226 4229 4232 4235 4238 4241 4244 4247 4250 4253 4256 4259 4262 4265 4268 4271 4274 4277 4280 4283 4286 4289 4292 4295 4298 4301 4304 4307 4310 4313 4316 4319 4322 4325 4328 4331 4334 4337 4340 4343 4346 4349 4352 4355 4358 4361 4364 4367 4370 4373 4376 4379 4382 4385 4388 4391 4394 4397 4400 4403 4406 4409 4412 4415 4418 4421 4424 4427 4430 4433 4436 4439 4442 4445 4448 4451 4454 4457 4460 4463 4466 4469 4472 4475 4478 4481 4484 4487 4490 4493 4496 4499 4502 4505 4508 4511 4514 4517 4520 4523 4526 4529 4532 4535 4538 4541 4544 4547 4550 4553 4556 4559 4562 4564 4567 4570 4573 4576 4579 4582 4585 4588 4591 4594 4597 4600 4603 4606 4609 4612 4615 4617 4620 4622 4624 4627 4630 4633 4636 4639 4642 4645 4648 4651 4654 4657 4660 4663 4666 4669 4672 4675 4678 4680 4683 4686 4689 4692 4695 4698 4701 4703 4706 4709 4712 4715 4718 4721 4724 4727 4730 4733 4736 4739 4742 4745 4748 4751 4754 4757 4760 4762 4765 4768 4771 4773 4776 4778 4781 4784 4786 4789 4792 4795 4798 4800 4803 4805 4808 4811 4814 4816 4819 4822 4824 4827 4830 4833 4836 4838 4841 4844 4847 4849 4852 4855 4857 4860 4862 4865 4867 4870 4872 4875 4877 4880 4883 4886 4889 4892 4895 4898 4901 4903 4906 4909 4912 4915 4918 4920 4923 4925 4928 4931 4934 4937 4940 4943 4946 4949 4952 4955 4958 4961 4964 4967 4970 4973 4976 4979 4982 4985 4988 4991 4994 4997 5000 5003 5006 5009 5012 5015 5018 5021 5024 5027 5030 5033 5036 5038 5041 5044 5047 5050 5052 5055 5058 5061 5064 5067 5069 5072 5075 5078 5081 5084 5086 5089 5092 5095 5098 5101 5104 5107 5110 5113 5115 5117 5120 5123 5126 5129 5132 5135 5138 5141 5144 5147 5150 5153 5156 5159 5162 5165 5168 5171 5174 5177 5180 5183 5186 5189 5192 5195 5198 5201 5204 5207 5210 5213 5216 5218 5221 5223 5226 5229 5232 5235 5238 5241 5244 5247 5250 5253 5256 5259 5262 5264 5267 5270 5273 5276 5279 5282 5285 5288 5291 5294 5297 5300 5303 5305 5307 5310 5313 5316 5319 5322 5325 5328 5331 5334 5337 5339 5342 5345 5348 5351 5354 5357 5360 5363 5365 5368 5371 5374 5377 5380 5383 5386 5388 5391 5394 5397 5400 5403 5406 5409 5412 5415 5418 5421 5424 5427 5430 5433 5435 5438 5441 5443 5446 5449 5452 5455 5457 5460 5463 5466 5469 5471 5474 5477 5480 5483 5486 5489 5492 5495 5498 5501 5504 5507 5510 5513 5515 5518 5520 5523 5526 5529 5532 5535 5538 5540 5543 5546 5549 5552 5555 5558 5561 5564 5567 5570 5573 5576 5579 5582 5584 5587 5590 5593 5596 5599 5602 5604 5607 5610 5613 5616 5619 5622 5625 5627 5630 5632 5634 5637 5639 5642 5645 5648 5651 5654 5657 5660 5663 5666 5669 5672 5675 5678 5681 5684 5687 5690 5693 5696 5699 5702 5705 5708 5711 5714 5717 5720 5723 5726 5729 5732 5735 5738 5741 5744 5747 5750 5753 5756 5758 5761 5764 5767 5770 5773 5776 5779 5782 5785 5788 5791 5793 5796 5799 5802 5805 5808 5810 5813 5816 5819 5822 5825 5828 5831 5834 5837 5839 5842 5845 5848 5850 5853 5856 5859 5862 5865 5868 5871 5874 5877 5880 5883 5886 5889 5892 5894 5897 5900 5902 5905 5908 5911 5914 5917 5920 5923 5926 5929 5932 5935 5937 5940 5943 5946 5948 5951 5954 5957 5959 5962 5965 5968 5971 5974 5977 5980 5983 5986 5989 5992 5995 5998 6001 6004 6007 6010 6013 6016 6019 6021 6024 6027 6030 6033 6036 6039 6042 6045 6048 6051 6054 6056 6059 6061 6064 6067 6070 6073 6076 6079 6082 6085 6088 6090 6093 6096 6099 6102 6105 6108 6111 6114 6117 6120 6123 6126 6129 6131 6134 6137 6140 6143 6146 6149 6152 6155 6158 6161 6164 6167 6170 6173 6176 6179 6182 6185 6188 6191 6194 6197 6200 6203 6206 6209 6212 6215 6218 6221 6224 6227 6230 6233 6236 6239 6242 6245 6248 6251 6254 6257 6260 6263 6266 6269 6272 6275 6278 6281 6284 6287 6290 6293 6296 6299 6302 6305 6308 6311 6314 6317 6320 6322 6325 6328 6331 6334 6337 6340 6343 6346 6349 6352 6355 6358 6361 6363 6366 6369 6372 6374 6377 6380 6383 6385 6388 6390 6393 6395 6398 6401 6404 6407 6409 6412 6414 6417 6420 6423 6426 6429 6432 6435 6437 6440 6443 6446 6449 6452 6455 6458 6461 6463 6466 6469 6472 6475 6477 6480 6483 6486 6489 6492 6495 6498 6501 6504 6507 6510 6512 6515 6518 6521 6524 6527 6530 6533 6536 6539 6542 6544 6547 6550 6553 6556 6559 6562 6565 6567 6570 6573 6576 6579 6582 6585 6588 6591 6593 6596 6599 6602 6605 6608 6611 6614 6617 6620 6623 6626 6629 6632 6635 6638 6641 6644 6647 6650 6653 6656 6659 6662 6664 6667 6669 6672 6675 6678 6681 6684 6687 6690 6693 6696 6699 6702 6705 6708 6711 6714 6717 6720 6723 6726 6729 6731 6734 6737 6740 6743 6746 6749 6752 6755 6758 6761 6764 6767 6770 6773 6776 6779 6782 6784 6786 6789 6792 6794 6797 6800 6802 6805 6808 6811 6814 6817 6820 6823 6826 6829 6832 6835 6838 6841 6844 6847 6850 6853 6856 6859 6862 6865 6868 6871 6874 6877 6880 6883 6886 6889 6892 6895 6898 6901 6904 6907 6910 6913 6916 6919 6922 6925 6928 6931 6934 6937 6940 6943 6945 6948 6951 6954 6957 6960 6963 6965 6968 6970 6972 6975 6977 6980 6983 6986 6988 6991 6994 6997 6999 7002 7005 7008 7011 7014 7017 7019 7022 7025 7028 7031 7034 7037 7040 7042 7045 7048 7050 7053 7055 7058 7061 7064 7066 7069 7072 7075 7078 7081 7084 7087 7090 7092 7095 7098 7101 7103 7106 7109 7112 7115 7118 7121 7124 7127 7130 7132 7135 7138 7140 7143 7145 7148 7151 7154 7156 7159 7162 7165 7168 7170 7172 7175 7178 7181 7184 7187 7190 7193 7196 7198 7201 7204 7206 7209 7212 7214 7217 7220 7223 7225 7227 7230 7233 7235 7238 7241 7244 7247 7250 7252 7255 7258 7261 7264 7267 7270 7273 7276 7279 7282 7285 7288 7291 7294 7297 7300 7303 7306 7309 7312 7314 7316 7319 7322 7325 7328 7330 7332 7335 7338 7341 7344 7346 7349 7352 7355 7358 7361 7364 7367 7370 7373 7376 7379 7382 7385 7388 7391 7394 7397 7400 7403 7406 7409 7412 7415 7418 7421 7424 7427 7430 7433 7436 7439 7442 7445 7448 7451 7454 7457 7459 7462 7465 7468 7471 7474 7476 7479 7482 7485 7488 7490 7493 7496 7498 7501 7504 7507 7510 7513 7516 7519 7522 7524 7527 7530 7533 7536 7539 7542 7545 7547 7550 7553 7555 7558 7561 7564 7567 7570 7573 7576 7579 7582 7585 7588 7591 7594 7597 7600 7603 7606 7609 7611 7614 7617 7619 7622 7625 7627 7630 7633 7636 7639 7641 7644 7647 7650 7653 7656 7658 7660 7663 7665 7668 7671 7674 7677 7680 7683 7686 7689 7692 7695 7698 7701 7704 7707 7710 7713 7716 7719 7722 7725 7728 7731 7734 7737 7740 7743 7746 7749 7752 7755 7758 7761 7764 7767 7770 7773 7776 7779 7782 7785 7787 7789 7792 7795 7798 7801 7803 7806 7808 7811 7814 7817 7820 7823 7825 7827 7830 7833 7836 7839 7841 7844 7847 7849 7852 7855 7857 7860 7863 7866 7869 7872 7875 7878 7881 7883 7886 7889 7892 7895 7897 7900 7903 7906 7909 7911 7914 7917 7920 7923 7926 7928 7931 7933 7936 7939 7942 7945 7948 7951 7954 7956 7959 7962 7964 7967 7970 7972 7974 7977 7979 7982 7984 7987 7990 7993 7996 7999 8002 8005 8008 8011 8014 8017 8020 8023 8026 8029 8032 8035 8038 8041 8044 8047 8050 8053 8056 8059 8062 8065 8068 8070 8073 8076 8079 8082 8085 8088 8090 8093 8096 8099 8102 8105 8108 8111 8114 8117 8120 8123 8126 8129 8132 8135 8138 8141 8144 8147 8150 8153 8156 8159 8162 8165 8168 8171 8174 8177 8180 8183 8185 8188 8190 8193 8196 8199 8202 8204 8207 8210 8213 8216 8219 8222 8225 8228 8231 8234 8237 8240 8243 8246 8249 8252 8255 8258 8261 8264 8267 8270 8273 8276 8279 8282 8285 8288 8291 8294 8297 8300 8303 8306 8309 8312 8315 8318 8321 8324 8327 8330 8333 8335 8338 8341 8344 8347 8350 8353 8356 8359 8362 8365 8368 8371 8373 8376 8379 8382 8385 8388 8390 8393 8396 8399 8402 8405 8408 8411 8414 8416 8419 8422 8425 8428 8431 8434 8437 8440 8443 8446 8449 8452 8455 8458 8461 8464 8466 8469 8472 8475 8477 8479 8482 8485 8487 8490 8493 8496 8498 8501 8504 8507 8510 8512 8515 8518 8521 8524 8527 8530 8533 8536 8539 8542 8545 8548 8551 8554 8557 8560 8563 8566 8568 8571 8574 8577 8580 8583 8586 8589 8591 8594 8597 8600 8603 8606 8609 8612 8615 8618 8621 8624 8627 8630 8633 8636 8639 8642 8645 8648 8651 8653 8656 8659 8662 8665 8668 8671 8674 8676 8679 8682 8685 8688 8691 8694 8697 8699 8701 8704 8707 8710 8713 8716 8719 8722 8725 8728 8731 8733 8736 8738 8741 8743 8746 8749 8752 8755 8758 8761 8764 8767 8770 8773 8775 8778 8781 8783 8786 8789 8792 8795 8797 8800 8803 8806 8809 8812 8815 8818 8821 8823 8826 8829 8832 8835 8838 8841 8844 8847 8850 8853 8856 8859 8862 8865 8868 8871 8873 8876 8879 8882 8885 8888 8891 8894 8897 8900 8903 8905 8908 8911 8914 8917 8920 8922 8925 8928 8931 8934 8936 8939 8942 8944 8947 8950 8953 8956 8959 8962 8965 8968 8970 8973 8976 8979 8982 8985 8988 8991 8994 8997 9000 9003 9006 9009 9012 9014 9017 9020 9023 9026 9029 9032 9035 9038 9041 9044 9047 9050 9053 9056 9058 9061 9063 9066 9069 9072 9075 9078 9080 9083 9085 9088 9091 9094 9097 9100 9103 9106 9108 9111 9114 9117 9120 9123 9126 9129 9132 9135 9138 9141 9144 9147 9150 9153 9155 9158 9161 9164 9167 9170 9173 9175 9178 9181 9184 9187 9190 9192 9195 9198 9200 9203 9206 9209 9211 9213 9216 9219 9222 9225 9227 9230 9232 9235 9238 9241 9244 9247 9250 9253 9256 9259 9262 9264 9267 9270 9273 9276 9279 9281 9284 9287 9290 9293 9296 9299 9302 9305 9308 9311 9314 9317 9320 9323 9326 9329 9332 9335 9338 9340 9343 9346 9349 9352 9355 9358 9361 9364 9367 9370 9372 9375 9378 9381 9384 9386 9389 9392 9394 9396 9399 9402 9405 9407 9410 9413 9416 9419 9422 9425 9428 9431 9434 9437 9440 9443 9446 9448 9451 9453 9456 9458 9461 9464 9467 9470 9473 9476 9478 9481 9484 9487 9490 9493 9496 9499 9502 9505 9508 9511 9514 9517 9520 9523 9526 9529 9532 9535 9538 9541 9544 9547 9550 9553 9556 9559 9562 9565 9568 9571 9574 9576 9579 9582 9585 9588 9590 9593 9596 9599 9602 9605 9608 9611 9614 9617 9620 9623 9626 9629 9632 9635 9638 9641 9644 9647 9650 9653 9656 9659 9662 9665 9668 9671 9674 9677 9680 9683 9686 9689 9692 9694 9697 9700 9703 9706 9709 9711 9714 9717 9719 9722 9725 9728 9731 9734 9737 9740 9742 9745 9747 9750 9753 9756 9759 9762 9765 9768 9771 9774 9777 9780 9783 9786 9789 9792 9795 9798 9801 9804 9807 9810 9813 9815 9818 9821 9824 9827 9830 9832 9835 9838 9841 9844 9847 9850 9853 9856 9859 9862 9865 9868 9871 9874 9877 9880 9883 9886 9889 9892 9895 9898 9901 9904 9907 9910 9913 9916 9919 9921 9923 9926 9929 9932 9935 9937 9939 9942 9945 9948 9951 9953 9955 9958 9961 9963 9966 9969 9972 9974 9977 9980 9983 9986 9988 9991 9994 9997 9999 10002 10005 10008 10011 10014 10017 10020 10023 10026 10029 10032 10035 10037 10040 10043 10046 10049 10052 10055 10058 10061 10064 10067 10070 10073 10076 10079 10082 10085 10088 10091 10094 10097 10100 10103 10106 10109 10112 10115 10118 10121 10123 10126 10128 10131 10134 10136 10139 10142 10144 10147 10150 10153 10156 10159 10162 10165 10168 10171 10174 10177 10180 10183 10186 10189 10192 10195 10198 10201 10204 10207 10210 10213 10216 10219 10222 10225 10228 10231 10234 10236 10239 10242 10244 10246 10248 10251 10254 10256 10259 10262 10265 10268 10271 10274 10277 10279 10281 10284 10287 10290 10292 10295 10297 10299 10302 10305 10308 10311 10313 10316 10319 10322 10325 10328 10330 10333 10336 10339 10342 10345 10348 10350 10352 10355 10358 10361 10363 10366 10368 10370 10373 10376 10378 10381 10384 10387 10390 10392 10395 10398 10401 10404 10406 10409 10412 10415 10418 10421 10424 10427 10430 10432 10435 10438 10441 10444 10446 10449 10451 10454 10457 10460 10463 10466 10469 10472 10474 10476 10479 10481 10484 10487 10490 10493 10496 10499 10501 10504 10506 10509 10511 10514 10517 10520 10523 10526 10529 10532 10535 10538 10541 10544 10547 10549 10552 10555 10558 10560 10563 10566 10568 10570 10573 10576 10579 10582 10585 10588 10591 10594 10597 10600 10603 10606 10609 10612 10614 10617 10620 10623 10626 10629 10632 10635 10637 10639 10642 10645 10647 10650 10653 10656 10659 10662 10664 10667 10670 10673 10676 10679 10682 10685 10688 10691 10694 10697 10700 10703 10706 10709 10712 10715 10717 10719 10722 10724 10726 10729 10732 10735 10738 10741 10744 10747 10749 10752 10755 10758 10760 10763 10766 10768 10771 10774 10777 10780 10783 10786 10788 10791 10794 10797 10799 10802 10805 10807 10810 10813 10816 10819 10822 10825 10828 10831 10834 10837 10840 10843 10846 10849 10852 10855 10858 10861 10863 10866 10869 10872 10875 10878 10880 10883 10886 10889 10892 10895 10898 10901 10904 10907 10910 10913 10916 10919 10922 10925 10928 10931 10934 10936 10939 10942 10945 10948 10951 10953 10956 10959 10962 10965 10968 10971 10974 10977 10980 10983 10986 10989 10992 10995 10998 11001 11003 11006 11009 11012 11015 11018 11021 11024 11026 11029 11031 11034 11037 11040 11043 11046 11049 11052 11055 11058 11061 11064 11067 11070 11073 11075 11078 11081 11084 11087 11089 11092 11095 11097 11100 11103 11106 11109 11112 11114 11117 11120 11123 11126 11129 11132 11135 11138 11140 11143 11146 11149 11152 11155 11158 11161 11164 11167 11170 11173 11176 11179 11182 11185 11188 11191 11194 11197 11200 11203 11206 11209 11212 11215 11218 11221 11224 11227 11230 11233 11236 11239 11242 11244 11247 11250 11252 11255 11258 11261 11264 11266 11269 11272 11275 11278 11281 11283 11286 11289 11291 11293 11296 11299 11302 11304 11306 11309 11312 11315 11317 11320 11323 11325 11328 11331 11334 11337 11340 11342 11345 11348 11351 11354 11356 11359 11362 11365 11368 11371 11374 11377 11380 11382 11384 11387 11389 11392 11395 11398 11401 11404 11407 11410 11412 11415 11418 11420 11423 11426 11428 11431 11434 11436 11439 11441 11444 11446 11449 11451 11454 11456 11459 11461 11464 11467 11470 11473 11476 11479 11482 11485 11488 11491 11493 11495 11497 11500 11503 11505 11507 11510 11513 11515 11517 11520 11523 11526 11528 11531 11533 11535 11538 11540 11543 11546 11549 11552 11555 11558 11560 11563 11566 11569 11572 11574 11577 11580 11583 11586 11589 11592 11595 11598 11601 11604 11607 11610 11612 11614 11617 11620 11623 11626 11629 11632 11635 11638 11641 11644 11647 11650 11652 11655 11658 11661 11663 11666 11669 11672 11675 11677 11680 11683 11686 11689 11691 11694 11697 11699 11701 11704 11707 11710 11713 11716 11719 11722 11725 11728 11731 11734 11737 11740 11743 11746 11749 11752 11755 11757 11760 11763 11766 11768 11771 11774 11776 11779 11782 11785 11788 11791 11793 11796 11799 11802 11805 11808 11811 11814 11817 11820 11823 11826 11829 11832 11835 11837 11840 11843 11846 11849 11852 11855 11858 11861 11864 11867 11870 11873 11876 11879 11882 11885 11887 11890 11893 11896 11899 11902 11905 11908 11911 11914 11917 11920 11922 11925 11928 11931 11934 11937 11940 11942 11945 11948 11951 11954 11957 11960 11962 11965 11968 11971 11973 11976 11979 11982 11985 11988 11991 11994 11997 12000 12003 12006 12009 12012 12015 12017 12020 12023 12025 12028 12030 12033 12036 12039 12042 12044 12047 12049 12052 12055 12057 12060 12062 12065 12068 12071 12074 12077 12079 12082 12085 12088 12091 12094 12097 12099 12102 12105 12108 12111 12114 12116 12118 12121 12124 12127 12130 12133 12136 12139 12142 12144 12147 12150 12152 12155 12158 12161 12164 12167 12170 12172 12175 12178 12181 12184 12186 12189 12192 12195 12198 12200 12202 12205 12208 12211 12214 12217 12220 12223 12226 12229 12232 12234 12237 12240 12242 12245 12248 12251 12254 12257 12260 12263 12266 12269 12272 12275 12278 12281 12284 12287 12290 12293 12296 12299 12301 12304 12307 12310 12313 12315 12318 12321 12324 12327 12330 12333 12336 12339 12341 12344 12347 12350 12353 12356 12359 12362 12365 12368 12370 12373 12376 12379 12382 12385 12387 12390 12393 12396 12399 12402 12405 12408 12411 12413 12416 12419 12422 12425 12428 12431 12434 12437 12440 12443 12446 12449 12452 12455 12458 12461 12464 12467 12470 12473 12476 12479 12482 12484 12487 12490 12493 12496 12499 12501 12504 12507 12509 12512 12515 12517 12519 12522 12524 12527 12530 12533 12536 12539 12542 12544 12547 12549 12552 12555 12558 12561 12564 12567 12570 12572 12575 12578 12580 12583 12586 12589 12592 12595 12597 12600 12603 12606 12609 12612 12615 12618 12621 12624 12627 12629 12632 12635 12638 12641 12644 12646 12649 12652 12655 12657 12659 12662 12665 12667 12670 12673 12676 12678 12680 12683 12686 12688 12691 12694 12697 12700 12703 12706 12709 12712 12715 12718 12721 12724 12727 12730 12733 12736 12739 12742 12745 12748 12751 12754 12756 12759 12762 12765 12768 12771 12774 12777 12780 12783 12786 12789 12792 12795 12798 12801 12804 12807 12809 12812 12815 12818 12821 12824 12826 12829 12832 12835 12838 12840 12843 12846 12849 12852 12855 12857 12860 12863 12866 12869 12872 12874 12877 12880 12883 12886 12889 12892 12895 12898 12901 12904 12906 12909 12912 12914 12917 12920 12923 12925 12928 12931 12934 12937 12939 12942 12945 12948 12951 12954 12956 12959 12962 12965 12968 12971 12974 12977 12980 12983 12986 12988 12991 12994 12997 13000 13003 13006 13009 13012 13014 13017 13020 13023 13026 13028 13031 13034 13037 13040 13043 13046 13049 13052 13055 13058 13060 13063 13065 13068 13071 13073 13076 13079 13082 13084 13087 13090 13093 13096 13099 13102 13104 13107 13110 13112 13115 13117 13119 13122 13125 13127 13130 13133 13136 13138 13141 13144 13147 13150 13153 13156 13158 13160 13163 13166 13169 13171 13173 13176 13179 13182 13184 13187 13190 13193 13195 13198 13201 13204 13207 13210 13212 13215 13218 13221 13224 13226 13229 13232 13234 13237 13239 13242 13245 13248 13251 13254 13257 13260 13263 13266 13268 13271 13274 13277 13280 13283 13286 13289 13292 13295 13297 13300 13303 13305 13308 13311 13313 13316 13319 13322 13325 13327 13330 13333 13336 13339 13342 13345 13348 13351 13354 13357 13360 13363 13366 13369 13372 13375 13378 13381 13384 13387 13390 13393 13396 13399 13402 13405 13408 13411 13414 13416 13419 13422 13425 13428 13431 13434 13436 13439 13442 13444 13447 13450 13453 13456 13459 13462 13465 13468 13470 13473 13476 13479 13482 13484 13487 13490 13493 13496 13498 13501 13504 13507 13510 13513 13515 13518 13521 13524 13527 13530 13532 13535 13538 13541 13544 13547 13550 13553 13556 13558 13561 13564 13567 13570 13572 13575 13578 13581 13584 13587 13590 13593 13596 13599 13602 13605 13608 13611 13613 13616 13619 13622 13625 13628 13631 13634 13636 13639 13642 13645 13648 13651 13654 13657 13660 13663 13666 13669 13672 13675 13678 13681 13684 13687 13690 13693 13696 13699 13702 13705 13708 13711 13714 13717 13720 13723 13726 13729 13732 13735 13738 13741 13744 13747 13750 13753 13756 13759 13762 13764 13767 13770 13772 13775 13777 13779 13782 13785 13788 13791 13794 13797 13800 13803 13806 13809 13812 13815 13818 13820 13823 13826 13829 13832 13835 13838 13841 13843 13846 13849 13852 13855 13858 13861 13864 13867 13870 13873 13876 13879 13882 13885 13888 13891 13894 13897 13900 13903 13906 13909 13912 13915 13918 13921 13924 13927 13929 13932 13935 13937 13940 13943 13946 13948 13951 13954 13957 13960 13963 13966 13969 13972 13975 13978 13981 13984 13987 13990 13993 13996 13999 14002 14005 14008 14011 14014 14017 14019 14022 14025 14028 14031 14034 14037 14040 14043 14045 14048 14051 14054 14057 14060 14063 14066 14069 14071 14074 14077 14080 14083 14086 14089 14092 14095 14098 14101 14103 14106 14109 14112 14115 14118 14121 14123 14126 14129 14132 14135 14138 14141 14144 14147 14150 14153 14156 14158 14160 14163 14166 14169 14172 14175 14177 14180 14183 14186 14189 14192 14195 14197 14200 14203 14206 14209 14212 14215 14217 14220 14222 14225 14228 14231 14234 14237 14240 14243 14246 14249 14252 14255 14258 14261 14264 14267 14270 14273 14276 14279 14282 14285 14288 14291 14294 14297 14300 14303 14306 14309 14312 14315 14317 14320 14323 14326 14329 14332 14335 14338 14341 14344 14347 14350 14352 14355 14358 14361 14364 14367 14369 14372 14374 14377 14380 14383 14386 14389 14392 14395 14397 14400 14403 14406 14409 14412 14415 14418 14421 14423 14426 14429 14432 14435 14438 14441 14444 14447 14450 14452 14455 14458 14461 14464 14467 14470 14473 14476 14479 14482 14485 14488 14490 14493 14496 14499 14502 14504 14507 14510 14513 14516 14519 14522 14525 14528 14531 14534 14536 14539 14542 14545 14548 14551 14554 14557 14560 14562 14565 14568 14570 14573 14576 14579 14582 14585 14588 14591 14594 14597 14600 14602 14605 14607 14610 14612 14615 14617 14620 14623 14626 14628 14631 14634 14637 14639 14641 14644 14647 14650 14653 14655 14658 14661 14663 14665 14668 14671 14674 14676 14679 14682 14685 14687 14690 14693 14695 14698 14701 14703 14706 14708 14711 14714 14717 14719 14722 14725 14728 14731 14734 14737 14740 14743 14746 14749 14752 14755 14758 14761 14763 14766 14769 14772 14775 14778 14780 14783 14786 14789 14792 14794 14797 14800 14803 14806 14809 14812 14815 14818 14821 14823 14826 14829 14832 14835 14838 14841 14843 14846 14849 14852 14854 14857 14860 14863 14865 14868 14871 14874 14877 14880 14883 14886 14889 14891 14894 14897 14900 14903 14906 14909 14912 14915 14917 14920 14923 14926 14928 14931 14934 14936 14939 14942 14945 14948 14951 14954 14956 14959 14962 14964 14967 14969 14972 14975 14978 14980 14983 14986 14988 14991 14994 14997 15000 15003 15005 15008 15011 15013 15016 15019 15022 15025 15028 15031 15034 15037 15040 15043 15046 15049 15051 15054 15057 15060 15063 15066 15069 15072 15075 15078 15081 15084 15087 15090 15093 15096 15099 15102 15105 15108 15111 15114 15116 15119 15122 15125 15128 15131 15134 15137 15140 15143 15145 15148 15151 15154 15156 15159 15161 15164 15167 15170 15173 15175 15177 15180 15183 15185 15187 15190 15193 15196 15198 15201 15204 15206 15209 15211 15214 15217 15220 15222 15225 15228 15231 15234 15237 15240 15243 15246 15248 15251 15254 15257 15260 15263 15266 15269 15271 15274 15277 15279 15282 15285 15288 15290 15293 15295 15298 15301 15303 15306 15308 15310 15313 15316 15319 15322 15324 15327 15330 15332 15334 15337 15340 15343 15346 15349 15352 15355 15358 15361 15363 15366 15369 15372 15375 15377 15380 15383 15386 15389 15392 15395 15398 15401 15404 15407 15410 15413 15416 15419 15422 15425 15428 15431 15434 15437 15440 15443 15446 15449 15452 15455 15458 15461 15464 15467 15469 15472 15475 15477 15480 15483 15486 15489 15492 15495 15498 15501 15504 15507 15510 15512 15514 15517 15520 15523 15526 15529 15532 15535 15538 15541 15544 15547 15550 15553 15556 15559 15562 15565 15568 15571 15574 15576 15579 15582 15585 15588 15591 15594 15597 15600 15603 15606 15609 15612 15615 15618 15621 15624 15626 15629 15632 15635 15637 15640 15643 15646 15649 15652 15655 15657 15660 15663 15666 15669 15672 15675 15678 15681 15683 15685 15688 15691 15694 15697 15700 15703 15706 15708 15711 15714 15717 15720 15723 15726 15729 15731 15734 15737 15740 15743 15746 15749 15751 15754 15757 15760 15763 15766 15768 15771 15774 15776 15779 15782 15785 15788 15791 15794 15797 15799 15802 15805 15808 15810 15813 15816 15819 15822 15825 15828 15831 15834 15837 15840 15843 15846 15849 15852 15855 15858 15861 15864 15867 15870 15873 15876 15879 15882 15885 15888 15891 15894 15897 15900 15903 15906 15909 15912 15915 15918 15921 15923 15925 15928 15931 15934 15937 15940 15942 15945 15948 15951 15954 15956 15959 15962 15964 15967 15970 15973 15976 15979 15982 15985 15988 15991 15994 15997 16000 16003 16006 16009 16012 16015 16017 16020 16023 16026 16029 16031 16034 16037 16040 16042 16045 16048 16051 16054 16057 16059 16062 16064 16067 16070 16073 16076 16079 16082 16085 16087 16090 16093 16095 16098 16100 16103 16106 16109 16111 16114 16117 16119 16122 16125 16127 16130 16133 16136 16139 16142 16145 16148 16151 16154 16157 16160 16163 16166 16168 16171 16173 16176 16179 16182 16185 16188 16191 16194 16196 16199 16202 16204 16207 16210 16212 16215 16218 16221 16224 16227 16229 16232 16235 16238 16241 16243 16246 16249 16252 16254 16257 16260 16263 16266 16269 16272 16275 16278 16281 16284 16287 16290 16293 16296 16299 16302 16305 16308 16311 16313 16316 16319 16322 16324 16327 16330 16332 16335 16338 16341 16343 16346 16349 16352 16355 16358 16361 16364 16367 16370 16372 16375 16377 16380 16383 16386 16389 16392 16395 16398 16401 16404 16407 16410 16412 16415 16418 16421 16424 16427 16430 16433 16436 16439 16442 16445 16448 16451 16453 16456 16459 16462 16465 16468 16470 16472 16475 16478 16481 16484 16487 16490 16493 16496 16499 16502 16505 16508 16511 16514 16517 16520 16523 16526 16529 16532 16535 16538 16541 16543 16546 16549 16552 16555 16558 16561 16564 16567 16570 16573 16576 16579 16582 16585 16587 16590 16593 16596 16599 16602 16605 16608 16611 16614 16616 16619 16622 16625 16627 16630 16633 16636 16639 16642 16645 16648 16651 16654 16657 16660 16663 16666 16669 16672 16675 16678 16681 16684 16686 16689 16692 16695 16698 16701 16703 16706 16709 16712 16715 16718 16720 16723 16726 16728 16731 16734 16737 16739 16742 16745 16748 16751 16754 16757 16760 16763 16765 16768 16771 16773 16776 16779 16782 16784 16787 16790 16792 16795 16798 16800 16803 16805 16808 16811 16814 16816 16819 16822 16825 16828 16831 16834 16837 16840 16842 16845 16848 16851 16853 16856 16859 16862 16865 16868 16871 16874 16877 16880 16883 16886 16889 16891 16894 16896 16899 16902 16904 16907 16910 16913 16915 16918 16921 16924 16926 16928 16931 16934 16937 16940 16943 16946 16949 16952 16955 16958 16961 16964 16967 16970 16973 16976 16978 16980 16983 16986 16989 16991 16994 16997 17000 17003 17006 17008 17011 17014 17017 17020 17023 17026 17029 17032 17035 17038 17041 17044 17047 17050 17052 17055 17058 17061 17064 17067 17070 17073 17076 17079 17082 17085 17088 17091 17094 17097 17100 17103 17106 17109 17112 17115 17118 17121 17124 17127 17130 17132 17135 17137 17140 17143 17145 17148 17151 17154 17157 17160 17163 17165 17168 17171 17174 17177 17180 17182 17185 17188 17191 17194 17197 17200 17202 17205 17207 17210 17213 17216 17219 17222 17225 17228 17231 17234 17237 17240 17243 17246 17249 17252 17255 17258 17261 17264 17267 17270 17273 17276 17279 17281 17284 17287 17289 17292 17295 17298 17301 17304 17307 17310 17313 17316 17319 17322 17324 17327 17330 17333 17336 17339 17342 17345 17348 17351 17354 17356 17359 17362 17365 17368 17371 17374 17377 17379 17382 17385 17388 17391 17394 17396 17398 17401 17403 17405 17408 17411 17414 17416 17419 17422 17425 17428 17430 17433 17436 17439 17442 17444 17447 17450 17452 17455 17458 17460 17463 17466 17468 17471 17474 17477 17480 17483 17486 17489 17492 17495 17498 17501 17503 17506 17509 17512 17514 17517 17520 17522 17524 17526 17529 17532 17535 17537 17540 17543 17545 17547 17550 17553 17556 17559 17562 17565 17568 17571 17574 17577 17580 17583 17586 17589 17592 17595 17597 17600 17603 17606 17609 17612 17615 17618 17621 17624 17627 17630 17633 17636 17639 17642 17645 17648 17651 17654 17657 17660 17663 17666 17668 17670 17673 17676 17679 17681 17684 17687 17690 17693 17696 17699 17702 17705 17708 17710 17713 17716 17719 17722 17725 17727 17730 17733 17735 17738 17740 17743 17746 17749 17752 17754 17756 17759 17762 17765 17768 17771 17774 17777 17780 17783 17786 17789 17792 17795 17798 17801 17804 17807 17810 17813 17816 17819 17822 17825 17827 17830 17833 17836 17839 17842 17845 17848 17851 17854 17857 17860 17863 17866 17868 17871 17874 17876 17879 17882 17885 17888 17891 17894 17897 17900 17903 17906 17909 17912 17915 17917 17920 17923 17925 17928 17931 17934 17937 17940 17943 17946 17949 17952 17955 17958 17961 17964 17967 17970 17973 17976 17979 17981 17984 17987 17990 17993 17996 17999 18002 18005 18008 18011 18014 18016 18018 18021 18024 18027 18029 18032 18035 18038 18041 18043 18046 18049 18051 18054 18057 18060 18063 18066 18069 18072 18075 18078 18081 18084 18087 18090 18093 18096 18099 18102 18105 18108 18111 18114 18116 18119 18122 18125 18128 18131 18133 18136 18139 18142 18145 18148 18151 18154 18157 18160 18163 18166 18169 18172 18174 18177 18180 18183 18186 18189 18192 18195 18197 18200 18203 18206 18209 18212 18215 18218 18221 18224 18227 18230 18233 18236 18239 18242 18245 18248 18251 18253 18256 18259 18262 18264 18267 18270 18273 18276 18279 18282 18284 18286 18289 18292 18295 18298 18301 18303 18306 18309 18312 18315 18317 18320 18323 18326 18328 18331 18333 18335 18338 18341 18344 18347 18350 18353 18356 18359 18362 18365 18368 18371 18374 18377 18380 18382 18385 18388 18391 18394 18397 18400 18402 18405 18408 18411 18413 18416 18419 18421 18424 18427 18430 18432 18435 18437 18440 18443 18446 18449 18452 18455 18457 18460 18462 18465 18468 18471 18473 18475 18478 18481 18484 18487 18489 18492 18494 18496 18499 18502 18505 18508 18511 18514 18517 18519 18522 18525 18528 18531 18534 18537 18540 18543 18546 18548 18551 18554 18557 18560 18563 18566 18569 18572 18574 18576 18579 18582 18584 18587 18590 18592 18595 18598 18601 18603 18606 18609 18611 18614 18617 18620 18623 18626 18628 18631 18634 18637 18640 18643 18646 18649 18652 18655 18658 18661 18664 18667 18670 18673 18676 18679 18682 18685 18688 18690 18692 18695 18698 18701 18704 18706 18709 18712 18714 18717 18720 18723 18726 18729 18732 18735 18738 18741 18743 18745 18748 18751 18754 18757 18760 18763 18766 18769 18772 18775 18778 18781 18783 18786 18789 18792 18795 18798 18801 18804 18807 18810 18813 18816 18819 18822 18825 18827 18830 18833 18835 18838 18841 18844 18847 18850 18853 18856 18859 18862 18865 18868 18871 18874 18877 18880 18882 18885 18888 18891 18893 18896 18899 18902 18905 18908 18911 18914 18917 18920 18923 18926 18928 18931 18934 18937 18940 18943 18946 18949 18952 18955 18958 18961 18964 18967 18970 18973 18976 18979 18981 18984 18987 18990 18993 18996 18999 19002 19005 19008 19011 19014 19017 19020 19023 19026 19029 19032 19035 19038 19041 19044 19047 19050 19053 19056 19059 19062 19065 19068 19071 19074 19077 19079 19082 19085 19088 19091 19094 19097 19100 19103 19106 19109 19112 19115 19118 19121 19124 19127 19130 19133 19136 19139 19142 19145 19148 19151 19153 19155 19158 19161 19164 19167 19170 19173 19176 19179 19182 19185 19188 19191 19194 19197 19200 19203 19206 19209 19212 19215 19218 19221 19224 19227 19230 19233 19236 19239 19242 19245 19248 19251 19254 19257 19260 19263 19266 19269 19272 19275 19278 19281 19284 19287 19290 19293 19296 19299 19302 19305 19308 19311 19314 19317 19320 19323 19326 19328 19331 19334 19337 19339 19342 19345 19348 19351 19354 19357 19360 19363 19366 19369 19372 19375 19378 19381 19384 19387 19390 19393 19396 19399 19402 19405 19408 19411 19414 19416 19419 19422 19425 19428 19431 19434 19437 19440 19443 19446 19449 19452 19455 19458 19460 19463 19466 19469 19472 19475 19477 19480 19483 19485 19488 19491 19494 19497 19500 19503 19506 19508 19511 19513 19516 19519 19522 19525 19528 19530 19533 19536 19539 19542 19545 19548 19551 19553 19556 19559 19562 19565 19568 19571 19574 19576 19579 19582 19584 19587 19590 19593 19595 19598 19601 19604 19607 19610 19613 19616 19619 19622 19625 19628 19631 19634 19637 19639 19642 19645 19648 19651 19654 19657 19660 19663 19666 19669 19672 19675 19678 19681 19684 19687 19690 19693 19696 19698 19701 19703 19706 19708 19711 19713 19715 19718 19721 19724 19727 19730 19733 19736 19739 19742 19744 19747 19750 19753 19756 19759 19761 19764 19766 19769 19772 19775 19778 19781 19783 19786 19789 19791 19794 19797 19800 19803 19806 19809 19812 19814 19817 19820 19823 19826 19829 19832 19835 19838 19841 19844 19846 19849 19852 19854 19856 19859 19862 19865 19867 19870 19873 19876 19879 19882 19885 19888 19891 19893 19896 19899 19902 19905 19908 19911 19914 19917 19920 19923 19926 19929 19932 19935 19938 19941 19944 19947 19950 19953 19956 19959 19962 19965 19967 19970 19972 19974 19977 19980 19983 19986 19989 19992 19995 19998 20001 20004 20007 20010 20013 20016 20019 20022 20025 20028 20031 20034 20037 20040 20042 20045 20048 20050 20052 20055 20058 20061 20064 20067 20070 20073 20076 20079 20082 20085 20088 20091 20094 20097 20100 20103 20106 20109 20112 20114 20117 20120 20122 20125 20128 20130 20133 20136 20139 20142 20145 20148 20151 20154 20157 20160 20163 20166 20169 20172 20175 20178 20181 20184 20187 20190 20193 20195 20198 20201 20204 20206 20209 20212 20215 20218 20221 20223 20226 20229 20232 20235 20238 20240 20243 20246 20249 20252 20255 20258 20261 20264 20267 20270 20273 20276 20279 20281 20284 20286 20289 20292 20295 20298 20300 20303 20306 20309 20312 20315 20317 20320 20322 20325 20328 20331 20334 20337 20340 20343 20346 20349 20352 20355 20358 20360 20363 20366 20369 20372 20375 20378 20381 20384 20386 20389 20392 20395 20398 20401 20404 20407 20410 20413 20416 20419 20421 20424 20427 20430 20432 20435 20438 20440 20443 20445 20448 20451 20454 20457 20460 20463 20465 20468 20471 20474 20477 20480 20483 20486 20489 20492 20495 20498 20501 20504 20507 20510 20512 20515 20518 20521 20523 20526 20529 20532 20535 20538 20541 20544 20547 20549 20552 20554 20557 20560 20563 20566 20568 20571 20574 20577 20580 20583 20586 20589 20592 20595 20598 20601 20604 20607 20610 20613 20615 20618 20621 20624 20627 20630 20633 20635 20638 20641 20644 20647 20650 20653 20656 20659 20662 20665 20668 20671 20674 20677 20680 20683 20686 20689 20692 20695 20698 20701 20704 20707 20710 20713 20715 20718 20721 20723 20726 20729 20732 20735 20738 20741 20744 20747 20750 20753 20756 20759 20762 20765 20767 20770 20773 20776 20779 20782 20785 20788 20791 20794 20797 20800 20802 20805 20807 20810 20813 20815 20818 20821 20823 20825 20828 20830 20833 20836 20838 20841 20844 20847 20850 20853 20856 20859 20862 20865 20868 20871 20874 20877 20880 20883 20886 20889 20892 20895 20898 20901 20904 20907 20910 20913 20916 20919 20921 20924 20927 20929 20932 20935 20937 20940 20942 20945 20948 20951 20953 20956 20959 20962 20965 20967 20970 20973 20976 20979 20982 20985 20988 20991 20994 20997 20999 21002 21005 21008 21010 21013 21016 21019 21021 21024 21027 21030 21033 21036 21039 21042 21045 21048 21051 21054 21057 21060 21062 21064 21067 21070 21073 21076 21079 21082 21085 21088 21091 21094 21097 21100 21103 21106 21109 21112 21115 21118 21121 21124 21127 21130 21133 21136 21138 21140 21143 21146 21149 21152 21155 21158 21161 21164 21167 21170 21173 21176 21179 21181 21183 21186 21188 21191 21194 21197 21200 21203 21205 21208 21211 21214 21217 21220 21223 21226 21229 21231 21233 21236 21238 21241 21244 21246 21249 21251 21254 21257 21260 21263 21266 21269 21272 21275 21278 21281 21284 21286 21289 21292 21295 21298 21301 21304 21307 21309 21312 21315 21318 21321 21324 21326 21329 21331 21334 21337 21340 21343 21346 21349 21352 21355 21357 21360 21363 21366 21369 21371 21373 21375 21378 21381 21383 21386 21389 21392 21394 21397 21400 21402 21405 21408 21411 21414 21416 21419 21422 21425 21428 21431 21434 21437 21439 21442 21445 21448 21451 21454 21457 21460 21463 21466 21469 21472 21475 21478 21481 21484 21486 21489 21491 21494 21497 21500 21503 21505 21508 21511 21513 21516 21519 21521 21524 21526 21529 21532 21535 21538 21541 21544 21546 21549 21552 21555 21558 21561 21564 21567 21570 21573 21575 21577 21580 21583 21586 21589 21591 21594 21597 21600 21603 21605 21608 21611 21614 21617 21620 21623 21626 21629 21632 21635 21638 21641 21644 21647 21650 21653 21656 21659 21662 21665 21668 21671 21674 21677 21680 21683 21686 21689 21692 21695 21698 21701 21704 21707 21709 21712 21715 21718 21721 21723 21726 21729 21732 21735 21738 21741 21743 21746 21749 21752 21755 21758 21761 21764 21766 21769 21771 21774 21777 21779 21781 21784 21787 21789 21792 21795 21798 21801 21804 21807 21810 21813 21815 21818 21821 21823 21826 21829 21831 21834 21837 21840 21842 21845 21848 21850 21852 21854 21857 21860 21862 21865 21868 21870 21873 21876 21879 21882 21885 21888 21891 21894 21897 21900 21903 21906 21909 21912 21914 21917 21920 21923 21926 21929 21932 21935 21938 21941 21943 21946 21949 21952 21955 21958 21960 21963 21965 21968 21970 21973 21976 21979 21982 21984 21987 21990 21993 21996 21998 22001 22003 22006 22008 22010 22013 22016 22019 22022 22025 22028 22030 22033 22036 22038 22041 22044 22047 22050 22053 22055 22058 22061 22064 22066 22069 22072 22074 22077 22080 22083 22086 22088 22091 22094 22097 22100 22103 22106 22109 22112 22115 22118 22121 22124 22127 22129 22132 22135 22138 22140 22143 22146 22149 22152 22155 22158 22161 22164 22167 22170 22173 22176 22179 22182 22185 22188 22191 22194 22197 22200 22203 22206 22209 22212 22215 22218 22221 22224 22227 22230 22232 22235 22238 22241 22244 22247 22250 22253 22256 22259 22262 22265 22268 22271 22273 22276 22279 22282 22285 22287 22290 22293 22296 22298 22301 22304 22307 22310 22313 22316 22319 22322 22325 22328 22330 22333 22336 22339 22342 22344 22347 22350 22353 22355 22358 22360 22363 22366 22369 22372 22375 22378 22381 22384 22386 22388 22391 22394 22397 22400 22403 22406 22409 22412 22415 22418 22421 22424 22427 22430 22433 22436 22439 22442 22445 22448 22451 22454 22457 22460 22463 22465 22468 22471 22474 22477 22480 22483 22486 22489 22492 22495 22497 22500 22503 22506 22509 22511 22513 22516 22519 22522 22525 22527 22530 22533 22535 22537 22540 22543 22545 22548 22551 22554 22557 22560 22563 22566 22569 22572 22575 22577 22580 22583 22586 22589 22592 22595 22598 22600 22603 22605 22608 22611 22613 22616 22619 22622 22624 22627 22629 22632 22634 22637 22640 22642 22645 22648 22651 22654 22657 22660 22663 22666 22668 22671 22674 22677 22680 22683 22686 22689 22691 22694 22697 22700 22703 22705 22708 22711 22713 22716 22719 22722 22725 22728 22731 22734 22737 22740 22743 22746 22749 22752 22755 22758 22761 22763 22766 22769 22772 22775 22778 22781 22783 22786 22789 22792 22794 22797 22800 22802 22805 22808 22811 22813 22816 22819 22822 22825 22828 22831 22834 22837 22840 22843 22846 22849 22852 22855 22858 22861 22864 22866 22869 22872 22875 22878 22881 22884 22887 22890 22892 22895 22898 22900 22903 22906 22909 22912 22915 22918 22921 22924 22927 22930 22933 22936 22939 22942 22945 22948 22951 22953 22956 22959 22962 22965 22968 22971 22973 22976 22979 22981 22984 22987 22990 22993 22996 22999 23002 23005 23008 23011 23014 23017 23020 23023 23026 23029 23032 23035 23038 23041 23044 23047 23050 23053 23056 23059 23062 23065 23068 23071 23074 23077 23080 23083 23086 23089 23092 23095 23097 23100 23103 23106 23109 23112 23114 23116 23119 23122 23125 23127 23130 23132 23135 23137 23140 23143 23145 23148 23151 23154 23157 23160 23163 23166 23169 23172 23175 23177 23180 23183 23186 23189 23192 23194 23197 23200 23203 23206 23209 23212 23215 23218 23221 23224 23227 23230 23232 23234 23237 23240 23243 23246 23249 23252 23255 23258 23261 23264 23267 23270 23273 23276 23279 23282 23285 23288 23291 23293 23296 23299 23302 23305 23308 23311 23314 23317 23320 23323 23326 23329 23332 23335 23338 23340 23343 23345 23348 23351 23354 23356 23359 23362 23365 23368 23370 23373 23375 23378 23381 23384 23387 23390 23393 23396 23399 23402 23405 23408 23411 23414 23417 23420 23423 23426 23429 23432 23435 23438 23440 23443 23446 23448 23451 23454 23457 23460 23463 23466 23469 23472 23475 23478 23481 23483 23486 23489 23492 23495 23498 23501 23504 23507 23510 23513 23516 23519 23522 23525 23527 23530 23533 23536 23538 23541 23544 23547 23549 23552 23554 23557 23560 23563 23566 23569 23572 23575 23577 23579 23582 23585 23588 23591 23594 23597 23600 23603 23606 23609 23612 23615 23617 23620 23623 23626 23629 23632 23635 23638 23641 23644 23647 23650 23653 23656 23659 23662 23665 23668 23671 23674 23677 23680 23683 23686 23689 23692 23695 23697 23700 23703 23706 23709 23712 23715 23718 23721 23724 23727 23730 23733 23736 23739 23742 23744 23747 23750 23753 23755 23758 23761 23764 23766 23769 23772 23775 23778 23781 23784 23787 23790 23793 23796 23799 23802 23805 23808 23811 23814 23817 23820 23823 23826 23829 23832 23834 23837 23840 23842 23845 23848 23851 23854 23857 23860 23863 23866 23869 23872 23875 23878 23881 23884 23887 23890 23893 23896 23899 23901 23904 23907 23910 23912 23915 23917 23920 23923 23926 23929 23932 23935 23937 23940 23943 23946 23949 23952 23955 23958 23961 23963 23966 23969 23972 23975 23978 23981 23984 23987 23990 23993 23996 23999 24002 24005 24008 24011 24013 24016 24019 24022 24025 24028 24031 24034 24037 24040 24043 24046 24049 24052 24055 24058 24061 24064 24067 24070 24073 24076 24079 24082 24085 24088 24091 24094 24097 24100 24103 24106 24109 24111 24114 24117 24120 24123 24126 24129 24132 24135 24138 24141 24144 24147 24150 24153 24156 24159 24162 24165 24168 24171 24174 24177 24180 24183 24186 24189 24192 24195 24198 24201 24204 24207 24210 24213 24216 24219 24222 24225 24228 24231 24234 24237 24240 24243 24246 24249 24252 24255 24258 24261 24264 24267 24270 24273 24276 24279 24282 24285 24288 24291 24294 24296 24299 24302 24305 24307 24310 24313 24316 24319 24322 24325 24328 24331 24334 24337 24340 24343 24346 24349 24352 24355 24358 24361 24364 24367 24370 24373 24376 24379 24382 24385 24388 24391 24394 24397 24400 24403 24406 24409 24412 24415 24418 24421 24424 24427 24430 24433 24436 24439 24442 24445 24448 24451 24454 24457 24460 24463 24466 24469 24472 24475 24478 24481 24483 24486 24489 24492 24495 24498 24501 24504 24506 24509 24512 24515 24518 24521 24524 24527 24530 24533 24536 24539 24542 24545 24548 24551 24554 24557 24560 24563 24566 24569 24571 24574 24577 24580 24583 24586 24589 24592 24594 24597 24600 24603 24606 24609 24612 24615 24617 24620 24623 24626 24629 24632 24635 24638 24641 24644 24647 24650 24652 24655 24658 24661 24664 24667 24669 24672 24675 24678 24681 24684 24687 24690 24693 24696 24699 24701 24704 24707 24710 24713 24716 24719 24721 24724 24727 24730 24733 24735 24738 24741 24744 24747 24750 24752 24755 24758 24761 24764 24766 24769 24772 24774 24777 24780 24783 24786 24789 24791 24794 24797 24800 24802 24805 24808 24811 24814 24816 24819 24822 24825 24827 24830 24833 24836 24839 24841 24844 24847 24849 24852 24855 24858 24861 24864 24866 24869 24872 24875 24878 24881 24883 24886 24889 24892 24895 24898 24901 24904 24907 24910 24912 24915 24918 24921 24924 24926 24928 24931 24934 24937 24940 24943 24946 24949 24952 24955 24958 24961 24964 24967 24970 24973 24975 24978 24981 24983 24986 24989 24992 24995 24997 25000 25002 25005 25008 25011 25014 25017 25020 25023 25026 25029 25031 25034 25037 25040 25043 25046 25049 25052 25055 25058 25060 25063 25066 25068 25071 25074 25077 25080 25083 25086 25088 25091 25094 25097 25099 25101 25104 25107 25110 25113 25116 25119 25122 25125 25128 25131 25134 25137 25140 25143 25146 25149 25152 25155 25157 25160 25163 25166 25169 25172 25175 25178 25180 25183 25185 25188 25191 25194 25197 25200 25203 25206 25209 25212 25215 25218 25221 25224 25226 25229 25232 25235 25238 25240 25243 25246 25249 25252 25255 25258 25261 25264 25267 25269 25272 25275 25278 25281 25284 25286 25289 25292 25295 25298 25301 25304 25307 25310 25313 25316 25319 25322 25325 25328 25331 25334 25337 25340 25343 25346 25349 25352 25355 25358 25361 25364 25367 25370 25373 25376 25379 25382 25385 25388 25391 25394 25397 25400 25403 25406 25409 25412 25415 25418 25421 25424 25427 25430 25433 25436 25439 25442 25444 25447 25449 25452 25455 25458 25461 25464 25467 25470 25472 25475 25478 25480 25483 25486 25489 25492 25495 25498 25500 25503 25506 25509 25512 25514 25517 25519 25522 25525 25528 25531 25534 25537 25539 25542 25545 25547 25550 25553 25556 25559 25562 25565 25568 25571 25574 25577 25580 25583 25585 25588 25591 25594 25597 25600 25603 25606 25608 25611 25614 25616 25619 25622 25625 25628 25631 25634 25637 25640 25643 25646 25649 25651 25654 25657 25660 25663 25666 25668 25671 25673 25676 25679 25681 25684 25687 25689 25691 25694 25697 25700 25702 25705 25707 25710 25713 25716 25719 25722 25724 25727 25730 25733 25736 25739 25742 25745 25748 25750 25753 25756 25759 25762 25765 25768 25771 25774 25776 25778 25781 25783 25786 25789 25792 25795 25798 25801 25804 25807 25810 25813 25816 25819 25821 25824 25827 25830 25833 25836 25839 25842 25845 25848 25851 25854 25857 25859 25862 25865 25868 25871 25874 25877 25879 25882 25885 25888 25891 25893 25896 25899 25902 25905 25908 25911 25914 25917 25919 25922 25925 25927 25930 25933 25935 25937 25940 25942 25945 25947 25950 25953 25956 25959 25962 25965 25968 25971 25974 25976 25979 25982 25984 25987 25989 25992 25995 25998 26001 26004 26007 26009 26012 26015 26018 26021 26024 26027 26029 26032 26035 26038 26041 26044 26047 26050 26053 26056 26058 26061 26064 26067 26070 26073 26076 26079 26082 26085 26088 26091 26094 26097 26100 26103 26106 26109 26112 26115 26118 26121 26124 26126 26129 26132 26135 26138 26141 26143 26145 26148 26151 26154 26157 26160 26162 26165 26168 26171 26174 26177 26180 26183 26186 26189 26192 26194 26197 26199 26202 26205 26208 26211 26214 26217 26219 26222 26225 26228 26230 26233 26236 26239 26242 26245 26248 26251 26254 26257 26260 26262 26265 26268 26271 26274 26277 26280 26283 26286 26289 26292 26295 26298 26300 26303 26306 26309 26312 26315 26318 26321 26324 26326 26329 26332 26335 26338 26341 26343 26346 26349 26352 26355 26358 26360 26363 26366 26368 26371 26374 26377 26380 26383 26386 26388 26391 26394 26397 26400 26403 26406 26409 26412 26415 26418 26421 26424 26426 26429 26431 26434 26437 26440 26442 26445 26448 26451 26454 26456 26459 26462 26465 26468 26471 26474 26477 26480 26483 26486 26489 26492 26495 26497 26500 26503 26506 26508 26511 26514 26516 26519 26522 26525 26528 26530 26533 26536 26539 26542 26545 26548 26551 26554 26557 26560 26563 26566 26569 26572 26575 26578 26580 26583 26586 26589 26592 26595 26597 26600 26603 26606 26608 26611 26613 26616 26619 26622 26625 26628 26630 26633 26636 26639 26642 26645 26648 26651 26654 26657 26660 26663 26666 26669 26672 26675 26678 26681 26684 26687 26690 26693 26696 26699 26702 26705 26708 26711 26714 26717 26720 26723 26726 26729 26732 26735 26738 26741 26744 26747 26750 26752 26755 26758 26760 26763 26766 26769 26772 26775 26778 26781 26783 26786 26789 26792 26795 26798 26801 26804 26807 26810 26813 26815 26818 26821 26824 26826 26829 26832 26835 26838 26841 26844 26847 26850 26853 26856 26859 26861 26864 26867 26870 26872 26875 26878 26881 26884 26886 26889 26892 26895 26898 26901 26904 26907 26910 26913 26916 26919 26922 26925 26928 26931 26934 26937 26940 26943 26946 26949 26952 26955 26958 26961 26964 26967 26970 26973 26976 26979 26982 26985 26988 26991 26993 26996 26998 27001 27004 27007 27010 27013 27016 27019 27022 27025 27028 27031 27034 27037 27039 27042 27045 27048 27051 27054 27057 27060 27063 27066 27069 27072 27075 27078 27081 27084 27087 27090 27093 27096 27099 27102 27105 27108 27111 27114 27117 27120 27123 27126 27129 27132 27135 27138 27141 27144 27147 27150 27152 27155 27157 27160 27163 27166 27169 27172 27175 27177 27180 27182 27185 27188 27191 27194 27197 27200 27203 27206 27209 27212 27215 27217 27220 27223 27226 27229 27232 27234 27237 27239 27242 27245 27248 27251 27253 27256 27258 27261 27264 27266 27269 27272 27275 27278 27281 27284 27287 27290 27292 27295 27298 27301 27304 27307 27310 27313 27316 27319 27322 27325 27328 27331 27334 27337 27340 27343 27346 27348 27351 27354 27356 27359 27361 27364 27367 27370 27373 27376 27378 27381 27384 27387 27389 27392 27395 27398 27401 27404 27407 27410 27413 27416 27419 27421 27424 27427 27430 27432 27434 27437 27440 27443 27446 27449 27452 27454 27457 27460 27463 27466 27469 27471 27474 27477 27479 27482 27485 27488 27491 27494 27497 27500 27503 27506 27508 27511 27514 27516 27519 27522 27525 27528 27530 27533 27536 27539 27542 27545 27548 27550 27553 27556 27559 27562 27564 27567 27570 27572 27575 27578 27581 27583 27586 27588 27591 27594 27597 27600 27602 27605 27607 27610 27613 27616 27618 27621 27623 27626 27629 27632 27635 27638 27641 27643 27646 27649 27652 27655 27658 27660 27663 27666 27669 27672 27674 27677 27680 27682 27685 27688 27691 27694 27696 27698 27701 27704 27707 27710 27713 27716 27719 27722 27725 27728 27731 27733 27735 27738 27741 27744 27747 27750 27753 27756 27759 27762 27765 27768 27771 27774 27776 27779 27782 27785 27788 27791 27794 27797 27800 27803 27806 27809 27811 27814 27817 27820 27823 27826 27829 27832 27835 27838 27841 27844 27847 27849 27852 27855 27857 27860 27863 27866 27869 27872 27874 27877 27880 27883 27886 27888 27890 27893 27896 27899 27902 27905 27908 27911 27914 27917 27920 27922 27925 27928 27931 27934 27937 27940 27942 27945 27948 27950 27953 27956 27959 27962 27964 27967 27970 27973 27976 27979 27982 27985 27988 27991 27994 27997 28000 28003 28006 28009 28012 28015 28017 28020 28023 28025 28028 28031 28034 28037 28040 28043 28046 28049 28052 28055 28058 28061 28063 28066 28068 28070 28072 28075 28078 28081 28084 28087 28090 28093 28095 28098 28101 28104 28107 28110 28113 28116 28119 28121 28124 28127 28130 28133 28136 28139 28142 28145 28148 28151 28154 28157 28160 28163 28166 28169 28172 28175 28178 28181 28184 28187 28190 28193 28196 28199 28202 28205 28207 28210 28213 28215 28218 28221 28224 28227 28230 28233 28236 28239 28242 28245 28248 28251 28254 28257 28260 28262 28265 28268 28271 28274 28276 28279 28282 28285 28288 28291 28294 28297 28300 28303 28306 28309 28312 28315 28317 28320 28323 28326 28329 28332 28335 28338 28340 28343 28346 28349 28352 28354 28357 28360 28363 28366 28369 28372 28375 28378 28381 28384 28387 28390 28393 28396 28399 28402 28405 28408 28411 28414 28417 28420 28423 28425 28428 28431 28434 28437 28440 28443 28445 28448 28451 28454 28457 28459 28462 28465 28467 28470 28473 28476 28479 28482 28484 28487 28490 28493 28496 28499 28502 28505 28508 28511 28514 28516 28519 28522 28525 28528 28531 28534 28537 28540 28543 28546 28548 28551 28554 28557 28559 28562 28565 28568 28571 28574 28576 28579 28582 28585 28588 28591 28594 28597 28600 28602 28605 28607 28610 28613 28615 28618 28621 28623 28626 28629 28632 28635 28638 28641 28644 28646 28649 28652 28655 28658 28661 28664 28667 28670 28673 28676 28679 28682 28685 28688 28691 28694 28696 28699 28702 28705 28708 28711 28714 28717 28720 28723 28726 28729 28732 28735 28738 28741 28744 28747 28750 28753 28756 28759 28762 28765 28768 28771 28774 28777 28780 28783 28785 28788 28791 28794 28797 28800 28803 28806 28809 28812 28815 28818 28821 28824 28827 28830 28833 28836 28839 28842 28845 28848 28851 28854 28856 28859 28862 28865 28868 28871 28874 28877 28880 28883 28886 28889 28892 28895 28898 28901 28904 28907 28910 28912 28915 28918 28921 28924 28927 28930 28933 28935 28938 28940 28943 28946 28949 28951 28954 28956 28959 28962 28965 28968 28971 28974 28977 28980 28983 28986 28989 28992 28995 28998 29001 29004 29007 29010 29013 29016 29019 29022 29024 29027 29029 29032 29035 29038 29041 29044 29047 29050 29053 29056 29059 29061 29064 29067 29070 29072 29075 29077 29080 29083 29085 29088 29091 29093 29096 29099 29102 29105 29108 29111 29114 29117 29120 29123 29126 29129 29131 29134 29137 29140 29142 29145 29148 29150 29153 29156 29159 29162 29165 29168 29171 29173 29176 29179 29182 29185 29188 29191 29194 29197 29199 29202 29204 29207 29210 29213 29216 29219 29222 29225 29227 29230 29233 29236 29239 29242 29245 29248 29251 29254 29257 29259 29262 29265 29267 29270 29272 29275 29277 29280 29283 29286 29289 29292 29294 29297 29300 29303 29305 29308 29311 29313 29315 29318 29321 29323 29326 29329 29332 29335 29337 29340 29343 29345 29348 29351 29353 29356 29359 29361 29364 29367 29370 29373 29376 29379 29381 29384 29387 29389 29392 29395 29398 29400 29403 29405 29408 29411 29413 29416 29419 29422 29425 29428 29431 29433 29436 29439 29441 29444 29447 29450 29453 29456 29459 29461 29464 29466 29469 29472 29475 29478 29480 29483 29486 29489 29492 29495 29497 29500 29502 29505 29508 29511 29513 29515 29517 29520 29523 29525 29528 29531 29533 29536 29538 29541 29544 29547 29549 29552 29555 29558 29560 29563 29566 29569 29572 29574 29577 29579 29582 29584 29587 29589 29592 29594 29596 29599 29601 29604 29607 29610 29613 29616 29619 29622 29625 29628 29630 29633 29636 29639 29641 29644 29647 29649 29652 29655 29658 29661 29664 29667 29670 29673 29676 29679 29681 29684 29687 29690 29692 29695 29698 29701 29704 29707 29710 29713 29716 29719 29721 29724 29727 29729 29732 29735 29738 29741 29744 29747 29749 29752 29755 29758 29761 29764 29767 29770 29772 29775 29778 29780 29783 29786 29788 29791 29794 29797 29800 29803 29806 29809 29812 29815 29818 29821 29823 29826 29829 29831 29834 29837 29840 29843 29846 29849 29851 29854 29857 29859 29862 29865 29868 29871 29874 29877 29880 29883 29886 29889 29892 29894 29897 29900 29903 29906 29909 29912 29915 29918 29921 29924 29927 29930 29932 29935 29938 29941 29944 29947 29950 29953 29956 29959 29961 29964 29967 29970 29973 29976 29979 29982 29985 29988 29991 29994 29997 30000 30003 30006 30009 30012 30015 30018 30021 30024 30027 30030 30033 30036 30039 30042 30045 30048 30051 30054 30057 30060 30063 30066 30069 30072 30075 30078 30081 30084 30087 30090 30093 30096 30099 30102 30105 30108 30111 30114 30117 30120 30123 30126 30129 30132 30135 30138 30141 30144 30147 30150 30153 30156 30159 30162 30165 30168 30171 30174 30177 30180 30183 30186 30189 30192 30195 30198 30201 30204 30207 30210 30213 30216 30219 30222 30225 30228 30231 30234 30237 30240 30243 30246 30249 30252 30255 30258 30261 30264 30266 30269 30272 30275 30278 30281 30284 30286 30289 30292 30294 30297 30299 30302 30304 30307 30310 30313 30315 30318 30321 30323 30326 30329 30332 30335 30338 30341 30344 30347 30350 30353 30355 30358 30361 30364 30367 30370 30373 30376 30379 30382 30385 30388 30391 30394 30397 30400 30403 30406 30409 30412 30415 30418 30421 30424 30427 30430 30433 30436 30439 30442 30445 30448 30451 30454 30457 30460 30463 30466 30469 30472 30475 30478 30481 30484 30487 30490 30493 30496 30499 30502 30505 30508 30511 30514 30517 30520 30523 30526 30529 30532 30535 30538 30541 30544 30547 30550 30553 30555 30558 30561 30564 30567 30569 30572 30575 30578 30581 30584 30586 30589 30592 30594 30597 30600 30602 30604 30607 30610 30613 30616 30619 30622 30625 30627 30630 30633 30636 30639 30641 30644 30647 30650 30653 30656 30659 30662 30664 30667 30670 30673 30676 30679 30682 30685 30688 30691 30694 30697 30700 30703 30706 30709 30712 30715 30718 30721 30724 30727 30730 30733 30736 30738 30741 30744 30747 30749 30752 30755 30757 30760 30763 30766 30769 30772 30775 30778 30781 30784 30786 30789 30792 30795 30797 30800 30803 30806 30808 30811 30814 30816 30819 30822 30825 30828 30831 30834 30837 30840 30843 30846 30849 30852 30855 30858 30861 30864 30867 30870 30873 30876 30879 30882 30884 30887 30890 30893 30896 30899 30902 30905 30908 30910 30913 30916 30919 30921 30924 30927 30930 30933 30936 30938 30941 30943 30946 30949 30952 30955 
</DataArray>
<DataArray type="UInt32" Name="types" format="ascii">
5 5 5 3 3 5 5 5 5 5 5 5 3 5 5 3 5 5 3 5 5 5 5 5 5 5 5 5 5 5 5 5 5 5 3 5 5 5 3 5 5 5 5 5 5 5 5 5 3 5 5 5 5 5 3 5 5 5 5 5 5 5 3 5 5 5 5 5 5 5 5 5 5 5 5 5 5 5 5 5 5 5 5 5 5 5 5 5 5 5 5 5 5 5 5 5 5 5 5 5 5 5 5 5 5 5 5 5 5 5 5 5 5 3 5 5 5 5 5 5 3 5 5 5 5 5 5 5 3 5 3 5 5 3 5 5 5 5 5 5 5 5 5 5 5 5 5 5 5 5 5 5 5 5 5 5 5 5 5 5 5 5 5 5 5 5 5 5 5 5 5 5 5 5 5 5 5 3 5 5 5 5 3 5 5 5 5 5 5 5 5 5 5 5 5 5 5 5 5 5 5 5 5 5 5 5 5 5 5 5 5 5 5 5 5 5 5 5 5 5 5 5 5 5 5 5 5 5 5 5 5 5 5 5 5 5 5 5 5 5 5 3 5 5 5 5 5 5 5 5 5 5 5 5 5 5 5 5 5 5 5 5 5 5 5 5 5 5 3 5 3 5 5 5 5 3 5 5 3 3 3 5 3 5 5 3 5 5 3 5 3 3 5 5 5 5 5 3 5 5 5 5 3 5 3 5 5 5 5 5 5 3 5 5 5 5 5 5 5 5 5 5 5 5 5 5 5 5 5 5 3 5 3 3 5 3 5 3 5 5 5 5 5 5 3 5 5 5 5 5 5 3 5 5 5 5 5 3 5 5 5 5 3 5 5 5 5 5 5 5 5 3 5 5 5 5 5 5 5 5 5 5 5 5 5 5 3 5 5 5 5 3 5 5 3 5 5 5 5 5 5 5 5 3 5 3 5 3 5 5 3 5 5 3 5 3 5 3 5 3 5 5 3 5 3 3 5 5 3 5 3 3 5 3 5 5 3 5 3 5 5 5 5 5 5 5 5 5 5 5 5 5 5 5 5 3 5 5 5 5 5 5 5 5 5 5 5 5 5 5 5 3 5 5 5 5 5 5 5 3 5 5 5 5 5 5 5 5 5 5 5 5 5 5 5 5 5 5 5 5 5 5 5 5 5 5 5 5 5 5 3 5 5 3 5 5 5 5 5 5 5 5 3 5 5 5 5 3 5 5 5 5 5 3 5 5 5 3 5 5 3 3 5 5 5 5 5 3 3 5 5 5 5 3 5 5 5 5 5 5 5 5 5 3 5 5 5 5 3 5 5 3 5 5 5 5 5 3 5 5 5 5 5 5 5 5 5 5 5 5 5 5 5 5 5 5 5 5 5 3 5 5 5 5 5 5 5 5 5 5 5 5 5 5 5 5 3 5 5 5 3 5 5 3 5 3 3 5 5 5 5 5 5 5 5 3 5 5 3 5 5 5 5 5 5 5 5 3 5 5 5 5 3 5 5 5 5 5 5 5 5 5 5 5 5 5 5 5 5 5 5 5 5 5 5 5 5 5 5 5 5 5 5 3 3 5 5 5 5 5 5 5 3 5 5 5 5 5 5 3 5 5 3 3 5 3 3 5 5 5 5 5 5 3 5 3 5 3 5 5 3 5 5 5 3 5 5 5 5 5 5 3 5 5 3 5 5 5 5 5 5 5 5 3 5 5 5 5 5 5 5 5 5 5 5 5 3 5 5 5 3 5 5 5 5 5 5 3 5 5 5 3 5 5 5 5 5 5 5 5 3 5 3 5 5 5 5 5 5 5 5 5 5 3 5 5 5 3 5 5 5 3 5 5 5 3 3 5 5 3 5 5 5 3 5 5 3 5 5 5 5 3 5 3 5 5 5 5 5 5 5 5 3 5 5 5 5 5 3 5 3 5 3 5 5 5 5 5 5 5 5 5 5 5 5 5 5 5 5 5 3 5 5 5 5 5 5 3 5 5 5 5 5 5 5 5 5 5 5 5 5 5 5 5 5 5 3 5 5 5 5 5 5 5 5 5 5 5 5 3 3 5 5 5 5 5 3 3 5 5 3 5 5 5 3 5 5 5 3 5 3 5 5 5 5 5 3 5 5 5 5 3 5 5 5 3 5 5 5 3 5 5 3 5 5 5 5 5 5 5 5 3 5 5 5 5 3 5 5 5 5 5 5 5 5 5 5 5 5 5 5 5 5 3 5 5 3 5 5 5 5 5 5 5 5 3 5 5 3 5 5 5 5 5 3 5 5 5 5 3 5 5 5 5 3 5 5 3 5 5 5 5 5 5 5 5 5 3 3 5 5 5 5 5 3 5 3 5 5 5 5 5 5 5 3 5 5 5 3 5 5 5 3 5 5 5 5 5 3 3 3 3 5 5 5 5 3 5 5 5 5 5 5 5 5 5 5 5 5 5 5 5 5 5 5 3 5 5 5 3 5 5 5 5 5 5 5 5 5 5 5 5 5 5 5 5 3 5 5 5 5 5 5 5 5 5 5 5 5 5 3 5 3 5 5 5 5 5 3 3 5 5 3 5 3 5 5 5 5 5 5 5 5 5 5 3 5 5 5 5 5 5 5 5 5 5 5 5 5 5 5 5 5 3 5 5 5 5 5 5 5 5 5 5 5 5 5 5 5 5 5 5 5 5 5 5 5 3 5 3 5 5 3 5 5 5 3 5 5 5 5 5 5 5 5 5 5 5 5 5 5 5 5 5 3 5 5 5 5 5 5 5 5 5 5 5 5 5 5 5 3 5 5 5 5 5 5 5 5 5 5 5 5 5 5 5 5 5 5 5 5 5 5 3 5 5 5 5 5 5 5 5 5 5 3 5 5 5 5 5 5 3 5 5 5 5 5 5 5 5 5 5 5 5 5 5 5 5 5 5 5 5 3 5 5 5 5 5 5 5 5 5 5 5 5 3 5 5 5 3 5 5 5 5 5 3 5 5 5 3 3 5 5 5 5 5 5 5 3 5 5 5 5 5 5 5 5 5 5 5 5 5 5 3 5 5 5 3 5 5 5 5 5 5 5 5 5 5 5 5 5 5 5 5 5 3 5 5 5 5 3 5 5 3 5 5 5 3 5 5 5 5 5 5 5 5 5 5 5 5 5 5 5 5 5 5 5 5 5 5 5 5 5 3 5 5 5 5 5 5 5 5 5 5 5 5 3 5 5 5 5 5 5 5 5 5 5 5 5 5 5 5 5 5 5 3 5 5 5 5 5 5 5 5 5 5 5 3 5 5 5 5 5 3 5 3 5 5 5 5 5 5 5 5 5 5 5 5 5 5 3 5 5 5 5 5 5 5 5 5 5 5 5 5 5 5 5 5 5 5 5 5 5 5 5 5 5 5 5 5 5 5 5 5 5 5 5 5 5 5 5 5 5 5 5 5 5 5 5 5 5 5 5 5 5 5 5 5 5 5 5 5 5 5 5 5 5 5 5 5 5 5 5 5 5 5 5 5 5 5 5 5 5 5 5 5 5 5 5 5 5 5 5 5 5 5 5 5 5 5 5 5 5 5 5 5 5 5 5 5 5 5 5 5 5 5 5 5 5 5 5 5 5 5 5 5 5 5 5 3 5 5 5 5 5 5 5 5 5 5 5 5 5 5 5 5 5 3 5 3 3 5 5 5 5 5 5 5 5 5 5 5 5 5 5 5 5 5 5 3 5 5 5 5 5 5 5 3 5 5 5 5 5 5 5 5 5 5 5 5 5 5 5 5 5 5 5 3 5 5 5 3 5 3 5 5 3 5 5 5 5 3 5 3 5 5 5 3 5 5 3 5 5 5 5 3 5 5 5 3 5 5 3 5 3 5 3 5 3 5 3 5 5 5 5 5 5 5 5 3 5 5 5 5 5 3 5 3 5 5 5 5 5 5 5 5 5 5 5 5 5 5 5 5 5 5 5 5 5 5 5 5 5 5 5 5 5 5 5 5 5 5 5 5 5 3 5 5 5 5 3 5 5 5 5 5 3 5 5 5 5 5 3 5 5 5 5 5 5 5 5 5 3 3 5 5 5 5 5 5 5 5 5 5 5 5 5 5 5 5 5 5 5 5 5 5 5 5 5 5 5 5 5 5 5 5 5 3 5 3 5 5 5 5 5 5 5 5 5 5 5 5 5 3 5 5 5 5 5 5 5 5 5 5 5 5 5 3 3 5 5 5 5 5 5 5 5 5 5 3 5 5 5 5 5 5 5 5 3 5 5 5 5 5 5 5 3 5 5 5 5 5 5 5 5 5 5 5 5 5 5 5 3 5 5 3 5 5 5 5 3 5 5 5 5 3 5 5 5 5 5 5 5 5 5 5 5 5 5 5 3 5 3 5 5 5 5 5 5 3 5 5 5 5 5 5 5 5 5 5 5 5 5 5 3 5 5 5 5 5 5 3 5 5 5 5 5 5 5 3 5 3 3 5 3 5 5 5 5 5 5 5 5 5 5 5 5 5 5 5 5 5 5 5 5 5 5 5 5 5 5 5 5 5 5 5 5 5 5 5 5 5 5 5 3 5 5 5 5 5 5 5 5 5 5 5 3 5 5 5 5 5 3 5 5 5 5 5 5 5 5 5 3 5 5 5 3 5 5 5 5 5 5 5 5 5 5 5 5 5 5 3 5 5 3 5 5 5 5 5 5 5 5 5 5 5 3 5 5 5 3 5 5 5 3 5 5 5 5 5 5 5 5 5 5 5 5 5 5 5 5 5 5 5 5 3 5 5 5 5 5 5 5 5 5 5 5 3 5 3 5 5 5 5 5 5 5 5 5 3 5 5 5 5 5 5 5 5 5 5 5 5 5 3 5 5 5 5 5 5 5 5 5 5 5 5 5 5 5 5 5 5 5 5 5 5 5 5 5 5 5 5 5 5 5 5 5 5 5 5 5 5 5 5 5 5 5 5 5 5 5 5 5 5 5 5 5 5 5 5 5 5 5 5 5 5 5 3 5 5 5 5 5 5 5 5 5 5 5 5 5 3 5 5 5 3 5 5 5 3 5 3 5 3 5 5 5 5 3 5 3 5 5 5 5 5 5 5 3 5 5 5 5 5 5 5 5 3 5 5 5 5 3 5 5 5 5 5 5 5 5 5 5 5 3 5 5 5 5 5 5 5 5 5 5 3 5 5 5 5 5 5 5 3 5 5 5 5 5 5 5 5 3 5 5 5 5 5 5 5 5 5 5 5 5 5 5 5 5 5 5 5 5 5 5 5 3 5 3 5 5 5 5 5 5 5 5 5 5 5 5 5 5 5 5 5 5 5 5 3 5 5 5 5 5 5 5 5 5 5 5 5 5 5 5 5 5 3 3 5 5 3 5 5 3 5 5 5 5 5 5 5 5 5 5 5 5 5 5 5 5 5 5 5 5 5 5 5 5 5 5 5 5 5 5 5 5 5 5 5 5 5 5 5 5 5 5 5 5 5 5 5 3 5 5 5 5 5 5 3 5 3 3 5 3 5 5 5 3 5 5 5 3 5 5 5 5 5 5 3 5 5 5 5 5 5 5 3 5 5 3 5 3 5 5 5 3 5 5 5 5 5 5 5 5 3 5 5 5 3 5 5 5 5 5 5 5 5 5 3 5 5 3 5 3 5 5 5 3 5 5 5 5 3 3 5 5 5 5 5 5 5 5 3 5 5 3 5 5 3 5 5 5 3 3 5 5 3 5 5 5 5 5 3 5 5 5 5 5 5 5 5 5 5 5 5 5 5 5 5 5 5 5 5 3 3 5 5 5 5 3 3 5 5 5 5 3 5 5 5 5 5 5 5 5 5 5 5 5 5 5 5 5 5 5 5 5 5 5 5 5 5 5 5 5 5 5 5 5 5 5 5 5 5 3 5 5 5 5 5 3 5 5 5 5 3 5 5 3 5 5 5 5 5 5 5 5 3 5 5 5 5 5 5 5 3 5 5 3 5 5 5 5 5 5 5 5 5 5 5 5 5 5 5 5 5 5 3 5 5 3 5 5 3 5 5 5 5 3 5 5 5 5 5 3 3 5 3 5 5 5 5 5 5 5 5 5 5 5 5 5 5 5 5 5 5 5 5 5 5 5 5 5 5 5 5 5 5 5 5 5 5 5 5 5 5 5 5 3 3 5 5 5 5 3 5 3 5 5 5 5 5 3 3 5 5 5 5 3 5 5 3 5 5 3 5 5 5 5 5 5 5 5 3 5 5 5 5 3 5 5 5 5 3 5 5 5 5 5 3 5 3 5 5 5 5 5 5 5 3 5 5 3 5 5 3 3 5 3 5 3 5 5 5 5 5 5 5 5 5 5 5 5 5 5 5 5 5 5 5 5 5 5 5 5 5 5 5 5 3 5 5 5 5 5 5 3 5 5 5 5 5 5 5 5 5 5 5 5 5 5 5 5 5 5 5 5 5 5 5 5 5 5 5 5 5 5 5 3 5 3 5 5 5 5 3 5 5 5 5 5 5 5 5 5 5 5 5 5 5 5 5 5 5 5 5 5 5 5 5 5 5 5 5 5 5 5 5 5 5 5 5 5 5 5 5 5 5 5 3 5 5 5 5 5 5 5 5 5 5 5 5 3 5 5 5 5 5 3 5 5 5 5 5 5 5 5 3 5 5 5 5 5 5 5 5 5 5 5 5 5 5 5 5 3 5 5 5 3 3 5 5 3 5 5 5 3 5 5 5 5 3 5 5 5 5 5 5 5 5 5 5 5 5 5 5 5 5 5 5 3 5 5 5 5 5 5 5 3 5 5 5 5 5 5 5 5 5 5 5 5 5 5 5 5 5 5 5 5 3 5 5 5 5 5 5 5 3 5 5 5 5 5 5 5 3 3 5 5 5 5 5 5 5 5 5 5 3 5 3 5 3 5 5 5 5 5 5 5 5 5 5 3 5 5 3 5 5 5 5 3 5 5 5 5 5 5 5 5 3 5 5 5 5 5 5 5 5 5 5 5 5 5 5 5 5 3 5 5 5 5 5 5 5 5 5 5 3 5 5 5 5 5 3 5 5 5 5 3 5 5 3 5 5 5 5 5 5 5 5 3 5 5 5 5 5 5 5 5 5 5 5 5 5 5 3 5 5 5 5 5 5 5 5 5 5 5 5 5 5 3 5 3 5 5 5 5 5 3 5 3 5 5 5 5 5 5 5 3 5 5 5 5 5 5 5 5 5 5 5 5 5 5 5 3 5 5 5 5 5 5 3 5 5 5 5 5 3 5 5 3 5 5 5 3 3 5 5 5 5 3 5 3 5 5 5 5 5 5 5 5 5 5 3 5 5 5 5 5 3 5 5 5 5 5 5 5 5 5 5 5 5 5 5 5 5 5 5 5 3 5 5 5 5 5 5 5 5 5 5 3 5 5 5 5 3 5 5 3 3 5 5 5 3 5 5 5 5 5 5 5 5 5 5 5 5 5 3 5 3 5 3 5 5 5 5 5 5 3 5 5 5 5 5 5 5 5 5 5 5 5 5 5 5 5 5 5 5 5 5 5 5 5 5 5 5 5 5 5 5 5 3 5 5 5 5 3 5 5 5 5 5 5 5 5 5 5 5 5 5 5 5 5 5 5 5 5 5 5 5 5 5 5 5 5 5 5 5 5 5 5 3 5 5 5 5 5 3 5 5 3 5 5 5 5 5 5 5 3 5 3 5 5 5 5 5 5 5 5 5 5 5 5 5 5 5 5 5 5 5 5 5 5 3 5 5 5 5 5 3 5 5 5 5 5 5 5 5 5 5 5 5 5 5 5 5 5 5 5 5 5 5 5 5 5 5 5 5 5 3 3 5 5 5 5 3 3 5 5 5 5 3 3 5 5 3 5 5 5 3 5 5 5 5 3 5 5 5 3 5 5 5 5 5 5 5 5 5 5 5 5 3 5 5 5 5 5 5 5 5 5 5 5 5 5 5 5 5 5 5 5 5 5 5 5 5 5 5 5 5 3 5 3 5 5 3 5 5 3 5 5 5 5 5 5 5 5 5 5 5 5 5 5 5 5 5 5 5 5 5 5 5 5 5 5 5 5 5 5 3 5 5 3 3 3 5 5 3 5 5 5 5 5 5 5 3 3 5 5 5 3 5 3 3 5 5 5 5 3 5 5 5 5 5 3 5 5 5 5 5 5 3 3 5 5 5 3 5 3 3 5 5 3 5 5 5 5 3 5 5 5 5 3 5 5 5 5 5 5 5 5 3 5 5 5 5 3 5 3 5 5 5 5 5 5 5 3 3 5 3 5 5 5 5 5 5 3 5 3 5 3 5 5 5 5 5 5 5 5 5 5 5 5 3 5 5 5 3 5 5 3 3 5 5 5 5 5 5 5 5 5 5 5 5 5 5 3 5 5 5 5 5 5 5 3 3 5 5 3 5 5 5 5 5 3 5 5 5 5 5 5 5 5 5 5 5 5 5 5 5 5 5 3 3 5 3 3 5 5 5 5 5 5 5 3 5 5 5 3 5 5 3 5 5 5 5 5 5 3 5 5 5 3 5 5 3 5 5 5 5 5 5 5 5 5 5 5 5 5 5 5 5 5 5 3 5 5 5 5 5 3 5 5 5 5 5 5 5 5 5 5 5 5 5 5 5 5 5 5 3 5 5 5 5 5 3 5 5 5 5 5 5 5 5 5 5 5 5 5 5 5 5 3 5 5 5 5 5 5 5 3 5 3 5 5 5 5 5 5 5 5 5 5 5 5 5 5 3 5 5 5 5 3 5 5 3 5 5 5 5 5 3 5 5 5 5 5 5 5 5 3 5 5 5 5 5 5 5 5 5 5 5 5 5 5 5 5 5 5 5 5 5 5 5 5 5 5 5 5 5 5 5 5 5 5 3 5 5 3 5 5 5 5 3 5 5 5 5 5 3 5 5 3 3 5 5 5 3 3 5 5 5 3 5 5 3 5 5 5 5 5 3 5 5 5 5 3 5 5 5 5 5 5 5 5 3 3 5 3 5 5 5 5 5 5 5 3 5 5 3 5 5 3 5 5 3 5 3 5 3 5 3 5 3 5 3 5 5 5 5 5 5 5 5 5 5 3 3 3 5 5 3 3 5 5 3 3 5 5 5 3 5 3 3 5 3 5 5 5 5 5 5 3 5 5 5 5 3 5 5 5 5 5 5 5 5 5 5 5 5 3 3 5 5 5 5 5 5 5 5 5 5 5 5 3 5 5 5 3 5 5 5 5 3 5 5 5 5 3 5 5 3 3 5 5 5 5 5 5 5 5 5 5 5 5 5 5 5 5 5 5 3 5 5 5 3 5 5 3 5 5 5 5 5 3 5 5 5 5 5 5 5 5 5 5 5 5 5 5 3 5 5 5 5 5 5 5 5 5 5 5 5 5 5 5 5 3 5 5 5 5 5 5 5 5 5 5 5 3 5 5 5 5 5 5 3 5 5 5 5 5 5 3 5 5 5 3 5 5 5 5 5 5 5 5 5 5 5 5 5 5 3 5 5 3 5 3 5 5 5 5 3 5 3 5 5 3 5 3 5 5 5 5 5 3 5 5 5 5 5 5 3 5 5 5 5 5 3 3 5 5 5 5 5 5 5 5 3 5 5 3 5 5 5 5 5 5 3 5 5 5 5 3 5 5 5 5 3 3 5 5 5 5 5 5 5 5 5 5 3 5 5 3 5 5 5 5 5 5 5 5 5 5 5 5 5 5 5 5 5 5 5 3 5 5 5 5 3 5 5 5 5 5 5 5 5 3 5 5 5 5 5 5 5 5 5 3 5 5 5 5 5 3 5 5 5 5 5 5 5 5 3 5 5 5 5 5 5 5 5 5 5 5 5 5 5 5 5 5 5 5 5 5 5 5 3 5 5 5 5 5 3 5 5 3 5 5 3 3 5 3 5 5 5 5 5 5 3 5 3 5 5 5 5 5 5 5 3 5 5 3 5 5 5 5 5 3 5 5 5 5 5 5 5 5 5 5 3 5 5 5 5 5 3 5 5 5 3 3 5 5 3 5 5 5 3 3 5 5 3 5 5 5 5 5 5 5 5 5 5 5 5 5 5 5 5 5 5 5 5 5 5 3 5 5 5 5 5 5 5 5 5 5 5 5 5 5 5 5 5 3 5 5 5 5 5 3 5 5 5 5 3 5 5 5 5 5 3 5 5 5 5 5 3 5 5 5 5 5 5 5 5 5 5 3 5 5 3 5 5 5 3 5 5 5 5 3 5 5 5 5 5 3 5 5 5 5 5 5 5 5 5 5 3 5 5 5 5 5 5 5 5 3 5 5 5 5 3 5 5 5 5 5 5 5 5 5 5 3 5 3 5 5 3 5 5 5 3 5 5 5 5 5 5 3 5 5 3 5 3 3 5 5 3 5 5 5 3 5 5 5 5 5 5 3 3 5 5 5 3 3 5 5 5 3 5 5 5 3 5 5 5 5 5 3 5 5 5 5 3 5 5 3 5 3 5 5 5 5 5 5 5 5 5 3 5 5 5 5 5 5 5 5 5 3 5 5 3 5 5 3 5 5 5 5 3 5 5 5 5 5 5 5 5 5 5 5 5 5 5 5 5 5 5 5 5 5 5 5 5 5 5 5 5 5 3 5 5 5 5 5 5 3 5 5 3 5 5 5 5 5 5 5 5 3 5 5 5 5 3 5 5 5 5 3 5 5 5 5 5 3 5 5 5 5 5 3 5 5 5 5 5 5 5 5 3 5 5 5 5 3 5 5 5 5 5 5 5 5 5 5 5 5 5 3 5 5 5 5 5 5 5 3 5 5 5 5 5 5 5 5 5 5 5 5 5 5 5 5 5 5 5 5 5 5 5 5 5 5 5 5 5 5 5 5 5 5 5 5 5 5 5 5 5 5 3 5 5 3 5 3 3 5 5 5 5 5 5 5 5 5 5 5 5 5 3 5 5 5 5 5 5 5 3 5 5 5 5 5 5 5 5 5 5 5 5 5 5 5 5 5 5 5 5 5 5 5 5 5 5 5 5 3 5 5 3 5 5 5 3 5 5 5 5 5 5 5 5 5 5 5 5 5 5 5 5 5 5 5 5 5 5 5 3 5 5 5 5 5 5 5 5 3 5 5 5 5 5 5 5 5 3 5 5 5 5 5 5 5 5 5 5 3 5 5 5 5 5 5 3 5 5 5 5 5 5 5 5 5 5 5 3 3 5 5 5 5 5 3 5 5 5 5 5 5 3 5 5 5 5 5 5 3 5 3 5 5 5 5 5 5 5 5 5 5 5 5 5 5 5 5 5 5 5 5 5 5 5 5 5 5 5 5 5 5 5 3 5 5 5 5 5 5 5 5 5 5 5 3 5 5 5 5 5 3 5 3 5 5 5 5 5 5 5 3 5 5 5 5 5 5 5 5 3 5 5 5 5 5 5 5 5 5 3 5 5 5 5 5 5 5 5 5 5 5 5 3 5 5 5 5 3 5 5 5 5 5 5 5 5 5 5 3 5 5 5 5 5 5 5 5 3 5 5 3 5 5 5 5 5 5 5 5 5 5 3 5 3 5 3 5 3 5 5 5 3 5 5 5 3 3 5 5 5 5 3 5 5 3 3 5 5 5 3 5 5 5 3 5 5 3 5 5 3 5 3 5 5 5 3 5 5 5 5 5 5 5 5 5 5 5 5 5 5 3 5 5 5 5 5 3 5 5 5 5 3 5 5 5 5 5 5 5 5 5 3 5 5 5 5 5 5 3 5 5 5 3 5 5 5 3 5 5 5 5 5 5 5 5 3 5 5 5 5 5 5 5 5 3 5 5 5 3 5 5 3 5 5 5 5 5 5 3 5 5 3 5 3 5 5 5 3 5 5 3 5 5 5 5 5 3 5 5 3 5 5 5 5 5 5 5 5 5 5 5 5 3 5 5 5 5 5 5 5 5 5 5 5 5 5 5 5 5 5 5 5 5 5 3 5 5 5 5 5 5 5 5 5 3 5 5 5 3 5 3 5 5 5 5 3 3 5 5 3 3 5 5 5 3 5 5 3 5 3 5 5 5 3 5 5 5 5 5 5 5 5 3 5 5 5 5 5 5 5 3 5 5 3 5 5 5 3 5 3 5 5 3 5 3 3 5 5 5 5 3 5 5 3 3 5 5 5 5 5 5 5 5 5 3 5 5 5 5 3 5 5 5 5 5 5 5 5 5 5 5 5 5 5 5 5 5 5 5 5 5 5 5 5 5 5 5 5 5 5 3 5 5 3 5 5 5 5 5 5 5 5 5 5 5 3 3 5 5 5 5 5 5 5 5 5 5 5 5 5 5 5 5 5 5 5 5 3 5 5 5 5 5 5 5 5 5 5 5 5 5 5 5 5 3 5 5 5 3 5 5 5 5 5 5 3 5 5 5 5 5 5 5 5 3 3 5 5 5 5 5 5 5 3 5 5 5 5 5 5 5 3 5 5 5 5 5 5 3 5 5 5 5 5 3 5 5 3 5 5 5 5 5 5 5 3 5 5 5 3 5 5 5 5 5 5 5 5 5 5 5 5 5 5 5 5 5 5 5 5 5 5 5 5 5 5 5 5 5 5 5 5 5 5 5 5 5 3 3 5 5 5 5 5 3 5 5 5 5 3 5 5 3 5 5 5 5 5 5 5 5 5 5 5 5 5 5 5 5 5 3 5 5 5 5 3 5 5 5 3 5 5 5 5 5 3 5 3 5 5 5 5 5 5 5 3 5 5 3 5 3 5 5 5 3 5 5 3 5 5 3 5 5 5 5 5 5 5 5 5 5 5 5 5 3 5 3 5 5 5 5 5 5 5 3 5 5 3 5 5 3 5 5 5 5 5 3 5 5 5 5 3 5 5 5 3 5 5 5 5 5 5 5 5 5 5 5 5 5 5 5 5 5 5 5 3 5 5 5 3 5 5 3 5 5 5 3 5 5 5 5 5 5 5 5 5 3 5 3 5 5 5 5 5 5 5 5 5 5 5 3 5 5 5 5 5 5 5 5 5 5 5 5 5 3 5 5 5 5 5 3 3 5 5 5 5 5 5 5 5 5 5 5 5 5 5 5 5 5 5 5 5 5 5 5 3 5 5 5 5 5 5 5 5 5 5 5 5 5 5 3 5 5 5 5 5 5 5 5 5 3 5 5 5 3 5 5 5 5 5 5 5 5 5 5 5 5 5 5 5 5 5 5 5 3 5 5 5 5 5 3 5 5 5 5 5 3 5 5 3 5 5 5 3 5 5 5 5 5 5 5 5 3 5 5 3 5 5 5 3 5 5 3 5 5 3 5 3 5 5 5 3 5 5 5 5 5 5 5 5 3 5 5 5 3 5 5 5 5 5 5 5 5 5 5 5 5 3 5 3 5 5 3 5 5 5 3 5 5 5 3 3 5 5 5 5 5 5 5 5 5 5 5 5 5 5 5 5 3 3 5 5 5 3 5 5 5 5 5 3 5 5 5 5 5 5 5 5 5 5 5 5 5 5 3 5 5 5 5 5 5 5 5 5 5 5 5 5 5 5 5 5 5 5 5 5 5 5 5 5 5 3 5 3 5 5 3 5 5 5 5 5 5 3 5 5 5 5 5 3 5 5 5 5 5 5 3 5 3 5 5 5 5 5 5 5 5 5 5 5 5 5 5 5 5 5 5 5 5 5 5 5 5 3 5 5 3 5 5 5 5 5 5 5 5 5 5 5 3 5 5 5 5 5 5 5 5 5 5 3 5 5 5 5 5 5 5 3 5 5 5 5 5 3 3 5 3 3 5 5 5 3 5 5 5 5 3 5 5 5 5 3 5 5 3 5 5 3 5 5 3 5 5 5 5 5 5 5 5 5 5 5 3 5 5 5 3 5 5 3 3 3 5 5 5 3 5 5 3 3 5 5 5 5 5 5 5 5 5 5 5 5 5 5 5 5 3 5 5 5 5 5 5 5 5 5 5 5 5 5 5 5 5 5 5 5 5 5 5 5 3 3 5 5 5 3 5 5 5 5 5 5 5 5 5 3 5 5 5 5 5 3 5 5 3 5 3 5 5 5 5 3 3 5 5 5 5 5 5 5 5 5 5 5 5 5 5 5 5 5 5 5 5 5 5 5 3 5 5 5 5 5 5 5 5 5 5 5 5 5 3 5 5 3 5 5 5 5 5 5 5 5 5 5 5 5 5 3 5 5 3 5 5 5 5 5 5 5 5 5 5 5 5 5 5 5 5 5 5 3 5 5 5 5 5 5 5 5 5 5 5 3 3 5 5 5 3 5 5 5 5 3 5 5 3 5 5 5 5 5 5 5 5 5 5 5 5 5 5 5 5 5 5 5 5 5 3 5 5 5 5 5 3 5 5 5 5 5 5 5 5 5 5 5 5 5 3 5 5 5 5 5 5 5 3 5 5 5 5 5 5 5 5 5 5 5 5 5 5 5 5 5 5 3 5 5 5 3 5 5 5 5 5 5 3 3 5 5 5 5 5 3 5 5 5 5 3 5 5 5 3 5 3 3 5 5 5 5 5 5 5 5 5 5 5 5 5 5 5 3 5 5 5 5 5 5 3 5 5 5 3 5 5 3 5 5 5 3 5 3 5 5 5 5 5 5 3 5 3 5 5 5 3 3 5 5 5 5 3 5 3 3 5 5 5 5 5 5 5 3 5 5 5 5 5 5 5 5 5 3 5 5 5 5 5 5 5 5 3 3 5 5 3 5 5 3 5 5 5 3 5 5 3 5 5 5 5 5 3 5 5 5 5 5 5 5 5 5 5 5 5 5 5 5 5 5 5 5 5 3 3 5 5 5 5 3 5 5 3 5 5 5 5 5 5 5 5 5 3 3 5 5 5 5 5 5 5 5 5 5 5 5 3 5 5 5 5 5 5 5 5 5 5 5 5 5 5 3 5 5 3 5 5 5 5 5 5 5 5 5 5 5 5 5 5 5 3 5 5 5 3 5 5 5 5 5 5 5 5 5 5 5 3 5 5 5 5 5 5 5 5 5 5 5 5 5 5 5 5 5 3 5 5 5 5 5 5 5 5 5 5 5 5 5 5 5 5 5 5 5 5 5 5 5 5 5 5 5 5 5 5 5 5 3 5 5 5 5 5 5 5 5 5 5 5 5 5 5 5 5 5 5 5 5 5 5 5 5 3 3 5 5 5 5 5 5 5 5 5 5 5 5 5 5 5 5 5 5 5 5 5 5 5 5 5 5 5 5 5 5 5 5 5 5 5 5 5 5 5 5 5 5 5 5 5 5 5 5 5 5 5 5 5 5 5 5 5 3 5 5 5 3 5 5 5 5 5 5 5 5 5 5 5 5 5 5 5 5 5 5 5 5 5 5 5 5 5 3 5 5 5 5 5 5 5 5 5 5 5 5 5 5 3 5 5 5 5 5 3 5 5 3 5 5 5 5 5 5 5 3 5 3 5 5 5 5 5 3 5 5 5 5 5 5 5 3 5 5 5 5 5 5 5 3 5 5 3 5 5 5 3 5 5 5 5 5 5 5 5 5 5 5 5 5 5 3 5 5 5 5 5 5 5 5 5 5 5 5 5 5 5 5 5 5 5 3 5 3 5 3 5 3 3 5 5 5 5 5 5 5 5 5 3 5 5 5 5 5 3 5 3 5 5 5 5 5 3 5 5 3 5 5 5 5 5 5 5 3 5 5 5 5 5 5 5 5 5 5 3 5 5 3 3 5 5 5 3 5 5 5 5 5 5 5 5 3 5 5 5 5 5 5 5 5 5 5 5 5 5 5 5 5 5 5 5 5 5 5 5 5 3 5 3 3 5 5 5 5 5 5 5 5 5 5 5 5 5 5 5 5 5 5 5 5 5 5 3 5 5 3 3 5 5 5 5 5 5 5 5 5 5 5 5 5 5 5 5 5 5 5 5 3 5 5 3 5 5 3 5 5 5 5 5 5 5 5 5 5 5 5 5 5 5 5 5 5 5 5 5 3 5 5 5 3 5 5 5 5 5 3 5 5 5 5 5 3 5 5 5 5 5 5 5 5 5 5 5 5 5 3 5 3 5 5 5 5 3 5 5 5 5 5 3 5 3 5 5 5 5 5 5 5 5 5 5 5 5 3 5 5 5 5 5 5 5 5 3 5 5 5 5 5 5 5 5 5 5 5 3 5 5 5 3 5 5 3 5 3 5 5 5 5 5 5 3 5 5 5 5 5 5 5 5 5 5 5 5 5 5 5 3 5 5 5 3 5 5 5 5 5 5 5 5 3 5 3 5 5 5 5 3 5 5 5 5 5 5 5 5 5 5 5 5 5 5 5 3 5 5 5 5 5 5 3 5 5 5 5 5 5 5 5 5 5 5 5 5 5 5 5 5 5 5 5 5 5 5 5 5 5 3 5 5 3 5 5 5 5 5 5 5 5 5 5 5 5 5 5 3 5 5 5 5 5 5 5 5 5 5 5 3 5 3 5 5 3 5 5 3 3 5 3 5 5 3 5 5 5 5 5 5 5 5 5 5 5 5 5 5 5 5 5 5 5 5 5 5 5 5 5 5 5 3 5 5 3 5 5 3 5 3 5 5 5 3 5 5 5 5 3 5 5 5 5 5 5 5 5 5 5 3 5 5 5 3 5 5 5 3 5 5 5 5 5 5 5 5 5 5 5 5 5 3 3 5 5 5 5 5 5 5 5 5 5 5 5 5 5 5 5 5 5 5 5 5 5 5 5 3 3 5 5 5 5 5 5 5 5 5 5 5 5 5 3 3 5 3 5 5 5 5 5 3 5 5 5 5 5 5 5 5 3 3 5 3 5 5 3 5 3 5 5 5 5 5 5 5 5 5 5 5 3 5 5 5 5 5 5 5 3 5 5 5 5 5 3 5 3 5 5 5 5 5 5 5 5 3 5 5 5 5 3 3 3 5 5 3 5 5 5 3 5 5 3 5 5 5 5 3 5 5 5 5 5 5 5 3 5 5 5 5 5 5 5 5 5 5 5 5 5 5 5 3 5 3 5 5 5 5 3 5 5 3 5 5 3 5 3 5 5 5 5 5 5 3 5 5 5 5 5 5 5 5 5 3 3 5 5 5 5 3 5 5 5 5 3 5 5 5 5 5 5 5 5 5 5 5 5 5 5 5 5 5 5 5 5 5 5 5 5 5 5 5 5 5 5 5 5 5 5 3 5 5 5 5 3 5 5 5 5 5 5 3 5 5 5 5 5 5 5 3 5 3 5 5 3 3 5 5 3 5 5 5 5 5 5 5 5 3 5 5 3 5 5 3 5 5 5 3 5 5 3 3 3 5 5 3 5 5 3 5 5 5 5 5 5 5 5 5 5 5 5 5 5 3 5 5 5 5 5 5 5 5 5 3 5 5 5 5 5 3 5 3 5 3 5 5 5 5 3 5 5 5 5 3 5 3 5 3 3 5 5 5 5 5 5 3 5 5 3 5 5 5 5 5 3 5 5 5 3 5 5 3 5 5 5 5 3 5 5 5 5 5 5 5 5 5 5 5 5 5 3 5 5 5 3 5 5 5 5 5 5 5 5 5 5 5 5 5 5 5 5 5 5 5 5 5 5 5 5 5 5 5 5 5 5 3 5 5 5 5 5 5 5 5 5 5 5 5 5 3 5 5 5 5 3 5 5 5 3 5 5 5 5 5 5 5 5 5 5 3 5 5 5 5 3 5 5 5 3 5 3 5 5 5 5 5 5 5 5 3 3 5 5 5 5 5 5 5 5 5 5 5 5 5 5 5 5 5 5 5 5 5 5 5 5 5 3 5 5 5 5 5 5 5 5 5 5 3 5 5 5 5 3 3 5 5 5 5 3 5 5 3 3 5 5 3 5 5 5 5 5 5 5 5 5 5 3 5 5 5 5 5 5 5 3 5 3 5 5 3 5 5 5 3 5 3 5 3 5 5 3 5 5 5 5 5 5 5 5 3 5 5 5 5 5 5 5 3 5 5 5 5 3 5 5 3 5 5 5 5 5 5 5 5 5 5 5 5 5 5 5 5 3 5 5 5 5 5 5 3 5 5 5 3 5 5 3 5 5 5 3 5 5 5 5 5 5 5 5 5 5 5 5 5 5 5 5 5 3 5 5 5 5 5 5 5 5 3 5 5 3 5 5 5 5 5 5 5 5 5 5 5 5 5 5 5 5 5 3 5 5 5 5 5 5 3 5 5 3 5 5 5 5 5 5 5 5 5 5 5 5 5 5 5 5 5 5 5 5 5 5 5 5 5 5 5 5 5 5 5 5 5 5 5 5 5 5 3 5 5 5 5 5 3 3 5 5 5 3 5 3 5 3 5 5 3 5 5 5 5 5 5 5 5 5 5 3 5 5 5 5 5 3 5 5 5 5 5 5 5 5 5 5 5 5 3 3 5 5 5 5 5 5 5 5 5 5 5 5 5 5 5 5 5 5 5 3 5 5 5 5 5 5 5 5 5 5 5 5 5 5 5 3 5 3 5 5 5 3 5 5 5 5 3 5 3 5 5 5 5 5 5 5 5 5 5 5 5 5 5 5 5 5 5 5 5 5 3 5 5 3 5 5 5 5 5 5 5 5 5 5 5 3 5 5 5 5 5 5 5 5 5 5 5 5 5 5 3 5 5 5 3 5 5 5 3 5 3 5 5 5 5 5 5 5 3 3 5 5 5 5 5 5 5 5 5 5 5 5 3 5 5 5 5 5 5 5 5 5 5 5 5 5 5 5 5 5 5 5 5 5 5 5 5 5 5 3 5 5 5 5 5 5 5 5 5 5 5 5 5 5 5 3 5 5 5 3 5 5 5 3 5 5 5 5 5 5 5 5 5 5 5 5 5 5 5 5 5 5 5 5 5 5 3 5 5 3 5 5 5 5 5 5 5 5 5 5 5 5 5 5 5 5 5 5 5 3 5 5 5 3 5 3 5 5 5 5 5 5 3 5 5 5 5 5 5 5 5 3 5 5 5 5 5 5 5 5 5 5 5 5 5 5 5 5 3 5 5 5 5 5 5 5 5 5 5 5 5 5 5 5 5 5 5 5 5 5 5 5 5 5 5 5 5 5 5 5 5 3 5 5 5 5 5 5 5 5 5 5 5 5 5 5 5 5 5 5 5 5 5 5 5 5 5 5 5 5 5 5 5 5 5 5 5 5 5 5 5 5 5 5 5 5 5 5 5 5 5 5 5 5 5 5 5 5 5 5 5 5 5 3 5 5 5 3 5 5 5 5 5 5 5 5 5 5 5 5 5 5 5 5 5 5 5 5 5 5 5 5 5 5 5 5 5 5 5 5 5 5 5 5 5 5 5 5 5 5 5 5 5 5 5 5 5 5 5 5 5 5 5 5 5 5 3 5 5 5 5 5 5 5 3 5 5 5 5 5 5 5 5 5 5 5 5 5 5 5 5 5 5 5 5 5 3 5 5 5 5 5 5 5 3 5 5 5 5 5 5 5 3 5 5 5 5 5 5 5 5 5 5 5 3 5 5 5 5 5 3 5 5 5 5 5 5 5 5 5 5 3 5 5 5 5 5 5 3 5 5 5 5 3 5 5 5 5 5 3 5 5 5 5 3 5 5 3 5 5 5 5 5 3 5 5 5 3 5 5 5 5 3 5 5 5 3 5 5 5 5 3 5 5 3 5 5 5 5 5 3 5 5 5 5 5 3 5 5 5 5 5 5 5 5 5 3 5 5 5 5 3 3 5 5 5 5 5 5 5 5 5 5 5 5 5 5 5 3 5 5 3 5 5 5 5 3 5 3 5 5 5 5 5 5 5 5 5 3 5 5 5 5 5 5 5 5 5 3 5 5 3 5 5 5 5 5 5 3 5 5 5 3 3 5 5 5 5 5 5 5 5 5 5 5 5 5 5 5 5 5 5 3 5 5 5 5 5 5 5 3 5 3 5 5 5 5 5 5 5 5 5 5 5 5 5 3 5 5 5 5 3 5 5 5 5 5 5 5 5 5 3 5 5 5 5 5 3 5 5 5 5 5 5 5 5 5 5 5 5 5 5 5 5 5 5 5 5 5 5 5 5 5 5 5 5 5 5 5 5 5 5 5 5 5 5 5 5 5 5 5 5 5 5 5 5 5 5 5 5 3 5 3 5 5 5 5 5 5 5 3 5 5 3 5 5 5 5 5 5 3 5 5 5 5 3 5 3 5 5 5 5 5 5 3 5 5 3 5 5 5 5 5 5 5 5 5 5 5 5 3 5 5 5 5 5 5 5 3 5 5 3 5 5 5 5 5 5 5 5 5 5 5 3 5 5 5 5 5 3 5 3 5 5 3 5 5 3 3 5 5 5 3 5 3 5 5 5 5 5 3 5 5 5 5 5 5 5 5 3 5 5 5 5 5 5 5 5 3 3 5 3 5 5 5 5 5 5 5 5 5 5 5 5 3 5 5 5 5 5 5 5 5 5 5 5 5 3 5 5 5 5 5 5 3 5 5 5 5 3 5 5 5 5 5 5 5 5 3 5 5 3 5 5 3 3 5 3 5 3 5 5 5 5 5 5 5 5 5 3 5 5 3 5 3 5 5 5 5 5 5 3 5 5 5 5 5 5 3 5 5 5 5 5 5 5 5 5 3 5 5 5 5 5 5 5 5 5 5 5 5 5 5 5 5 5 5 5 5 5 5 3 5 5 5 5 5 3 3 5 5 5 5 5 3 5 5 5 5 5 5 5 5 5 5 3 5 3 5 5 5 5 5 5 3 5 5 5 3 5 5 5 5 5 5 5 5 5 5 3 5 5 5 5 5 5 5 5 5 5 5 5 3 5 5 5 5 5 5 5 5 3 5 5 5 5 5 3 5 5 5 5 5 3 5 5 3 5 5 5 5 5 5 3 5 5 5 5 5 5 5 5 5 5 5 5 3 5 3 5 5 5 3 5 5 5 5 3 5 5 5 5 5 5 5 5 5 5 5 5 5 3 5 5 5 3 5 5 3 5 5 5 5 3 5 5 5 5 5 5 5 5 5 5 5 5 5 5 5 5 3 5 5 5 5 5 3 5 5 5 3 5 3 5 5 5 5 5 3 5 5 5 5 5 5 5 5 5 5 5 5 5 5 5 5 5 5 5 5 5 5 5 5 5 5 5 5 5 5 5 5 5 5 5 5 5 5 5 5 3 5 5 3 5 5 5 5 5 5 5 3 5 5 5 5 5 5 5 5 5 5 3 5 5 5 3 5 5 5 5 5 5 5 5 5 5 5 3 5 5 5 3 5 5 5 5 3 5 5 5 5 5 5 5 5 5 5 5 5 5 5 5 5 5 5 5 5 5 5 5 5 5 5 5 5 5 5 5 5 5 5 5 3 5 3 5 5 5 5 5 5 5 5 5 5 5 5 5 3 5 5 5 5 5 5 5 5 5 5 5 5 5 5 5 5 5 5 5 5 5 5 5 5 5 5 5 5 5 5 5 5 5 5 5 5 5 3 5 3 5 5 5 5 5 5 3 5 3 5 5 5 5 5 5 5 5 5 5 5 3 5 5 5 5 5 3 5 3 5 5 5 5 3 5 3 5 5 3 5 5 5 5 5 5 5 5 3 5 5 5 5 5 5 5 5 5 5 5 5 5 5 5 5 5 5 3 5 5 3 5 3 5 5 5 5 5 3 5 5 5 3 5 5 5 5 5 5 5 5 5 5 3 5 5 5 3 3 5 5 5 5 5 5 3 5 5 5 5 5 3 5 5 3 5 5 5 5 5 5 5 5 5 3 5 5 3 5 5 5 5 3 5 5 5 5 5 5 3 5 5 5 5 3 5 5 3 5 5 5 3 5 3 5 5 5 5 3 5 3 5 5 5 3 5 3 5 5 5 5 5 5 3 5 5 5 5 5 3 5 5 5 5 3 5 5 3 5 5 5 5 3 3 5 5 5 5 5 5 5 5 5 5 5 3 3 5 5 5 5 5 5 5 5 5 5 5 5 5 3 5 5 5 5 5 5 5 5 5 5 5 3 5 5 5 5 5 5 5 5 5 5 5 5 3 5 5 3 5 5 5 5 5 3 5 5 5 5 3 3 5 5 5 5 5 5 5 5 5 5 3 5 5 5 5 5 5 3 5 5 3 5 5 5 5 3 5 5 5 5 5 5 5 5 5 5 5 5 5 5 5 5 5 3 5 5 3 5 5 5 5 5 5 5 5 5 5 5 5 3 5 3 3 3 5 5 5 5 5 5 5 3 5 5 5 5 5 5 5 5 3 5 5 5 5 5 5 5 5 5 5 5 5 5 5 5 5 5 5 5 5 5 5 5 5 5 5 5 5 3 5 5 3 5 5 5 5 5 5 5 5 5 5 5 5 5 5 5 3 5 5 5 5 3 5 5 5 5 5 5 5 5 5 5 5 5 5 3 5 5 5 5 5 5 5 3 5 5 5 5 3 5 5 5 5 5 5 5 5 5 5 5 5 5 5 5 5 5 5 5 5 5 5 5 3 5 5 5 5 5 5 3 5 5 5 5 3 5 5 3 5 5 5 5 5 3 5 5 5 5 5 5 5 5 5 5 3 5 5 5 5 5 5 5 5 5 5 3 5 5 5 3 5 5 5 5 5 3 5 5 5 5 5 5 5 5 3 5 3 5 5 3 5 5 3 5 5 5 5 5 5 5 3 5 5 5 5 5 5 5 5 5 5 5 5 5 5 5 5 3 5 5 5 5 5 5 5 5 5 5 5 5 5 5 5 5 5 5 5 5 5 5 5 5 5 5 5 5 5 3 5 5 5 5 5 5 5 5 5 5 5 5 5 5 5 5 5 5 5 5 5 5 5 3 5 5 5 5 5 5 5 5 5 5 5 5 5 5 5 5 5 5 3 5 5 5 5 5 5 5 3 5 3 5 5 5 3 5 3 5 5 5 5 5 5 5 5 5 5 5 5 5 5 5 5 5 5 5 5 5 5 3 5 3 5 5 5 5 5 5 5 5 5 5 3 5 5 5 3 5 3 5 5 3 5 5 3 5 5 5 5 5 5 5 5 5 5 5 5 3 5 5 5 3 5 5 3 5 5 5 5 5 5 5 3 5 5 5 5 5 5 5 5 3 5 3 5 5 5 5 5 5 5 3 5 5 5 5 5 5 5 5 5 5 3 5 5 3 5 3 5 3 5 5 5 5 5 3 5 5 5 3 5 5 3 3 5 5 3 5 5 5 5 3 5 5 3 5 5 3 5 5 3 5 5 5 5 5 5 3 5 5 3 5 5 5 3 5 3 5 5 3 5 5 5 5 5 5 3 5 5 3 5 5 5 5 5 5 3 5 3 5 5 5 5 3 5 5 5 5 5 3 5 3 5 5 5 3 3 3 5 5 3 5 5 3 5 3 5 5 5 3 5 5 5 3 5 5 5 5 3 5 3 5 3 5 3 5 3 3 5 3 5 5 5 5 5 5 5 5 5 3 5 5 5 3 5 5 3 5 5 5 5 5 5 5 5 5 5 3 5 5 5 3 5 5 5 5 5 5 5 5 5 3 5 5 3 5 5 5 5 5 5 3 5 5 5 5 5 5 5 3 5 5 3 5 5 3 5 5 5 5 5 5 5 5 5 5 5 3 5 5 3 5 5 5 5 5 5 3 5 5 3 5 5 5 5 5 5 5 5 5 5 5 3 5 5 5 5 5 5 5 5 5 5 5 5 3 5 5 5 5 5 5 5 5 5 3 5 5 5 5 5 5 5 5 5 5 5 5 5 5 5 5 5 5 5 5 5 5 5 5 5 5 5 5 5 5 5 5 5 5 5 5 5 5 5 5 5 5 5 5 5 5 5 5 5 5 5 5 5 5 5 5 5 5 5 5 5 5 5 5 5 5 5 5 5 5 5 5 5 5 5 5 5 5 5 5 5 5 5 5 5 5 5 5 5 5 5 5 5 5 5 5 5 5 5 5 5 3 5 5 5 5 5 5 3 5 5 3 5 3 5 3 5 5 5 3 5 5 3 5 5 5 5 5 5 5 5 5 5 3 5 5 5 5 5 5 5 5 5 5 5 5 5 5 5 5 5 5 5 5 5 5 5 5 5 5 5 5 5 5 5 5 5 5 5 5 5 5 5 5 5 5 5 5 5 5 5 5 5 5 5 5 5 5 5 5 5 5 5 5 5 5 5 5 5 5 3 5 5 5 5 3 5 5 5 5 5 3 5 5 3 5 5 3 3 5 5 5 5 5 5 5 3 5 5 5 5 3 5 5 5 5 5 5 5 3 5 5 5 5 5 5 5 5 5 5 5 5 5 5 5 5 5 5 5 5 5 5 5 5 3 5 5 5 3 5 5 3 5 5 5 5 5 5 5 5 5 3 5 5 5 3 5 5 5 3 5 5 3 5 5 5 5 5 5 5 5 5 5 5 5 5 5 5 5 5 5 5 5 5 5 3 5 5 5 5 5 5 5 5 3 5 5 5 3 5 5 5 5 5 3 5 3 5 5 5 5 
</DataArray>
</Cells>
<PointData Scalars="" Vectors="displacement," Tensors="">
<DataArray type="Float64" Name="displacement" NumberOfComponents="3" format="ascii">
-0.054999498538129389 -9.1882138537477456e-07 0 -0.054784202568727909 0.00032411893592741166 0 -0.051719753260655602 9.2378779756839621e-07 0 -0.054997416350874531 -3.1367532856019108e-09 0 -0.054999498538129389 -9.1882138537477456e-07 0 -0.051719753260655602 9.2378779756839621e-07 0 -0.054999993036655329 -4.7085414473482414e-10 0 -0.054989624054873475 2.0221135972260559e-06 0 -0.054999982309383792 2.0595710784175303e-09 0 -0.055000459143056901 8.1493596168645067e-07 0 -0.05271200658362294 0.00025253452805097914 0 -0.05271200658362294 0.00025253452805097914 0 -0.051712876801070222 1.057813970622146e-06 0 -0.048694664876860805 0.0014075527896166855 0 -0.051708059961867239 2.7262591811513628e-06 0 -0.048887652427526747 -0.00039018558393504472 0 -0.051708059961867239 2.7262591811513628e-06 0 -0.048887652427526747 -0.00039018558393504472 0 -0.048488419224465611 -1.9879530231651378e-06 0 -0.048694664876860805 0.0014075527896166855 0 -0.048887652427526747 -0.00039018558393504472 0 -0.048046529351747039 -0.00053215590640077776 0 -0.048887652427526747 -0.00039018558393504472 0 -0.048046529351747039 -0.00053215590640077776 0 -0.047108548407405443 -0.00049599886010870018 0 -0.048887652427526747 -0.00039018558393504472 0 -0.048488419224465611 -1.9879530231651378e-06 0 -0.047108548407405443 -0.00049599886010870018 0 -0.049009194544527596 -0.00048192086655471025 0 -0.048046529351747039 -0.00053215590640077776 0 -0.047108548407405443 -0.00049599886010870018 0 -0.049009194544527596 -0.00048192086655471025 0 -0.05280013019941427 0.00017712052302322915 0 -0.050987043681601237 1.7264476424754753e-05 0 -0.049373688668127275 -0.00038313720940740415 0 -0.050115200116375443 -1.3727325471826623e-05 0 -0.05280013019941427 0.00017712052302322915 0 -0.052954480465341187 0.00022918920247178628 0 -0.050987043681601237 1.7264476424754753e-05 0 -0.05280013019941427 0.00017712052302322915 0 -0.053623587300334362 0.00020209985097180929 0 -0.052954480465341187 0.00022918920247178628 0 -0.05271200658362294 0.00025253452805097914 0 -0.050115200116375443 -1.3727325471826623e-05 0 -0.053266328811918152 0.00012198685028860712 0 -0.05280013019941427 0.00017712052302322915 0 -0.053623587300334362 0.00020209985097180929 0 -0.054989624054873475 2.0221135972260559e-06 0 -0.054999982309383792 2.0595710784175303e-09 0 -0.055000004968654315 -7.1973871263902749e-10 0 -0.05271200658362294 0.00025253452805097914 0 -0.055001777716060934 -8.1986722895364411e-07 0 -0.053266328811918152 0.00012198685028860712 0 -0.053623587300334362 0.00020209985097180929 0 -0.054994902668561718 1.3988387059463943e-07 0 -0.053623587300334362 0.00020209985097180929 0 -0.054994902668561718 1.3988387059463943e-07 0 -0.052954480465341187 0.00022918920247178628 0 -0.054998395857578347 2.4301017254593321e-08 0 -0.053711580756221435 3.199368646739646e-05 0 -0.052954480465341187 0.00022918920247178628 0 -0.054994902668561718 1.3988387059463943e-07 0 -0.054998395857578347 2.4301017254593321e-08 0 -0.052954480465341187 0.00022918920247178628 0 -0.054998395857578347 2.4301017254593321e-08 0 -0.053711580756221435 3.199368646739646e-05 0 -0.05499881767608919 -3.2638597633435478e-07 0 -0.053711580756221435 3.199368646739646e-05 0 -0.05398348898217329 5.6946709743739061e-05 0 -0.05149705002615125 0.00055936686845459464 0 -0.053711580756221435 3.199368646739646e-05 0 -0.052954480465341187 0.00022918920247178628 0 -0.05149705002615125 0.00055936686845459464 0 -0.05499881767608919 -3.2638597633435478e-07 0 -0.054960660087642048 -2.6906682560400737e-05 0 -0.054999956273869471 -1.3998414864792055e-08 0 -0.054676060216268203 1.9837989723130867e-05 0 -0.05499881767608919 -3.2638597633435478e-07 0 -0.054960660087642048 -2.6906682560400737e-05 0 -0.053711580756221435 3.199368646739646e-05 0 -0.05499881767608919 -3.2638597633435478e-07 0 -0.05398348898217329 5.6946709743739061e-05 0 -0.054676060216268203 1.9837989723130867e-05 0 -0.05499881767608919 -3.2638597633435478e-07 0 -0.05398348898217329 5.6946709743739061e-05 0 -0.054676060216268203 1.9837989723130867e-05 0 -0.054960660087642048 -2.6906682560400737e-05 0 -0.05495828474168387 0.00046893082352738355 0 -0.054676060216268203 1.9837989723130867e-05 0 -0.05398348898217329 5.6946709743739061e-05 0 -0.05495828474168387 0.00046893082352738355 0 -0.05398348898217329 5.6946709743739061e-05 0 -0.053695928252089124 0.0015602661201670773 0 -0.05495828474168387 0.00046893082352738355 0 -0.05398348898217329 5.6946709743739061e-05 0 -0.053695928252089124 0.0015602661201670773 0 -0.05149705002615125 0.00055936686845459464 0 -0.051181071205673605 0.00091850864894585924 0 -0.051336754276444532 0.00060689698323078726 0 -0.049115508003969237 -0.00039873411276676628 0 -0.04857149960453 0.00021164867510727549 0 -0.048298734101782904 -0.00055499133625224427 0 -0.049115508003969237 -0.00039873411276676628 0 -0.04857149960453 0.00021164867510727549 0 -0.05149705002615125 0.00055936686845459464 0 -0.04857149960453 0.00021164867510727549 0 -0.048298734101782904 -0.00055499133625224427 0 -0.047935479605258798 -0.00026162661915355226 0 -0.051181071205673605 0.00091850864894585924 0 -0.051700268713050231 -0.00044197936420681077 0 -0.053695928252089124 0.0015602661201670773 0 -0.05495828474168387 0.00046893082352738355 0 -0.054786668451485949 0.0020789805686247955 0 -0.052954480465341187 0.00022918920247178628 0 -0.050987043681601237 1.7264476424754753e-05 0 -0.05149705002615125 0.00055936686845459464 0 -0.049115508003969237 -0.00039873411276676628 0 -0.05149705002615125 0.00055936686845459464 0 -0.049560563729376589 -0.00035142626494405872 0 -0.050987043681601237 1.7264476424754753e-05 0 -0.05149705002615125 0.00055936686845459464 0 -0.049560563729376589 -0.00035142626494405872 0 -0.049009194544527596 -0.00048192086655471025 0 -0.050987043681601237 1.7264476424754753e-05 0 -0.049560563729376589 -0.00035142626494405872 0 -0.049009194544527596 -0.00048192086655471025 0 -0.049560563729376589 -0.00035142626494405872 0 -0.047053936547089462 -0.00039896070499464162 0 -0.049560563729376589 -0.00035142626494405872 0 -0.048152051119242062 -0.00055999963606587287 0 -0.047053936547089462 -0.00039896070499464162 0 -0.049115508003969237 -0.00039873411276676628 0 -0.049560563729376589 -0.00035142626494405872 0 -0.048152051119242062 -0.00055999963606587287 0 -0.048152051119242062 -0.00055999963606587287 0 -0.047053936547089462 -0.00039896070499464162 0 -0.046828318524032311 -0.00020155221001704176 0 -0.048248796075045619 -0.0014364920455970326 0 -0.051700268713050231 -0.00044197936420681077 0 -0.048098164878647418 -0.00066315116472622133 0 -0.048298734101782904 -0.00055499133625224427 0 -0.047935479605258798 -0.00026162661915355226 0 -0.049115508003969237 -0.00039873411276676628 0 -0.048152051119242062 -0.00055999963606587287 0 -0.048298734101782904 -0.00055499133625224427 0 -0.048152051119242062 -0.00055999963606587287 0 -0.048298734101782904 -0.00055499133625224427 0 -0.047747217497683042 -0.00053994088726435816 0 -0.048152051119242062 -0.00055999963606587287 0 -0.047747217497683042 -0.00053994088726435816 0 -0.046828318524032311 -0.00020155221001704176 0 -0.048098164878647418 -0.00066315116472622133 0 -0.048298734101782904 -0.00055499133625224427 0 -0.047747217497683042 -0.00053994088726435816 0 -0.048248796075045619 -0.0014364920455970326 0 -0.048266114356289844 -0.00040717605502922318 0 -0.048098164878647418 -0.00066315116472622133 0 -0.047747217497683042 -0.00053994088726435816 0 -0.048286157446587818 -0.00039506740659386451 0 -0.048286157446587818 -0.00039506740659386451 0 -0.04692624930652578 0.00025674345854960256 0 -0.048548380013905788 0.00076879470041174981 0 -0.047747217497683042 -0.00053994088726435816 0 -0.048286157446587818 -0.00039506740659386451 0 -0.04692624930652578 0.00025674345854960256 0 -0.047747217497683042 -0.00053994088726435816 0 -0.04692624930652578 0.00025674345854960256 0 -0.046828318524032311 -0.00020155221001704176 0 -0.04692624930652578 0.00025674345854960256 0 -0.046210310292993419 0.00029311664303952143 0 -0.046828318524032311 -0.00020155221001704176 0 -0.04692624930652578 0.00025674345854960256 0 -0.046210310292993419 0.00029311664303952143 0 -0.045251067181591859 0.00079447985745009406 0 -0.04692624930652578 0.00025674345854960256 0 -0.048548380013905788 0.00076879470041174981 0 -0.048764212588067096 0.0021532974526184139 0 -0.046806883524025303 0.00030232940223150445 0 -0.046975173957248491 0.0013627798516944773 0 -0.047053936547089462 -0.00039896070499464162 0 -0.046077274051532849 -0.00026219826283514655 0 -0.046828318524032311 -0.00020155221001704176 0 -0.047053936547089462 -0.00039896070499464162 0 -0.046077274051532849 -0.00026219826283514655 0 -0.044862243112658261 -0.00028489289383092515 0 -0.046077274051532849 -0.00026219826283514655 0 -0.046828318524032311 -0.00020155221001704176 0 -0.045780060601129512 5.9351111053334485e-05 0 -0.046210310292993419 0.00029311664303952143 0 -0.046828318524032311 -0.00020155221001704176 0 -0.045780060601129512 5.9351111053334485e-05 0 -0.046077274051532849 -0.00026219826283514655 0 -0.045780060601129512 5.9351111053334485e-05 0 -0.044862243112658261 -0.00028489289383092515 0 -0.047053936547089462 -0.00039896070499464162 0 -0.044862243112658261 -0.00028489289383092515 0 -0.04617748708777069 -0.0003712352522662175 0 -0.044862243112658261 -0.00028489289383092515 0 -0.043866063189864857 -0.00025253410613303444 0 -0.04617748708777069 -0.0003712352522662175 0 -0.044862243112658261 -0.00028489289383092515 0 -0.043866063189864857 -0.00025253410613303444 0 -0.041786750196931663 -0.00025453620692298583 0 -0.043866063189864857 -0.00025253410613303444 0 -0.042036327420375691 -6.6451477979183254e-07 0 -0.041786750196931663 -0.00025453620692298583 0 -0.042036327420375691 -6.6451477979183254e-07 0 -0.044913121134690683 -0.00026508377465818476 0 -0.045262031664683101 -3.4437273954881651e-07 0 -0.043866063189864857 -0.00025253410613303444 0 -0.042036327420375691 -6.6451477979183254e-07 0 -0.044913121134690683 -0.00026508377465818476 0 -0.043866063189864857 -0.00025253410613303444 0 -0.044913121134690683 -0.00026508377465818476 0 -0.04617748708777069 -0.0003712352522662175 0 -0.044913121134690683 -0.00026508377465818476 0 -0.047108548407405443 -0.00049599886010870018 0 -0.04617748708777069 -0.0003712352522662175 0 -0.044913121134690683 -0.00026508377465818476 0 -0.045262031664683101 -3.4437273954881651e-07 0 -0.047108548407405443 -0.00049599886010870018 0 -0.048488419224465611 -1.9879530231651378e-06 0 -0.045262031664683101 -3.4437273954881651e-07 0 -0.047108548407405443 -0.00049599886010870018 0 -0.049009194544527596 -0.00048192086655471025 0 -0.047108548407405443 -0.00049599886010870018 0 -0.04617748708777069 -0.0003712352522662175 0 -0.049009194544527596 -0.00048192086655471025 0 -0.047053936547089462 -0.00039896070499464162 0 -0.04617748708777069 -0.0003712352522662175 0 -0.054883515125028419 -9.5607746286561297e-05 0 -0.054789057456788595 -0.00014089864334668347 0 -0.054871211282435023 -0.0001362845705519908 0 -0.054883515125028419 -9.5607746286561297e-05 0 -0.054871211282435023 -0.0001362845705519908 0 -0.054934706671473009 -0.00011244605823980598 0 -0.054883515125028419 -9.5607746286561297e-05 0 -0.054789057456788595 -0.00014089864334668347 0 -0.054847216717819676 -3.9614211136833288e-05 0 -0.054789057456788595 -0.00014089864334668347 0 -0.054716109810355955 -0.00017146112340996934 0 -0.054663709629484088 -0.00016841958602471552 0 -0.054789057456788595 -0.00014089864334668347 0 -0.054716109810355955 -0.00017146112340996934 0 -0.054797247205268122 -0.00015927930392356407 0 -0.054789057456788595 -0.00014089864334668347 0 -0.054797247205268122 -0.00015927930392356407 0 -0.054871211282435023 -0.0001362845705519908 0 -0.054797247205268122 -0.00015927930392356407 0 -0.054871211282435023 -0.0001362845705519908 0 -0.054913734530136718 -0.00010466424948669305 0 -0.054871211282435023 -0.0001362845705519908 0 -0.054913734530136718 -0.00010466424948669305 0 -0.054927775394149364 -0.00011869778164360954 0 -0.054871211282435023 -0.0001362845705519908 0 -0.054927775394149364 -0.00011869778164360954 0 -0.054934706671473009 -0.00011244605823980598 0 -0.054913734530136718 -0.00010466424948669305 0 -0.05494651867862544 -9.4483777636495843e-05 0 -0.054927775394149364 -0.00011869778164360954 0 -0.054913734530136718 -0.00010466424948669305 0 -0.054963843932246514 -6.1659486939193571e-05 0 -0.05494651867862544 -9.4483777636495843e-05 0 -0.054913734530136718 -0.00010466424948669305 0 -0.05499995496305992 -6.0447276014707503e-08 0 -0.054963843932246514 -6.1659486939193571e-05 0 -0.054913734530136718 -0.00010466424948669305 0 -0.054871929622451264 -0.00010205569325735053 0 -0.054999814570678832 -9.0515409393625556e-08 0 -0.054913734530136718 -0.00010466424948669305 0 -0.05499995496305992 -6.0447276014707503e-08 0 -0.054999814570678832 -9.0515409393625556e-08 0 -0.054797247205268122 -0.00015927930392356407 0 -0.054913734530136718 -0.00010466424948669305 0 -0.054871929622451264 -0.00010205569325735053 0 -0.054882029782441173 -7.1117600918852103e-05 0 -0.054871929622451264 -0.00010205569325735053 0 -0.054744413115887007 -0.0001486586217352358 0 -0.054882029782441173 -7.1117600918852103e-05 0 -0.054871929622451264 -0.00010205569325735053 0 -0.054999814570678832 -9.0515409393625556e-08 0 -0.054882029782441173 -7.1117600918852103e-05 0 -0.054999814570678832 -9.0515409393625556e-08 0 -0.054999826385483452 -4.1252069903171323e-08 0 -0.054882029782441173 -7.1117600918852103e-05 0 -0.054999826385483452 -4.1252069903171323e-08 0 -0.054792805334598599 -9.471992692712685e-05 0 -0.054882029782441173 -7.1117600918852103e-05 0 -0.054744413115887007 -0.0001486586217352358 0 -0.054792805334598599 -9.471992692712685e-05 0 -0.054744413115887007 -0.0001486586217352358 0 -0.054616156552409985 -0.00021346638656257391 0 -0.05455877825083412 -0.00021972804506615546 0 -0.054744413115887007 -0.0001486586217352358 0 -0.05455877825083412 -0.00021972804506615546 0 -0.054792805334598599 -9.471992692712685e-05 0 -0.054797247205268122 -0.00015927930392356407 0 -0.054744413115887007 -0.0001486586217352358 0 -0.054616156552409985 -0.00021346638656257391 0 -0.054797247205268122 -0.00015927930392356407 0 -0.054871929622451264 -0.00010205569325735053 0 -0.054744413115887007 -0.0001486586217352358 0 -0.054716109810355955 -0.00017146112340996934 0 -0.054797247205268122 -0.00015927930392356407 0 -0.054616156552409985 -0.00021346638656257391 0 -0.054716109810355955 -0.00017146112340996934 0 -0.054616156552409985 -0.00021346638656257391 0 -0.054663709629484088 -0.00016841958602471552 0 -0.054616156552409985 -0.00021346638656257391 0 -0.054511514556421635 -0.00022688288294197141 0 -0.054663709629484088 -0.00016841958602471552 0 -0.054616156552409985 -0.00021346638656257391 0 -0.054394433976921883 -0.00029532214506579693 0 -0.054511514556421635 -0.00022688288294197141 0 -0.054616156552409985 -0.00021346638656257391 0 -0.05455877825083412 -0.00021972804506615546 0 -0.054394433976921883 -0.00029532214506579693 0 -0.05455877825083412 -0.00021972804506615546 0 -0.054321108481989976 -0.00033823784114561867 0 -0.054394433976921883 -0.00029532214506579693 0 -0.05455877825083412 -0.00021972804506615546 0 -0.054666878914343041 -0.00026149224143241919 0 -0.054321108481989976 -0.00033823784114561867 0 -0.054061367540131043 -0.00032082481012829728 0 -0.054571527704540511 -0.00025444658750241615 0 -0.054410903146579745 -0.00057376465786324732 0 -0.054666878914343041 -0.00026149224143241919 0 -0.054792805334598599 -9.471992692712685e-05 0 -0.054926030058730375 -8.8427392529027334e-05 0 -0.054340989954154741 -0.00027915660614411951 0 -0.054729782815929259 -7.7260706417424599e-05 0 -0.054061367540131043 -0.00032082481012829728 0 -0.054540240175134126 -3.3614052822240831e-05 0 -0.054571527704540511 -0.00025444658750241615 0 -0.05455877825083412 -0.00021972804506615546 0 -0.054666878914343041 -0.00026149224143241919 0 -0.054792805334598599 -9.471992692712685e-05 0 -0.054792805334598599 -9.471992692712685e-05 0 -0.054924205362005318 -3.4504263764481489e-05 0 -0.054926030058730375 -8.8427392529027334e-05 0 -0.054999826385483452 -4.1252069903171323e-08 0 -0.054924205362005318 -3.4504263764481489e-05 0 -0.054999839224500961 1.4110106198740991e-08 0 -0.054999826385483452 -4.1252069903171323e-08 0 -0.054792805334598599 -9.471992692712685e-05 0 -0.054924205362005318 -3.4504263764481489e-05 0 -0.054924205362005318 -3.4504263764481489e-05 0 -0.054999839224500961 1.4110106198740991e-08 0 -0.054926030058730375 -8.8427392529027334e-05 0 -0.054729782815929259 -7.7260706417424599e-05 0 -0.05493323426127783 -5.3407509633750965e-06 0 -0.054540240175134126 -3.3614052822240831e-05 0 -0.054969770819103876 3.4765860202870794e-06 0 -0.054889673556585979 -5.6765609095763436e-06 0 -0.054540240175134126 -3.3614052822240831e-05 0 -0.054889673556585979 -5.6765609095763436e-06 0 -0.054875461938238342 -6.4062625953700952e-05 0 -0.054999839224500961 1.4110106198740991e-08 0 -0.054969770819103876 3.4765860202870794e-06 0 -0.054999956273869471 -1.3998414864792055e-08 0 -0.054999839224500961 1.4110106198740991e-08 0 -0.054926030058730375 -8.8427392529027334e-05 0 -0.054969770819103876 3.4765860202870794e-06 0 -0.054960660087642048 -2.6906682560400737e-05 0 -0.054999956273869471 -1.3998414864792055e-08 0 -0.054889673556585979 -5.6765609095763436e-06 0 -0.054969770819103876 3.4765860202870794e-06 0 -0.054999956273869471 -1.3998414864792055e-08 0 -0.054889673556585979 -5.6765609095763436e-06 0 -0.054960660087642048 -2.6906682560400737e-05 0 -0.054889673556585979 -5.6765609095763436e-06 0 -0.054875461938238342 -6.4062625953700952e-05 0 -0.054850173568387665 -0.00013261806967836297 0 -0.05532841412620354 0.00049794652285332279 0 -0.054540240175134126 -3.3614052822240831e-05 0 -0.054875461938238342 -6.4062625953700952e-05 0 -0.054571527704540511 -0.00025444658750241615 0 -0.05532841412620354 0.00049794652285332279 0 -0.051700268713050231 -0.00044197936420681077 0 -0.054571527704540511 -0.00025444658750241615 0 -0.054841154950211579 -0.00039199480071041112 0 -0.054410903146579745 -0.00057376465786324732 0 -0.054875461938238342 -6.4062625953700952e-05 0 -0.054571527704540511 -0.00025444658750241615 0 -0.054841154950211579 -0.00039199480071041112 0 -0.051700268713050231 -0.00044197936420681077 0 -0.052588503664560964 -0.001643011317684814 0 -0.048448160785320084 -0.0018829516957778131 0 -0.048574188735740882 -0.0034014301274599172 0 -0.050869874118036021 -0.002304080960202376 0 -0.050869874118036021 -0.002304080960202376 0 -0.049972861424250441 -0.00071853058400993578 0 -0.051538118553846511 -0.0007694202224506557 0 -0.048448160785320084 -0.0018829516957778131 0 -0.048286157446587818 -0.00039506740659386451 0 -0.049972861424250441 -0.00071853058400993578 0 -0.048448160785320084 -0.0018829516957778131 0 -0.050869874118036021 -0.002304080960202376 0 -0.049972861424250441 -0.00071853058400993578 0 -0.048286157446587818 -0.00039506740659386451 0 -0.049972861424250441 -0.00071853058400993578 0 -0.049795733635966691 0.00080571366056977109 0 -0.048286157446587818 -0.00039506740659386451 0 -0.048548380013905788 0.00076879470041174981 0 -0.049795733635966691 0.00080571366056977109 0 -0.049795733635966691 0.00080571366056977109 0 -0.050826460564722079 0.0021817488517632184 0 -0.048764212588067096 0.0021532974526184139 0 -0.048548380013905788 0.00076879470041174981 0 -0.049795733635966691 0.00080571366056977109 0 -0.048764212588067096 0.0021532974526184139 0 -0.049795733635966691 0.00080571366056977109 0 -0.051153151750575818 0.0011486938921193425 0 -0.050826460564722079 0.0021817488517632184 0 -0.049972861424250441 -0.00071853058400993578 0 -0.051130543806627501 0.00016024437181197837 0 -0.051538118553846511 -0.0007694202224506557 0 -0.049795733635966691 0.00080571366056977109 0 -0.051153151750575818 0.0011486938921193425 0 -0.051130543806627501 0.00016024437181197837 0 -0.049972861424250441 -0.00071853058400993578 0 -0.049795733635966691 0.00080571366056977109 0 -0.051130543806627501 0.00016024437181197837 0 -0.051130543806627501 0.00016024437181197837 0 -0.052439660086042603 -0.00020530972805702066 0 -0.05200745346482713 0.00065903648680940626 0 -0.051130543806627501 0.00016024437181197837 0 -0.052439660086042603 -0.00020530972805702066 0 -0.051538118553846511 -0.0007694202224506557 0 -0.052439660086042603 -0.00020530972805702066 0 -0.05200745346482713 0.00065903648680940626 0 -0.052875412541691667 0.00015140662398445686 0 -0.05200745346482713 0.00065903648680940626 0 -0.052757403863788077 0.00062545452582850141 0 -0.052875412541691667 0.00015140662398445686 0 -0.051153151750575818 0.0011486938921193425 0 -0.051130543806627501 0.00016024437181197837 0 -0.05200745346482713 0.00065903648680940626 0 -0.051153151750575818 0.0011486938921193425 0 -0.05200745346482713 0.00065903648680940626 0 -0.052033497689827506 0.0018605189183961614 0 -0.05200745346482713 0.00065903648680940626 0 -0.052669525252829773 0.0011571130880567745 0 -0.052033497689827506 0.0018605189183961614 0 -0.051153151750575818 0.0011486938921193425 0 -0.052033497689827506 0.0018605189183961614 0 -0.050826460564722079 0.0021817488517632184 0 -0.052669525252829773 0.0011571130880567745 0 -0.053355773512588918 0.0011242742482755988 0 -0.053034291707325425 0.0016945807978392389 0 -0.052669525252829773 0.0011571130880567745 0 -0.053034291707325425 0.0016945807978392389 0 -0.052033497689827506 0.0018605189183961614 0 -0.052669525252829773 0.0011571130880567745 0 -0.053368852096974138 0.00061095038639257611 0 -0.052757403863788077 0.00062545452582850141 0 -0.05200745346482713 0.00065903648680940626 0 -0.052669525252829773 0.0011571130880567745 0 -0.052757403863788077 0.00062545452582850141 0 -0.052669525252829773 0.0011571130880567745 0 -0.053355773512588918 0.0011242742482755988 0 -0.053368852096974138 0.00061095038639257611 0 -0.053368852096974138 0.00061095038639257611 0 -0.052757403863788077 0.00062545452582850141 0 -0.053354419272895026 0.00012591151367464739 0 -0.052757403863788077 0.00062545452582850141 0 -0.052875412541691667 0.00015140662398445686 0 -0.053354419272895026 0.00012591151367464739 0 -0.052439660086042603 -0.00020530972805702066 0 -0.052875412541691667 0.00015140662398445686 0 -0.053237144339403256 -0.00018700938695399974 0 -0.052875412541691667 0.00015140662398445686 0 -0.053354419272895026 0.00012591151367464739 0 -0.053237144339403256 -0.00018700938695399974 0 -0.053368852096974138 0.00061095038639257611 0 -0.053354419272895026 0.00012591151367464739 0 -0.053703304530171879 7.8549092130162599e-05 0 -0.053354419272895026 0.00012591151367464739 0 -0.053654989649620753 -0.00026796346260906268 0 -0.053237144339403256 -0.00018700938695399974 0 -0.053354419272895026 0.00012591151367464739 0 -0.053654989649620753 -0.00026796346260906268 0 -0.053703304530171879 7.8549092130162599e-05 0 -0.053654989649620753 -0.00026796346260906268 0 -0.05387278414615787 -0.00015211585436423764 0 -0.053703304530171879 7.8549092130162599e-05 0 -0.053654989649620753 -0.00026796346260906268 0 -0.0537688838399338 -0.00053363441109181451 0 -0.05356878002489613 -0.00063753134819465181 0 -0.053654989649620753 -0.00026796346260906268 0 -0.0537688838399338 -0.00053363441109181451 0 -0.053895930202452709 -0.00031341510004055255 0 -0.053654989649620753 -0.00026796346260906268 0 -0.053895930202452709 -0.00031341510004055255 0 -0.05387278414615787 -0.00015211585436423764 0 -0.0537688838399338 -0.00053363441109181451 0 -0.054064514422522109 -0.00033364310732100826 0 -0.053895930202452709 -0.00031341510004055255 0 -0.0537688838399338 -0.00053363441109181451 0 -0.05356878002489613 -0.00063753134819465181 0 -0.053911791250316726 -0.00051103143872968909 0 -0.052439660086042603 -0.00020530972805702066 0 -0.05356878002489613 -0.00063753134819465181 0 -0.053237144339403256 -0.00018700938695399974 0 -0.053654989649620753 -0.00026796346260906268 0 -0.05356878002489613 -0.00063753134819465181 0 -0.053237144339403256 -0.00018700938695399974 0 -0.050869874118036021 -0.002304080960202376 0 -0.05356878002489613 -0.00063753134819465181 0 -0.051538118553846511 -0.0007694202224506557 0 -0.052439660086042603 -0.00020530972805702066 0 -0.05356878002489613 -0.00063753134819465181 0 -0.051538118553846511 -0.0007694202224506557 0 -0.054410903146579745 -0.00057376465786324732 0 -0.05356878002489613 -0.00063753134819465181 0 -0.053911791250316726 -0.00051103143872968909 0 -0.052588503664560964 -0.001643011317684814 0 -0.053579632220589049 -0.0006326808785657869 0 -0.054061367540131043 -0.00032082481012829728 0 -0.054410903146579745 -0.00057376465786324732 0 -0.053911791250316726 -0.00051103143872968909 0 -0.054666878914343041 -0.00026149224143241919 0 -0.0537688838399338 -0.00053363441109181451 0 -0.054321108481989976 -0.00033823784114561867 0 -0.054061367540131043 -0.00032082481012829728 0 -0.0537688838399338 -0.00053363441109181451 0 -0.053911791250316726 -0.00051103143872968909 0 -0.0537688838399338 -0.00053363441109181451 0 -0.054321108481989976 -0.00033823784114561867 0 -0.054170623928943576 -0.00036292165391142527 0 -0.054340989954154741 -0.00027915660614411951 0 -0.053858391545930445 -0.0005163409458970457 0 -0.054299906796277261 -0.00025255412052459231 0 -0.054170623928943576 -0.00036292165391142527 0 -0.054394433976921883 -0.00029532214506579693 0 -0.054299906796277261 -0.00025255412052459231 0 -0.054170623928943576 -0.00036292165391142527 0 -0.054064514422522109 -0.00033364310732100826 0 -0.054321108481989976 -0.00033823784114561867 0 -0.054170623928943576 -0.00036292165391142527 0 -0.054394433976921883 -0.00029532214506579693 0 -0.054299906796277261 -0.00025255412052459231 0 -0.054394433976921883 -0.00029532214506579693 0 -0.054511514556421635 -0.00022688288294197141 0 -0.054511514556421635 -0.00022688288294197141 0 -0.054565222028812581 -0.00013661650316412971 0 -0.054663709629484088 -0.00016841958602471552 0 -0.054299906796277261 -0.00025255412052459231 0 -0.054511514556421635 -0.00022688288294197141 0 -0.054565222028812581 -0.00013661650316412971 0 -0.054299906796277261 -0.00025255412052459231 0 -0.054565222028812581 -0.00013661650316412971 0 -0.054425554120250207 -4.8343711331435027e-05 0 -0.054565222028812581 -0.00013661650316412971 0 -0.054425554120250207 -4.8343711331435027e-05 0 -0.054599241109147781 -8.8936692608117506e-06 0 -0.054565222028812581 -0.00013661650316412971 0 -0.054599241109147781 -8.8936692608117506e-06 0 -0.054746146477773129 -4.7212422218937602e-05 0 -0.054425554120250207 -4.8343711331435027e-05 0 -0.054599241109147781 -8.8936692608117506e-06 0 -0.054574151299101328 0.00015625485145820322 0 -0.054599241109147781 -8.8936692608117506e-06 0 -0.054574151299101328 0.00015625485145820322 0 -0.054739517391283646 0.00012421195439870803 0 -0.054425554120250207 -4.8343711331435027e-05 0 -0.054220507159375105 -6.0333413345674413e-05 0 -0.054342429565413214 0.00016533327808280723 0 -0.054425554120250207 -4.8343711331435027e-05 0 -0.054574151299101328 0.00015625485145820322 0 -0.054342429565413214 0.00016533327808280723 0 -0.054220507159375105 -6.0333413345674413e-05 0 -0.05412664115877211 0.00017207348016757499 0 -0.054342429565413214 0.00016533327808280723 0 -0.054220507159375105 -6.0333413345674413e-05 0 -0.053982669514487179 1.395010930655245e-05 0 -0.05412664115877211 0.00017207348016757499 0 -0.054220507159375105 -6.0333413345674413e-05 0 -0.054082193332541099 -0.0002040050269348389 0 -0.053982669514487179 1.395010930655245e-05 0 -0.054299906796277261 -0.00025255412052459231 0 -0.054064514422522109 -0.00033364310732100826 0 -0.054082193332541099 -0.0002040050269348389 0 -0.054299906796277261 -0.00025255412052459231 0 -0.054425554120250207 -4.8343711331435027e-05 0 -0.054220507159375105 -6.0333413345674413e-05 0 -0.054299906796277261 -0.00025255412052459231 0 -0.054220507159375105 -6.0333413345674413e-05 0 -0.054082193332541099 -0.0002040050269348389 0 -0.0537688838399338 -0.00053363441109181451 0 -0.054170623928943576 -0.00036292165391142527 0 -0.054064514422522109 -0.00033364310732100826 0 -0.054064514422522109 -0.00033364310732100826 0 -0.053895930202452709 -0.00031341510004055255 0 -0.054082193332541099 -0.0002040050269348389 0 -0.053895930202452709 -0.00031341510004055255 0 -0.054082193332541099 -0.0002040050269348389 0 -0.05387278414615787 -0.00015211585436423764 0 -0.054082193332541099 -0.0002040050269348389 0 -0.053982669514487179 1.395010930655245e-05 0 -0.05387278414615787 -0.00015211585436423764 0 -0.053982669514487179 1.395010930655245e-05 0 -0.05387278414615787 -0.00015211585436423764 0 -0.053703304530171879 7.8549092130162599e-05 0 -0.053982669514487179 1.395010930655245e-05 0 -0.053703304530171879 7.8549092130162599e-05 0 -0.053885890225768042 0.00034607728630425507 0 -0.053885890225768042 0.00034607728630425507 0 -0.05412664115877211 0.00017207348016757499 0 -0.054177730289235795 0.0004834991161996877 0 -0.05412664115877211 0.00017207348016757499 0 -0.054177730289235795 0.0004834991161996877 0 -0.054342429565413214 0.00016533327808280723 0 -0.053982669514487179 1.395010930655245e-05 0 -0.053885890225768042 0.00034607728630425507 0 -0.05412664115877211 0.00017207348016757499 0 -0.054177730289235795 0.0004834991161996877 0 -0.053842100184964617 0.00079164517318420363 0 -0.054267866451818247 0.00092722795240107573 0 -0.053885890225768042 0.00034607728630425507 0 -0.054177730289235795 0.0004834991161996877 0 -0.053842100184964617 0.00079164517318420363 0 -0.053368852096974138 0.00061095038639257611 0 -0.053703304530171879 7.8549092130162599e-05 0 -0.053885890225768042 0.00034607728630425507 0 -0.053368852096974138 0.00061095038639257611 0 -0.053885890225768042 0.00034607728630425507 0 -0.053842100184964617 0.00079164517318420363 0 -0.053355773512588918 0.0011242742482755988 0 -0.053368852096974138 0.00061095038639257611 0 -0.053842100184964617 0.00079164517318420363 0 -0.053355773512588918 0.0011242742482755988 0 -0.053842100184964617 0.00079164517318420363 0 -0.053756840540831387 0.0013848856413305969 0 -0.053842100184964617 0.00079164517318420363 0 -0.053756840540831387 0.0013848856413305969 0 -0.054267866451818247 0.00092722795240107573 0 -0.053756840540831387 0.0013848856413305969 0 -0.054267866451818247 0.00092722795240107573 0 -0.05420565362380729 0.0017758147378569449 0 -0.053355773512588918 0.0011242742482755988 0 -0.053756840540831387 0.0013848856413305969 0 -0.053034291707325425 0.0016945807978392389 0 -0.054586927467362691 0.0012003734997459152 0 -0.054885225731632452 0.00093594128141868559 0 -0.05472470174560419 0.0016898251364820841 0 -0.054586927467362691 0.0012003734997459152 0 -0.054267866451818247 0.00092722795240107573 0 -0.05420565362380729 0.0017758147378569449 0 -0.054586927467362691 0.0012003734997459152 0 -0.054267866451818247 0.00092722795240107573 0 -0.054660868155660514 0.00068885526883198395 0 -0.054586927467362691 0.0012003734997459152 0 -0.054660868155660514 0.00068885526883198395 0 -0.054885225731632452 0.00093594128141868559 0 -0.054660868155660514 0.00068885526883198395 0 -0.054471334166009015 0.00042584139072254697 0 -0.054726668372322977 0.00033057292075228605 0 -0.054267866451818247 0.00092722795240107573 0 -0.054660868155660514 0.00068885526883198395 0 -0.054471334166009015 0.00042584139072254697 0 -0.054177730289235795 0.0004834991161996877 0 -0.054267866451818247 0.00092722795240107573 0 -0.054471334166009015 0.00042584139072254697 0 -0.054574151299101328 0.00015625485145820322 0 -0.054471334166009015 0.00042584139072254697 0 -0.054342429565413214 0.00016533327808280723 0 -0.054177730289235795 0.0004834991161996877 0 -0.054471334166009015 0.00042584139072254697 0 -0.054342429565413214 0.00016533327808280723 0 -0.054574151299101328 0.00015625485145820322 0 -0.054471334166009015 0.00042584139072254697 0 -0.054726668372322977 0.00033057292075228605 0 -0.054726668372322977 0.00033057292075228605 0 -0.05486419682536485 0.00028590475249154105 0 -0.054739517391283646 0.00012421195439870803 0 -0.054726668372322977 0.00033057292075228605 0 -0.05486419682536485 0.00028590475249154105 0 -0.054920423608385699 0.00046570346048028675 0 -0.054574151299101328 0.00015625485145820322 0 -0.054726668372322977 0.00033057292075228605 0 -0.054739517391283646 0.00012421195439870803 0 -0.05486419682536485 0.00028590475249154105 0 -0.054920423608385699 0.00046570346048028675 0 -0.054938735301896788 0.00039919528475793108 0 -0.054660868155660514 0.00068885526883198395 0 -0.054726668372322977 0.00033057292075228605 0 -0.054920423608385699 0.00046570346048028675 0 -0.054920423608385699 0.00046570346048028675 0 -0.054885225731632452 0.00093594128141868559 0 -0.055212128472324574 0.0012726571199656426 0 -0.054660868155660514 0.00068885526883198395 0 -0.054920423608385699 0.00046570346048028675 0 -0.054885225731632452 0.00093594128141868559 0 -0.054960035727234138 0.00038143333155586992 0 -0.054952722011010278 0.0004444961110293436 0 -0.054999734076188835 0.0003174902484948907 0 -0.054920423608385699 0.00046570346048028675 0 -0.055212128472324574 0.0012726571199656426 0 -0.05580025462934262 0.001428252990080352 0 -0.054960035727234138 0.00038143333155586992 0 -0.054938735301896788 0.00039919528475793108 0 -0.054952722011010278 0.0004444961110293436 0 -0.054920423608385699 0.00046570346048028675 0 -0.054938735301896788 0.00039919528475793108 0 -0.054952722011010278 0.0004444961110293436 0 -0.055440345430635286 0.00051168340570174203 0 -0.053897744316746099 0.0011711745861366484 0 -0.054960035727234138 0.00038143333155586992 0 -0.054938735301896788 0.00039919528475793108 0 -0.054954888738471139 0.00030086155821648056 0 -0.054960035727234138 0.00038143333155586992 0 -0.054954888738471139 0.00030086155821648056 0 -0.054999734076188835 0.0003174902484948907 0 -0.054913099453020309 0.00027756210482109166 0 -0.054954888738471139 0.00030086155821648056 0 -0.054923783577218277 0.00018413378702982196 0 -0.054938735301896788 0.00039919528475793108 0 -0.054913099453020309 0.00027756210482109166 0 -0.054954888738471139 0.00030086155821648056 0 -0.05486419682536485 0.00028590475249154105 0 -0.054938735301896788 0.00039919528475793108 0 -0.054913099453020309 0.00027756210482109166 0 -0.054954888738471139 0.00030086155821648056 0 -0.054923783577218277 0.00018413378702982196 0 -0.054982358341934386 0.00020577163072593119 0 -0.054923783577218277 0.00018413378702982196 0 -0.054929537363895664 8.6217272584928335e-05 0 -0.054982358341934386 0.00020577163072593119 0 -0.054923783577218277 0.00018413378702982196 0 -0.054929537363895664 8.6217272584928335e-05 0 -0.05486759503243499 6.5634189145791276e-05 0 -0.054913099453020309 0.00027756210482109166 0 -0.054923783577218277 0.00018413378702982196 0 -0.054851617268877176 0.00015016515604087511 0 -0.054923783577218277 0.00018413378702982196 0 -0.05486759503243499 6.5634189145791276e-05 0 -0.054851617268877176 0.00015016515604087511 0 -0.05486419682536485 0.00028590475249154105 0 -0.054851617268877176 0.00015016515604087511 0 -0.054739517391283646 0.00012421195439870803 0 -0.05486419682536485 0.00028590475249154105 0 -0.054913099453020309 0.00027756210482109166 0 -0.054851617268877176 0.00015016515604087511 0 -0.054599241109147781 -8.8936692608117506e-06 0 -0.054739517391283646 0.00012421195439870803 0 -0.054746146477773129 -4.7212422218937602e-05 0 -0.054851617268877176 0.00015016515604087511 0 -0.054739517391283646 0.00012421195439870803 0 -0.054746146477773129 -4.7212422218937602e-05 0 -0.05486759503243499 6.5634189145791276e-05 0 -0.054851617268877176 0.00015016515604087511 0 -0.054746146477773129 -4.7212422218937602e-05 0 -0.054746146477773129 -4.7212422218937602e-05 0 -0.054760789360077687 -0.00010115723753516803 0 -0.054847216717819676 -3.9614211136833288e-05 0 -0.05486759503243499 6.5634189145791276e-05 0 -0.054746146477773129 -4.7212422218937602e-05 0 -0.054847216717819676 -3.9614211136833288e-05 0 -0.054565222028812581 -0.00013661650316412971 0 -0.054746146477773129 -4.7212422218937602e-05 0 -0.054663709629484088 -0.00016841958602471552 0 -0.054789057456788595 -0.00014089864334668347 0 -0.054663709629484088 -0.00016841958602471552 0 -0.054760789360077687 -0.00010115723753516803 0 -0.054746146477773129 -4.7212422218937602e-05 0 -0.054663709629484088 -0.00016841958602471552 0 -0.054760789360077687 -0.00010115723753516803 0 -0.054789057456788595 -0.00014089864334668347 0 -0.054760789360077687 -0.00010115723753516803 0 -0.054847216717819676 -3.9614211136833288e-05 0 -0.054883515125028419 -9.5607746286561297e-05 0 -0.054940010774435909 6.103939636259721e-06 0 -0.054847216717819676 -3.9614211136833288e-05 0 -0.054883515125028419 -9.5607746286561297e-05 0 -0.054940010774435909 6.103939636259721e-06 0 -0.054964300209021412 -7.0923851363640324e-05 0 -0.054929537363895664 8.6217272584928335e-05 0 -0.054940010774435909 6.103939636259721e-06 0 -0.054847216717819676 -3.9614211136833288e-05 0 -0.054929537363895664 8.6217272584928335e-05 0 -0.05486759503243499 6.5634189145791276e-05 0 -0.054847216717819676 -3.9614211136833288e-05 0 -0.043761593176493058 0.00094067473903041408 0 -0.044095623166887615 0.00058758253900965994 0 -0.043502274011482156 0.00056462774453765912 0 -0.044438432277834644 0.00074568328546362889 0 -0.043207116786160758 0.0005703919007668403 0 -0.044176338319209717 0.00093095268257720003 0 -0.043761593176493058 0.00094067473903041408 0 -0.044095623166887615 0.00058758253900965994 0 -0.047667125205520508 0.0017581724830694548 0 -0.044438432277834644 0.00074568328546362889 0 -0.046332658954904904 0.0015457059914343672 0 -0.046304868616710328 0.0014500631412707741 0 -0.046385879019800846 0.0014554242972661488 0 -0.043576591887464218 0.0011695488203674648 0 -0.043915921835003681 0.0011898957849021724 0 -0.043840112398742227 0.00094695155663085124 0 -0.050004741544591468 0.0025945809323934667 0 -0.049889870315827214 0.0027620323817962289 0 -0.049751676332335806 0.0027553766460520308 0 -0.050004741544591468 0.0025945809323934667 0 -0.049751676332335806 0.0027553766460520308 0 -0.0499633787244015 0.0023221445337983744 0 -0.044438432277834644 0.00074568328546362889 0 -0.046368597919241611 0.0014916630236975971 0 -0.044018775396603045 0.001027322119659318 0 -0.043929504600129385 0.001181420253291203 0 -0.04423946064422523 0.001201557521567866 0 -0.044018775396603045 0.001027322119659318 0 -0.043915921835003681 0.0011898957849021724 0 -0.043840112398742227 0.00094695155663085124 0 -0.045758438459985444 0.001692264936379877 0 -0.046368597919241611 0.0014916630236975971 0 -0.046368597919241611 0.0014916630236975971 0 -0.049904705809837864 0.0027791163767055846 0 -0.047667125205520508 0.0017581724830694548 0 -0.046368597919241611 0.0014916630236975971 0 -0.055508109467484794 0.0034124448045583363 0 -0.054733181696178572 0.0030964265745671575 0 -0.054350003762389631 0.0038920285018379437 0 -0.049904705809837864 0.0027791163767055846 0 -0.052931649788078225 0.0028230843977597449 0 -0.054931399047181077 0.0046393849754870833 0 -0.055508109467484794 0.0034124448045583363 0 -0.054350003762389631 0.0038920285018379437 0 -0.044176338319209717 0.00093095268257720003 0 -0.043761593176493058 0.00094067473903041408 0 -0.043792495100517519 0.0015178372705630279 0 -0.047667125205520508 0.0017581724830694548 0 -0.047044296696261451 0.0019040104102123335 0 -0.050293836518800844 0.0023829760439912713 0 -0.050363983544755658 0.0021212778040196932 0 -0.050504673259762586 0.0020537428399880261 0 -0.050244394793127999 0.0021052898600201911 0 -0.050363983544755658 0.0021212778040196932 0 -0.050417007248429888 0.0019427484084218669 0 -0.047667125205520508 0.0017581724830694548 0 -0.052931649788078225 0.0028230843977597449 0 -0.050293836518800844 0.0023829760439912713 0 -0.050244394793127999 0.0021052898600201911 0 -0.050363983544755658 0.0021212778040196932 0 -0.052931649788078225 0.0028230843977597449 0 -0.052943574692800727 0.0019537627613900131 0 -0.050201282873267923 0.0021073419743419686 0 -0.051902836592935243 0.0014556213700964707 0 -0.050504673259762586 0.0020537428399880261 0 -0.050417007248429888 0.0019427484084218669 0 -0.050646382417152518 0.0017895860940634362 0 -0.050417007248429888 0.0019427484084218669 0 -0.050646382417152518 0.0017895860940634362 0 -0.050564568864435132 0.0016926255130751359 0 -0.050417007248429888 0.0019427484084218669 0 -0.050407031566766937 0.0017637656769827629 0 -0.050756105981912547 0.0015096687969702429 0 -0.050244394793127999 0.0021052898600201911 0 -0.050417007248429888 0.0019427484084218669 0 -0.050407031566766937 0.0017637656769827629 0 -0.050363983544755658 0.0021212778040196932 0 -0.050504673259762586 0.0020537428399880261 0 -0.050417007248429888 0.0019427484084218669 0 -0.052943574692800727 0.0019537627613900131 0 -0.053897744316746099 0.0011711745861366484 0 -0.05549472826212476 0.0020861784676644117 0 -0.055380030053477566 0.0016543735671382615 0 -0.05580025462934262 0.001428252990080352 0 -0.050407031566766937 0.0017637656769827629 0 -0.050621083578256496 0.0013463106176833182 0 -0.050756105981912547 0.0015096687969702429 0 -0.05549472826212476 0.0020861784676644117 0 -0.055380030053477566 0.0016543735671382615 0 -0.055017202372203908 0.0018288287024605539 0 -0.055212128472324574 0.0012726571199656426 0 -0.055380030053477566 0.0016543735671382615 0 -0.05580025462934262 0.001428252990080352 0 -0.053897744316746099 0.0011711745861366484 0 -0.051902836592935243 0.0014556213700964707 0 -0.054885225731632452 0.00093594128141868559 0 -0.055212128472324574 0.0012726571199656426 0 -0.055017202372203908 0.0018288287024605539 0 -0.054872626039908771 0.00097116211669213189 0 -0.055359448532163055 0.0021360930983431873 0 -0.054885225731632452 0.00093594128141868559 0 -0.055301084489032988 0.0022160886302470015 0 -0.05472470174560419 0.0016898251364820841 0 -0.055212128472324574 0.0012726571199656426 0 -0.055380030053477566 0.0016543735671382615 0 -0.055017202372203908 0.0018288287024605539 0 -0.055301084489032988 0.0022160886302470015 0 -0.054518673931732847 0.0024603143601827368 0 -0.05472470174560419 0.0016898251364820841 0 -0.055190345685759999 0.00275877573525118 0 -0.05549472826212476 0.0020861784676644117 0 -0.055017202372203908 0.0018288287024605539 0 -0.055301084489032988 0.0022160886302470015 0 -0.054733181696178572 0.0030964265745671575 0 -0.054518673931732847 0.0024603143601827368 0 -0.055508109467484794 0.0034124448045583363 0 -0.055301084489032988 0.0022160886302470015 0 -0.054733181696178572 0.0030964265745671575 0 -0.052931649788078225 0.0028230843977597449 0 -0.055359448532163055 0.0021360930983431873 0 -0.054733181696178572 0.0030964265745671575 0 -0.05407332384644039 0.0031812915367857263 0 -0.054518673931732847 0.0024603143601827368 0 -0.05407332384644039 0.0031812915367857263 0 -0.054518673931732847 0.0024603143601827368 0 -0.05393932744233354 0.0025586574579186004 0 -0.054518673931732847 0.0024603143601827368 0 -0.05420565362380729 0.0017758147378569449 0 -0.05472470174560419 0.0016898251364820841 0 -0.054518673931732847 0.0024603143601827368 0 -0.05420565362380729 0.0017758147378569449 0 -0.05393932744233354 0.0025586574579186004 0 -0.054586927467362691 0.0012003734997459152 0 -0.05420565362380729 0.0017758147378569449 0 -0.05472470174560419 0.0016898251364820841 0 -0.053756840540831387 0.0013848856413305969 0 -0.05351160435347356 0.0021435961317123249 0 -0.053034291707325425 0.0016945807978392389 0 -0.053756840540831387 0.0013848856413305969 0 -0.05420565362380729 0.0017758147378569449 0 -0.05351160435347356 0.0021435961317123249 0 -0.05420565362380729 0.0017758147378569449 0 -0.05351160435347356 0.0021435961317123249 0 -0.05393932744233354 0.0025586574579186004 0 -0.05351160435347356 0.0021435961317123249 0 -0.053415729798198433 0.0030158377113846547 0 -0.052816761885888082 0.0026232864069249111 0 -0.05351160435347356 0.0021435961317123249 0 -0.05393932744233354 0.0025586574579186004 0 -0.053415729798198433 0.0030158377113846547 0 -0.05407332384644039 0.0031812915367857263 0 -0.05393932744233354 0.0025586574579186004 0 -0.053415729798198433 0.0030158377113846547 0 -0.053587608504389025 0.0037718286474844333 0 -0.054350003762389631 0.0038920285018379437 0 -0.053466416318676581 0.0045671625684966582 0 -0.053415729798198433 0.0030158377113846547 0 -0.053587608504389025 0.0037718286474844333 0 -0.052806226797565851 0.0037611386974956461 0 -0.053587608504389025 0.0037718286474844333 0 -0.053466416318676581 0.0045671625684966582 0 -0.052806226797565851 0.0037611386974956461 0 -0.05407332384644039 0.0031812915367857263 0 -0.053415729798198433 0.0030158377113846547 0 -0.053587608504389025 0.0037718286474844333 0 -0.05407332384644039 0.0031812915367857263 0 -0.053587608504389025 0.0037718286474844333 0 -0.054350003762389631 0.0038920285018379437 0 -0.054733181696178572 0.0030964265745671575 0 -0.05407332384644039 0.0031812915367857263 0 -0.054350003762389631 0.0038920285018379437 0 -0.054931399047181077 0.0046393849754870833 0 -0.054350003762389631 0.0038920285018379437 0 -0.053466416318676581 0.0045671625684966582 0 -0.049904705809837864 0.0027791163767055846 0 -0.050727451833807495 0.0030931393976421388 0 -0.047671581888734466 0.002526588106828322 0 -0.049935209527115047 0.0026441220235542046 0 -0.049173666632793447 0.0016794958466643201 0 -0.050727451833807495 0.0030931393976421388 0 -0.047910160960897702 0.0014799808202313979 0 -0.050727451833807495 0.0030931393976421388 0 -0.051588461318860218 0.0033903412544201818 0 -0.047751953646844612 0.0025346798882694161 0 -0.050098305249522482 0.0024216917594355016 0 -0.048521204557134469 0.0016903294841877352 0 -0.050727451833807495 0.0030931393976421388 0 -0.049205621819916188 0.0023049574871296654 0 -0.049842677651228809 0.0025109472811807605 0 -0.050098305249522482 0.0024216917594355016 0 -0.050074597197713754 0.002798518702335264 0 -0.046092625434042821 0.0019523131735863009 0 -0.044090706250043778 0.00028050428120191174 0 -0.041804830878268209 0.0012739744057304817 0 -0.041252667842599587 -0.00017819139471041769 0 -0.03824415542485813 -0.00039374392349133175 0 -0.050098305249522482 0.0024216917594355016 0 -0.050628198296103204 0.0028363458502094329 0 -0.049747386123462439 0.0012794663144070093 0 -0.050098305249522482 0.0024216917594355016 0 -0.050628198296103204 0.0028363458502094329 0 -0.050387652960393749 0.0028665612046664883 0 -0.050628198296103204 0.0028363458502094329 0 -0.050387652960393749 0.0028665612046664883 0 -0.050468662451405952 0.0029414954825168964 0 -0.050098305249522482 0.0024216917594355016 0 -0.050387652960393749 0.0028665612046664883 0 -0.050074597197713754 0.002798518702335264 0 -0.050387652960393749 0.0028665612046664883 0 -0.050074597197713754 0.002798518702335264 0 -0.050605730641545832 0.0028061289701218225 0 -0.051588461318860218 0.0033903412544201818 0 -0.051237189456179569 0.0028243463205658435 0 -0.053415729798198433 0.0030158377113846547 0 -0.052806226797565851 0.0037611386974956461 0 -0.052816761885888082 0.0026232864069249111 0 -0.052806226797565851 0.0037611386974956461 0 -0.052816761885888082 0.0026232864069249111 0 -0.052037666048847617 0.0030231890890532738 0 -0.05351160435347356 0.0021435961317123249 0 -0.052816761885888082 0.0026232864069249111 0 -0.053034291707325425 0.0016945807978392389 0 -0.052816761885888082 0.0026232864069249111 0 -0.053034291707325425 0.0016945807978392389 0 -0.052033497689827506 0.0018605189183961614 0 -0.052033497689827506 0.0018605189183961614 0 -0.052037666048847617 0.0030231890890532738 0 -0.050826460564722079 0.0021817488517632184 0 -0.052816761885888082 0.0026232864069249111 0 -0.052033497689827506 0.0018605189183961614 0 -0.052037666048847617 0.0030231890890532738 0 -0.051237189456179569 0.0028243463205658435 0 -0.050836437860690073 0.0022168405556044269 0 -0.050605730641545832 0.0028061289701218225 0 -0.050826460564722079 0.0021817488517632184 0 -0.050468662451405952 0.0029414954825168964 0 -0.050387652960393749 0.0028665612046664883 0 -0.050605730641545832 0.0028061289701218225 0 -0.050468662451405952 0.0029414954825168964 0 -0.050826460564722079 0.0021817488517632184 0 -0.050071166666701798 0.0030138168656341597 0 -0.050468662451405952 0.0029414954825168964 0 -0.050826460564722079 0.0021817488517632184 0 -0.050071166666701798 0.0030138168656341597 0 -0.048764212588067096 0.0021532974526184139 0 -0.04394210014232814 0.0012254240345506331 0 -0.045251067181591859 0.00079447985745009406 0 -0.044929349992193147 0.00072509412040787456 0 -0.046929809552862987 0.0020468811700732775 0 -0.046975173957248491 0.0013627798516944773 0 -0.04394210014232814 0.0012254240345506331 0 -0.044169952914864821 0.00084708343610640738 0 -0.043329768468391101 0.0009357033446405048 0 -0.04394210014232814 0.0012254240345506331 0 -0.044169952914864821 0.00084708343610640738 0 -0.044929349992193147 0.00072509412040787456 0 -0.041804830878268209 0.0012739744057304817 0 -0.04394210014232814 0.0012254240345506331 0 -0.043329768468391101 0.0009357033446405048 0 -0.050628198296103204 0.0028363458502094329 0 -0.050071166666701798 0.0030138168656341597 0 -0.050468662451405952 0.0029414954825168964 0 -0.046092625434042821 0.0019523131735863009 0 -0.046929809552862987 0.0020468811700732775 0 -0.041804830878268209 0.0012739744057304817 0 -0.043329768468391101 0.0009357033446405048 0 -0.042640611278207528 0.00051328758179503117 0 -0.041804830878268209 0.0012739744057304817 0 -0.042640611278207528 0.00051328758179503117 0 -0.041252667842599587 -0.00017819139471041769 0 -0.042640611278207528 0.00051328758179503117 0 -0.043693273216647364 0.00041878837755760277 0 -0.042894056690611325 -0.0006716172249267516 0 -0.044169952914864821 0.00084708343610640738 0 -0.043329768468391101 0.0009357033446405048 0 -0.043693273216647364 0.00041878837755760277 0 -0.043329768468391101 0.0009357033446405048 0 -0.042640611278207528 0.00051328758179503117 0 -0.043693273216647364 0.00041878837755760277 0 -0.043693273216647364 0.00041878837755760277 0 -0.042894056690611325 -0.0006716172249267516 0 -0.044037604448146167 -0.00042613351898409949 0 -0.042640611278207528 0.00051328758179503117 0 -0.041252667842599587 -0.00017819139471041769 0 -0.042894056690611325 -0.0006716172249267516 0 -0.041252667842599587 -0.00017819139471041769 0 -0.042894056690611325 -0.0006716172249267516 0 -0.041228808795682907 -0.0030607384385457539 0 -0.036454370222798183 -0.0035024530030944409 0 -0.036595512042614672 -0.0027910615466071888 0 -0.042894056690611325 -0.0006716172249267516 0 -0.041228808795682907 -0.0030607384385457539 0 -0.043623578984469495 -0.0018273771072750422 0 -0.042894056690611325 -0.0006716172249267516 0 -0.043623578984469495 -0.0018273771072750422 0 -0.044037604448146167 -0.00042613351898409949 0 -0.029620189531750676 -0.0036964639099328358 0 -0.030918661515544732 -0.0022213697048644033 0 -0.029132904469615292 -0.0013293495031759918 0 -0.030918661515544732 -0.0022213697048644033 0 -0.032361550832442507 -0.0016450493527771517 0 -0.03147924940043325 -0.0005588278537217139 0 -0.031957819723271705 -0.0040783664961004072 0 -0.029620189531750676 -0.0036964639099328358 0 -0.030918661515544732 -0.0022213697048644033 0 -0.031957819723271705 -0.0040783664961004072 0 -0.030918661515544732 -0.0022213697048644033 0 -0.032949981566242355 -0.0030952930474106655 0 -0.032949981566242355 -0.0030952930474106655 0 -0.032361550832442507 -0.0016450493527771517 0 -0.033630271425397956 -0.0019425403771025748 0 -0.032361550832442507 -0.0016450493527771517 0 -0.033630271425397956 -0.0019425403771025748 0 -0.032942042980030534 -0.00066373472797912416 0 -0.030918661515544732 -0.0022213697048644033 0 -0.032949981566242355 -0.0030952930474106655 0 -0.032361550832442507 -0.0016450493527771517 0 -0.033630271425397956 -0.0019425403771025748 0 -0.034555813147999243 -0.002262807183036565 0 -0.034634404112981847 -0.0010380503495544581 0 -0.033630271425397956 -0.0019425403771025748 0 -0.034242695918940184 -0.0029968488786184812 0 -0.034555813147999243 -0.002262807183036565 0 -0.034242695918940184 -0.0029968488786184812 0 -0.034917615099316297 -0.003548767339481328 0 -0.034555813147999243 -0.002262807183036565 0 -0.032949981566242355 -0.0030952930474106655 0 -0.033630271425397956 -0.0019425403771025748 0 -0.034242695918940184 -0.0029968488786184812 0 -0.032949981566242355 -0.0030952930474106655 0 -0.034242695918940184 -0.0029968488786184812 0 -0.034894612128468484 -0.0036868723708553767 0 -0.044090706250043778 0.00028050428120191174 0 -0.03969762194446929 -0.0023145342224352447 0 -0.034242695918940184 -0.0029968488786184812 0 -0.034894612128468484 -0.0036868723708553767 0 -0.034917615099316297 -0.003548767339481328 0 -0.032949981566242355 -0.0030952930474106655 0 -0.03513125101223924 -0.0036039262415780188 0 -0.034894612128468484 -0.0036868723708553767 0 -0.03513125101223924 -0.0036039262415780188 0 -0.03824415542485813 -0.00039374392349133175 0 -0.033544552070817121 -0.0046554202733592696 0 -0.049747386123462439 0.0012794663144070093 0 -0.048057701804243909 0.00065495947369377863 0 -0.048067398057658382 -0.0010520383607281402 0 -0.035883569877521192 -0.003935996177509434 0 -0.03969762194446929 -0.0023145342224352447 0 -0.03513125101223924 -0.0036039262415780188 0 -0.034894612128468484 -0.0036868723708553767 0 -0.033544552070817121 -0.0046554202733592696 0 -0.031957819723271705 -0.0040783664961004072 0 -0.032949981566242355 -0.0030952930474106655 0 -0.03513125101223924 -0.0036039262415780188 0 -0.036454370222798183 -0.0035024530030944409 0 -0.035121955683217777 -0.0035781875889205933 0 -0.041228808795682907 -0.0030607384385457539 0 -0.03513125101223924 -0.0036039262415780188 0 -0.03824415542485813 -0.00039374392349133175 0 -0.041252667842599587 -0.00017819139471041769 0 -0.041228808795682907 -0.0030607384385457539 0 -0.03824415542485813 -0.00039374392349133175 0 -0.048521204557134469 0.0016903294841877352 0 -0.049747386123462439 0.0012794663144070093 0 -0.048057701804243909 0.00065495947369377863 0 -0.050098305249522482 0.0024216917594355016 0 -0.048521204557134469 0.0016903294841877352 0 -0.049747386123462439 0.0012794663144070093 0 -0.047751953646844612 0.0025346798882694161 0 -0.048521204557134469 0.0016903294841877352 0 -0.046702212481637972 0.0013473521194817301 0 -0.048521204557134469 0.0016903294841877352 0 -0.048057701804243909 0.00065495947369377863 0 -0.046702212481637972 0.0013473521194817301 0 -0.048057701804243909 0.00065495947369377863 0 -0.046702212481637972 0.0013473521194817301 0 -0.047032922924637524 -0.00013870667809054234 0 -0.047671581888734466 0.002526588106828322 0 -0.049173666632793447 0.0016794958466643201 0 -0.048405814568394212 0.00071361674678956707 0 -0.049904705809837864 0.0027791163767055846 0 -0.045176786646758768 0.0001779232401200123 0 -0.046702212481637972 0.0013473521194817301 0 -0.045662791034702048 9.0903589807638378e-05 0 -0.047032922924637524 -0.00013870667809054234 0 -0.047910160960897702 0.0014799808202313979 0 -0.045176786646758768 0.0001779232401200123 0 -0.045662791034702048 9.0903589807638378e-05 0 -0.047032922924637524 -0.00013870667809054234 0 -0.046449511389269817 -0.001883269739821675 0 -0.045176786646758768 0.0001779232401200123 0 -0.04216030263924448 -0.0013818669313540562 0 -0.048057701804243909 0.00065495947369377863 0 -0.047032922924637524 -0.00013870667809054234 0 -0.048067398057658382 -0.0010520383607281402 0 -0.047032922924637524 -0.00013870667809054234 0 -0.048067398057658382 -0.0010520383607281402 0 -0.046449511389269817 -0.001883269739821675 0 -0.03969762194446929 -0.0023145342224352447 0 -0.036612040781271386 -0.0015186205269581447 0 -0.039212353044481868 -0.0016279540102153455 0 -0.039230921284925412 -0.0015891734100391278 0 -0.039246151876151061 -0.0016072219389953858 0 -0.034917615099316297 -0.003548767339481328 0 -0.035457474825489582 -0.0025120553179050439 0 -0.034555813147999243 -0.002262807183036565 0 -0.03969762194446929 -0.0023145342224352447 0 -0.04216030263924448 -0.0013818669313540562 0 -0.035457474825489582 -0.0025120553179050439 0 -0.034555813147999243 -0.002262807183036565 0 -0.034634404112981847 -0.0010380503495544581 0 -0.036612040781271386 -0.0015186205269581447 0 -0.033653519169742338 -0.00044731711084702495 0 -0.033544815542668027 -0.00095023009570846821 0 -0.034153235914536464 -0.00010478106200375991 0 -0.033088395857544535 7.453737058780981e-05 0 -0.036612040781271386 -0.0015186205269581447 0 -0.035169539601693833 0.00050561718595014665 0 -0.038249805716338257 -0.00097230636393989909 0 -0.03867541528992699 -0.00093231888661350745 0 -0.038473819360147689 -0.00063765251913947408 0 -0.04216030263924448 -0.0013818669313540562 0 -0.039479973344040381 -0.0010194912273298088 0 -0.04263679330014087 0.00014340807728150087 0 -0.043046866326338792 -0.00087478111341555672 0 -0.041743629033572614 -0.00096950752147181331 0 -0.038249805716338257 -0.00097230636393989909 0 -0.03832439017932452 -0.0011245078022467938 0 -0.03867541528992699 -0.00093231888661350745 0 -0.036612040781271386 -0.0015186205269581447 0 -0.04216030263924448 -0.0013818669313540562 0 -0.043046866326338792 -0.00087478111341555672 0 -0.041743629033572614 -0.00096950752147181331 0 -0.042010372700364368 -0.0014054119127142202 0 -0.04243475584261399 -0.00079711028115078437 0 -0.043514779358061563 -0.00033249935334398031 0 -0.04243475584261399 -0.00079711028115078437 0 -0.039479973344040381 -0.0010194912273298088 0 -0.041138807094965098 -0.00099565454604810875 0 -0.041055886182066695 -0.00087094236067619755 0 -0.041356878098262842 -0.00071639536153392247 0 -0.036917117917333715 -0.0010287900523687481 0 -0.037628378311309156 8.8538041883330434e-05 0 -0.035881507258148003 0.00059085702755216874 0 -0.039479973344040381 -0.0010194912273298088 0 -0.041305556055010254 -0.00060575253647783002 0 -0.036917117917333715 -0.0010287900523687481 0 -0.037628378311309156 8.8538041883330434e-05 0 -0.038961203336645642 3.4354133552627775e-05 0 -0.039479973344040381 -0.0010194912273298088 0 -0.035169539601693833 0.00050561718595014665 0 -0.04243475584261399 -0.00079711028115078437 0 -0.041305556055010254 -0.00060575253647783002 0 -0.043345750125488684 -0.00079071085179788551 0 -0.04321928777849203 -0.00086190630666102249 0 -0.04321820354119215 -0.00058941862194476248 0 -0.041305556055010254 -0.00060575253647783002 0 -0.042339721430091327 -0.00064464513513629452 0 -0.042883277742486285 -0.00075796562154659543 0 -0.04289588783878337 -0.00076962503472250072 0 -0.042875855053469338 -0.00079942686620012107 0 -0.041619974336614664 -0.00041894360289695742 0 -0.041300021646395776 -0.00058635239088681819 0 -0.041411164927695907 -0.00068691438611009729 0 -0.042339721430091327 -0.00064464513513629452 0 -0.04141121672874868 -0.00032363776352636051 0 -0.038961203336645642 3.4354133552627775e-05 0 -0.039289793232400033 0.00045322060003640701 0 -0.038997587696847337 0.00071493680350056535 0 -0.041305556055010254 -0.00060575253647783002 0 -0.04141121672874868 -0.00032363776352636051 0 -0.037628378311309156 8.8538041883330434e-05 0 -0.038961203336645642 3.4354133552627775e-05 0 -0.038997587696847337 0.00071493680350056535 0 -0.043345750125488684 -0.00079071085179788551 0 -0.04321820354119215 -0.00058941862194476248 0 -0.043394948889449635 -0.00045928714982967537 0 -0.043705359305105947 -0.00034381630807735707 0 -0.043345750125488684 -0.00079071085179788551 0 -0.043394948889449635 -0.00045928714982967537 0 -0.043394948889449635 -0.00045928714982967537 0 -0.043461186733456794 -0.00026558545997531189 0 -0.043188988234497412 -0.00032024576290402346 0 -0.04321820354119215 -0.00058941862194476248 0 -0.043394948889449635 -0.00045928714982967537 0 -0.043188988234497412 -0.00032024576290402346 0 -0.043705359305105947 -0.00034381630807735707 0 -0.043394948889449635 -0.00045928714982967537 0 -0.043461186733456794 -0.00026558545997531189 0 -0.043705359305105947 -0.00034381630807735707 0 -0.043461186733456794 -0.00026558545997531189 0 -0.043573307002323092 -7.2670864428711453e-05 0 -0.043461186733456794 -0.00026558545997531189 0 -0.043334522958012052 -0.0001243232551797082 0 -0.043188988234497412 -0.00032024576290402346 0 -0.043334522958012052 -0.0001243232551797082 0 -0.043118549703258929 -3.2279787311495546e-05 0 -0.043188988234497412 -0.00032024576290402346 0 -0.043334522958012052 -0.0001243232551797082 0 -0.043342634002752747 0.00010207469699542172 0 -0.043118549703258929 -3.2279787311495546e-05 0 -0.043342634002752747 0.00010207469699542172 0 -0.043179487301099981 0.00020082715447378909 0 -0.043118549703258929 -3.2279787311495546e-05 0 -0.043342634002752747 0.00010207469699542172 0 -0.043696260379866347 0.00022245426030435833 0 -0.043703449921102311 0.00060352139197109727 0 -0.043342634002752747 0.00010207469699542172 0 -0.043696260379866347 0.00022245426030435833 0 -0.043573307002323092 -7.2670864428711453e-05 0 -0.043334522958012052 -0.0001243232551797082 0 -0.043342634002752747 0.00010207469699542172 0 -0.043573307002323092 -7.2670864428711453e-05 0 -0.043461186733456794 -0.00026558545997531189 0 -0.043334522958012052 -0.0001243232551797082 0 -0.043573307002323092 -7.2670864428711453e-05 0 -0.044606211492085907 0.00026390223645078885 0 -0.043901177708429419 -0.00059838485037990493 0 -0.043975746298918823 0.00012490557805533258 0 -0.045176786646758768 0.0001779232401200123 0 -0.04243475584261399 -0.00079711028115078437 0 -0.043901177708429419 -0.00059838485037990493 0 -0.043573307002323092 -7.2670864428711453e-05 0 -0.043975746298918823 0.00012490557805533258 0 -0.044606211492085907 0.00026390223645078885 0 -0.043975746298918823 0.00012490557805533258 0 -0.044181137266103898 0.00047039980957720853 0 -0.043696260379866347 0.00022245426030435833 0 -0.043573307002323092 -7.2670864428711453e-05 0 -0.043975746298918823 0.00012490557805533258 0 -0.043975746298918823 0.00012490557805533258 0 -0.04390151672181946 0.00043657553341972866 0 -0.044181137266103898 0.00047039980957720853 0 -0.043696260379866347 0.00022245426030435833 0 -0.043975746298918823 0.00012490557805533258 0 -0.04390151672181946 0.00043657553341972866 0 -0.04423946064422523 0.001201557521567866 0 -0.044181137266103898 0.00047039980957720853 0 -0.043985050884652113 0.00074959811503188959 0 -0.04423946064422523 0.001201557521567866 0 -0.044606211492085907 0.00026390223645078885 0 -0.044181137266103898 0.00047039980957720853 0 -0.043696260379866347 0.00022245426030435833 0 -0.04390151672181946 0.00043657553341972866 0 -0.043703449921102311 0.00060352139197109727 0 -0.04390151672181946 0.00043657553341972866 0 -0.044181137266103898 0.00047039980957720853 0 -0.043985050884652113 0.00074959811503188959 0 -0.04390151672181946 0.00043657553341972866 0 -0.043985050884652113 0.00074959811503188959 0 -0.043703449921102311 0.00060352139197109727 0 -0.044018775396603045 0.001027322119659318 0 -0.04423946064422523 0.001201557521567866 0 -0.043985050884652113 0.00074959811503188959 0 -0.043985050884652113 0.00074959811503188959 0 -0.043840112398742227 0.00094695155663085124 0 -0.043703449921102311 0.00060352139197109727 0 -0.044018775396603045 0.001027322119659318 0 -0.043985050884652113 0.00074959811503188959 0 -0.043840112398742227 0.00094695155663085124 0 -0.043454455390674641 0.00059093585562035712 0 -0.043342634002752747 0.00010207469699542172 0 -0.043273617205187041 0.00036949955110895813 0 -0.043576591887464218 0.0011695488203674648 0 -0.043342634002752747 0.00010207469699542172 0 -0.043703449921102311 0.00060352139197109727 0 -0.044438432277834644 0.00074568328546362889 0 -0.043135511190187527 0.0001605579623447574 0 -0.043454455390674641 0.00059093585562035712 0 -0.043273617205187041 0.00036949955110895813 0 -0.043143458988197263 0.00057166512456131944 0 -0.043576591887464218 0.0011695488203674648 0 -0.043840112398742227 0.00094695155663085124 0 -0.043703449921102311 0.00060352139197109727 0 -0.043342634002752747 0.00010207469699542172 0 -0.043273617205187041 0.00036949955110895813 0 -0.043179487301099981 0.00020082715447378909 0 -0.040107905413040934 0.00036674081549679103 0 -0.043176120330366871 -6.9230902098049133e-05 0 -0.043927352552037148 0.00033977435396585136 0 -0.040107905413040934 0.00036674081549679103 0 -0.043927352552037148 0.00033977435396585136 0 -0.043446074785262752 0.0010228432428646206 0 -0.040107905413040934 0.00036674081549679103 0 -0.043446074785262752 0.0010228432428646206 0 -0.041157855038648737 0.0022730609910067089 0 -0.040107905413040934 0.00036674081549679103 0 -0.036512402106333011 0.0001919471913572006 0 -0.036698357787245763 0.00017768238618590267 0 -0.039773074657137177 4.3974626708167366e-05 0 -0.039255914484035724 0.0015067541262484341 0 -0.036512402106333011 0.0001919471913572006 0 -0.035585012036727891 3.962292477865979e-07 0 -0.039269518910442489 -1.4643813547011047e-05 0 -0.035585012036727891 3.962292477865979e-07 0 -0.039269518910442489 -1.4643813547011047e-05 0 -0.038810931585023169 -2.4578366646969102e-07 0 -0.040107905413040934 0.00036674081549679103 0 -0.036512402106333011 0.0001919471913572006 0 -0.039269518910442489 -1.4643813547011047e-05 0 -0.040107905413040934 0.00036674081549679103 0 -0.039269518910442489 -1.4643813547011047e-05 0 -0.041786750196931663 -0.00025453620692298583 0 -0.039269518910442489 -1.4643813547011047e-05 0 -0.038810931585023169 -2.4578366646969102e-07 0 -0.041786750196931663 -0.00025453620692298583 0 -0.042036327420375691 -6.6451477979183254e-07 0 -0.038810931585023169 -2.4578366646969102e-07 0 -0.041786750196931663 -0.00025453620692298583 0 -0.044862243112658261 -0.00028489289383092515 0 -0.041786750196931663 -0.00025453620692298583 0 -0.043176120330366871 -6.9230902098049133e-05 0 -0.040107905413040934 0.00036674081549679103 0 -0.041786750196931663 -0.00025453620692298583 0 -0.043176120330366871 -6.9230902098049133e-05 0 -0.044862243112658261 -0.00028489289383092515 0 -0.043176120330366871 -6.9230902098049133e-05 0 -0.044833597412848272 6.0841580213354354e-05 0 -0.045780060601129512 5.9351111053334485e-05 0 -0.044862243112658261 -0.00028489289383092515 0 -0.044833597412848272 6.0841580213354354e-05 0 -0.045780060601129512 5.9351111053334485e-05 0 -0.044833597412848272 6.0841580213354354e-05 0 -0.045572963284527784 0.00043424227853682858 0 -0.044833597412848272 6.0841580213354354e-05 0 -0.044949644955256635 0.00043704906643300077 0 -0.045572963284527784 0.00043424227853682858 0 -0.044833597412848272 6.0841580213354354e-05 0 -0.044949644955256635 0.00043704906643300077 0 -0.043927352552037148 0.00033977435396585136 0 -0.043176120330366871 -6.9230902098049133e-05 0 -0.044833597412848272 6.0841580213354354e-05 0 -0.043927352552037148 0.00033977435396585136 0 -0.045251067181591859 0.00079447985745009406 0 -0.045572963284527784 0.00043424227853682858 0 -0.044929349992193147 0.00072509412040787456 0 -0.046210310292993419 0.00029311664303952143 0 -0.045780060601129512 5.9351111053334485e-05 0 -0.045572963284527784 0.00043424227853682858 0 -0.046210310292993419 0.00029311664303952143 0 -0.045251067181591859 0.00079447985745009406 0 -0.045572963284527784 0.00043424227853682858 0 -0.044949644955256635 0.00043704906643300077 0 -0.045572963284527784 0.00043424227853682858 0 -0.044929349992193147 0.00072509412040787456 0 -0.044169952914864821 0.00084708343610640738 0 -0.044929349992193147 0.00072509412040787456 0 -0.044553440040298334 0.00057155919391276846 0 -0.044949644955256635 0.00043704906643300077 0 -0.044929349992193147 0.00072509412040787456 0 -0.044743259413588976 0.00066855755647378791 0 -0.044929349992193147 0.00072509412040787456 0 -0.044553440040298334 0.00057155919391276846 0 -0.044743259413588976 0.00066855755647378791 0 -0.044553440040298334 0.00057155919391276846 0 -0.044743259413588976 0.00066855755647378791 0 -0.044776932011520408 0.00030446295670202812 0 -0.043693273216647364 0.00041878837755760277 0 -0.044553440040298334 0.00057155919391276846 0 -0.044037604448146167 -0.00042613351898409949 0 -0.044169952914864821 0.00084708343610640738 0 -0.043693273216647364 0.00041878837755760277 0 -0.044553440040298334 0.00057155919391276846 0 -0.043927352552037148 0.00033977435396585136 0 -0.044743259413588976 0.00066855755647378791 0 -0.043446074785262752 0.0010228432428646206 0 -0.044949644955256635 0.00043704906643300077 0 -0.043927352552037148 0.00033977435396585136 0 -0.044743259413588976 0.00066855755647378791 0 -0.044743259413588976 0.00066855755647378791 0 -0.044297709103021603 0.0010665061992783116 0 -0.044776932011520408 0.00030446295670202812 0 -0.044743259413588976 0.00066855755647378791 0 -0.043446074785262752 0.0010228432428646206 0 -0.044297709103021603 0.0010665061992783116 0 -0.043446074785262752 0.0010228432428646206 0 -0.043335350238295357 0.0018635056031252742 0 -0.044297709103021603 0.0010665061992783116 0 -0.043335350238295357 0.0018635056031252742 0 -0.044297709103021603 0.0010665061992783116 0 -0.044285486944871 0.0020377218639896838 0 -0.044411776715285151 0.00085329632392945501 0 -0.044775698408030903 0.00041641541800822179 0 -0.044297709103021603 0.0010665061992783116 0 -0.044285486944871 0.0020377218639896838 0 -0.044776932011520408 0.00030446295670202812 0 -0.045091156339310212 -0.00049644340399338785 0 -0.044751811236896373 -0.0011069829708416216 0 -0.044886605678481468 -0.00059153591893946924 0 -0.044411776715285151 0.00085329632392945501 0 -0.044647941262832801 0.0010399414134116232 0 -0.045091156339310212 -0.00049644340399338785 0 -0.044649172813046797 -0.00074351223656831289 0 -0.044886605678481468 -0.00059153591893946924 0 -0.043335350238295357 0.0018635056031252742 0 -0.044285486944871 0.0020377218639896838 0 -0.04298610918189337 0.003260701119690223 0 -0.044553440040298334 0.00057155919391276846 0 -0.044037604448146167 -0.00042613351898409949 0 -0.044776932011520408 0.00030446295670202812 0 -0.044037604448146167 -0.00042613351898409949 0 -0.044776932011520408 0.00030446295670202812 0 -0.044751811236896373 -0.0011069829708416216 0 -0.045091156339310212 -0.00049644340399338785 0 -0.044776932011520408 0.00030446295670202812 0 -0.044751811236896373 -0.0011069829708416216 0 -0.043623578984469495 -0.0018273771072750422 0 -0.044037604448146167 -0.00042613351898409949 0 -0.044751811236896373 -0.0011069829708416216 0 -0.028073050401113974 -0.0021631471168722803 0 -0.027002495747622205 -0.0010203595494197445 0 -0.029132904469615292 -0.0013293495031759918 0 -0.029620189531750676 -0.0036964639099328358 0 -0.028073050401113974 -0.0021631471168722803 0 -0.029132904469615292 -0.0013293495031759918 0 -0.036595512042614672 -0.0027910615466071888 0 -0.036099222339791841 -0.0021783448330715666 0 -0.029620189531750676 -0.0036964639099328358 0 -0.027681504279721408 -0.0033010315381954195 0 -0.028073050401113974 -0.0021631471168722803 0 -0.027681504279721408 -0.0033010315381954195 0 -0.028073050401113974 -0.0021631471168722803 0 -0.026929842029938131 -0.0022811858615007351 0 -0.028073050401113974 -0.0021631471168722803 0 -0.026929842029938131 -0.0022811858615007351 0 -0.027002495747622205 -0.0010203595494197445 0 -0.027681504279721408 -0.0033010315381954195 0 -0.025934092892397381 -0.002941084516452864 0 -0.026929842029938131 -0.0022811858615007351 0 -0.036099222339791841 -0.0021783448330715666 0 -0.035756622460641561 -0.0019706217915510769 0 -0.025934092892397381 -0.002941084516452864 0 -0.026929842029938131 -0.0022811858615007351 0 -0.026137498901759364 -0.0017330785582099996 0 -0.026929842029938131 -0.0022811858615007351 0 -0.026137498901759364 -0.0017330785582099996 0 -0.027002495747622205 -0.0010203595494197445 0 -0.025934092892397381 -0.002941084516452864 0 -0.026137498901759364 -0.0017330785582099996 0 -0.025134060673805546 -0.0018345022833288088 0 -0.026137498901759364 -0.0017330785582099996 0 -0.025134060673805546 -0.0018345022833288088 0 -0.025722284143205265 -0.00063653617797789722 0 -0.025134060673805546 -0.0018345022833288088 0 -0.024140563446825948 -0.002686778065598746 0 -0.024344920543775156 -0.00057929804993577579 0 -0.032413146118655409 -0.00017147906605385722 0 -0.021900543694519724 -0.0011431157254733712 0 -0.024406713526043969 4.8499622992832775e-05 0 -0.02413919239260464 0.00059965637439303757 0 -0.024344920543775156 -0.00057929804993577579 0 -0.024406713526043969 4.8499622992832775e-05 0 -0.024396534840934059 0.00059453569456434136 0 -0.024869537042975537 0.00065525928310618286 0 -0.024406713526043969 4.8499622992832775e-05 0 -0.024396534840934059 0.00059453569456434136 0 -0.02413919239260464 0.00059965637439303757 0 -0.030186765688818534 0.0011285210989391177 0 -0.032413146118655409 -0.00017147906605385722 0 -0.031437418228953996 0.0020737998250961996 0 -0.035205875505648618 0.0015784939001004144 0 -0.034962524950022646 3.2414992095541398e-05 0 -0.035873647835529224 0.0016603410873649693 0 -0.036186980827766585 0.0012090891471991624 0 -0.035781504309952493 0.001202061976762312 0 -0.030186765688818534 0.0011285210989391177 0 -0.03738207462057537 0.0010639718927121424 0 -0.032413146118655409 -0.00017147906605385722 0 -0.03738207462057537 0.0010639718927121424 0 -0.036186980827766585 0.0012090891471991624 0 -0.035781504309952493 0.001202061976762312 0 -0.035807329569787862 0.00087025755518941846 0 -0.035873647835529224 0.0016603410873649693 0 -0.035781504309952493 0.001202061976762312 0 -0.03490540750533952 0.0010694975842626376 0 -0.035781504309952493 0.001202061976762312 0 -0.035807329569787862 0.00087025755518941846 0 -0.03490540750533952 0.0010694975842626376 0 -0.044649172813046797 -0.00074351223656831289 0 -0.0438715479934913 -0.00026128434746613619 0 -0.043848839080973569 -0.0003879697747883627 0 -0.044649172813046797 -0.00074351223656831289 0 -0.044886605678481468 -0.00059153591893946924 0 -0.0438715479934913 -0.00026128434746613619 0 -0.035756622460641561 -0.0019706217915510769 0 -0.032413146118655409 -0.00017147906605385722 0 -0.044647941262832801 0.0010399414134116232 0 -0.03738207462057537 0.0010639718927121424 0 -0.025934092892397381 -0.002941084516452864 0 -0.025134060673805546 -0.0018345022833288088 0 -0.024140563446825948 -0.002686778065598746 0 -0.04298610918189337 0.003260701119690223 0 -0.041572724194316325 0.0040714483871573627 0 -0.041157855038648737 0.0022730609910067089 0 -0.035807329569787862 0.00087025755518941846 0 -0.036698357787245763 0.00017768238618590267 0 -0.03495639185924098 0.00026702313483279713 0 -0.036186980827766585 0.0012090891471991624 0 -0.035807329569787862 0.00087025755518941846 0 -0.036698357787245763 0.00017768238618590267 0 -0.03738207462057537 0.0010639718927121424 0 -0.039255914484035724 0.0015067541262484341 0 -0.043446074785262752 0.0010228432428646206 0 -0.043335350238295357 0.0018635056031252742 0 -0.041157855038648737 0.0022730609910067089 0 -0.043335350238295357 0.0018635056031252742 0 -0.04298610918189337 0.003260701119690223 0 -0.041157855038648737 0.0022730609910067089 0 -0.036512402106333011 0.0001919471913572006 0 -0.035585012036727891 3.962292477865979e-07 0 -0.032358819968696856 -9.732957478527106e-07 0 -0.036512402106333011 0.0001919471913572006 0 -0.03495639185924098 0.00026702313483279713 0 -0.032358819968696856 -9.732957478527106e-07 0 -0.036512402106333011 0.0001919471913572006 0 -0.036698357787245763 0.00017768238618590267 0 -0.03495639185924098 0.00026702313483279713 0 -0.035807329569787862 0.00087025755518941846 0 -0.03495639185924098 0.00026702313483279713 0 -0.03490540750533952 0.0010694975842626376 0 -0.03495639185924098 0.00026702313483279713 0 -0.03490540750533952 0.0010694975842626376 0 -0.033337595150590024 0.00045169268235538472 0 -0.032358819968696856 -9.732957478527106e-07 0 -0.031659617111621165 0.0003733623460528169 0 -0.033337595150590024 0.00045169268235538472 0 -0.03495639185924098 0.00026702313483279713 0 -0.032358819968696856 -9.732957478527106e-07 0 -0.033337595150590024 0.00045169268235538472 0 -0.031277645082631325 0.00075966772883459869 0 -0.029132033220921436 5.6604233821908233e-07 0 -0.031659617111621165 0.0003733623460528169 0 -0.0336069296244264 0.0018735800015626761 0 -0.029136405113892209 5.2185839041146437e-06 0 -0.032358819968696856 -9.732957478527106e-07 0 -0.031659617111621165 0.0003733623460528169 0 -0.029136405113892209 5.2185839041146437e-06 0 -0.031659617111621165 0.0003733623460528169 0 -0.033337595150590024 0.00045169268235538472 0 -0.0336069296244264 0.0018735800015626761 0 -0.035873647835529224 0.0016603410873649693 0 -0.03490540750533952 0.0010694975842626376 0 -0.0336069296244264 0.0018735800015626761 0 -0.030186765688818534 0.0011285210989391177 0 -0.031277645082631325 0.00075966772883459869 0 -0.03490540750533952 0.0010694975842626376 0 -0.033337595150590024 0.00045169268235538472 0 -0.0336069296244264 0.0018735800015626761 0 -0.024406713526043969 4.8499622992832775e-05 0 -0.024869537042975537 0.00065525928310618286 0 -0.024582409328079813 -8.9172530556729497e-05 0 -0.030186765688818534 0.0011285210989391177 0 -0.02606025732532773 0.00050060718266925226 0 -0.028252621852928518 7.9845189421470105e-05 0 -0.0281248844828728 9.0876761024476335e-05 0 -0.028264117170545961 7.1040719281602267e-05 0 -0.0281248844828728 9.0876761024476335e-05 0 -0.028264117170545961 7.1040719281602267e-05 0 -0.028080855853555825 -4.1468070755319623e-05 0 -0.024869537042975537 0.00065525928310618286 0 -0.025320906186617888 -1.9832710115980421e-05 0 -0.024582409328079813 -8.9172530556729497e-05 0 -0.029127526576716925 1.4250040699777053e-06 0 -0.02724145599422725 6.4716491038783035e-05 0 -0.02611120183977203 -7.9034644476071923e-07 0 -0.0281248844828728 9.0876761024476335e-05 0 -0.029127526576716925 1.4250040699777053e-06 0 -0.028080855853555825 -4.1468070755319623e-05 0 -0.02606025732532773 0.00050060718266925226 0 -0.02743595581356054 -5.809884457959643e-05 0 -0.028264117170545961 7.1040719281602267e-05 0 -0.028080855853555825 -4.1468070755319623e-05 0 -0.02724145599422725 6.4716491038783035e-05 0 -0.024869537042975537 0.00065525928310618286 0 -0.02724145599422725 6.4716491038783035e-05 0 -0.025320906186617888 -1.9832710115980421e-05 0 -0.029127526576716925 1.4250040699777053e-06 0 -0.028080855853555825 -4.1468070755319623e-05 0 -0.02724145599422725 6.4716491038783035e-05 0 -0.02724145599422725 6.4716491038783035e-05 0 -0.02611120183977203 -7.9034644476071923e-07 0 -0.025472071340337434 -0.00017570220680787954 0 -0.025472071340337434 -0.00017570220680787954 0 -0.025320906186617888 -1.9832710115980421e-05 0 -0.024555890972057407 -0.0002862725199640318 0 -0.02724145599422725 6.4716491038783035e-05 0 -0.025472071340337434 -0.00017570220680787954 0 -0.025320906186617888 -1.9832710115980421e-05 0 -0.025320906186617888 -1.9832710115980421e-05 0 -0.024582409328079813 -8.9172530556729497e-05 0 -0.024555890972057407 -0.0002862725199640318 0 -0.024582409328079813 -8.9172530556729497e-05 0 -0.024555890972057407 -0.0002862725199640318 0 -0.024152239597232582 -0.00039340052948504329 0 -0.024555890972057407 -0.0002862725199640318 0 -0.024152239597232582 -0.00039340052948504329 0 -0.023366990604872729 -0.00017027848583799004 0 -0.024555890972057407 -0.0002862725199640318 0 -0.024332140066992487 -0.00023009295177181931 0 -0.023366990604872729 -0.00017027848583799004 0 -0.02611120183977203 -7.9034644476071923e-07 0 -0.024332140066992487 -0.00023009295177181931 0 -0.023090351308275806 -1.6828816296954639e-08 0 -0.02611120183977203 -7.9034644476071923e-07 0 -0.025472071340337434 -0.00017570220680787954 0 -0.024332140066992487 -0.00023009295177181931 0 -0.025472071340337434 -0.00017570220680787954 0 -0.024555890972057407 -0.0002862725199640318 0 -0.024332140066992487 -0.00023009295177181931 0 -0.025134060673805546 -0.0018345022833288088 0 -0.024344920543775156 -0.00057929804993577579 0 -0.025722284143205265 -0.00063653617797789722 0 -0.024406713526043969 4.8499622992832775e-05 0 -0.024582409328079813 -8.9172530556729497e-05 0 -0.024152239597232582 -0.00039340052948504329 0 -0.024406713526043969 4.8499622992832775e-05 0 -0.024344920543775156 -0.00057929804993577579 0 -0.024152239597232582 -0.00039340052948504329 0 -0.024152239597232582 -0.00039340052948504329 0 -0.024276494053514317 0.00011049375666087212 0 -0.023366990604872729 -0.00017027848583799004 0 -0.024344920543775156 -0.00057929804993577579 0 -0.024152239597232582 -0.00039340052948504329 0 -0.024276494053514317 0.00011049375666087212 0 -0.024344920543775156 -0.00057929804993577579 0 -0.024276494053514317 0.00011049375666087212 0 -0.025266656208242363 0.00024939870606813914 0 -0.024276494053514317 0.00011049375666087212 0 -0.025369512925696277 0.0013781062345143594 0 -0.025266656208242363 0.00024939870606813914 0 -0.024276494053514317 0.00011049375666087212 0 -0.023617059058489053 0.00070170006944950158 0 -0.023366990604872729 -0.00017027848583799004 0 -0.021419334149934532 0.00057648184154833069 0 -0.021479756128399804 0.0012450630098977968 0 -0.023617059058489053 0.00070170006944950158 0 -0.021519200109138107 0.00048241927052107022 0 -0.02406372794294484 0.0022376742390374147 0 -0.024276494053514317 0.00011049375666087212 0 -0.023617059058489053 0.00070170006944950158 0 -0.025369512925696277 0.0013781062345143594 0 -0.023617059058489053 0.00070170006944950158 0 -0.02406372794294484 0.0022376742390374147 0 -0.025369512925696277 0.0013781062345143594 0 -0.023090351308275806 -1.6828816296954639e-08 0 -0.023366990604872729 -0.00017027848583799004 0 -0.021519200109138107 0.00048241927052107022 0 -0.024332140066992487 -0.00023009295177181931 0 -0.023090351308275806 -1.6828816296954639e-08 0 -0.023366990604872729 -0.00017027848583799004 0 -0.023617059058489053 0.00070170006944950158 0 -0.023366990604872729 -0.00017027848583799004 0 -0.021519200109138107 0.00048241927052107022 0 -0.023090351308275806 -1.6828816296954639e-08 0 -0.021519200109138107 0.00048241927052107022 0 -0.020071959094220323 -4.7152243728848795e-08 0 -0.020071959094220323 -4.7152243728848795e-08 0 -0.018214965503342274 -3.3872739221840197e-05 0 -0.019485305782520796 -8.6068964373981188e-05 0 -0.021519200109138107 0.00048241927052107022 0 -0.020071959094220323 -4.7152243728848795e-08 0 -0.019485305782520796 -8.6068964373981188e-05 0 -0.020071959094220323 -4.7152243728848795e-08 0 -0.018214965503342274 -3.3872739221840197e-05 0 -0.017050991983307111 1.1760426095886057e-06 0 -0.018214965503342274 -3.3872739221840197e-05 0 -0.017050991983307111 1.1760426095886057e-06 0 -0.016439794791665369 0.000537633229291437 0 -0.018559274471839537 -5.193606670315981e-06 0 -0.019485305782520796 -8.6068964373981188e-05 0 -0.019063373284731008 -0.00015249191715604516 0 -0.018214965503342274 -3.3872739221840197e-05 0 -0.018559274471839537 -5.193606670315981e-06 0 -0.016439794791665369 0.000537633229291437 0 -0.018214965503342274 -3.3872739221840197e-05 0 -0.018559274471839537 -5.193606670315981e-06 0 -0.019485305782520796 -8.6068964373981188e-05 0 -0.021519200109138107 0.00048241927052107022 0 -0.019485305782520796 -8.6068964373981188e-05 0 -0.018921449514339501 0.00041476201975661193 0 -0.02406372794294484 0.0022376742390374147 0 -0.025657529413863161 0.0029768320270497917 0 -0.025369512925696277 0.0013781062345143594 0 -0.021479756128399804 0.0012450630098977968 0 -0.021555010271813651 0.0015341997540877798 0 -0.019063373284731008 -0.00015249191715604516 0 -0.017605465888339396 -0.0009445944542298061 0 -0.017492150192088059 0.00014432425418480185 0 -0.018921449514339501 0.00041476201975661193 0 -0.019063373284731008 -0.00015249191715604516 0 -0.017492150192088059 0.00014432425418480185 0 -0.019485305782520796 -8.6068964373981188e-05 0 -0.018921449514339501 0.00041476201975661193 0 -0.019063373284731008 -0.00015249191715604516 0 -0.019605520456074502 0.00044718674629113606 0 -0.015068209522639332 -0.00099929540803532307 0 -0.018559274471839537 -5.193606670315981e-06 0 -0.019063373284731008 -0.00015249191715604516 0 -0.018742720836207621 0.00078704667558646883 0 -0.019063373284731008 -0.00015249191715604516 0 -0.019488238676160279 0.00092523819353901185 0 -0.018742720836207621 0.00078704667558646883 0 -0.015068209522639332 -0.00099929540803532307 0 -0.015945846680369493 0.0007944385660090677 0 -0.019063373284731008 -0.00015249191715604516 0 -0.018675769111588046 -0.0013800001838747905 0 -0.017605465888339396 -0.0009445944542298061 0 -0.015068209522639332 -0.00099929540803532307 0 -0.014750109684129825 -0.0024280076970162735 0 -0.015068209522639332 -0.00099929540803532307 0 -0.010908117616615158 -0.0012480789590828794 0 -0.018675769111588046 -0.0013800001838747905 0 -0.01679614829038386 -0.0018733815956309781 0 -0.017605465888339396 -0.0009445944542298061 0 -0.011245195297367627 -0.0030687817053484077 0 -0.012800833355157411 -0.0026714605253501909 0 -0.011709182616239603 -0.0014737486990304748 0 -0.011529045072943833 0.00039476891843734022 0 -0.012047559242931615 -0.00021394600347448834 0 -0.011211294612106194 -0.00074820983516120517 0 -0.011529045072943833 0.00039476891843734022 0 -0.012047559242931615 -0.00021394600347448834 0 -0.012866567054849495 0.00086248001554123529 0 -0.012047559242931615 -0.00021394600347448834 0 -0.013662917595844129 -8.90903854079243e-05 0 -0.012866567054849495 0.00086248001554123529 0 -0.012047559242931615 -0.00021394600347448834 0 -0.013662917595844129 -8.90903854079243e-05 0 -0.011751694099016054 -0.00050338913571882987 0 -0.013662917595844129 -8.90903854079243e-05 0 -0.01403078744845687 -3.6011741400361526e-07 0 -0.016439794791665369 0.000537633229291437 0 -0.01403078744845687 -3.6011741400361526e-07 0 -0.017050991983307111 1.1760426095886057e-06 0 -0.016439794791665369 0.000537633229291437 0 -0.016153859658566402 0.00060648739149188054 0 -0.015945846680369493 0.0007944385660090677 0 -0.013662917595844129 -8.90903854079243e-05 0 -0.016439794791665369 0.000537633229291437 0 -0.012866567054849495 0.00086248001554123529 0 -0.018559274471839537 -5.193606670315981e-06 0 -0.016439794791665369 0.000537633229291437 0 -0.018742720836207621 0.00078704667558646883 0 -0.021539475141654336 0.00070177814974883802 0 -0.021263253548618428 0.001221279355520261 0 -0.027788628506731122 0.0031939268991346605 0 -0.026935001107355194 0.0033269298967229795 0 -0.02737930951578231 0.0029266727176307243 0 -0.027816469015206957 0.0030784288757429263 0 -0.027788628506731122 0.0031939268991346605 0 -0.02787732787729201 0.0030079031061408844 0 -0.027788628506731122 0.0031939268991346605 0 -0.02737930951578231 0.0029266727176307243 0 -0.02787732787729201 0.0030079031061408844 0 -0.014812390290243751 -0.0017931118709277234 0 -0.014816643913060423 -0.0020261262159774179 0 -0.015102800608086256 -0.0015981066811888553 0 -0.027816469015206957 0.0030784288757429263 0 -0.027788628506731122 0.0031939268991346605 0 -0.027693261932976342 0.002892245482444716 0 -0.014812390290243751 -0.0017931118709277234 0 -0.015679637480995726 -0.00080217343146083981 0 -0.014816643913060423 -0.0020261262159774179 0 -0.01679614829038386 -0.0018733815956309781 0 -0.015679637480995726 -0.00080217343146083981 0 -0.014816643913060423 -0.0020261262159774179 0 -0.012800833355157411 -0.0026714605253501909 0 -0.013865366634789697 -0.0016776966929719157 0 -0.014816643913060423 -0.0020261262159774179 0 -0.014750109684129825 -0.0024280076970162735 0 -0.014869560267839367 -0.002010171439030302 0 -0.017605465888339396 -0.0009445944542298061 0 -0.015679637480995726 -0.00080217343146083981 0 -0.017492150192088059 0.00014432425418480185 0 -0.01679614829038386 -0.0018733815956309781 0 -0.017605465888339396 -0.0009445944542298061 0 -0.015679637480995726 -0.00080217343146083981 0 -0.025657529413863161 0.0029768320270497917 0 -0.027041022672489562 0.0020345043947004554 0 -0.02737930951578231 0.0029266727176307243 0 -0.026935001107355194 0.0033269298967229795 0 -0.025657529413863161 0.0029768320270497917 0 -0.02737930951578231 0.0029266727176307243 0 -0.021263253548618428 0.001221279355520261 0 -0.021555010271813651 0.0015341997540877798 0 -0.025657529413863161 0.0029768320270497917 0 -0.027041022672489562 0.0020345043947004554 0 -0.025369512925696277 0.0013781062345143594 0 -0.027041022672489562 0.0020345043947004554 0 -0.02737930951578231 0.0029266727176307243 0 -0.028540752913436499 0.0024304005370725705 0 -0.02737930951578231 0.0029266727176307243 0 -0.02787732787729201 0.0030079031061408844 0 -0.028540752913436499 0.0024304005370725705 0 -0.027041022672489562 0.0020345043947004554 0 -0.028018732852882349 0.001419665405338737 0 -0.028540752913436499 0.0024304005370725705 0 -0.027041022672489562 0.0020345043947004554 0 -0.028018732852882349 0.001419665405338737 0 -0.026680771674807466 0.0008293084540401893 0 -0.028018732852882349 0.001419665405338737 0 -0.026680771674807466 0.0008293084540401893 0 -0.028337209299476827 0.00018604635578944658 0 -0.028018732852882349 0.001419665405338737 0 -0.028337209299476827 0.00018604635578944658 0 -0.029689755457115538 0.0011073639254079778 0 -0.027041022672489562 0.0020345043947004554 0 -0.025369512925696277 0.0013781062345143594 0 -0.026680771674807466 0.0008293084540401893 0 -0.025369512925696277 0.0013781062345143594 0 -0.026680771674807466 0.0008293084540401893 0 -0.025266656208242363 0.00024939870606813914 0 -0.026680771674807466 0.0008293084540401893 0 -0.027002495747622205 -0.0010203595494197445 0 -0.025722284143205265 -0.00063653617797789722 0 -0.024344920543775156 -0.00057929804993577579 0 -0.025266656208242363 0.00024939870606813914 0 -0.025722284143205265 -0.00063653617797789722 0 -0.026680771674807466 0.0008293084540401893 0 -0.025266656208242363 0.00024939870606813914 0 -0.025722284143205265 -0.00063653617797789722 0 -0.026137498901759364 -0.0017330785582099996 0 -0.027002495747622205 -0.0010203595494197445 0 -0.025722284143205265 -0.00063653617797789722 0 -0.027002495747622205 -0.0010203595494197445 0 -0.028337209299476827 0.00018604635578944658 0 -0.029132904469615292 -0.0013293495031759918 0 -0.026680771674807466 0.0008293084540401893 0 -0.027002495747622205 -0.0010203595494197445 0 -0.028337209299476827 0.00018604635578944658 0 -0.030918661515544732 -0.0022213697048644033 0 -0.029132904469615292 -0.0013293495031759918 0 -0.029859692623645771 -0.00021934748401889335 0 -0.028337209299476827 0.00018604635578944658 0 -0.029132904469615292 -0.0013293495031759918 0 -0.029859692623645771 -0.00021934748401889335 0 -0.028337209299476827 0.00018604635578944658 0 -0.029859692623645771 -0.00021934748401889335 0 -0.029689755457115538 0.0011073639254079778 0 -0.029859692623645771 -0.00021934748401889335 0 -0.03147924940043325 -0.0005588278537217139 0 -0.031829230312923833 0.00065449958651133636 0 -0.029859692623645771 -0.00021934748401889335 0 -0.031829230312923833 0.00065449958651133636 0 -0.029689755457115538 0.0011073639254079778 0 -0.030918661515544732 -0.0022213697048644033 0 -0.029859692623645771 -0.00021934748401889335 0 -0.03147924940043325 -0.0005588278537217139 0 -0.032361550832442507 -0.0016450493527771517 0 -0.03147924940043325 -0.0005588278537217139 0 -0.032942042980030534 -0.00066373472797912416 0 -0.032942042980030534 -0.00066373472797912416 0 -0.033553266520102272 0.00048549411934874052 0 -0.034634404112981847 -0.0010380503495544581 0 -0.033630271425397956 -0.0019425403771025748 0 -0.032942042980030534 -0.00066373472797912416 0 -0.034634404112981847 -0.0010380503495544581 0 -0.032942042980030534 -0.00066373472797912416 0 -0.033553266520102272 0.00048549411934874052 0 -0.031829230312923833 0.00065449958651133636 0 -0.03147924940043325 -0.0005588278537217139 0 -0.032942042980030534 -0.00066373472797912416 0 -0.031829230312923833 0.00065449958651133636 0 -0.031829230312923833 0.00065449958651133636 0 -0.031485926078946576 0.0017217819055113238 0 -0.032294843232251139 0.0019333499386962538 0 -0.032659763318498944 0.0010676098630869157 0 -0.032294843232251139 0.0019333499386962538 0 -0.032959667242826583 0.0016095160632255477 0 -0.032294843232251139 0.0019333499386962538 0 -0.032153016025521244 0.002364616970187511 0 -0.032959667242826583 0.0016095160632255477 0 -0.033553266520102272 0.00048549411934874052 0 -0.031829230312923833 0.00065449958651133636 0 -0.032294843232251139 0.0019333499386962538 0 -0.033120346513458916 0.0007408318556415529 0 -0.032404520502850809 0.0018457476102520815 0 -0.032177534551150341 0.0023701689681718866 0 -0.032387971638450572 0.0021565223486653654 0 -0.032153016025521244 0.002364616970187511 0 -0.031731600079163279 0.0028667599602830818 0 -0.031811352737581226 0.0025628833523955834 0 -0.032294843232251139 0.0019333499386962538 0 -0.032153016025521244 0.002364616970187511 0 -0.031866072456587347 0.0022220644261006467 0 -0.032153016025521244 0.002364616970187511 0 -0.031811352737581226 0.0025628833523955834 0 -0.031756111628393403 0.0023635425322369326 0 -0.031485926078946576 0.0017217819055113238 0 -0.032294843232251139 0.0019333499386962538 0 -0.031866072456587347 0.0022220644261006467 0 -0.031866072456587347 0.0022220644261006467 0 -0.031293147881454396 0.0025040673789860873 0 -0.031874092667804901 0.0023829335526987182 0 -0.031485926078946576 0.0017217819055113238 0 -0.031866072456587347 0.0022220644261006467 0 -0.031293147881454396 0.0025040673789860873 0 -0.032153016025521244 0.002364616970187511 0 -0.031866072456587347 0.0022220644261006467 0 -0.031874092667804901 0.0023829335526987182 0 -0.030427914097441069 0.002251037486576997 0 -0.029688127459645983 0.0011185530478444979 0 -0.031485926078946576 0.0017217819055113238 0 -0.031293147881454396 0.0025040673789860873 0 -0.029689755457115538 0.0011073639254079778 0 -0.028018732852882349 0.001419665405338737 0 -0.029689755457115538 0.0011073639254079778 0 -0.028540752913436499 0.0024304005370725705 0 -0.029565790590163808 0.0021255171585954765 0 -0.029689755457115538 0.0011073639254079778 0 -0.028540752913436499 0.0024304005370725705 0 -0.031829230312923833 0.00065449958651133636 0 -0.031485926078946576 0.0017217819055113238 0 -0.029689755457115538 0.0011073639254079778 0 -0.03495941839309942 0.0019177386491239655 0 -0.034921436319962071 0.0012672029652906077 0 -0.03445907725431166 0.0019490771557315431 0 -0.03495941839309942 0.0019177386491239655 0 -0.035469090031775542 0.0019961165076399601 0 -0.034921436319962071 0.0012672029652906077 0 -0.033852303802818229 0.0027571777096199062 0 -0.032431871934667317 0.0022004433097393347 0 -0.03495941839309942 0.0019177386491239655 0 -0.034984033277697453 0.0024449061758182499 0 -0.035469090031775542 0.0019961165076399601 0 -0.03495941839309942 0.0019177386491239655 0 -0.034984033277697453 0.0024449061758182499 0 -0.03445907725431166 0.0019490771557315431 0 -0.038630495185019112 0.0006459742117014385 0 -0.033852303802818229 0.0027571777096199062 0 -0.04141121672874868 -0.00032363776352636051 0 -0.038630495185019112 0.0006459742117014385 0 -0.04290105258393196 -0.00075359097016491103 0 -0.042929948940521885 -0.00077943584560164413 0 -0.042875855053469338 -0.00079942686620012107 0 -0.04141121672874868 -0.00032363776352636051 0 -0.041796348101999239 -0.00025675202620297209 0 -0.033852303802818229 0.0027571777096199062 0 -0.035169539601693833 0.00050561718595014665 0 -0.037628378311309156 8.8538041883330434e-05 0 -0.038997587696847337 0.00071493680350056535 0 -0.037176248686267399 0.0023408814470817631 0 -0.037628378311309156 8.8538041883330434e-05 0 -0.037176248686267399 0.0023408814470817631 0 -0.035881507258148003 0.00059085702755216874 0 -0.03111586695311036 0.0040783039995085681 0 -0.031761358801321624 0.0034857578788306354 0 -0.031137419365444913 0.0034539394698420976 0 -0.03111586695311036 0.0040783039995085681 0 -0.031137419365444913 0.0034539394698420976 0 -0.030503886649116935 0.0033381333720083999 0 -0.032598393968440914 0.0023727303117274125 0 -0.031883718806555696 0.0024388664670570224 0 -0.031973989971721462 0.0028640349038679871 0 -0.031883718806555696 0.0024388664670570224 0 -0.031870729709966045 0.0027529669986136257 0 -0.031973989971721462 0.0028640349038679871 0 -0.033852303802818229 0.0027571777096199062 0 -0.03141751880491727 0.0032554253088196098 0 -0.032598393968440914 0.0023727303117274125 0 -0.032250015728871838 0.0018698375489186055 0 -0.031883718806555696 0.0024388664670570224 0 -0.035169539601693833 0.00050561718595014665 0 -0.032486270960904451 0.00179093164263144 0 -0.034153235914536464 -0.00010478106200375991 0 -0.033088395857544535 7.453737058780981e-05 0 -0.033552331357030417 0.00078891630279762039 0 -0.033120346513458916 0.0007408318556415529 0 -0.033653519169742338 -0.00044731711084702495 0 -0.032659763318498944 0.0010676098630869157 0 -0.033088395857544535 7.453737058780981e-05 0 -0.033552331357030417 0.00078891630279762039 0 -0.032659763318498944 0.0010676098630869157 0 -0.033552331357030417 0.00078891630279762039 0 -0.032959667242826583 0.0016095160632255477 0 -0.032486270960904451 0.00179093164263144 0 -0.032387971638450572 0.0021565223486653654 0 -0.031883718806555696 0.0024388664670570224 0 -0.031731600079163279 0.0028667599602830818 0 -0.031870729709966045 0.0027529669986136257 0 -0.031870729709966045 0.0027529669986136257 0 -0.031694245166835049 0.0027695627118731058 0 -0.031880834025408866 0.0027704167620781965 0 -0.031731600079163279 0.0028667599602830818 0 -0.031870729709966045 0.0027529669986136257 0 -0.031694245166835049 0.0027695627118731058 0 -0.031792177666182177 0.0027293762931604511 0 -0.03141751880491727 0.0032554253088196098 0 -0.031731600079163279 0.0028667599602830818 0 -0.031694245166835049 0.0027695627118731058 0 -0.031811352737581226 0.0025628833523955834 0 -0.031694245166835049 0.0027695627118731058 0 -0.031811352737581226 0.0025628833523955834 0 -0.031497245983285141 0.0025074920296555797 0 -0.031811352737581226 0.0025628833523955834 0 -0.031756111628393403 0.0023635425322369326 0 -0.031497245983285141 0.0025074920296555797 0 -0.031694245166835049 0.0027695627118731058 0 -0.031497245983285141 0.0025074920296555797 0 -0.031266418428634611 0.0026931818234951863 0 -0.031497245983285141 0.0025074920296555797 0 -0.031266418428634611 0.0026931818234951863 0 -0.031031832440407418 0.0023772866997506929 0 -0.031266418428634611 0.0026931818234951863 0 -0.030866923747870756 0.0026493219814283909 0 -0.031031832440407418 0.0023772866997506929 0 -0.03141751880491727 0.0032554253088196098 0 -0.031037042173853072 0.0027918255511838502 0 -0.031266418428634611 0.0026931818234951863 0 -0.031363483814537206 0.0030777524135924676 0 -0.030866923747870756 0.0026493219814283909 0 -0.031694245166835049 0.0027695627118731058 0 -0.031266418428634611 0.0026931818234951863 0 -0.031363483814537206 0.0030777524135924676 0 -0.031537359440264069 0.0031340946223712748 0 -0.03141751880491727 0.0032554253088196098 0 -0.031137419365444913 0.0034539394698420976 0 -0.031159814377848444 0.0029070706539737483 0 -0.030503886649116935 0.0033381333720083999 0 -0.031761358801321624 0.0034857578788306354 0 -0.031137419365444913 0.0034539394698420976 0 -0.031159814377848444 0.0029070706539737483 0 -0.031159814377848444 0.0029070706539737483 0 -0.030503886649116935 0.0033381333720083999 0 -0.030513409603812429 0.0023174978219067115 0 -0.030315309546809895 0.0018614680144290264 0 -0.030361245963824855 0.0015429962641768454 0 -0.029909844837158764 0.0017240719252873779 0 -0.030315309546809895 0.0018614680144290264 0 -0.030362170728775891 0.0022616509229611975 0 -0.030783021099060275 0.0018805511308281728 0 -0.030315309546809895 0.0018614680144290264 0 -0.030783021099060275 0.0018805511308281728 0 -0.030361245963824855 0.0015429962641768454 0 -0.030315309546809895 0.0018614680144290264 0 -0.030362170728775891 0.0022616509229611975 0 -0.029824182576077395 0.0017612764548493504 0 -0.030362170728775891 0.0022616509229611975 0 -0.030783021099060275 0.0018805511308281728 0 -0.031031832440407418 0.0023772866997506929 0 -0.031037042173853072 0.0027918255511838502 0 -0.030423836608620757 0.002278323907361731 0 -0.030866923747870756 0.0026493219814283909 0 -0.030362170728775891 0.0022616509229611975 0 -0.031031832440407418 0.0023772866997506929 0 -0.030783021099060275 0.0018805511308281728 0 -0.031386781443544107 0.0021823606672176131 0 -0.031200355632467265 0.0017623639525587861 0 -0.030783021099060275 0.0018805511308281728 0 -0.031386781443544107 0.0021823606672176131 0 -0.031031832440407418 0.0023772866997506929 0 -0.031497245983285141 0.0025074920296555797 0 -0.031386781443544107 0.0021823606672176131 0 -0.031031832440407418 0.0023772866997506929 0 -0.031756111628393403 0.0023635425322369326 0 -0.031386781443544107 0.0021823606672176131 0 -0.031840561726301404 0.0022679531775175476 0 -0.031756111628393403 0.0023635425322369326 0 -0.031497245983285141 0.0025074920296555797 0 -0.031386781443544107 0.0021823606672176131 0 -0.031386781443544107 0.0021823606672176131 0 -0.031562269304981072 0.0019142588984081077 0 -0.031840561726301404 0.0022679531775175476 0 -0.031386781443544107 0.0021823606672176131 0 -0.031562269304981072 0.0019142588984081077 0 -0.031200355632467265 0.0017623639525587861 0 -0.031562269304981072 0.0019142588984081077 0 -0.031357336868116155 0.0014904545260000272 0 -0.031791273644263943 0.001600668932475039 0 -0.031562269304981072 0.0019142588984081077 0 -0.031357336868116155 0.0014904545260000272 0 -0.031200355632467265 0.0017623639525587861 0 -0.031357336868116155 0.0014904545260000272 0 -0.031791273644263943 0.001600668932475039 0 -0.031416998853736645 0.0010491546795585434 0 -0.031357336868116155 0.0014904545260000272 0 -0.030909259914405598 0.0013201586085206105 0 -0.031416998853736645 0.0010491546795585434 0 -0.023628531425176732 -4.1613585888418323e-05 0 -0.024143810991744289 0.0014327793666739296 0 -0.031357336868116155 0.0014904545260000272 0 -0.030909259914405598 0.0013201586085206105 0 -0.031200355632467265 0.0017623639525587861 0 -0.030783021099060275 0.0018805511308281728 0 -0.030909259914405598 0.0013201586085206105 0 -0.031200355632467265 0.0017623639525587861 0 -0.030783021099060275 0.0018805511308281728 0 -0.030909259914405598 0.0013201586085206105 0 -0.030361245963824855 0.0015429962641768454 0 -0.023628531425176732 -4.1613585888418323e-05 0 -0.023679737320281682 -0.00016421732106031985 0 -0.016419092885851066 -0.001071049715591639 0 -0.017046486755413204 -0.00099166812604940422 0 -0.017110056557696773 -0.0017872008532824272 0 -0.016419092885851066 -0.001071049715591639 0 -0.017046486755413204 -0.00099166812604940422 0 -0.016890661929548949 -0.00036971858311748794 0 -0.017046486755413204 -0.00099166812604940422 0 -0.017110056557696773 -0.0017872008532824272 0 -0.017706993328116417 -0.0015220920922253015 0 -0.017046486755413204 -0.00099166812604940422 0 -0.017585049802363521 -0.00063230278581972673 0 -0.017706993328116417 -0.0015220920922253015 0 -0.029565790590163808 0.0021255171585954765 0 -0.029264553055007046 0.0030514217511856652 0 -0.029656560143050684 0.0028379295349850709 0 -0.02787732787729201 0.0030079031061408844 0 -0.027819672111455369 0.0032148950445501073 0 -0.028540752913436499 0.0024304005370725705 0 -0.028414710855542133 0.0030042141566949342 0 -0.028508282993571721 0.0024814877402551663 0 -0.029565790590163808 0.0021255171585954765 0 -0.029264553055007046 0.0030514217511856652 0 -0.028540752913436499 0.0024304005370725705 0 -0.031293147881454396 0.0025040673789860873 0 -0.031874092667804901 0.0023829335526987182 0 -0.032000673793076612 0.002259328609533668 0 -0.031874092667804901 0.0023829335526987182 0 -0.031840561726301404 0.0022679531775175476 0 -0.032000673793076612 0.002259328609533668 0 -0.030427914097441069 0.002251037486576997 0 -0.030623958810546543 0.0024099013079457807 0 -0.032153016025521244 0.002364616970187511 0 -0.031874092667804901 0.0023829335526987182 0 -0.031840561726301404 0.0022679531775175476 0 -0.032153016025521244 0.002364616970187511 0 -0.031756111628393403 0.0023635425322369326 0 -0.031840561726301404 0.0022679531775175476 0 -0.031562269304981072 0.0019142588984081077 0 -0.032000673793076612 0.002259328609533668 0 -0.031791273644263943 0.001600668932475039 0 -0.031562269304981072 0.0019142588984081077 0 -0.031840561726301404 0.0022679531775175476 0 -0.032000673793076612 0.002259328609533668 0 -0.029264553055007046 0.0030514217511856652 0 -0.029656560143050684 0.0028379295349850709 0 -0.02951798939534115 0.0030174698018970809 0 -0.029656560143050684 0.0028379295349850709 0 -0.02951798939534115 0.0030174698018970809 0 -0.029449358174861377 0.0030661182503786645 0 -0.02951798939534115 0.0030174698018970809 0 -0.029449358174861377 0.0030661182503786645 0 -0.029520267389285548 0.0030346611415683457 0 -0.029264553055007046 0.0030514217511856652 0 -0.02951798939534115 0.0030174698018970809 0 -0.029520267389285548 0.0030346611415683457 0 -0.030623958810546543 0.0024099013079457807 0 -0.031559927360843579 0.0026966344568321149 0 -0.029370380236788323 0.0029277244738578428 0 -0.029520267389285548 0.0030346611415683457 0 -0.02935444761037009 0.0027439940242039874 0 -0.031559927360843579 0.0026966344568321149 0 -0.024143810991744289 0.0014327793666739296 0 -0.029449358174861377 0.0030661182503786645 0 -0.029370380236788323 0.0029277244738578428 0 -0.029162199176298975 0.002847188035036047 0 -0.029449358174861377 0.0030661182503786645 0 -0.029370380236788323 0.0029277244738578428 0 -0.029520267389285548 0.0030346611415683457 0 -0.026366467148135425 0.0030422620532337507 0 -0.02671390241275513 0.0023930340433370952 0 -0.025603551934986927 0.0017393806898103993 0 -0.026366467148135425 0.0030422620532337507 0 -0.02671390241275513 0.0023930340433370952 0 -0.027272946158844853 0.0028914349318750346 0 -0.02671390241275513 0.0023930340433370952 0 -0.027272946158844853 0.0028914349318750346 0 -0.027409255276186154 0.0023420591537275329 0 -0.027272946158844853 0.0028914349318750346 0 -0.027535746565224974 0.0026324616806293164 0 -0.027409255276186154 0.0023420591537275329 0 -0.027535746565224974 0.0026324616806293164 0 -0.027409255276186154 0.0023420591537275329 0 -0.027495094569141346 0.0024056091426560111 0 -0.027272946158844853 0.0028914349318750346 0 -0.027648927541390166 0.0030036002129454915 0 -0.027535746565224974 0.0026324616806293164 0 -0.027819672111455369 0.0032148950445501073 0 -0.027272946158844853 0.0028914349318750346 0 -0.027648927541390166 0.0030036002129454915 0 -0.027819672111455369 0.0032148950445501073 0 -0.026366467148135425 0.0030422620532337507 0 -0.027272946158844853 0.0028914349318750346 0 -0.028414710855542133 0.0030042141566949342 0 -0.028343860612277276 0.0031536137330031877 0 -0.027816469015206957 0.0030784288757429263 0 -0.027819672111455369 0.0032148950445501073 0 -0.027648927541390166 0.0030036002129454915 0 -0.027816469015206957 0.0030784288757429263 0 -0.02787732787729201 0.0030079031061408844 0 -0.027819672111455369 0.0032148950445501073 0 -0.027788628506731122 0.0031939268991346605 0 -0.027693261932976342 0.002892245482444716 0 -0.027566346955680311 0.0023349013371567586 0 -0.021539475141654336 0.00070177814974883802 0 -0.020333769572197027 0.0006991201315710749 0 -0.027816469015206957 0.0030784288757429263 0 -0.027648927541390166 0.0030036002129454915 0 -0.027693261932976342 0.002892245482444716 0 -0.027648927541390166 0.0030036002129454915 0 -0.027693261932976342 0.002892245482444716 0 -0.027535746565224974 0.0026324616806293164 0 -0.027693261932976342 0.002892245482444716 0 -0.027535746565224974 0.0026324616806293164 0 -0.027566346955680311 0.0023349013371567586 0 -0.01555353720625079 0.0015898707086012568 0 -0.013482481473015236 0.00035647886311018952 0 -0.015596530037443429 -0.0015509838253212171 0 -0.015102800608086256 -0.0015981066811888553 0 -0.015176703202342377 -0.0010043383741466037 0 -0.015596530037443429 -0.0015509838253212171 0 -0.015656822278443283 -0.0016099378857650705 0 -0.015102800608086256 -0.0015981066811888553 0 -0.027535746565224974 0.0026324616806293164 0 -0.027566346955680311 0.0023349013371567586 0 -0.027495094569141346 0.0024056091426560111 0 -0.020333769572197027 0.0006991201315710749 0 -0.02141885159909751 0.00047725409454959361 0 -0.01555353720625079 0.0015898707086012568 0 -0.020333769572197027 0.0006991201315710749 0 -0.010491873705233018 0.0023984407384080378 0 -0.0091721990762310551 0.0040796937442500684 0 -0.010942496012142061 0.0034961895130263803 0 -0.010491873705233018 0.0023984407384080378 0 -0.010762859704700962 0.0021715847378195948 0 -0.010942496012142061 0.0034961895130263803 0 -0.01555353720625079 0.0015898707086012568 0 -0.010894816801260448 0.0029998481508542105 0 -0.013524553448591518 0.00073370124912274849 0 -0.01256211538202206 0.0019867683021719327 0 -0.011931914200031693 0.0021076263720505644 0 -0.0091721990762310551 0.0040796937442500684 0 -0.011129109618391321 0.0051360974301588669 0 -0.0078703361354017301 0.0057869444066627456 0 -0.0091721990762310551 0.0040796937442500684 0 -0.011129109618391321 0.0051360974301588669 0 -0.010942496012142061 0.0034961895130263803 0 -0.0034252916630333561 0.0062488443024897198 0 -0.011192633884678659 0.0035718893489952164 0 0.0013461018930362853 0.0064169209796967192 0 -0.00016332960976741024 0.0059507434428905824 0 0.00062360647888071651 0.0066286283315145798 0 -0.011129109618391321 0.0051360974301588669 0 -0.010942496012142061 0.0034961895130263803 0 -0.013130842104489768 0.0037035555499770837 0 -0.020333769572197027 0.0006991201315710749 0 -0.01950564240870194 0.0030288880143124397 0 -0.027895790324493838 0.0019102538560546534 0 -0.026584369178803548 0.0016424632741297723 0 -0.026145421397376262 0.00050368560215687138 0 -0.010762859704700962 0.0021715847378195948 0 -0.010942496012142061 0.0034961895130263803 0 -0.013130842104489768 0.0037035555499770837 0 -0.027895790324493838 0.0019102538560546534 0 -0.027409255276186154 0.0023420591537275329 0 -0.026584369178803548 0.0016424632741297723 0 -0.027529685865416147 0.0024098986334615512 0 -0.027409255276186154 0.0023420591537275329 0 -0.027495094569141346 0.0024056091426560111 0 -0.020333769572197027 0.0006991201315710749 0 -0.024474098827114276 -8.5504454094892873e-05 0 -0.02671390241275513 0.0023930340433370952 0 -0.027409255276186154 0.0023420591537275329 0 -0.026584369178803548 0.0016424632741297723 0 -0.028343860612277276 0.0031536137330031877 0 -0.024039126642810937 0.0016069427004335105 0 -0.02671390241275513 0.0023930340433370952 0 -0.026584369178803548 0.0016424632741297723 0 -0.025603551934986927 0.0017393806898103993 0 -0.026366467148135425 0.0030422620532337507 0 -0.025603551934986927 0.0017393806898103993 0 -0.023920232114990638 0.0011278261591459876 0 -0.025603551934986927 0.0017393806898103993 0 -0.025278361989235016 0.0010248538199321821 0 -0.023920232114990638 0.0011278261591459876 0 -0.026584369178803548 0.0016424632741297723 0 -0.025603551934986927 0.0017393806898103993 0 -0.025278361989235016 0.0010248538199321821 0 -0.026584369178803548 0.0016424632741297723 0 -0.025278361989235016 0.0010248538199321821 0 -0.026145421397376262 0.00050368560215687138 0 -0.029370380236788323 0.0029277244738578428 0 -0.02935444761037009 0.0027439940242039874 0 -0.029162199176298975 0.002847188035036047 0 -0.015667084084046407 -0.00030389496689989162 0 -0.015800973248877383 -0.00033257645615191931 0 -0.015907667358791743 -0.00045607934172748569 0 -0.015667084084046407 -0.00030389496689989162 0 -0.015800973248877383 -0.00033257645615191931 0 -0.015758716135184453 -0.0002111317996569209 0 -0.024039126642810937 0.0016069427004335105 0 -0.024143810991744289 0.0014327793666739296 0 -0.015800973248877383 -0.00033257645615191931 0 -0.015758716135184453 -0.0002111317996569209 0 -0.015808670825299045 -0.00021186391823396528 0 -0.023920232114990638 0.0011278261591459876 0 -0.023509509229061403 -0.0012905638672781349 0 -0.022051797649684336 -0.00090603961040860775 0 -0.025278361989235016 0.0010248538199321821 0 -0.023920232114990638 0.0011278261591459876 0 -0.023509509229061403 -0.0012905638672781349 0 -0.025278361989235016 0.0010248538199321821 0 -0.023509509229061403 -0.0012905638672781349 0 -0.024889187832655341 -0.00044100737402430257 0 -0.015667084084046407 -0.00030389496689989162 0 -0.015758716135184453 -0.0002111317996569209 0 -0.015756343119410474 9.0492769381553178e-06 0 -0.024039126642810937 0.0016069427004335105 0 -0.018728516364404982 -0.00093954488253818972 0 -0.00069329645197338237 0.0062951650371403153 0 -0.00016332960976741024 0.0059507434428905824 0 -0.00011226365469814614 0.0066929956094559572 0 -0.011966611712985971 0.0025426055931948555 0 -0.011192633884678659 0.0035718893489952164 0 -0.011129109618391321 0.0051360974301588669 0 -0.013130842104489768 0.0037035555499770837 0 -0.014329188642945601 0.0044618256654743484 0 -0.01950564240870194 0.0030288880143124397 0 -0.011192633884678659 0.0035718893489952164 0 -0.025278361989235016 0.0010248538199321821 0 -0.026145421397376262 0.00050368560215687138 0 -0.024889187832655341 -0.00044100737402430257 0 -0.00011226365469814614 0.0066929956094559572 0 -0.00075321698771447382 0.0071498264153894648 0 0.00041592110924759473 0.0075752434913220132 0 -0.00011226365469814614 0.0066929956094559572 0 0.00041592110924759473 0.0075752434913220132 0 0.00062360647888071651 0.0066286283315145798 0 -0.00016332960976741024 0.0059507434428905824 0 -0.00011226365469814614 0.0066929956094559572 0 0.00062360647888071651 0.0066286283315145798 0 -0.00069329645197338237 0.0062951650371403153 0 -0.00075321698771447382 0.0071498264153894648 0 -0.0017586262773126534 0.0069554024139957321 0 -0.00069329645197338237 0.0062951650371403153 0 -0.00011226365469814614 0.0066929956094559572 0 -0.00075321698771447382 0.0071498264153894648 0 -0.00084948540830315515 0.0078417438521806316 0 0.00041592110924759473 0.0075752434913220132 0 -0.0006892762866791077 0.0086530806092453422 0 -0.00075321698771447382 0.0071498264153894648 0 -0.00084948540830315515 0.0078417438521806316 0 0.00041592110924759473 0.0075752434913220132 0 -0.00075321698771447382 0.0071498264153894648 0 -0.00084948540830315515 0.0078417438521806316 0 -0.0014253951615085742 0.0075057771909686731 0 0.002471672797452563 0.0060368930351375047 0 0.0017587703470408895 0.006065122107684803 0 0.0017945205552981273 0.0055566955466181782 0 0.002471672797452563 0.0060368930351375047 0 0.0017587703470408895 0.006065122107684803 0 0.0014005482396871913 0.0064913607506792989 0 0.0017587703470408895 0.006065122107684803 0 0.0014092978289500264 0.0060087508575539681 0 0.0017945205552981273 0.0055566955466181782 0 0.0012822815063895209 0.0056893104359446436 0 0.0014092978289500264 0.0060087508575539681 0 0.0017945205552981273 0.0055566955466181782 0 0.0012822815063895209 0.0056893104359446436 0 0.0014092978289500264 0.0060087508575539681 0 0.00095236155343293445 0.0059392013932838732 0 0.0014092978289500264 0.0060087508575539681 0 0.0012058405669376816 0.0062575834087209483 0 0.00095236155343293445 0.0059392013932838732 0 0.0014092978289500264 0.0060087508575539681 0 0.0014118032884956578 0.0062623804008423208 0 0.0012058405669376816 0.0062575834087209483 0 0.0017587703470408895 0.006065122107684803 0 0.0014092978289500264 0.0060087508575539681 0 0.0014118032884956578 0.0062623804008423208 0 -0.0034252916630333561 0.0062488443024897198 0 -0.0064125122867517677 0.0049700472381527302 0 0.0013461018930362853 0.0064169209796967192 0 0.0012830999851740474 0.0064450649714484611 0 0.00096579547293828151 0.0065437720727595612 0 0.0017587703470408895 0.006065122107684803 0 0.0014118032884956578 0.0062623804008423208 0 0.0014005482396871913 0.0064913607506792989 0 0.0014118032884956578 0.0062623804008423208 0 0.0012058405669376816 0.0062575834087209483 0 0.0012830999851740474 0.0064450649714484611 0 0.0014118032884956578 0.0062623804008423208 0 0.0012830999851740474 0.0064450649714484611 0 0.0014005482396871913 0.0064913607506792989 0 0.0013461018930362853 0.0064169209796967192 0 0.0012830999851740474 0.0064450649714484611 0 0.0014005482396871913 0.0064913607506792989 0 0.0013461018930362853 0.0064169209796967192 0 0.0014005482396871913 0.0064913607506792989 0 0.00062360647888071651 0.0066286283315145798 0 -0.00011660974486720212 0.0068578217863152005 0 0.0020047722240840358 0.0063742241130104564 0 0.00041592110924759473 0.0075752434913220132 0 0.0014005482396871913 0.0064913607506792989 0 0.00062360647888071651 0.0066286283315145798 0 -0.016890661929548949 -0.00036971858311748794 0 -0.016873162780769804 0.00038681054780709956 0 -0.017534447049618526 2.7816647593717694e-05 0 -0.016890661929548949 -0.00036971858311748794 0 -0.017585049802363521 -0.00063230278581972673 0 -0.017534447049618526 2.7816647593717694e-05 0 -0.017046486755413204 -0.00099166812604940422 0 -0.016890661929548949 -0.00036971858311748794 0 -0.017585049802363521 -0.00063230278581972673 0 -0.016419092885851066 -0.001071049715591639 0 -0.016890661929548949 -0.00036971858311748794 0 -0.016334070370862253 -0.00047412436633976275 0 -0.016890661929548949 -0.00036971858311748794 0 -0.016549084974594026 1.8928832912133777e-05 0 -0.016873162780769804 0.00038681054780709956 0 -0.016890661929548949 -0.00036971858311748794 0 -0.016549084974594026 1.8928832912133777e-05 0 -0.016334070370862253 -0.00047412436633976275 0 -0.016549084974594026 1.8928832912133777e-05 0 -0.016224609174205491 -5.5844162357309532e-05 0 -0.016334070370862253 -0.00047412436633976275 0 -0.016549084974594026 1.8928832912133777e-05 0 -0.016224609174205491 -5.5844162357309532e-05 0 -0.016266192865897453 0.00028811432967338534 0 -0.016224609174205491 -5.5844162357309532e-05 0 -0.015988749868479889 4.3422876374724803e-05 0 -0.016266192865897453 0.00028811432967338534 0 -0.016224609174205491 -5.5844162357309532e-05 0 -0.016072594374349186 -0.00024303906419803907 0 -0.016334070370862253 -0.00047412436633976275 0 -0.016224609174205491 -5.5844162357309532e-05 0 -0.016072594374349186 -0.00024303906419803907 0 -0.015988749868479889 4.3422876374724803e-05 0 -0.016419092885851066 -0.001071049715591639 0 -0.016334070370862253 -0.00047412436633976275 0 -0.015856172064948316 -0.00055784362253552718 0 -0.016072594374349186 -0.00024303906419803907 0 -0.016334070370862253 -0.00047412436633976275 0 -0.01593312156306087 -0.00040520963232799716 0 -0.016334070370862253 -0.00047412436633976275 0 -0.01593312156306087 -0.00040520963232799716 0 -0.015856172064948316 -0.00055784362253552718 0 -0.016072594374349186 -0.00024303906419803907 0 -0.015939625149335935 -0.000279299858333461 0 -0.01593312156306087 -0.00040520963232799716 0 -0.015939625149335935 -0.000279299858333461 0 -0.01593312156306087 -0.00040520963232799716 0 -0.015870820880502727 -0.00030034959632773035 0 -0.01593312156306087 -0.00040520963232799716 0 -0.015907667358791743 -0.00045607934172748569 0 -0.015877856782696129 -0.00037692432605609044 0 -0.020018071035991274 -0.001514079419052599 0 -0.024143810991744289 0.0014327793666739296 0 -0.015800973248877383 -0.00033257645615191931 0 -0.015907667358791743 -0.00045607934172748569 0 -0.015877856782696129 -0.00037692432605609044 0 -0.015800973248877383 -0.00033257645615191931 0 -0.015877856782696129 -0.00037692432605609044 0 -0.015870820880502727 -0.00030034959632773035 0 -0.01593312156306087 -0.00040520963232799716 0 -0.015877856782696129 -0.00037692432605609044 0 -0.015870820880502727 -0.00030034959632773035 0 -0.015800973248877383 -0.00033257645615191931 0 -0.015870820880502727 -0.00030034959632773035 0 -0.015808670825299045 -0.00021186391823396528 0 -0.015808670825299045 -0.00021186391823396528 0 -0.01589248260501577 -0.00016697514943695877 0 -0.015756343119410474 9.0492769381553178e-06 0 -0.015758716135184453 -0.0002111317996569209 0 -0.015808670825299045 -0.00021186391823396528 0 -0.015756343119410474 9.0492769381553178e-06 0 -0.015870820880502727 -0.00030034959632773035 0 -0.015808670825299045 -0.00021186391823396528 0 -0.01589248260501577 -0.00016697514943695877 0 -0.015939625149335935 -0.000279299858333461 0 -0.015870820880502727 -0.00030034959632773035 0 -0.01589248260501577 -0.00016697514943695877 0 -0.016072594374349186 -0.00024303906419803907 0 -0.015939625149335935 -0.000279299858333461 0 -0.01589248260501577 -0.00016697514943695877 0 -0.016072594374349186 -0.00024303906419803907 0 -0.01589248260501577 -0.00016697514943695877 0 -0.015988749868479889 4.3422876374724803e-05 0 -0.01589248260501577 -0.00016697514943695877 0 -0.015988749868479889 4.3422876374724803e-05 0 -0.015756343119410474 9.0492769381553178e-06 0 -0.023509509229061403 -0.0012905638672781349 0 -0.022051797649684336 -0.00090603961040860775 0 -0.020164905897810729 -0.0032715406900777639 0 -0.011966611712985971 0.0025426055931948555 0 -0.01099489755520533 0.0027524100604309331 0 -0.018728516364404982 -0.00093954488253818972 0 -0.01099489755520533 0.0027524100604309331 0 -0.015988749868479889 4.3422876374724803e-05 0 -0.015756343119410474 9.0492769381553178e-06 0 -0.015903637461368473 0.00044510224843115857 0 -0.00075321698771447382 0.0071498264153894648 0 -0.0017586262773126534 0.0069554024139957321 0 -0.0014253951615085742 0.0075057771909686731 0 -0.00084948540830315515 0.0078417438521806316 0 -0.0014253951615085742 0.0075057771909686731 0 -0.0016051838388940914 0.0080794922488585438 0 -0.0014253951615085742 0.0075057771909686731 0 -0.0020755755588836152 0.0073910766562873048 0 -0.0016051838388940914 0.0080794922488585438 0 -0.0017586262773126534 0.0069554024139957321 0 -0.0014253951615085742 0.0075057771909686731 0 -0.0020755755588836152 0.0073910766562873048 0 -0.01099489755520533 0.0027524100604309331 0 -0.0051598687649358635 0.004804268158185381 0 -0.01099489755520533 0.0027524100604309331 0 -0.0023306826624854391 0.0050197622986033934 0 0.017522223354467955 0.0091829608762768484 0 0.017530537768715063 0.01040491501930435 0 0.018525409148415536 0.0098336002843699196 0 -0.0020755755588836152 0.0073910766562873048 0 -0.002569204971169354 0.0074411904763336794 0 -0.0016051838388940914 0.0080794922488585438 0 -0.0023306826624854391 0.0050197622986033934 0 0.009993696150050595 0.0099216640513322494 0 -0.0017847214673028526 0.0068947784501902235 0 -0.0020755755588836152 0.0073910766562873048 0 -0.002569204971169354 0.0074411904763336794 0 -0.015903637461368473 0.00044510224843115857 0 -0.016219913214341228 0.00073990433226608216 0 -0.016266192865897453 0.00028811432967338534 0 -0.015988749868479889 4.3422876374724803e-05 0 -0.015903637461368473 0.00044510224843115857 0 -0.016266192865897453 0.00028811432967338534 0 -0.0023306826624854391 0.0050197622986033934 0 -0.017157554625693187 0.0004934997946082723 0 -0.016549084974594026 1.8928832912133777e-05 0 -0.016266192865897453 0.00028811432967338534 0 -0.016873162780769804 0.00038681054780709956 0 -0.016219913214341228 0.00073990433226608216 0 -0.016266192865897453 0.00028811432967338534 0 -0.016873162780769804 0.00038681054780709956 0 -0.010741962031795664 0.0040206174626401569 0 -0.013179900723884972 0.0024991875654635054 0 -0.013477607733068768 0.0056345646671931296 0 -0.0023306826624854391 0.0050197622986033934 0 0.0024521184316392947 0.0078110404622180442 0 -0.013179900723884972 0.0024991875654635054 0 -0.013477607733068768 0.0056345646671931296 0 -0.015714638611080058 0.0036889669535039031 0 -0.017157554625693187 0.0004934997946082723 0 -0.016114351059609674 0.00083017750013199742 0 -0.013179900723884972 0.0024991875654635054 0 -0.015714638611080058 0.0036889669535039031 0 -0.015554836047777824 0.0011142203189675251 0 0.016010558749495349 0.011086397249474479 0 0.015800341375452255 0.012032603291230558 0 0.014805482145137447 0.010855013917943128 0 0.016010558749495349 0.011086397249474479 0 0.016250878245369433 0.010014023199312026 0 0.017097349003156171 0.011428294490119544 0 0.016010558749495349 0.011086397249474479 0 0.017097349003156171 0.011428294490119544 0 0.016675354761153019 0.011980644138486806 0 0.016010558749495349 0.011086397249474479 0 0.016250878245369433 0.010014023199312026 0 0.014805482145137447 0.010855013917943128 0 0.0024521184316392947 0.0078110404622180442 0 -0.00083809629219628874 0.0089844234055995627 0 0.016250878245369433 0.010014023199312026 0 0.017097349003156171 0.011428294490119544 0 0.017530537768715063 0.01040491501930435 0 0.017522223354467955 0.0091829608762768484 0 0.016250878245369433 0.010014023199312026 0 0.017530537768715063 0.01040491501930435 0 0.017097349003156171 0.011428294490119544 0 0.018407889126608408 0.011636376713335403 0 0.017530537768715063 0.01040491501930435 0 0.018407889126608408 0.011636376713335403 0 0.017530537768715063 0.01040491501930435 0 0.018525409148415536 0.0098336002843699196 0 0.009993696150050595 0.0099216640513322494 0 0.0096843054130537447 0.0088306037851499652 0 0.018407889126608408 0.011636376713335403 0 0.018525409148415536 0.0098336002843699196 0 0.019411354457921082 0.01046868206562282 0 -0.00084948540830315515 0.0078417438521806316 0 -0.0016051838388940914 0.0080794922488585438 0 -0.0006892762866791077 0.0086530806092453422 0 0.018407889126608408 0.011636376713335403 0 0.018983029656255656 0.011752908978528532 0 0.019052529689294981 0.01176489683144287 0 0.021631649175926342 0.011614243449620195 0 0.0096843054130537447 0.0088306037851499652 0 0.01846884018971685 0.012649645994324072 0 0.019052529689294981 0.01176489683144287 0 0.01945920907472122 0.011808005158362235 0 0.018407889126608408 0.011636376713335403 0 0.01846884018971685 0.012649645994324072 0 0.019052529689294981 0.01176489683144287 0 0.024576024017634462 0.011028284731240765 0 0.01945920907472122 0.011808005158362235 0 0.021601020137698709 0.010155846316287185 0 0.021207644507558306 0.012062101437631336 0 0.019743394581041913 0.011793237473358474 0 0.01846884018971685 0.012649645994324072 0 0.017446759283796832 0.01268890900065745 0 0.017162134715101415 0.013282498814052746 0 0.01846884018971685 0.012649645994324072 0 0.017699981776999552 0.012088633063155363 0 0.017446759283796832 0.01268890900065745 0 0.021207644507558306 0.012062101437631336 0 0.02388423860413913 0.0098236075953715574 0 0.017097349003156171 0.011428294490119544 0 0.018407889126608408 0.011636376713335403 0 0.017699981776999552 0.012088633063155363 0 0.018407889126608408 0.011636376713335403 0 0.01846884018971685 0.012649645994324072 0 0.017699981776999552 0.012088633063155363 0 0.017097349003156171 0.011428294490119544 0 0.017699981776999552 0.012088633063155363 0 0.017409465322569546 0.012321346125847933 0 0.017097349003156171 0.011428294490119544 0 0.017409465322569546 0.012321346125847933 0 0.016675354761153019 0.011980644138486806 0 0.016931177488235704 0.012452491813498473 0 0.017409465322569546 0.012321346125847933 0 0.016675354761153019 0.011980644138486806 0 0.016931177488235704 0.012452491813498473 0 0.017409465322569546 0.012321346125847933 0 0.017740073229355197 0.012875620185851991 0 0.017699981776999552 0.012088633063155363 0 0.017409465322569546 0.012321346125847933 0 0.017446759283796832 0.01268890900065745 0 0.017409465322569546 0.012321346125847933 0 0.017740073229355197 0.012875620185851991 0 0.017446759283796832 0.01268890900065745 0 0.017640156554160388 0.013637346332847477 0 0.02388423860413913 0.0098236075953715574 0 0.017740073229355197 0.012875620185851991 0 0.017446759283796832 0.01268890900065745 0 0.019646830212849305 0.009026728049464923 0 0.016931177488235704 0.012452491813498473 0 0.017740073229355197 0.012875620185851991 0 0.016357615402866756 0.012842170351612942 0 0.016931177488235704 0.012452491813498473 0 0.016357615402866756 0.012842170351612942 0 0.016228238873515349 0.012395634550971139 0 0.017740073229355197 0.012875620185851991 0 0.016357615402866756 0.012842170351612942 0 0.015648254408353348 0.013549335256785483 0 0.018052524899689493 0.012837745501747081 0 0.020947807151941431 0.011701633476285776 0 0.017740073229355197 0.012875620185851991 0 0.019646830212849305 0.009026728049464923 0 0.026180188345858151 0.010002076534266697 0 0.016357615402866756 0.012842170351612942 0 0.015673714287535882 0.013068821244594669 0 0.015648254408353348 0.013549335256785483 0 0.015673714287535882 0.013068821244594669 0 0.015380181736341487 0.013145433018824728 0 0.015648254408353348 0.013549335256785483 0 0.016357615402866756 0.012842170351612942 0 0.015673714287535882 0.013068821244594669 0 0.01539753847568336 0.012708958707141104 0 0.016357615402866756 0.012842170351612942 0 0.016228238873515349 0.012395634550971139 0 0.01539753847568336 0.012708958707141104 0 0.016228238873515349 0.012395634550971139 0 0.015800341375452255 0.012032603291230558 0 0.01539753847568336 0.012708958707141104 0 0.016010558749495349 0.011086397249474479 0 0.016675354761153019 0.011980644138486806 0 0.015800341375452255 0.012032603291230558 0 0.016931177488235704 0.012452491813498473 0 0.016228238873515349 0.012395634550971139 0 0.016675354761153019 0.011980644138486806 0 0.016228238873515349 0.012395634550971139 0 0.016675354761153019 0.011980644138486806 0 0.015800341375452255 0.012032603291230558 0 0.002471672797452563 0.0060368930351375047 0 0.0017945205552981273 0.0055566955466181782 0 0.0025983948025810012 0.0048158144477723078 0 0.0017960390067222915 0.0049295163099910277 0 0.0017945205552981273 0.0055566955466181782 0 0.0025983948025810012 0.0048158144477723078 0 0.0017960390067222915 0.0049295163099910277 0 0.0025983948025810012 0.0048158144477723078 0 0.0018408970940801911 0.0043354108343319859 0 0.0014156649302974696 0.0047398565545236377 0 0.0017960390067222915 0.0049295163099910277 0 0.0018408970940801911 0.0043354108343319859 0 0.0014156649302974696 0.0047398565545236377 0 0.0017960390067222915 0.0049295163099910277 0 0.0013552341874460603 0.0052160237209910119 0 0.0017960390067222915 0.0049295163099910277 0 0.0013552341874460603 0.0052160237209910119 0 0.0017945205552981273 0.0055566955466181782 0 0.0012822815063895209 0.0056893104359446436 0 0.0013552341874460603 0.0052160237209910119 0 0.0017945205552981273 0.0055566955466181782 0 -0.00011660974486720212 0.0068578217863152005 0 0.0096843054130537447 0.0088306037851499652 0 0.002471672797452563 0.0060368930351375047 0 0.003439472648355639 0.0053683424710226999 0 0.0025983948025810012 0.0048158144477723078 0 0.018983029656255656 0.011752908978528532 0 0.019052529689294981 0.01176489683144287 0 0.018584430646286978 0.012227140816964433 0 0.0096843054130537447 0.0088306037851499652 0 0.010798903479565585 0.0085285418405186882 0 0.018584430646286978 0.012227140816964433 0 0.01945920907472122 0.011808005158362235 0 0.018085989744001597 0.011168174844760756 0 0.019052529689294981 0.01176489683144287 0 0.018584430646286978 0.012227140816964433 0 0.01945920907472122 0.011808005158362235 0 0.01945920907472122 0.011808005158362235 0 0.020123084835047246 0.0098337651239612783 0 0.018969918472450779 0.0098805825458636223 0 0.01945920907472122 0.011808005158362235 0 0.020123084835047246 0.0098337651239612783 0 0.021601020137698709 0.010155846316287185 0 0.01945920907472122 0.011808005158362235 0 0.018085989744001597 0.011168174844760756 0 0.018969918472450779 0.0098805825458636223 0 0.018085989744001597 0.011168174844760756 0 0.018969918472450779 0.0098805825458636223 0 0.017865213489560671 0.0099467258506498058 0 0.018085989744001597 0.011168174844760756 0 0.017865213489560671 0.0099467258506498058 0 0.016766479333892564 0.010069778619439293 0 0.018085989744001597 0.011168174844760756 0 0.016766479333892564 0.010069778619439293 0 0.016583092705093446 0.011711455911275969 0 0.010798903479565585 0.0085285418405186882 0 0.0091904855344460065 0.007963268662928305 0 0.018584430646286978 0.012227140816964433 0 0.018085989744001597 0.011168174844760756 0 0.016583092705093446 0.011711455911275969 0 0.0018408970940801911 0.0043354108343319859 0 0.0011651306762207212 0.0038727472201294725 0 0.0011077440623380598 0.0043802053883453739 0 0.0091904855344460065 0.007963268662928305 0 0.0075554868127983713 0.0072197568329141161 0 0.0014156649302974696 0.0047398565545236377 0 0.0018408970940801911 0.0043354108343319859 0 0.0011077440623380598 0.0043802053883453739 0 0.016766479333892564 0.010069778619439293 0 0.016583092705093446 0.011711455911275969 0 0.014337848407538163 0.010347424286411121 0 0.016766479333892564 0.010069778619439293 0 0.014337848407538163 0.010347424286411121 0 0.015461629260004486 0.0087696556343612696 0 0.0011651306762207212 0.0038727472201294725 0 0.00042224624974031673 0.0039089398206510429 0 0.0005188285511476717 0.0033963279197325698 0 0.0011651306762207212 0.0038727472201294725 0 0.00042224624974031673 0.0039089398206510429 0 0.00057688429653471936 0.0044026652760849249 0 0.0075554868127983713 0.0072197568329141161 0 0.0075444299592113719 0.0047406294514030422 0 0.0011651306762207212 0.0038727472201294725 0 0.00057688429653471936 0.0044026652760849249 0 0.0011077440623380598 0.0043802053883453739 0 0.00057688429653471936 0.0044026652760849249 0 0.0011077440623380598 0.0043802053883453739 0 0.00099011054490980455 0.0048629338982023951 0 0.0014156649302974696 0.0047398565545236377 0 0.0011077440623380598 0.0043802053883453739 0 0.00099011054490980455 0.0048629338982023951 0 0.0014156649302974696 0.0047398565545236377 0 0.0013552341874460603 0.0052160237209910119 0 0.00099011054490980455 0.0048629338982023951 0 0.00074589945051682476 0.0049402822134098304 0 0.00095459586361677199 0.0046312883069240572 0 0.00057688429653471936 0.0044026652760849249 0 0.0005737045106854751 0.0050319226219666313 0 0.00019264461662627265 0.0047751312499712036 0 0.00057688429653471936 0.0044026652760849249 0 0.00099011054490980455 0.0048629338982023951 0 0.0005737045106854751 0.0050319226219666313 0 0.0005737045106854751 0.0050319226219666313 0 0.00010653966657715451 0.0052218663466765056 0 0.00019264461662627265 0.0047751312499712036 0 0.00039929970969788714 0.0050637501447277251 0 0.00050469416086683784 0.0055420425374030887 0 0.00089754796138764598 0.0054096348595743197 0 -0.005401808728564419 0.0027575562189499276 0 -0.0047923504171544897 0.0041397445078452692 0 0.00050469416086683784 0.0055420425374030887 0 -0.00017420107888026652 0.0052894281438727953 0 0.00039490839133787505 0.0059774931077846687 0 0.00039929970969788714 0.0050637501447277251 0 0.00050469416086683784 0.0055420425374030887 0 -0.00017420107888026652 0.0052894281438727953 0 0.00095459586361677199 0.0046312883069240572 0 -0.005401808728564419 0.0027575562189499276 0 0.00050469416086683784 0.0055420425374030887 0 0.00089754796138764598 0.0054096348595743197 0 0.00095236155343293445 0.0059392013932838732 0 0.0012822815063895209 0.0056893104359446436 0 0.0013552341874460603 0.0052160237209910119 0 0.00089754796138764598 0.0054096348595743197 0 0.0013552341874460603 0.0052160237209910119 0 0.00099011054490980455 0.0048629338982023951 0 0.00089754796138764598 0.0054096348595743197 0 0.00099011054490980455 0.0048629338982023951 0 0.00039929970969788714 0.0050637501447277251 0 0.00089754796138764598 0.0054096348595743197 0 -0.0084353241446902903 8.3675037056294706e-05 0 -0.0083283237729451908 -0.00012179447038445027 0 -0.0086616017112933867 3.7351989147417798e-05 0 -0.012347538232063941 0.0013950850675025371 0 -0.011653016430005594 0.00079343792675952386 0 -0.012323917113542594 0.0013820879090126834 0 -0.0084353241446902903 8.3675037056294706e-05 0 -0.0082820682958046846 9.1321379306474456e-05 0 -0.0083283237729451908 -0.00012179447038445027 0 -0.0082820682958046846 9.1321379306474456e-05 0 -0.0083283237729451908 -0.00012179447038445027 0 -0.0081587757474209203 -8.0240342487132449e-05 0 -0.011653016430005594 0.00079343792675952386 0 -0.011525963088892555 0.0016025943758860666 0 -0.012323917113542594 0.0013820879090126834 0 -0.010986167752368426 0.00067957249646199123 0 -0.005401808728564419 0.0027575562189499276 0 -0.005401808728564419 0.0027575562189499276 0 -0.0044621746369812101 0.0025143332591645961 0 0.00019264461662627265 0.0047751312499712036 0 -0.00028467185465562845 0.0046977100503417394 0 -3.8338495838486329e-05 0.0041638712314312374 0 0.00010653966657715451 0.0052218663466765056 0 0.00019264461662627265 0.0047751312499712036 0 -0.00028467185465562845 0.0046977100503417394 0 -0.0084353241446902903 8.3675037056294706e-05 0 -0.0086616017112933867 3.7351989147417798e-05 0 -0.0084799799978171088 0.00035415012331289095 0 -0.0082820682958046846 9.1321379306474456e-05 0 -0.0084799799978171088 0.00035415012331289095 0 -0.0081550144404112963 0.00041690408335917005 0 -0.0084353241446902903 8.3675037056294706e-05 0 -0.0082820682958046846 9.1321379306474456e-05 0 -0.0084799799978171088 0.00035415012331289095 0 -0.0044621746369812101 0.0025143332591645961 0 -0.0024234270806447033 0.0020274456482294637 0 -0.0084799799978171088 0.00035415012331289095 0 -0.00824689854559881 0.00079913802777710138 0 -0.0081550144404112963 0.00041690408335917005 0 -0.0024234270806447033 0.0020274456482294637 0 0.00054593341911524833 0.004270801144539647 0 -0.00028467185465562845 0.0046977100503417394 0 -0.0007419864285845302 0.0041070455945612901 0 -3.8338495838486329e-05 0.0041638712314312374 0 0.00042224624974031673 0.0039089398206510429 0 0.00057688429653471936 0.0044026652760849249 0 -3.8338495838486329e-05 0.0041638712314312374 0 0.00057688429653471936 0.0044026652760849249 0 0.00019264461662627265 0.0047751312499712036 0 -3.8338495838486329e-05 0.0041638712314312374 0 0.00042224624974031673 0.0039089398206510429 0 -3.8338495838486329e-05 0.0041638712314312374 0 -0.00010501004848768372 0.0037094815502745839 0 0.00042224624974031673 0.0039089398206510429 0 -0.00010501004848768372 0.0037094815502745839 0 0.0005188285511476717 0.0033963279197325698 0 0.0039678601638637656 0.0003374175884780842 0 0.0036291491811269077 0.00051019605750307899 0 0.0036959652199347859 0.00015309081409670082 0 -0.00057035873316522274 0.0041184090980623715 0 -0.00010501004848768372 0.0037094815502745839 0 -0.00065190677550479369 0.0040020141604568248 0 0.0013705427155432267 0.0020252460432067321 0 0.00079352002075359907 0.001860924627900073 0 -0.00057035873316522274 0.0041184090980623715 0 -3.8338495838486329e-05 0.0041638712314312374 0 -0.00010501004848768372 0.0037094815502745839 0 0.0034674590628266159 0.00023538906243521023 0 0.0036291491811269077 0.00051019605750307899 0 0.0036959652199347859 0.00015309081409670082 0 0.003640482096562508 0.00032196897591678071 0 0.0042319699464278895 0.0011223815342473978 0 0.0038866317004458374 0.0013314455696543733 0 0.0036568180356496022 0.0004362046658291894 0 0.00079352002075359907 0.001860924627900073 0 0.003640482096562508 0.00032196897591678071 0 0.002834054958105992 0.00031630130000659103 0 0.0038866317004458374 0.0013314455696543733 0 0.002834054958105992 0.00031630130000659103 0 0.0038866317004458374 0.0013314455696543733 0 0.0022175504715127971 0.0014340191805409404 0 -0.0076987983217845675 0.00075495601822851439 0 -0.0085866259059952689 0.00123617182889963 0 -0.0065828404634973971 0.0015237355632981334 0 -0.0033049157199553894 0.0015392463248802282 0 -0.001983488625985175 0.0013092043844616325 0 -0.0076987983217845675 0.00075495601822851439 0 -0.0065828404634973971 0.0015237355632981334 0 -0.0068870578081215257 0.00036236531192798238 0 -0.0076987983217845675 0.00075495601822851439 0 -0.0080309884484949402 0.00084375173014984641 0 -0.0079119213217554892 0.00038796181961391426 0 -0.0080309884484949402 0.00084375173014984641 0 -0.0081550144404112963 0.00041690408335917005 0 -0.0079119213217554892 0.00038796181961391426 0 -0.00824689854559881 0.00079913802777710138 0 -0.0080309884484949402 0.00084375173014984641 0 -0.0081550144404112963 0.00041690408335917005 0 -0.00094435319902900106 0.0021187282665953771 0 -0.0013168270321039165 0.0016191149874595287 0 -0.0021254495193400932 0.0020873699601049217 0 -0.0024234270806447033 0.0020274456482294637 0 -0.0033049157199553894 0.0015392463248802282 0 -0.0024234270806447033 0.0020274456482294637 0 0.00079352002075359907 0.001860924627900073 0 0.00079352002075359907 0.001860924627900073 0 -0.0033049157199553894 0.0015392463248802282 0 -0.0085266558393292131 0.0016789276659301016 0 -0.0033049157199553894 0.0015392463248802282 0 0.00083675876252900722 6.7416289885988213e-05 0 0.0022175504715127971 0.0014340191805409404 0 -0.0019456239110755135 3.8973435278048261e-06 0 0.00083675876252900722 6.7416289885988213e-05 0 -0.0019456239110755135 3.8973435278048261e-06 0 0.00091342031554148765 -1.4424091243027901e-06 0 0.002834054958105992 0.00031630130000659103 0 0.00083675876252900722 6.7416289885988213e-05 0 0.0022175504715127971 0.0014340191805409404 0 -0.0065828404634973971 0.0015237355632981334 0 -0.0051038474119152657 6.5642997489139362e-05 0 -0.0068870578081215257 0.00036236531192798238 0 -0.001983488625985175 0.0013092043844616325 0 -0.0019515170842166439 6.3353288224269443e-07 0 -0.0065828404634973971 0.0015237355632981334 0 -0.0019565400254880987 4.3240744765535174e-06 0 -0.0051038474119152657 6.5642997489139362e-05 0 -0.0019565400254880987 4.3240744765535174e-06 0 -0.0049713054778568293 -1.5749786334040579e-06 0 -0.0051038474119152657 6.5642997489139362e-05 0 -0.0049713054778568293 -1.5749786334040579e-06 0 -0.0051038474119152657 6.5642997489139362e-05 0 -0.00687890219250615 -0.00012476876594211611 0 -0.0051038474119152657 6.5642997489139362e-05 0 -0.0068870578081215257 0.00036236531192798238 0 -0.00687890219250615 -0.00012476876594211611 0 -0.0068870578081215257 0.00036236531192798238 0 -0.00687890219250615 -0.00012476876594211611 0 -0.0076148958949162427 0.00012480377608781651 0 -0.00687890219250615 -0.00012476876594211611 0 -0.0080534959560467252 -0.00025673446958914074 0 -0.0078621685124016533 -0.00019969300726549737 0 -0.0049713054778568293 -1.5749786334040579e-06 0 -0.00687890219250615 -0.00012476876594211611 0 -0.0078621685124016533 -0.00019969300726549737 0 -0.0049713054778568293 -1.5749786334040579e-06 0 -0.0079917222507107557 -2.3879532590378191e-08 0 -0.0078621685124016533 -0.00019969300726549737 0 -0.0082820682958046846 9.1321379306474456e-05 0 -0.0080475321015033539 6.8495358000454857e-05 0 -0.0081550144404112963 0.00041690408335917005 0 -0.0080475321015033539 6.8495358000454857e-05 0 -0.0081550144404112963 0.00041690408335917005 0 -0.0079119213217554892 0.00038796181961391426 0 -0.0076987983217845675 0.00075495601822851439 0 -0.0079119213217554892 0.00038796181961391426 0 -0.0076148958949162427 0.00012480377608781651 0 -0.0076987983217845675 0.00075495601822851439 0 -0.0068870578081215257 0.00036236531192798238 0 -0.0076148958949162427 0.00012480377608781651 0 -0.0080475321015033539 6.8495358000454857e-05 0 -0.0079119213217554892 0.00038796181961391426 0 -0.0076148958949162427 0.00012480377608781651 0 -0.00687890219250615 -0.00012476876594211611 0 -0.0076148958949162427 0.00012480377608781651 0 -0.0080534959560467252 -0.00025673446958914074 0 -0.0080475321015033539 6.8495358000454857e-05 0 -0.0076148958949162427 0.00012480377608781651 0 -0.0080534959560467252 -0.00025673446958914074 0 -0.0080534959560467252 -0.00025673446958914074 0 -0.0081587757474209203 -8.0240342487132449e-05 0 -0.0081270941750792788 -0.00010139809614107108 0 -0.0080475321015033539 6.8495358000454857e-05 0 -0.0080534959560467252 -0.00025673446958914074 0 -0.0081587757474209203 -8.0240342487132449e-05 0 -0.0082820682958046846 9.1321379306474456e-05 0 -0.0080475321015033539 6.8495358000454857e-05 0 -0.0081587757474209203 -8.0240342487132449e-05 0 -0.010986167752368426 0.00067957249646199123 0 -0.0095114292359231561 0.00032522581556783332 0 -0.011089859461619606 0.00091142192275426941 0 -0.012156684666263571 0.00081390647934513377 0 -0.011973953805453118 9.4231071190967861e-05 0 -0.0083283237729451908 -0.00012179447038445027 0 -0.0081587757474209203 -8.0240342487132449e-05 0 -0.0081270941750792788 -0.00010139809614107108 0 -0.0080534959560467252 -0.00025673446958914074 0 -0.0081270941750792788 -0.00010139809614107108 0 -0.0093613371311951892 4.1742025759373903e-05 0 -0.0095114292359231561 0.00032522581556783332 0 -0.0093811621480059722 0.00011964613600942581 0 -0.011089859461619606 0.00091142192275426941 0 -0.0106926918147906 -0.0004672037245264644 0 -0.0093613371311951892 4.1742025759373903e-05 0 -0.0106926918147906 -0.0004672037245264644 0 -0.0093613371311951892 4.1742025759373903e-05 0 -0.010416251732121157 -0.00029147268936366281 0 -0.011089859461619606 0.00091142192275426941 0 -0.0106926918147906 -0.0004672037245264644 0 -0.011973953805453118 9.4231071190967861e-05 0 -0.0079917222507107557 -2.3879532590378191e-08 0 -0.0078621685124016533 -0.00019969300726549737 0 -0.0092570956989018894 -0.00014120020492194765 0 -0.0093613371311951892 4.1742025759373903e-05 0 -0.0078621685124016533 -0.00019969300726549737 0 -0.0092570956989018894 -0.00014120020492194765 0 -0.0080534959560467252 -0.00025673446958914074 0 -0.0093613371311951892 4.1742025759373903e-05 0 -0.0078621685124016533 -0.00019969300726549737 0 -0.0093613371311951892 4.1742025759373903e-05 0 -0.0092570956989018894 -0.00014120020492194765 0 -0.010416251732121157 -0.00029147268936366281 0 -0.0079917222507107557 -2.3879532590378191e-08 0 -0.0092570956989018894 -0.00014120020492194765 0 -0.011011026052428569 -8.4184474441921823e-07 0 -0.0092570956989018894 -0.00014120020492194765 0 -0.011011026052428569 -8.4184474441921823e-07 0 -0.010416251732121157 -0.00029147268936366281 0 -0.011011026052428569 -8.4184474441921823e-07 0 -0.010416251732121157 -0.00029147268936366281 0 -0.011751694099016054 -0.00050338913571882987 0 -0.0106926918147906 -0.0004672037245264644 0 -0.010416251732121157 -0.00029147268936366281 0 -0.011751694099016054 -0.00050338913571882987 0 -0.01403078744845687 -3.6011741400361526e-07 0 -0.011011026052428569 -8.4184474441921823e-07 0 -0.011751694099016054 -0.00050338913571882987 0 -0.013662917595844129 -8.90903854079243e-05 0 -0.01403078744845687 -3.6011741400361526e-07 0 -0.011751694099016054 -0.00050338913571882987 0 -0.012047559242931615 -0.00021394600347448834 0 -0.011751694099016054 -0.00050338913571882987 0 -0.011211294612106194 -0.00074820983516120517 0 -0.0106926918147906 -0.0004672037245264644 0 -0.011751694099016054 -0.00050338913571882987 0 -0.011211294612106194 -0.00074820983516120517 0 -0.0106926918147906 -0.0004672037245264644 0 -0.011211294612106194 -0.00074820983516120517 0 -0.011973953805453118 9.4231071190967861e-05 0 -0.010908117616615158 -0.0012480789590828794 0 -0.012125162554129936 0.00017271913358122933 0 -0.012800833355157411 -0.0026714605253501909 0 -0.011709182616239603 -0.0014737486990304748 0 -0.012993717411563599 -0.0015492736108406009 0 -0.011709182616239603 -0.0014737486990304748 0 -0.012864816811390348 -0.00066180278589462018 0 -0.011973953805453118 9.4231071190967861e-05 0 -0.011709182616239603 -0.0014737486990304748 0 -0.012993717411563599 -0.0015492736108406009 0 -0.012864816811390348 -0.00066180278589462018 0 -0.012993717411563599 -0.0015492736108406009 0 -0.012864816811390348 -0.00066180278589462018 0 -0.013737353133769553 -0.0010197112441881777 0 -0.013576700090491512 -0.00044027052798949673 0 -0.013737353133769553 -0.0010197112441881777 0 -0.014315638346753382 -0.00063530977411282129 0 -0.012864816811390348 -0.00066180278589462018 0 -0.013576700090491512 -0.00044027052798949673 0 -0.013737353133769553 -0.0010197112441881777 0 -0.012993717411563599 -0.0015492736108406009 0 -0.013737353133769553 -0.0010197112441881777 0 -0.013865366634789697 -0.0016776966929719157 0 -0.012800833355157411 -0.0026714605253501909 0 -0.012993717411563599 -0.0015492736108406009 0 -0.013865366634789697 -0.0016776966929719157 0 -0.013737353133769553 -0.0010197112441881777 0 -0.013865366634789697 -0.0016776966929719157 0 -0.014710903629440579 -0.0013674755381021023 0 -0.013865366634789697 -0.0016776966929719157 0 -0.014710903629440579 -0.0013674755381021023 0 -0.014816643913060423 -0.0020261262159774179 0 -0.014812390290243751 -0.0017931118709277234 0 -0.015656822278443283 -0.0016099378857650705 0 -0.015102800608086256 -0.0015981066811888553 0 -0.014710903629440579 -0.0013674755381021023 0 -0.015102800608086256 -0.0015981066811888553 0 -0.015176703202342377 -0.0010043383741466037 0 -0.014710903629440579 -0.0013674755381021023 0 -0.014816643913060423 -0.0020261262159774179 0 -0.015102800608086256 -0.0015981066811888553 0 -0.013482481473015236 0.00035647886311018952 0 -0.012580347819850521 0.0017376962060274596 0 -0.01256211538202206 0.0019867683021719327 0 -0.011931914200031693 0.0021076263720505644 0 -0.011620002686453209 0.0032197151451734112 0 -0.010894816801260448 0.0029998481508542105 0 -0.0064125122867517677 0.0049700472381527302 0 -0.013737353133769553 -0.0010197112441881777 0 -0.014710903629440579 -0.0013674755381021023 0 -0.014315638346753382 -0.00063530977411282129 0 -0.014710903629440579 -0.0013674755381021023 0 -0.015176703202342377 -0.0010043383741466037 0 -0.014315638346753382 -0.00063530977411282129 0 -0.015176703202342377 -0.0010043383741466037 0 -0.014315638346753382 -0.00063530977411282129 0 -0.014400246202036416 -6.9245755875522769e-05 0 -0.010457027606352318 0.0032971674555072874 0 -0.010474732608842983 0.0019712569305157697 0 -0.011527045552998681 0.0023001704347479436 0 -0.010457027606352318 0.0032971674555072874 0 -0.0092228280848739522 0.0035430340695883997 0 -0.010474732608842983 0.0019712569305157697 0 -0.012580347819850521 0.0017376962060274596 0 -0.014141921087843604 0.00076053932582820791 0 -0.0064125122867517677 0.0049700472381527302 0 -0.0047923504171544897 0.0041397445078452692 0 -0.013576700090491512 -0.00044027052798949673 0 -0.014315638346753382 -0.00063530977411282129 0 -0.013878355793690851 6.8464852763897651e-05 0 -0.014315638346753382 -0.00063530977411282129 0 -0.014400246202036416 -6.9245755875522769e-05 0 -0.013878355793690851 6.8464852763897651e-05 0 -0.012580347819850521 0.0017376962060274596 0 -0.0064125122867517677 0.0049700472381527302 0 -0.014427695571022232 -2.7088862883172276e-05 0 -0.013878355793690851 6.8464852763897651e-05 0 -0.013502539979747851 0.0007208441993766467 0 -0.012580347819850521 0.0017376962060274596 0 -0.012484231361253428 0.0014973557505514891 0 0.0012058405669376816 0.0062575834087209483 0 0.00096579547293828151 0.0065437720727595612 0 0.00095236155343293445 0.0059392013932838732 0 -0.011931914200031693 0.0021076263720505644 0 -0.010411752884671993 0.0034588371349164354 0 -0.011620002686453209 0.0032197151451734112 0 0.0012058405669376816 0.0062575834087209483 0 0.0012830999851740474 0.0064450649714484611 0 0.00096579547293828151 0.0065437720727595612 0 0.00096579547293828151 0.0065437720727595612 0 0.00095236155343293445 0.0059392013932838732 0 0.00039490839133787505 0.0059774931077846687 0 0.0012822815063895209 0.0056893104359446436 0 0.00089754796138764598 0.0054096348595743197 0 0.00095236155343293445 0.0059392013932838732 0 0.00050469416086683784 0.0055420425374030887 0 0.00095236155343293445 0.0059392013932838732 0 0.00039490839133787505 0.0059774931077846687 0 -0.011653016430005594 0.00079343792675952386 0 -0.010474732608842983 0.0019712569305157697 0 -0.011525963088892555 0.0016025943758860666 0 -0.010474732608842983 0.0019712569305157697 0 -0.011525963088892555 0.0016025943758860666 0 -0.011527045552998681 0.0023001704347479436 0 -0.013502539979747851 0.0007208441993766467 0 -0.012323917113542594 0.0013820879090126834 0 -0.012635006631199127 0.00068039827597000794 0 -0.011525963088892555 0.0016025943758860666 0 -0.011527045552998681 0.0023001704347479436 0 -0.012323917113542594 0.0013820879090126834 0 -0.012484231361253428 0.0014973557505514891 0 -0.012389155969426684 0.0014219948951447099 0 -0.012347538232063941 0.0013950850675025371 0 -0.012323917113542594 0.0013820879090126834 0 -0.012156684666263571 0.00081390647934513377 0 -0.012347538232063941 0.0013950850675025371 0 -0.011089859461619606 0.00091142192275426941 0 -0.012156684666263571 0.00081390647934513377 0 -0.012156684666263571 0.00081390647934513377 0 -0.012635006631199127 0.00068039827597000794 0 -0.011973953805453118 9.4231071190967861e-05 0 -0.012323917113542594 0.0013820879090126834 0 -0.012156684666263571 0.00081390647934513377 0 -0.012635006631199127 0.00068039827597000794 0 -0.012635006631199127 0.00068039827597000794 0 -0.011973953805453118 9.4231071190967861e-05 0 -0.013053255972980902 8.3871901122138751e-05 0 -0.012864816811390348 -0.00066180278589462018 0 -0.011973953805453118 9.4231071190967861e-05 0 -0.013053255972980902 8.3871901122138751e-05 0 -0.012864816811390348 -0.00066180278589462018 0 -0.013576700090491512 -0.00044027052798949673 0 -0.013053255972980902 8.3871901122138751e-05 0 -0.013576700090491512 -0.00044027052798949673 0 -0.013878355793690851 6.8464852763897651e-05 0 -0.013053255972980902 8.3871901122138751e-05 0 -0.013878355793690851 6.8464852763897651e-05 0 -0.013502539979747851 0.0007208441993766467 0 -0.013053255972980902 8.3871901122138751e-05 0 -0.013502539979747851 0.0007208441993766467 0 -0.012635006631199127 0.00068039827597000794 0 -0.013053255972980902 8.3871901122138751e-05 0 -0.034102802225445553 0.0058317701640211439 0 -0.032930226672970186 0.0064432350412911323 0 -0.032866057023543185 0.0058241310620738519 0 -0.034102802225445553 0.0058317701640211439 0 -0.034701743925728619 0.0059210558603085125 0 -0.034704979152675751 0.0062765042625589264 0 -0.034102802225445553 0.0058317701640211439 0 -0.033876899449961355 0.0066080199836096474 0 -0.034704979152675751 0.0062765042625589264 0 -0.034102802225445553 0.0058317701640211439 0 -0.033876899449961355 0.0066080199836096474 0 -0.032930226672970186 0.0064432350412911323 0 -0.033876899449961355 0.0066080199836096474 0 -0.032930226672970186 0.0064432350412911323 0 -0.033004212604616216 0.0071601366949763734 0 -0.032930226672970186 0.0064432350412911323 0 -0.031907546663945151 0.0065119300587929505 0 -0.032866057023543185 0.0058241310620738519 0 -0.032930226672970186 0.0064432350412911323 0 -0.031907546663945151 0.0065119300587929505 0 -0.033004212604616216 0.0071601366949763734 0 -0.031353007066871587 0.0062260346874046524 0 -0.032384072065086422 0.0044829305907467584 0 -0.030917344152582987 0.0057017471822124726 0 -0.029560996940428404 0.004219266154312229 0 -0.030553165706733144 0.0034644272698272967 0 -0.030917344152582987 0.0057017471822124726 0 -0.029496453585632965 0.0053743642836816914 0 -0.02914022665812703 0.0065090921965634185 0 -0.030917344152582987 0.0057017471822124726 0 -0.029496453585632965 0.0053743642836816914 0 -0.029560996940428404 0.004219266154312229 0 -0.029496453585632965 0.0053743642836816914 0 -0.029560996940428404 0.004219266154312229 0 -0.028308028078527444 0.0050402859004783666 0 -0.029560996940428404 0.004219266154312229 0 -0.029241633507933941 0.0032066574847430681 0 -0.028249581388360048 0.0035731240288856322 0 -0.029560996940428404 0.004219266154312229 0 -0.029241633507933941 0.0032066574847430681 0 -0.030553165706733144 0.0034644272698272967 0 -0.029241633507933941 0.0032066574847430681 0 -0.030553165706733144 0.0034644272698272967 0 -0.029815898762979225 0.00239526559588428 0 -0.030917344152582987 0.0057017471822124726 0 -0.030553165706733144 0.0034644272698272967 0 -0.031931816312409725 0.0035674260993643105 0 -0.030553165706733144 0.0034644272698272967 0 -0.031931816312409725 0.0035674260993643105 0 -0.031153540574878905 0.0021444203444661186 0 -0.031153540574878905 0.0021444203444661186 0 -0.031425013404906728 0.0008572812283179147 0 -0.033033777775083768 0.0014697221204519838 0 -0.030553165706733144 0.0034644272698272967 0 -0.031153540574878905 0.0021444203444661186 0 -0.029815898762979225 0.00239526559588428 0 -0.031153540574878905 0.0021444203444661186 0 -0.030077854805387792 0.0011279796689018461 0 -0.031425013404906728 0.0008572812283179147 0 -0.029815898762979225 0.00239526559588428 0 -0.028414767453045796 0.0024067202529118419 0 -0.028745598655305106 0.0012554231497996331 0 -0.029241633507933941 0.0032066574847430681 0 -0.029815898762979225 0.00239526559588428 0 -0.028414767453045796 0.0024067202529118419 0 -0.031153540574878905 0.0021444203444661186 0 -0.029815898762979225 0.00239526559588428 0 -0.030077854805387792 0.0011279796689018461 0 -0.029815898762979225 0.00239526559588428 0 -0.030077854805387792 0.0011279796689018461 0 -0.028745598655305106 0.0012554231497996331 0 -0.02943082715989756 0.00019662070229775416 0 -0.028745598655305106 0.0012554231497996331 0 -0.028385244302903984 0.0002192524762674528 0 -0.030077854805387792 0.0011279796689018461 0 -0.02943082715989756 0.00019662070229775416 0 -0.028745598655305106 0.0012554231497996331 0 -0.030077854805387792 0.0011279796689018461 0 -0.02943082715989756 0.00019662070229775416 0 -0.030713176720950482 -9.2073354373922755e-05 0 -0.02943082715989756 0.00019662070229775416 0 -0.028385244302903984 0.0002192524762674528 0 -0.02892357060002473 -0.00053324178077237205 0 -0.030077854805387792 0.0011279796689018461 0 -0.031425013404906728 0.0008572812283179147 0 -0.030713176720950482 -9.2073354373922755e-05 0 -0.031425013404906728 0.0008572812283179147 0 -0.030713176720950482 -9.2073354373922755e-05 0 -0.032113464389906941 -0.00061629749374582236 0 -0.031425013404906728 0.0008572812283179147 0 -0.033033777775083768 0.0014697221204519838 0 -0.032113464389906941 -0.00061629749374582236 0 -0.033785771458471364 0.0042827402609427051 0 -0.03300340543136384 0.0023175148973473341 0 -0.034243808234711938 0.0061076566045293315 0 -0.034802545865886381 0.0051343708391304831 0 -0.033759572753403404 0.0050259736267237818 0 -0.032384072065086422 0.0044829305907467584 0 -0.033785771458471364 0.0042827402609427051 0 -0.031931816312409725 0.0035674260993643105 0 -0.031153540574878905 0.0021444203444661186 0 -0.033033777775083768 0.0014697221204519838 0 -0.034102802225445553 0.0058317701640211439 0 -0.032866057023543185 0.0058241310620738519 0 -0.033613165057413519 0.0046560401435741423 0 -0.034244405761868171 0.0060876364908051712 0 -0.033785771458471364 0.0042827402609427051 0 -0.034102802225445553 0.0058317701640211439 0 -0.034647411747371869 0.0057338445875059372 0 -0.034701743925728619 0.0059210558603085125 0 -0.034102802225445553 0.0058317701640211439 0 -0.034347510194704611 0.0056805373662247149 0 -0.034647411747371869 0.0057338445875059372 0 -0.034647411747371869 0.0057338445875059372 0 -0.035121762193816658 0.0055779298876584647 0 -0.034704172846739725 0.0053131743864961948 0 -0.033785771458471364 0.0042827402609427051 0 -0.034716502402840042 0.0054811339054347055 0 -0.034347510194704611 0.0056805373662247149 0 -0.034647411747371869 0.0057338445875059372 0 -0.034704172846739725 0.0053131743864961948 0 -0.035121762193816658 0.0055779298876584647 0 -0.035800850885548879 0.0055233832687105883 0 -0.035509187067469097 0.0057435414652796911 0 -0.035121762193816658 0.0055779298876584647 0 -0.035509187067469097 0.0057435414652796911 0 -0.035024904539817166 0.0058460018993412065 0 -0.035121762193816658 0.0055779298876584647 0 -0.035800850885548879 0.0055233832687105883 0 -0.035545235405445234 0.0051751634079381702 0 -0.035800850885548879 0.0055233832687105883 0 -0.036502497913260525 0.0056071198499589147 0 -0.036050830259622448 0.005790510709577831 0 -0.035800850885548879 0.0055233832687105883 0 -0.036050830259622448 0.005790510709577831 0 -0.035509187067469097 0.0057435414652796911 0 -0.036050830259622448 0.005790510709577831 0 -0.035509187067469097 0.0057435414652796911 0 -0.03547474972812039 0.0059390494491381391 0 -0.036050830259622448 0.005790510709577831 0 -0.03547474972812039 0.0059390494491381391 0 -0.035707964371434989 0.0060062039130016438 0 -0.03547474972812039 0.0059390494491381391 0 -0.035707964371434989 0.0060062039130016438 0 -0.035376756964028422 0.0061412375686327311 0 -0.03547474972812039 0.0059390494491381391 0 -0.035053047664837148 0.006032300302923831 0 -0.035376756964028422 0.0061412375686327311 0 -0.03547474972812039 0.0059390494491381391 0 -0.035024904539817166 0.0058460018993412065 0 -0.035053047664837148 0.006032300302923831 0 -0.034701743925728619 0.0059210558603085125 0 -0.035024904539817166 0.0058460018993412065 0 -0.035053047664837148 0.006032300302923831 0 -0.034647411747371869 0.0057338445875059372 0 -0.034701743925728619 0.0059210558603085125 0 -0.035024904539817166 0.0058460018993412065 0 -0.034647411747371869 0.0057338445875059372 0 -0.035121762193816658 0.0055779298876584647 0 -0.035024904539817166 0.0058460018993412065 0 -0.035509187067469097 0.0057435414652796911 0 -0.03547474972812039 0.0059390494491381391 0 -0.035024904539817166 0.0058460018993412065 0 -0.03612160813960881 0.0058420823071798763 0 -0.035863611725293419 0.0059550387070755068 0 -0.035720184359483209 0.0060197320448921237 0 -0.039133679456810261 0.0066157186722077301 0 -0.04061749520049452 0.0074961541176335527 0 -0.040784854467568972 0.0061265410568641047 0 -0.037529789737772448 0.0060666074317359204 0 -0.038374595234223687 0.0071436174051326112 0 -0.036502497913260525 0.0056071198499589147 0 -0.036050830259622448 0.005790510709577831 0 -0.03612160813960881 0.0058420823071798763 0 -0.036050830259622448 0.005790510709577831 0 -0.03612160813960881 0.0058420823071798763 0 -0.035863611725293419 0.0059550387070755068 0 -0.036050830259622448 0.005790510709577831 0 -0.035707964371434989 0.0060062039130016438 0 -0.035863611725293419 0.0059550387070755068 0 -0.035707964371434989 0.0060062039130016438 0 -0.035863611725293419 0.0059550387070755068 0 -0.035641908473555743 0.006113600918548243 0 -0.035863611725293419 0.0059550387070755068 0 -0.035641908473555743 0.006113600918548243 0 -0.035720184359483209 0.0060197320448921237 0 -0.035641908473555743 0.006113600918548243 0 -0.035720184359483209 0.0060197320448921237 0 -0.035535874343900584 0.0061368689044396891 0 -0.035641908473555743 0.006113600918548243 0 -0.035464149599190323 0.0063013137424043084 0 -0.035535874343900584 0.0061368689044396891 0 -0.035464149599190323 0.0063013137424043084 0 -0.035130792867521653 0.0063336647739609415 0 -0.035535874343900584 0.0061368689044396891 0 -0.035641908473555743 0.006113600918548243 0 -0.035464149599190323 0.0063013137424043084 0 -0.035517309292204015 0.006233111578432593 0 -0.035464149599190323 0.0063013137424043084 0 -0.035517309292204015 0.006233111578432593 0 -0.035436490132845902 0.0064422423392542696 0 -0.035707964371434989 0.0060062039130016438 0 -0.035641908473555743 0.006113600918548243 0 -0.035517309292204015 0.006233111578432593 0 -0.035707964371434989 0.0060062039130016438 0 -0.035517309292204015 0.006233111578432593 0 -0.035376756964028422 0.0061412375686327311 0 -0.035436490132845902 0.0064422423392542696 0 -0.035253411948375286 0.0064192333397551571 0 -0.035163062615334667 0.0067904538694762229 0 -0.035436490132845902 0.0064422423392542696 0 -0.035405150000103816 0.0064574819452444705 0 -0.035567183294423828 0.0067780988731515864 0 -0.035517309292204015 0.006233111578432593 0 -0.035436490132845902 0.0064422423392542696 0 -0.035253411948375286 0.0064192333397551571 0 -0.035051017455858681 0.0064248634087077164 0 -0.034614540709683027 0.0069316395222822754 0 -0.034655791656407343 0.0067690290074666334 0 -0.035130792867521653 0.0063336647739609415 0 -0.033692825085582356 0.0070359806672646253 0 -0.035405150000103816 0.0064574819452444705 0 -0.035130792867521653 0.0063336647739609415 0 -0.035567183294423828 0.0067780988731515864 0 -0.035464149599190323 0.0063013137424043084 0 -0.035436490132845902 0.0064422423392542696 0 -0.035405150000103816 0.0064574819452444705 0 -0.035464149599190323 0.0063013137424043084 0 -0.035405150000103816 0.0064574819452444705 0 -0.035130792867521653 0.0063336647739609415 0 -0.034704979152675751 0.0062765042625589264 0 -0.035053047664837148 0.006032300302923831 0 -0.035376756964028422 0.0061412375686327311 0 -0.034701743925728619 0.0059210558603085125 0 -0.034704979152675751 0.0062765042625589264 0 -0.035053047664837148 0.006032300302923831 0 -0.034704979152675751 0.0062765042625589264 0 -0.035376756964028422 0.0061412375686327311 0 -0.035253411948375286 0.0064192333397551571 0 -0.035517309292204015 0.006233111578432593 0 -0.035376756964028422 0.0061412375686327311 0 -0.035253411948375286 0.0064192333397551571 0 -0.034874545740212565 0.0066604586952619532 0 -0.035253411948375286 0.0064192333397551571 0 -0.035163062615334667 0.0067904538694762229 0 -0.034704979152675751 0.0062765042625589264 0 -0.034874545740212565 0.0066604586952619532 0 -0.035253411948375286 0.0064192333397551571 0 -0.034704979152675751 0.0062765042625589264 0 -0.034874545740212565 0.0066604586952619532 0 -0.034407964388534738 0.006818322673341648 0 -0.033876899449961355 0.0066080199836096474 0 -0.034704979152675751 0.0062765042625589264 0 -0.034407964388534738 0.006818322673341648 0 -0.034407964388534738 0.006818322673341648 0 -0.034598447790575325 0.0072170391264266571 0 -0.03390421813432215 0.0073186091813347374 0 -0.034874545740212565 0.0066604586952619532 0 -0.034407964388534738 0.006818322673341648 0 -0.034598447790575325 0.0072170391264266571 0 -0.034598447790575325 0.0072170391264266571 0 -0.035163062615334667 0.0067904538694762229 0 -0.035063427172839098 0.007655523984717384 0 -0.034874545740212565 0.0066604586952619532 0 -0.034598447790575325 0.0072170391264266571 0 -0.035163062615334667 0.0067904538694762229 0 -0.034598447790575325 0.0072170391264266571 0 -0.033940579413131139 0.0079276476575879905 0 -0.03390421813432215 0.0073186091813347374 0 -0.034598447790575325 0.0072170391264266571 0 -0.035063427172839098 0.007655523984717384 0 -0.033940579413131139 0.0079276476575879905 0 -0.034655791656407343 0.0067690290074666334 0 -0.034160445281454691 0.0071843073639062628 0 -0.033692825085582356 0.0070359806672646253 0 -0.035163062615334667 0.0067904538694762229 0 -0.035063427172839098 0.007655523984717384 0 -0.035567183294423828 0.0067780988731515864 0 -0.035436490132845902 0.0064422423392542696 0 -0.035163062615334667 0.0067904538694762229 0 -0.035567183294423828 0.0067780988731515864 0 -0.033260563281184749 0.0073628612733164702 0 -0.033692825085582356 0.0070359806672646253 0 -0.033682739066473739 0.0074514372061184435 0 -0.034146393807210518 0.0075071747754821153 0 -0.034614540709683027 0.0069316395222822754 0 -0.034160445281454691 0.0071843073639062628 0 -0.033682739066473739 0.0074514372061184435 0 -0.033920412776556011 0.0073227573195511503 0 -0.034160445281454691 0.0071843073639062628 0 -0.033692825085582356 0.0070359806672646253 0 -0.033682739066473739 0.0074514372061184435 0 -0.033682739066473739 0.0074514372061184435 0 -0.033421544770678671 0.0076567504430196552 0 -0.033651096760525107 0.0074724763139464067 0 -0.033682739066473739 0.0074514372061184435 0 -0.033324284811077479 0.0076686405536125274 0 -0.033421544770678671 0.0076567504430196552 0 -0.033260563281184749 0.0073628612733164702 0 -0.033682739066473739 0.0074514372061184435 0 -0.033324284811077479 0.0076686405536125274 0 -0.033324284811077479 0.0076686405536125274 0 -0.033421544770678671 0.0076567504430196552 0 -0.033174849347709166 0.0078468917335461057 0 -0.033421544770678671 0.0076567504430196552 0 -0.033651096760525107 0.0074724763139464067 0 -0.033316855397059128 0.0077186723056290344 0 -0.035063427172839098 0.007655523984717384 0 -0.033940579413131139 0.0079276476575879905 0 -0.034128590888086889 0.0083743484706204838 0 -0.033940579413131139 0.0079276476575879905 0 -0.034128590888086889 0.0083743484706204838 0 -0.033654490810270249 0.0083032070232482696 0 -0.033260563281184749 0.0073628612733164702 0 -0.032953516236654781 0.0077830056377119552 0 -0.033153053161681559 0.0077593246361132981 0 -0.034146393807210518 0.0075071747754821153 0 -0.033564916845320807 0.0080324803066306322 0 -0.033260563281184749 0.0073628612733164702 0 -0.033324284811077479 0.0076686405536125274 0 -0.033153053161681559 0.0077593246361132981 0 -0.033324284811077479 0.0076686405536125274 0 -0.033153053161681559 0.0077593246361132981 0 -0.033174849347709166 0.0078468917335461057 0 -0.032953516236654781 0.0077830056377119552 0 -0.033153053161681559 0.0077593246361132981 0 -0.032995130461605696 0.0079726216079576088 0 -0.033153053161681559 0.0077593246361132981 0 -0.033174849347709166 0.0078468917335461057 0 -0.032995130461605696 0.0079726216079576088 0 -0.034128590888086889 0.0083743484706204838 0 -0.03312620608705151 0.0082619613914272395 0 -0.033654490810270249 0.0083032070232482696 0 -0.032995130461605696 0.0079726216079576088 0 -0.03312620608705151 0.0082619613914272395 0 -0.03285837729613468 0.0079959202188101229 0 -0.033564916845320807 0.0080324803066306322 0 -0.033220384733057495 0.0082179924546729455 0 -0.032953516236654781 0.0077830056377119552 0 -0.032995130461605696 0.0079726216079576088 0 -0.03312620608705151 0.0082619613914272395 0 -0.03312620608705151 0.0082619613914272395 0 -0.033654490810270249 0.0083032070232482696 0 -0.033436252510912326 0.0083123512258735915 0 -0.03312620608705151 0.0082619613914272395 0 -0.033203101737206905 0.0083429189996859915 0 -0.033436252510912326 0.0083123512258735915 0 -0.03312620608705151 0.0082619613914272395 0 -0.033203101737206905 0.0083429189996859915 0 -0.03318159504642984 0.0081986833549119471 0 -0.033124430245955468 0.0083553736505933771 0 -0.03312839980152283 0.0083231055558293313 0 -0.03318159504642984 0.0081986833549119471 0 -0.033203101737206905 0.0083429189996859915 0 -0.033124430245955468 0.0083553736505933771 0 -0.03318159504642984 0.0081986833549119471 0 -0.033203101737206905 0.0083429189996859915 0 -0.033124430245955468 0.0083553736505933771 0 -0.033169956722896611 0.0083885769834344589 0 -0.033124430245955468 0.0083553736505933771 0 -0.033169956722896611 0.0083885769834344589 0 -0.032958256653159532 0.0084781721857054935 0 -0.033169956722896611 0.0083885769834344589 0 -0.032958256653159532 0.0084781721857054935 0 -0.033331351957906132 0.0080296918646491737 0 -0.033940579413131139 0.0079276476575879905 0 -0.033436252510912326 0.0083123512258735915 0 -0.033331351957906132 0.0080296918646491737 0 -0.033203101737206905 0.0083429189996859915 0 -0.033169956722896611 0.0083885769834344589 0 -0.033436252510912326 0.0083123512258735915 0 -0.033169956722896611 0.0083885769834344589 0 -0.033436252510912326 0.0083123512258735915 0 -0.033331351957906132 0.0080296918646491737 0 -0.033940579413131139 0.0079276476575879905 0 -0.033654490810270249 0.0083032070232482696 0 -0.033436252510912326 0.0083123512258735915 0 -0.033331351957906132 0.0080296918646491737 0 -0.033004212604616216 0.0071601366949763734 0 -0.03390421813432215 0.0073186091813347374 0 -0.033940579413131139 0.0079276476575879905 0 -0.033331351957906132 0.0080296918646491737 0 -0.03390421813432215 0.0073186091813347374 0 -0.033331351957906132 0.0080296918646491737 0 -0.032676873653454508 0.007895326789398081 0 -0.033004212604616216 0.0071601366949763734 0 -0.032958256653159532 0.0084781721857054935 0 -0.033331351957906132 0.0080296918646491737 0 -0.032676873653454508 0.007895326789398081 0 -0.033876899449961355 0.0066080199836096474 0 -0.033004212604616216 0.0071601366949763734 0 -0.03390421813432215 0.0073186091813347374 0 -0.033876899449961355 0.0066080199836096474 0 -0.034407964388534738 0.006818322673341648 0 -0.03390421813432215 0.0073186091813347374 0 -0.030917344152582987 0.0057017471822124726 0 -0.03024150808275651 0.0078042180752274926 0 -0.02914022665812703 0.0065090921965634185 0 -0.031353007066871587 0.0062260346874046524 0 -0.030321520444373695 0.0077502218897481977 0 -0.03024150808275651 0.0078042180752274926 0 -0.02914022665812703 0.0065090921965634185 0 -0.029161381811957415 0.007574028862605677 0 -0.031907546663945151 0.0065119300587929505 0 -0.033004212604616216 0.0071601366949763734 0 -0.03178896885844381 0.0074893901854213765 0 -0.032676873653454508 0.007895326789398081 0 -0.033004212604616216 0.0071601366949763734 0 -0.03178896885844381 0.0074893901854213765 0 -0.031907546663945151 0.0065119300587929505 0 -0.03178896885844381 0.0074893901854213765 0 -0.03024150808275651 0.0078042180752274926 0 -0.03178896885844381 0.0074893901854213765 0 -0.031999855881099576 0.0082962757063781509 0 -0.031117419154925271 0.0083842863706651422 0 -0.032676873653454508 0.007895326789398081 0 -0.03178896885844381 0.0074893901854213765 0 -0.031999855881099576 0.0082962757063781509 0 -0.032958256653159532 0.0084781721857054935 0 -0.032676873653454508 0.007895326789398081 0 -0.031999855881099576 0.0082962757063781509 0 -0.029600455554465468 0.0079548848769190831 0 -0.029412611464813779 0.0088848932243776445 0 -0.027907695582293494 0.0066536467351112948 0 -0.031117419154925271 0.0083842863706651422 0 -0.03024150808275651 0.0078042180752274926 0 -0.030173152521490023 0.0088019773222458055 0 -0.03178896885844381 0.0074893901854213765 0 -0.031117419154925271 0.0083842863706651422 0 -0.03024150808275651 0.0078042180752274926 0 -0.03024150808275651 0.0078042180752274926 0 -0.030173152521490023 0.0088019773222458055 0 -0.029161381811957415 0.007574028862605677 0 -0.029600455554465468 0.0079548848769190831 0 -0.030424851541970839 0.0093731127585789074 0 -0.031760958495629758 0.0096809766223729856 0 -0.027207336850573138 0.0085617725607496607 0 -0.024601939053438236 0.0095154445704591726 0 -0.029412611464813779 0.0088848932243776445 0 -0.030424851541970839 0.0093731127585789074 0 -0.030929701266305166 0.010926794590263309 0 -0.024421284614363655 0.0078551131344366636 0 -0.024325901266151057 0.008446073799235598 0 -0.025243764649526011 0.0090040360707705457 0 -0.031117419154925271 0.0083842863706651422 0 -0.030173152521490023 0.0088019773222458055 0 -0.031760958495629758 0.0096809766223729856 0 -0.030026287729497433 0.0085158619069133513 0 -0.031543057134258853 0.0095441305334361473 0 -0.029600455554465468 0.0079548848769190831 0 -0.029412611464813779 0.0088848932243776445 0 -0.030424851541970839 0.0093731127585789074 0 -0.024421284614363655 0.0078551131344366636 0 -0.024325901266151057 0.008446073799235598 0 -0.023944989996062045 0.0078146590299890736 0 -0.031999855881099576 0.0082962757063781509 0 -0.031117419154925271 0.0083842863706651422 0 -0.031760958495629758 0.0096809766223729856 0 -0.032958256653159532 0.0084781721857054935 0 -0.031760958495629758 0.0096809766223729856 0 -0.031181897372442913 0.011251444370644313 0 -0.032958256653159532 0.0084781721857054935 0 -0.031999855881099576 0.0082962757063781509 0 -0.031760958495629758 0.0096809766223729856 0 -0.036417784029065155 0.0083289267431072081 0 -0.021296721655597244 0.0082784189186637901 0 -0.033124430245955468 0.0083553736505933771 0 -0.032958256653159532 0.0084781721857054935 0 -0.03312839980152283 0.0083231055558293313 0 -0.031760958495629758 0.0096809766223729856 0 -0.030929701266305166 0.010926794590263309 0 -0.031181897372442913 0.011251444370644313 0 -0.030424851541970839 0.0093731127585789074 0 -0.031760958495629758 0.0096809766223729856 0 -0.030929701266305166 0.010926794590263309 0 -0.024601939053438236 0.0095154445704591726 0 -0.021296721655597244 0.0082784189186637901 0 -0.023395855483365605 0.0080108094897157651 0 -0.024601939053438236 0.0095154445704591726 0 -0.02282703430917743 0.0078103335783429248 0 -0.022517140943928707 0.0076551844250521261 0 -0.022728531018190969 0.0075721768237823634 0 -0.022517140943928707 0.0076551844250521261 0 -0.022478222064711478 0.0076005601304755333 0 -0.022728531018190969 0.0075721768237823634 0 -0.023120811467774435 0.0077087698415429871 0 -0.023151678349406971 0.0076019173952618898 0 -0.022873653063372024 0.0074349908108494569 0 -0.022728531018190969 0.0075721768237823634 0 -0.023120811467774435 0.0077087698415429871 0 -0.022873653063372024 0.0074349908108494569 0 -0.023120811467774435 0.0077087698415429871 0 -0.023394053502915135 0.0078600380617224151 0 -0.023151678349406971 0.0076019173952618898 0 -0.02282703430917743 0.0078103335783429248 0 -0.022728531018190969 0.0075721768237823634 0 -0.023120811467774435 0.0077087698415429871 0 -0.024325901266151057 0.008446073799235598 0 -0.023396952990796679 0.0078731756833606125 0 -0.023944989996062045 0.0078146590299890736 0 -0.023395855483365605 0.0080108094897157651 0 -0.023441220721731441 0.0079523490077506812 0 -0.02282703430917743 0.0078103335783429248 0 -0.023120811467774435 0.0077087698415429871 0 -0.023396952990796679 0.0078731756833606125 0 -0.023120811467774435 0.0077087698415429871 0 -0.023396952990796679 0.0078731756833606125 0 -0.023394053502915135 0.0078600380617224151 0 -0.023396952990796679 0.0078731756833606125 0 -0.023650800799418396 0.0076397477568035457 0 -0.023944989996062045 0.0078146590299890736 0 -0.023396952990796679 0.0078731756833606125 0 -0.023472803031273581 0.0076218525669650402 0 -0.023394053502915135 0.0078600380617224151 0 -0.023472803031273581 0.0076218525669650402 0 -0.023650800799418396 0.0076397477568035457 0 -0.023666921277630263 0.0074242344356340098 0 -0.023396952990796679 0.0078731756833606125 0 -0.023472803031273581 0.0076218525669650402 0 -0.023650800799418396 0.0076397477568035457 0 -0.023650800799418396 0.0076397477568035457 0 -0.023881524207390478 0.0075072196606106997 0 -0.023666921277630263 0.0074242344356340098 0 -0.024421284614363655 0.0078551131344366636 0 -0.023944989996062045 0.0078146590299890736 0 -0.023881524207390478 0.0075072196606106997 0 -0.023650800799418396 0.0076397477568035457 0 -0.023944989996062045 0.0078146590299890736 0 -0.023881524207390478 0.0075072196606106997 0 -0.023075352764401997 0.0078681702612104828 0 -0.022894451452597348 0.0076102971140422238 0 -0.022815973673698729 0.0083981514830226717 0 -0.023075352764401997 0.0078681702612104828 0 -0.022894451452597348 0.0076102971140422238 0 -0.023220002749792225 0.0075465407035405106 0 -0.023472803031273581 0.0076218525669650402 0 -0.023220002749792225 0.0075465407035405106 0 -0.023394053502915135 0.0078600380617224151 0 -0.023075352764401997 0.0078681702612104828 0 -0.023220002749792225 0.0075465407035405106 0 -0.023394053502915135 0.0078600380617224151 0 -0.023075352764401997 0.0078681702612104828 0 -0.023394053502915135 0.0078600380617224151 0 -0.022815973673698729 0.0083981514830226717 0 -0.023242000143323591 0.0081320803559508676 0 -0.023977335368702554 0.0077673970191991758 0 -0.023394053502915135 0.0078600380617224151 0 -0.022815973673698729 0.0083981514830226717 0 -0.023189846708062619 0.0090049038640052596 0 -0.022815973673698729 0.0083981514830226717 0 -0.023189846708062619 0.0090049038640052596 0 -0.021795119907684898 0.0093476356796384774 0 -0.022815973673698729 0.0083981514830226717 0 -0.021780767402946471 0.0083567063129737842 0 -0.021795119907684898 0.0093476356796384774 0 -0.0040177526776259322 0.010681406537489422 0 -0.0044640664103343273 0.011380165181116682 0 -0.021780767402946471 0.0083567063129737842 0 -0.020441459196193723 0.0087836340354184306 0 -0.021795119907684898 0.0093476356796384774 0 0.012519352392110045 0.012600309364506963 0 0.012658337525142395 0.013394716238680153 0 0.011962559892440158 0.013142821044082618 0 -0.021780767402946471 0.0083567063129737842 0 -0.022368296424419457 0.007695567971113401 0 -0.021316748468537969 0.0075073315257894241 0 -0.021780767402946471 0.0083567063129737842 0 -0.021316748468537969 0.0075073315257894241 0 -0.020441459196193723 0.0087836340354184306 0 -0.022815973673698729 0.0083981514830226717 0 -0.021780767402946471 0.0083567063129737842 0 -0.022368296424419457 0.007695567971113401 0 -0.022894451452597348 0.0076102971140422238 0 -0.022815973673698729 0.0083981514830226717 0 -0.022368296424419457 0.007695567971113401 0 -0.022368296424419457 0.007695567971113401 0 -0.022476332464321354 0.0067668737789395904 0 -0.023019698753545318 0.0071292321546210496 0 -0.022368296424419457 0.007695567971113401 0 -0.022476332464321354 0.0067668737789395904 0 -0.021316748468537969 0.0075073315257894241 0 -0.022476332464321354 0.0067668737789395904 0 -0.021316748468537969 0.0075073315257894241 0 -0.021672132244691687 0.0064159599752431681 0 -0.021316748468537969 0.0075073315257894241 0 -0.021672132244691687 0.0064159599752431681 0 -0.020266114311882345 0.0063746562511953677 0 -0.021672132244691687 0.0064159599752431681 0 -0.022607327430447625 0.005949483966549444 0 -0.022082509310978746 0.0053801006507650283 0 -0.021672132244691687 0.0064159599752431681 0 -0.021159723807944238 0.005726141679118139 0 -0.022082509310978746 0.0053801006507650283 0 -0.022476332464321354 0.0067668737789395904 0 -0.022607327430447625 0.005949483966549444 0 -0.023159289246590976 0.0066276104994441058 0 -0.022607327430447625 0.005949483966549444 0 -0.023121390188378915 0.0058347634542046016 0 -0.023159289246590976 0.0066276104994441058 0 -0.022476332464321354 0.0067668737789395904 0 -0.021672132244691687 0.0064159599752431681 0 -0.022607327430447625 0.005949483966549444 0 -0.023121390188378915 0.0058347634542046016 0 -0.023686758968440802 0.0067416985316778744 0 -0.023159289246590976 0.0066276104994441058 0 -0.025591944377198975 0.0063665422270562551 0 -0.027736274766129984 0.0063111064113642104 0 -0.027850334729656923 0.0076640778395880953 0 -0.024289372235092144 0.0060261596242929009 0 -0.025958051227070525 0.0069675330006433783 0 -0.027736274766129984 0.0063111064113642104 0 -0.02914022665812703 0.0065090921965634185 0 -0.0284746535090597 0.0070101331563860968 0 -0.02914022665812703 0.0065090921965634185 0 -0.0284746535090597 0.0070101331563860968 0 -0.029161381811957415 0.007574028862605677 0 -0.0284746535090597 0.0070101331563860968 0 -0.027850334729656923 0.0076640778395880953 0 -0.029161381811957415 0.007574028862605677 0 -0.027736274766129984 0.0063111064113642104 0 -0.0284746535090597 0.0070101331563860968 0 -0.027850334729656923 0.0076640778395880953 0 -0.027207336850573138 0.0085617725607496607 0 -0.02679923843282599 0.0070049922191666794 0 -0.024421284614363655 0.0078551131344366636 0 -0.0238287580113999 0.0069025897015950067 0 -0.023881524207390478 0.0075072196606106997 0 -0.023686758968440802 0.0067416985316778744 0 -0.023588400339069657 0.0070127714665858603 0 -0.0238287580113999 0.0069025897015950067 0 -0.025958051227070525 0.0069675330006433783 0 -0.02679923843282599 0.0070049922191666794 0 -0.023588400339069657 0.0070127714665858603 0 -0.0238287580113999 0.0069025897015950067 0 -0.023678633362375176 0.007201126033891986 0 -0.030173152521490023 0.0088019773222458055 0 -0.029161381811957415 0.007574028862605677 0 -0.028435463781020659 0.0079839431545638828 0 -0.027850334729656923 0.0076640778395880953 0 -0.029161381811957415 0.007574028862605677 0 -0.028435463781020659 0.0079839431545638828 0 -0.030026287729497433 0.0085158619069133513 0 -0.02679923843282599 0.0070049922191666794 0 -0.0238287580113999 0.0069025897015950067 0 -0.023881524207390478 0.0075072196606106997 0 -0.023678633362375176 0.007201126033891986 0 -0.023588400339069657 0.0070127714665858603 0 -0.023678633362375176 0.007201126033891986 0 -0.023391519565603619 0.0072335181983808616 0 -0.023678633362375176 0.007201126033891986 0 -0.023666921277630263 0.0074242344356340098 0 -0.023391519565603619 0.0072335181983808616 0 -0.023881524207390478 0.0075072196606106997 0 -0.023678633362375176 0.007201126033891986 0 -0.023666921277630263 0.0074242344356340098 0 -0.023472803031273581 0.0076218525669650402 0 -0.023666921277630263 0.0074242344356340098 0 -0.023391519565603619 0.0072335181983808616 0 -0.023472803031273581 0.0076218525669650402 0 -0.023220002749792225 0.0075465407035405106 0 -0.023391519565603619 0.0072335181983808616 0 -0.023220002749792225 0.0075465407035405106 0 -0.023391519565603619 0.0072335181983808616 0 -0.023019698753545318 0.0071292321546210496 0 -0.022894451452597348 0.0076102971140422238 0 -0.022368296424419457 0.007695567971113401 0 -0.023019698753545318 0.0071292321546210496 0 -0.022894451452597348 0.0076102971140422238 0 -0.023220002749792225 0.0075465407035405106 0 -0.023019698753545318 0.0071292321546210496 0 -0.023391519565603619 0.0072335181983808616 0 -0.023019698753545318 0.0071292321546210496 0 -0.023159289246590976 0.0066276104994441058 0 -0.022476332464321354 0.0067668737789395904 0 -0.023019698753545318 0.0071292321546210496 0 -0.023159289246590976 0.0066276104994441058 0 -0.023686758968440802 0.0067416985316778744 0 -0.023588400339069657 0.0070127714665858603 0 -0.023159289246590976 0.0066276104994441058 0 -0.023588400339069657 0.0070127714665858603 0 -0.023391519565603619 0.0072335181983808616 0 -0.023159289246590976 0.0066276104994441058 0 0.015800341375452255 0.012032603291230558 0 0.014745307068758694 0.012012474816377846 0 0.014805482145137447 0.010855013917943128 0 0.014745307068758694 0.012012474816377846 0 0.01539753847568336 0.012708958707141104 0 0.014395469253790883 0.012657509405907102 0 0.015800341375452255 0.012032603291230558 0 0.014745307068758694 0.012012474816377846 0 0.01539753847568336 0.012708958707141104 0 0.01539753847568336 0.012708958707141104 0 0.014900083208978301 0.013221781034919739 0 0.014395469253790883 0.012657509405907102 0 0.01539753847568336 0.012708958707141104 0 0.015380181736341487 0.013145433018824728 0 0.014900083208978301 0.013221781034919739 0 0.015380181736341487 0.013145433018824728 0 0.014900083208978301 0.013221781034919739 0 0.015648254408353348 0.013549335256785483 0 0.015673714287535882 0.013068821244594669 0 0.01539753847568336 0.012708958707141104 0 0.015380181736341487 0.013145433018824728 0 0.014900083208978301 0.013221781034919739 0 0.014395469253790883 0.012657509405907102 0 0.014208687358384405 0.013271603182954212 0 0.014395469253790883 0.012657509405907102 0 0.013702467424581415 0.012845510157873146 0 0.014208687358384405 0.013271603182954212 0 0.014745307068758694 0.012012474816377846 0 0.014395469253790883 0.012657509405907102 0 0.013459382862422785 0.011804164638111946 0 0.014395469253790883 0.012657509405907102 0 0.013702467424581415 0.012845510157873146 0 0.013459382862422785 0.011804164638111946 0 0.013702467424581415 0.012845510157873146 0 0.013459382862422785 0.011804164638111946 0 0.012519352392110045 0.012600309364506963 0 -0.0024257701747962502 0.0099049604182436662 0 -0.0040177526776259322 0.010681406537489422 0 0.013702467424581415 0.012845510157873146 0 0.012519352392110045 0.012600309364506963 0 0.013159988350206167 0.013178939202003087 0 0.012519352392110045 0.012600309364506963 0 0.012658337525142395 0.013394716238680153 0 0.013159988350206167 0.013178939202003087 0 -0.018493767028010456 0.0080825952154665402 0 -0.020441459196193723 0.0087836340354184306 0 -0.019942820599111108 0.0076316808179747375 0 -0.021316748468537969 0.0075073315257894241 0 -0.020441459196193723 0.0087836340354184306 0 -0.019942820599111108 0.0076316808179747375 0 -0.021316748468537969 0.0075073315257894241 0 -0.019942820599111108 0.0076316808179747375 0 -0.020266114311882345 0.0063746562511953677 0 -0.020266114311882345 0.0063746562511953677 0 -0.021159723807944238 0.005726141679118139 0 -0.02046306815368884 0.0049674550333185614 0 -0.020266114311882345 0.0063746562511953677 0 -0.019137002070778592 0.0052566653773397408 0 -0.02046306815368884 0.0049674550333185614 0 -0.021672132244691687 0.0064159599752431681 0 -0.020266114311882345 0.0063746562511953677 0 -0.021159723807944238 0.005726141679118139 0 -0.020266114311882345 0.0063746562511953677 0 -0.019137002070778592 0.0052566653773397408 0 -0.018163574975503905 0.0066293688429355617 0 -0.018493767028010456 0.0080825952154665402 0 -0.019942820599111108 0.0076316808179747375 0 -0.018163574975503905 0.0066293688429355617 0 -0.019942820599111108 0.0076316808179747375 0 -0.020266114311882345 0.0063746562511953677 0 -0.018163574975503905 0.0066293688429355617 0 -0.013477607733068768 0.0056345646671931296 0 -0.017122111325189648 0.0052458387410187247 0 -0.016078220929565366 0.0070365409372016522 0 -0.0024257701747962502 0.0099049604182436662 0 -0.00083809629219628874 0.0089844234055995627 0 -0.018493767028010456 0.0080825952154665402 0 -0.018163574975503905 0.0066293688429355617 0 -0.016078220929565366 0.0070365409372016522 0 0.014745307068758694 0.012012474816377846 0 0.013459382862422785 0.011804164638111946 0 0.014805482145137447 0.010855013917943128 0 -0.019137002070778592 0.0052566653773397408 0 -0.018163574975503905 0.0066293688429355617 0 -0.017122111325189648 0.0052458387410187247 0 -0.018163574975503905 0.0066293688429355617 0 -0.017122111325189648 0.0052458387410187247 0 -0.016078220929565366 0.0070365409372016522 0 -0.013477607733068768 0.0056345646671931296 0 -0.017122111325189648 0.0052458387410187247 0 -0.015714638611080058 0.0036889669535039031 0 -0.015714638611080058 0.0036889669535039031 0 -0.017536238034715962 0.0027369252518531424 0 -0.015554836047777824 0.0011142203189675251 0 -0.019137002070778592 0.0052566653773397408 0 -0.017122111325189648 0.0052458387410187247 0 -0.017798916388780818 0.0040672604584505107 0 -0.017122111325189648 0.0052458387410187247 0 -0.015714638611080058 0.0036889669535039031 0 -0.017798916388780818 0.0040672604584505107 0 -0.017798916388780818 0.0040672604584505107 0 -0.017536238034715962 0.0027369252518531424 0 -0.019351094968700452 0.0033901736797865567 0 -0.015714638611080058 0.0036889669535039031 0 -0.017798916388780818 0.0040672604584505107 0 -0.017536238034715962 0.0027369252518531424 0 -0.019351094968700452 0.0033901736797865567 0 -0.020633989306073255 0.0018235002052601138 0 -0.018488438043598704 0.0012468437358721018 0 -0.017536238034715962 0.0027369252518531424 0 -0.019351094968700452 0.0033901736797865567 0 -0.018488438043598704 0.0012468437358721018 0 -0.019137002070778592 0.0052566653773397408 0 -0.019351094968700452 0.0033901736797865567 0 -0.02046306815368884 0.0049674550333185614 0 -0.019137002070778592 0.0052566653773397408 0 -0.017798916388780818 0.0040672604584505107 0 -0.019351094968700452 0.0033901736797865567 0 -0.019351094968700452 0.0033901736797865567 0 -0.02046306815368884 0.0049674550333185614 0 -0.020874830095039276 0.0039259773923051655 0 -0.02046306815368884 0.0049674550333185614 0 -0.020874830095039276 0.0039259773923051655 0 -0.021392416563027501 0.0049108960019603794 0 -0.021159723807944238 0.005726141679118139 0 -0.02046306815368884 0.0049674550333185614 0 -0.021392416563027501 0.0049108960019603794 0 -0.019351094968700452 0.0033901736797865567 0 -0.020874830095039276 0.0039259773923051655 0 -0.020633989306073255 0.0018235002052601138 0 -0.021013991366514953 0.0022287626838472727 0 -0.02231850605914237 0.0041629322258311978 0 -0.020874830095039276 0.0039259773923051655 0 -0.020633989306073255 0.0018235002052601138 0 -0.022348441961470247 0.0043191654673324807 0 -0.021410723375675265 0.002528208231890591 0 -0.021354724281573451 0.00091049648054904663 0 -0.022405057489386114 0.0016531238903356666 0 -0.021410723375675265 0.002528208231890591 0 -0.021354724281573451 0.00091049648054904663 0 -0.019914952963269065 0.00074773275253675663 0 -0.021410723375675265 0.002528208231890591 0 -0.02255240702403092 0.0028863982039763979 0 -0.022405057489386114 0.0016531238903356666 0 -0.021354724281573451 0.00091049648054904663 0 -0.022405057489386114 0.0016531238903356666 0 -0.022834535909383752 0.00026866934224306448 0 -0.021859746517602661 -5.9606043932008027e-05 0 -0.021354724281573451 0.00091049648054904663 0 -0.022834535909383752 0.00026866934224306448 0 -0.021859746517602661 -5.9606043932008027e-05 0 -0.021354724281573451 0.00091049648054904663 0 -0.020738264737822157 0.00021937246841463449 0 -0.021859746517602661 -5.9606043932008027e-05 0 -0.020738264737822157 0.00021937246841463449 0 -0.021174707128687617 -0.00056418852060253978 0 -0.021354724281573451 0.00091049648054904663 0 -0.020738264737822157 0.00021937246841463449 0 -0.019914952963269065 0.00074773275253675663 0 -0.020738264737822157 0.00021937246841463449 0 -0.019914952963269065 0.00074773275253675663 0 -0.019864058814444859 -0.00076183314485394856 0 -0.020633989306073255 0.0018235002052601138 0 -0.018980359486694836 -0.00023232922005493546 0 -0.018488438043598704 0.0012468437358721018 0 -0.021013991366514953 0.0022287626838472727 0 -0.019445452306051492 0.00024169028664182245 0 -0.018488438043598704 0.0012468437358721018 0 -0.018110171442659848 -0.00021444545352524198 0 -0.015554836047777824 0.0011142203189675251 0 -0.017536238034715962 0.0027369252518531424 0 -0.018488438043598704 0.0012468437358721018 0 -0.015554836047777824 0.0011142203189675251 0 -0.018110171442659848 -0.00021444545352524198 0 -0.017585049802363521 -0.00063230278581972673 0 -0.018342284995724264 -0.0011496646646035596 0 -0.018980359486694836 -0.00023232922005493546 0 -0.018488438043598704 0.0012468437358721018 0 -0.018110171442659848 -0.00021444545352524198 0 -0.018980359486694836 -0.00023232922005493546 0 -0.018110171442659848 -0.00021444545352524198 0 -0.018342284995724264 -0.0011496646646035596 0 -0.019445452306051492 0.00024169028664182245 0 -0.018393358684631683 -0.0010672253944479381 0 -0.018110171442659848 -0.00021444545352524198 0 -0.017585049802363521 -0.00063230278581972673 0 -0.017534447049618526 2.7816647593717694e-05 0 -0.018160214456865824 -0.00029700299867181125 0 -0.016114351059609674 0.00083017750013199742 0 -0.026921561310946175 0.0040813261500082208 0 -0.025737742090865299 0.003276531152790231 0 -0.024951502819723803 0.0047735150643838549 0 -0.026921561310946175 0.0040813261500082208 0 -0.025737742090865299 0.003276531152790231 0 -0.027044081700702799 0.0025269842624548382 0 -0.026921561310946175 0.0040813261500082208 0 -0.028249581388360048 0.0035731240288856322 0 -0.027044081700702799 0.0025269842624548382 0 -0.028249581388360048 0.0035731240288856322 0 -0.027044081700702799 0.0025269842624548382 0 -0.028414767453045796 0.0024067202529118419 0 -0.029241633507933941 0.0032066574847430681 0 -0.028249581388360048 0.0035731240288856322 0 -0.028414767453045796 0.0024067202529118419 0 -0.029560996940428404 0.004219266154312229 0 -0.028249581388360048 0.0035731240288856322 0 -0.028308028078527444 0.0050402859004783666 0 -0.026921561310946175 0.0040813261500082208 0 -0.028249581388360048 0.0035731240288856322 0 -0.028308028078527444 0.0050402859004783666 0 -0.026921561310946175 0.0040813261500082208 0 -0.028308028078527444 0.0050402859004783666 0 -0.026741144861637898 0.0053151274000523448 0 -0.027736274766129984 0.0063111064113642104 0 -0.02914022665812703 0.0065090921965634185 0 -0.028308028078527444 0.0050402859004783666 0 -0.029496453585632965 0.0053743642836816914 0 -0.02914022665812703 0.0065090921965634185 0 -0.028308028078527444 0.0050402859004783666 0 -0.027736274766129984 0.0063111064113642104 0 -0.028308028078527444 0.0050402859004783666 0 -0.026741144861637898 0.0053151274000523448 0 -0.025591944377198975 0.0063665422270562551 0 -0.027736274766129984 0.0063111064113642104 0 -0.026741144861637898 0.0053151274000523448 0 -0.026921561310946175 0.0040813261500082208 0 -0.026741144861637898 0.0053151274000523448 0 -0.024951502819723803 0.0047735150643838549 0 -0.025591944377198975 0.0063665422270562551 0 -0.026741144861637898 0.0053151274000523448 0 -0.024951502819723803 0.0047735150643838549 0 -0.024289372235092144 0.0060261596242929009 0 -0.022968421142028593 0.0047071885749117477 0 -0.025591944377198975 0.0063665422270562551 0 -0.024951502819723803 0.0047735150643838549 0 -0.022940272331435592 0.004593506627818488 0 -0.022607327430447625 0.005949483966549444 0 -0.023121390188378915 0.0058347634542046016 0 -0.022940272331435592 0.004593506627818488 0 -0.024951502819723803 0.0047735150643838549 0 -0.022940272331435592 0.004593506627818488 0 -0.023687018504504064 0.003999948207492751 0 -0.022607327430447625 0.005949483966549444 0 -0.022082509310978746 0.0053801006507650283 0 -0.022940272331435592 0.004593506627818488 0 -0.021392416563027501 0.0049108960019603794 0 -0.022082509310978746 0.0053801006507650283 0 -0.022348441961470247 0.0043191654673324807 0 -0.021159723807944238 0.005726141679118139 0 -0.021392416563027501 0.0049108960019603794 0 -0.022082509310978746 0.0053801006507650283 0 -0.022082509310978746 0.0053801006507650283 0 -0.022940272331435592 0.004593506627818488 0 -0.022348441961470247 0.0043191654673324807 0 -0.022940272331435592 0.004593506627818488 0 -0.022348441961470247 0.0043191654673324807 0 -0.023132424798371021 0.0035482292274945648 0 -0.020874830095039276 0.0039259773923051655 0 -0.021392416563027501 0.0049108960019603794 0 -0.022348441961470247 0.0043191654673324807 0 -0.021410723375675265 0.002528208231890591 0 -0.022348441961470247 0.0043191654673324807 0 -0.02255240702403092 0.0028863982039763979 0 -0.022348441961470247 0.0043191654673324807 0 -0.023132424798371021 0.0035482292274945648 0 -0.02255240702403092 0.0028863982039763979 0 -0.023132424798371021 0.0035482292274945648 0 -0.02255240702403092 0.0028863982039763979 0 -0.023551611049320045 0.0023548204014096092 0 -0.025737742090865299 0.003276531152790231 0 -0.024951502819723803 0.0047735150643838549 0 -0.024222994611064957 0.0033379617891990863 0 -0.023132424798371021 0.0035482292274945648 0 -0.023687018504504064 0.003999948207492751 0 -0.024222994611064957 0.0033379617891990863 0 -0.022940272331435592 0.004593506627818488 0 -0.023132424798371021 0.0035482292274945648 0 -0.023687018504504064 0.003999948207492751 0 -0.024951502819723803 0.0047735150643838549 0 -0.023687018504504064 0.003999948207492751 0 -0.024222994611064957 0.0033379617891990863 0 -0.024222994611064957 0.0033379617891990863 0 -0.024753939713823753 0.002490704826369912 0 -0.023551611049320045 0.0023548204014096092 0 -0.023132424798371021 0.0035482292274945648 0 -0.024222994611064957 0.0033379617891990863 0 -0.023551611049320045 0.0023548204014096092 0 -0.025737742090865299 0.003276531152790231 0 -0.024222994611064957 0.0033379617891990863 0 -0.024753939713823753 0.002490704826369912 0 -0.024753939713823753 0.002490704826369912 0 -0.024619572964776314 0.0017011608332327783 0 -0.025732092715764203 0.0020021346241744929 0 -0.024753939713823753 0.002490704826369912 0 -0.024619572964776314 0.0017011608332327783 0 -0.023551611049320045 0.0023548204014096092 0 -0.024619572964776314 0.0017011608332327783 0 -0.025220080238362984 0.00093931279122879872 0 -0.023895487931207837 0.0010481050196395356 0 -0.024619572964776314 0.0017011608332327783 0 -0.023551611049320045 0.0023548204014096092 0 -0.023895487931207837 0.0010481050196395356 0 -0.024619572964776314 0.0017011608332327783 0 -0.025220080238362984 0.00093931279122879872 0 -0.025732092715764203 0.0020021346241744929 0 -0.02255240702403092 0.0028863982039763979 0 -0.023551611049320045 0.0023548204014096092 0 -0.022405057489386114 0.0016531238903356666 0 -0.023551611049320045 0.0023548204014096092 0 -0.022405057489386114 0.0016531238903356666 0 -0.023895487931207837 0.0010481050196395356 0 -0.022405057489386114 0.0016531238903356666 0 -0.022834535909383752 0.00026866934224306448 0 -0.023895487931207837 0.0010481050196395356 0 -0.022834535909383752 0.00026866934224306448 0 -0.023895487931207837 0.0010481050196395356 0 -0.024049866181561363 2.5671527501377331e-05 0 -0.022834535909383752 0.00026866934224306448 0 -0.024049866181561363 2.5671527501377331e-05 0 -0.023765303188376451 -0.00091529786655536731 0 -0.021859746517602661 -5.9606043932008027e-05 0 -0.022834535909383752 0.00026866934224306448 0 -0.022495192019262342 -0.00085809656180958586 0 -0.025220080238362984 0.00093931279122879872 0 -0.023895487931207837 0.0010481050196395356 0 -0.024966053949657931 0.00015269296025268575 0 -0.025220080238362984 0.00093931279122879872 0 -0.024966053949657931 0.00015269296025268575 0 -0.025941184024356054 0.0004184539282185979 0 -0.024049866181561363 2.5671527501377331e-05 0 -0.024966053949657931 0.00015269296025268575 0 -0.024798451068692842 -0.00055353538311235149 0 -0.023895487931207837 0.0010481050196395356 0 -0.024049866181561363 2.5671527501377331e-05 0 -0.024966053949657931 0.00015269296025268575 0 -0.024966053949657931 0.00015269296025268575 0 -0.025682153534679959 -0.00029959575568791306 0 -0.024798451068692842 -0.00055353538311235149 0 -0.024966053949657931 0.00015269296025268575 0 -0.025941184024356054 0.0004184539282185979 0 -0.025682153534679959 -0.00029959575568791306 0 -0.025941184024356054 0.0004184539282185979 0 -0.026491505499915524 -8.2602028746296311e-05 0 -0.025682153534679959 -0.00029959575568791306 0 -0.026491505499915524 -8.2602028746296311e-05 0 -0.027385032764848855 5.8073180730871442e-05 0 -0.027059337331845474 -0.00058032427714818148 0 -0.026491505499915524 -8.2602028746296311e-05 0 -0.02676187229378537 0.00054124440023540501 0 -0.027385032764848855 5.8073180730871442e-05 0 -0.025941184024356054 0.0004184539282185979 0 -0.026491505499915524 -8.2602028746296311e-05 0 -0.02676187229378537 0.00054124440023540501 0 -0.025941184024356054 0.0004184539282185979 0 -0.02676187229378537 0.00054124440023540501 0 -0.026546476867992028 0.0012821370160163601 0 -0.02676187229378537 0.00054124440023540501 0 -0.026546476867992028 0.0012821370160163601 0 -0.02758750992816714 0.00084042145259271921 0 -0.025220080238362984 0.00093931279122879872 0 -0.025941184024356054 0.0004184539282185979 0 -0.026546476867992028 0.0012821370160163601 0 -0.025220080238362984 0.00093931279122879872 0 -0.026546476867992028 0.0012821370160163601 0 -0.025732092715764203 0.0020021346241744929 0 -0.026546476867992028 0.0012821370160163601 0 -0.027044081700702799 0.0025269842624548382 0 -0.027678917690275064 0.001700332588367623 0 -0.026546476867992028 0.0012821370160163601 0 -0.027044081700702799 0.0025269842624548382 0 -0.025732092715764203 0.0020021346241744929 0 -0.025737742090865299 0.003276531152790231 0 -0.027044081700702799 0.0025269842624548382 0 -0.025732092715764203 0.0020021346241744929 0 -0.025737742090865299 0.003276531152790231 0 -0.024753939713823753 0.002490704826369912 0 -0.025732092715764203 0.0020021346241744929 0 -0.027044081700702799 0.0025269842624548382 0 -0.028414767453045796 0.0024067202529118419 0 -0.027678917690275064 0.001700332588367623 0 -0.026546476867992028 0.0012821370160163601 0 -0.027678917690275064 0.001700332588367623 0 -0.02758750992816714 0.00084042145259271921 0 -0.028414767453045796 0.0024067202529118419 0 -0.027678917690275064 0.001700332588367623 0 -0.028745598655305106 0.0012554231497996331 0 -0.027678917690275064 0.001700332588367623 0 -0.028745598655305106 0.0012554231497996331 0 -0.02758750992816714 0.00084042145259271921 0 -0.028745598655305106 0.0012554231497996331 0 -0.02758750992816714 0.00084042145259271921 0 -0.028385244302903984 0.0002192524762674528 0 -0.02676187229378537 0.00054124440023540501 0 -0.02758750992816714 0.00084042145259271921 0 -0.027385032764848855 5.8073180730871442e-05 0 -0.02758750992816714 0.00084042145259271921 0 -0.027385032764848855 5.8073180730871442e-05 0 -0.028385244302903984 0.0002192524762674528 0 -0.027385032764848855 5.8073180730871442e-05 0 -0.028385244302903984 0.0002192524762674528 0 -0.02811230665627544 -0.00059678693388821662 0 -0.02811230665627544 -0.00059678693388821662 0 -0.028657841814414997 -0.0013145010207071153 0 -0.02892357060002473 -0.00053324178077237205 0 -0.02811230665627544 -0.00059678693388821662 0 -0.027646857358714395 -0.0011547768910357083 0 -0.028657841814414997 -0.0013145010207071153 0 -0.028385244302903984 0.0002192524762674528 0 -0.02811230665627544 -0.00059678693388821662 0 -0.02892357060002473 -0.00053324178077237205 0 -0.027385032764848855 5.8073180730871442e-05 0 -0.02811230665627544 -0.00059678693388821662 0 -0.027059337331845474 -0.00058032427714818148 0 -0.02811230665627544 -0.00059678693388821662 0 -0.027646857358714395 -0.0011547768910357083 0 -0.027059337331845474 -0.00058032427714818148 0 -0.027646857358714395 -0.0011547768910357083 0 -0.027329513319540834 -0.0017542850540703068 0 -0.0268034709092476 -0.001241881271812726 0 -0.027646857358714395 -0.0011547768910357083 0 -0.027329513319540834 -0.0017542850540703068 0 -0.028053655679809778 -0.0017143369016600215 0 -0.027646857358714395 -0.0011547768910357083 0 -0.028657841814414997 -0.0013145010207071153 0 -0.028053655679809778 -0.0017143369016600215 0 -0.028657841814414997 -0.0013145010207071153 0 -0.028053655679809778 -0.0017143369016600215 0 -0.028570454300312596 -0.0022665312536687748 0 -0.028053655679809778 -0.0017143369016600215 0 -0.028570454300312596 -0.0022665312536687748 0 -0.027577839592750012 -0.0025628657670785692 0 -0.027329513319540834 -0.0017542850540703068 0 -0.028053655679809778 -0.0017143369016600215 0 -0.027577839592750012 -0.0025628657670785692 0 -0.027577839592750012 -0.0025628657670785692 0 -0.026693489682412006 -0.0031538105842648621 0 -0.027537591743682286 -0.0036240358958488724 0 -0.027577839592750012 -0.0025628657670785692 0 -0.028370015549207629 -0.0032069602619588309 0 -0.027537591743682286 -0.0036240358958488724 0 -0.028570454300312596 -0.0022665312536687748 0 -0.027577839592750012 -0.0025628657670785692 0 -0.028370015549207629 -0.0032069602619588309 0 -0.028570454300312596 -0.0022665312536687748 0 -0.028370015549207629 -0.0032069602619588309 0 -0.029226297983216739 -0.0028549321964330496 0 -0.025894491633086755 -0.0027077295773473963 0 -0.026693489682412006 -0.0031538105842648621 0 -0.026634769506743369 -0.0022134523564720891 0 -0.025894491633086755 -0.0027077295773473963 0 -0.026693489682412006 -0.0031538105842648621 0 -0.025926401226121713 -0.003374021893245796 0 -0.027577839592750012 -0.0025628657670785692 0 -0.026693489682412006 -0.0031538105842648621 0 -0.026634769506743369 -0.0022134523564720891 0 -0.027329513319540834 -0.0017542850540703068 0 -0.027577839592750012 -0.0025628657670785692 0 -0.026634769506743369 -0.0022134523564720891 0 -0.026634769506743369 -0.0022134523564720891 0 -0.025961500065862612 -0.0020938528159346569 0 -0.026110325649948533 -0.0015266135868917767 0 -0.025894491633086755 -0.0027077295773473963 0 -0.026634769506743369 -0.0022134523564720891 0 -0.025961500065862612 -0.0020938528159346569 0 -0.025894491633086755 -0.0027077295773473963 0 -0.025961500065862612 -0.0020938528159346569 0 -0.025308498892059165 -0.0023640741088722479 0 -0.026110325649948533 -0.0015266135868917767 0 -0.026284134311196534 -0.00075182490615136185 0 -0.025538258495310405 -0.0010132351625304719 0 -0.025961500065862612 -0.0020938528159346569 0 -0.026110325649948533 -0.0015266135868917767 0 -0.025439232487249219 -0.0016693600251763664 0 -0.026110325649948533 -0.0015266135868917767 0 -0.025538258495310405 -0.0010132351625304719 0 -0.025439232487249219 -0.0016693600251763664 0 -0.027329513319540834 -0.0017542850540703068 0 -0.026634769506743369 -0.0022134523564720891 0 -0.0268034709092476 -0.001241881271812726 0 -0.026110325649948533 -0.0015266135868917767 0 -0.0268034709092476 -0.001241881271812726 0 -0.026284134311196534 -0.00075182490615136185 0 -0.026634769506743369 -0.0022134523564720891 0 -0.026110325649948533 -0.0015266135868917767 0 -0.0268034709092476 -0.001241881271812726 0 -0.027646857358714395 -0.0011547768910357083 0 -0.0268034709092476 -0.001241881271812726 0 -0.027059337331845474 -0.00058032427714818148 0 -0.0268034709092476 -0.001241881271812726 0 -0.027059337331845474 -0.00058032427714818148 0 -0.026284134311196534 -0.00075182490615136185 0 -0.026491505499915524 -8.2602028746296311e-05 0 -0.027059337331845474 -0.00058032427714818148 0 -0.026284134311196534 -0.00075182490615136185 0 -0.026284134311196534 -0.00075182490615136185 0 -0.025682153534679959 -0.00029959575568791306 0 -0.025538258495310405 -0.0010132351625304719 0 -0.026491505499915524 -8.2602028746296311e-05 0 -0.026284134311196534 -0.00075182490615136185 0 -0.025682153534679959 -0.00029959575568791306 0 -0.025682153534679959 -0.00029959575568791306 0 -0.025538258495310405 -0.0010132351625304719 0 -0.024798451068692842 -0.00055353538311235149 0 -0.025538258495310405 -0.0010132351625304719 0 -0.024798451068692842 -0.00055353538311235149 0 -0.024809834686578162 -0.0012631300049277408 0 -0.024049866181561363 2.5671527501377331e-05 0 -0.024798451068692842 -0.00055353538311235149 0 -0.023765303188376451 -0.00091529786655536731 0 -0.024798451068692842 -0.00055353538311235149 0 -0.024809834686578162 -0.0012631300049277408 0 -0.023765303188376451 -0.00091529786655536731 0 -0.024328571237321617 -0.0017252663988280828 0 -0.024809834686578162 -0.0012631300049277408 0 -0.023765303188376451 -0.00091529786655536731 0 -0.024328571237321617 -0.0017252663988280828 0 -0.024809834686578162 -0.0012631300049277408 0 -0.024908855859995922 -0.0018304466780338184 0 -0.025439232487249219 -0.0016693600251763664 0 -0.024809834686578162 -0.0012631300049277408 0 -0.024908855859995922 -0.0018304466780338184 0 -0.025538258495310405 -0.0010132351625304719 0 -0.025439232487249219 -0.0016693600251763664 0 -0.024809834686578162 -0.0012631300049277408 0 -0.022834535909383752 0.00026866934224306448 0 -0.022495192019262342 -0.00085809656180958586 0 -0.023765303188376451 -0.00091529786655536731 0 -0.023765303188376451 -0.00091529786655536731 0 -0.023128527730791732 -0.0013479951541962229 0 -0.023668829253381801 -0.0019087984931944017 0 -0.024328571237321617 -0.0017252663988280828 0 -0.023765303188376451 -0.00091529786655536731 0 -0.023668829253381801 -0.0019087984931944017 0 -0.022495192019262342 -0.00085809656180958586 0 -0.023128527730791732 -0.0013479951541962229 0 -0.02240205862730462 -0.0020800364625637798 0 -0.022495192019262342 -0.00085809656180958586 0 -0.023765303188376451 -0.00091529786655536731 0 -0.023128527730791732 -0.0013479951541962229 0 -0.023668829253381801 -0.0019087984931944017 0 -0.023461468288359162 -0.0026829308118565065 0 -0.02240205862730462 -0.0020800364625637798 0 -0.023128527730791732 -0.0013479951541962229 0 -0.023668829253381801 -0.0019087984931944017 0 -0.02240205862730462 -0.0020800364625637798 0 -0.023668829253381801 -0.0019087984931944017 0 -0.023461468288359162 -0.0026829308118565065 0 -0.024107934086547267 -0.0025108016348199939 0 -0.023461468288359162 -0.0026829308118565065 0 -0.024107934086547267 -0.0025108016348199939 0 -0.024145490526914861 -0.0031814703849575962 0 -0.023606090187019254 -0.0032012063333421172 0 -0.023461468288359162 -0.0026829308118565065 0 -0.024145490526914861 -0.0031814703849575962 0 -0.023606090187019254 -0.0032012063333421172 0 -0.023461468288359162 -0.0026829308118565065 0 -0.023130038749758598 -0.0034213500477400694 0 -0.023461468288359162 -0.0026829308118565065 0 -0.022732006674268508 -0.0028631268441304462 0 -0.02240205862730462 -0.0020800364625637798 0 -0.023461468288359162 -0.0026829308118565065 0 -0.022732006674268508 -0.0028631268441304462 0 -0.023130038749758598 -0.0034213500477400694 0 -0.025308498892059165 -0.0023640741088722479 0 -0.024908855859995922 -0.0018304466780338184 0 -0.024731250848026784 -0.0022824468761412386 0 -0.025439232487249219 -0.0016693600251763664 0 -0.025308498892059165 -0.0023640741088722479 0 -0.024908855859995922 -0.0018304466780338184 0 -0.025961500065862612 -0.0020938528159346569 0 -0.025439232487249219 -0.0016693600251763664 0 -0.025308498892059165 -0.0023640741088722479 0 -0.024328571237321617 -0.0017252663988280828 0 -0.024908855859995922 -0.0018304466780338184 0 -0.024731250848026784 -0.0022824468761412386 0 -0.024328571237321617 -0.0017252663988280828 0 -0.023668829253381801 -0.0019087984931944017 0 -0.024107934086547267 -0.0025108016348199939 0 -0.024328571237321617 -0.0017252663988280828 0 -0.024107934086547267 -0.0025108016348199939 0 -0.024731250848026784 -0.0022824468761412386 0 -0.024107934086547267 -0.0025108016348199939 0 -0.024731250848026784 -0.0022824468761412386 0 -0.024990405559229496 -0.0030434162469052594 0 -0.024107934086547267 -0.0025108016348199939 0 -0.024145490526914861 -0.0031814703849575962 0 -0.024990405559229496 -0.0030434162469052594 0 -0.025894491633086755 -0.0027077295773473963 0 -0.024990405559229496 -0.0030434162469052594 0 -0.025926401226121713 -0.003374021893245796 0 -0.025894491633086755 -0.0027077295773473963 0 -0.025308498892059165 -0.0023640741088722479 0 -0.024990405559229496 -0.0030434162469052594 0 -0.025308498892059165 -0.0023640741088722479 0 -0.024731250848026784 -0.0022824468761412386 0 -0.024990405559229496 -0.0030434162469052594 0 -0.024990405559229496 -0.0030434162469052594 0 -0.025329529195348213 -0.0039166178974701692 0 -0.024515367771492658 -0.0038782979504411413 0 -0.024990405559229496 -0.0030434162469052594 0 -0.025329529195348213 -0.0039166178974701692 0 -0.025926401226121713 -0.003374021893245796 0 -0.024145490526914861 -0.0031814703849575962 0 -0.024990405559229496 -0.0030434162469052594 0 -0.024515367771492658 -0.0038782979504411413 0 -0.024145490526914861 -0.0031814703849575962 0 -0.024515367771492658 -0.0038782979504411413 0 -0.023693004290813974 -0.0036664544811112593 0 -0.024515367771492658 -0.0038782979504411413 0 -0.023746462365340355 -0.0042930542724880904 0 -0.025094615474501258 -0.0051362975532490644 0 -0.025329529195348213 -0.0039166178974701692 0 -0.025094615474501258 -0.0051362975532490644 0 -0.026392922368902484 -0.004432463815859519 0 -0.025329529195348213 -0.0039166178974701692 0 -0.024515367771492658 -0.0038782979504411413 0 -0.025094615474501258 -0.0051362975532490644 0 -0.03378300816220809 -0.0021561040669135396 0 -0.031593208415908236 -0.0009412710226946627 0 -0.023746462365340355 -0.0042930542724880904 0 -0.025094615474501258 -0.0051362975532490644 0 -0.022332454897577157 -0.0044949351662576745 0 -0.022563167937496104 -0.0034978823130327771 0 -0.023015009473813564 -0.0040253947142598733 0 -0.022334386182515466 -0.0041205263906632312 0 -0.022732006674268508 -0.0028631268441304462 0 -0.022563167937496104 -0.0034978823130327771 0 -0.023130038749758598 -0.0034213500477400694 0 -0.022563167937496104 -0.0034978823130327771 0 -0.023130038749758598 -0.0034213500477400694 0 -0.023015009473813564 -0.0040253947142598733 0 -0.024515367771492658 -0.0038782979504411413 0 -0.023693004290813974 -0.0036664544811112593 0 -0.023746462365340355 -0.0042930542724880904 0 -0.023015009473813564 -0.0040253947142598733 0 -0.023693004290813974 -0.0036664544811112593 0 -0.023746462365340355 -0.0042930542724880904 0 -0.023130038749758598 -0.0034213500477400694 0 -0.023015009473813564 -0.0040253947142598733 0 -0.023693004290813974 -0.0036664544811112593 0 -0.023606090187019254 -0.0032012063333421172 0 -0.023130038749758598 -0.0034213500477400694 0 -0.023693004290813974 -0.0036664544811112593 0 -0.023606090187019254 -0.0032012063333421172 0 -0.024145490526914861 -0.0031814703849575962 0 -0.023693004290813974 -0.0036664544811112593 0 -0.023015009473813564 -0.0040253947142598733 0 -0.023746462365340355 -0.0042930542724880904 0 -0.022332454897577157 -0.0044949351662576745 0 -0.023015009473813564 -0.0040253947142598733 0 -0.022334386182515466 -0.0041205263906632312 0 -0.022332454897577157 -0.0044949351662576745 0 -0.042443236288749762 0.0011741297032450075 0 -0.042088676372567427 0.0010447577926690451 0 -0.04243993113634531 0.0010493069107385591 0 -0.04241619076729914 0.0011298051873613059 0 -0.042443236288749762 0.0011741297032450075 0 -0.042325721248472455 0.0011477640074196982 0 -0.04241619076729914 0.0011298051873613059 0 -0.042443236288749762 0.0011741297032450075 0 -0.04243993113634531 0.0010493069107385591 0 -0.042443236288749762 0.0011741297032450075 0 -0.042325721248472455 0.0011477640074196982 0 -0.042568511877161805 0.00083341300343996172 0 -0.042443236288749762 0.0011741297032450075 0 -0.043613952706961064 0.0011947973861767438 0 -0.043167880663838115 0.00088268349880753531 0 -0.042443236288749762 0.0011741297032450075 0 -0.042088676372567427 0.0010447577926690451 0 -0.042036179674830414 0.0011076816554750442 0 -0.042482822049833328 0.0011778380566070969 0 -0.042840715542535594 0.0011365614957760256 0 -0.025094615474501258 -0.0051362975532490644 0 -0.02785401258099033 -0.0057321777490241888 0 -0.026392922368902484 -0.004432463815859519 0 -0.042840715542535594 0.0011365614957760256 0 -0.04352785874751143 0.00096966011558231467 0 -0.03378300816220809 -0.0021561040669135396 0 -0.034997781107068721 -0.0022891254032844908 0 -0.042088676372567427 0.0010447577926690451 0 -0.042036179674830414 0.0011076816554750442 0 -0.042156766901892025 0.0011336749944077472 0 -0.02785401258099033 -0.0057321777490241888 0 -0.027453125012359286 -0.0045143478474361752 0 -0.026392922368902484 -0.004432463815859519 0 -0.042036179674830414 0.0011076816554750442 0 -0.042156766901892025 0.0011336749944077472 0 -0.042335441250622413 0.00083475206246597219 0 -0.02785401258099033 -0.0057321777490241888 0 -0.028516063688024115 -0.0048934736208905072 0 -0.029515557263475944 -0.0053475233126447797 0 -0.02785401258099033 -0.0057321777490241888 0 -0.028516063688024115 -0.0048934736208905072 0 -0.027453125012359286 -0.0045143478474361752 0 -0.028516063688024115 -0.0048934736208905072 0 -0.027453125012359286 -0.0045143478474361752 0 -0.028292184540348507 -0.0041152340111256253 0 -0.027453125012359286 -0.0045143478474361752 0 -0.028292184540348507 -0.0041152340111256253 0 -0.027537591743682286 -0.0036240358958488724 0 -0.028516063688024115 -0.0048934736208905072 0 -0.028292184540348507 -0.0041152340111256253 0 -0.029373925950706665 -0.003947787870306709 0 -0.028370015549207629 -0.0032069602619588309 0 -0.028292184540348507 -0.0041152340111256253 0 -0.029373925950706665 -0.003947787870306709 0 -0.028370015549207629 -0.0032069602619588309 0 -0.028292184540348507 -0.0041152340111256253 0 -0.027537591743682286 -0.0036240358958488724 0 -0.026693489682412006 -0.0031538105842648621 0 -0.027537591743682286 -0.0036240358958488724 0 -0.026695542971985349 -0.0039298826170923095 0 -0.027453125012359286 -0.0045143478474361752 0 -0.027537591743682286 -0.0036240358958488724 0 -0.026695542971985349 -0.0039298826170923095 0 -0.026695542971985349 -0.0039298826170923095 0 -0.025926401226121713 -0.003374021893245796 0 -0.026392922368902484 -0.004432463815859519 0 -0.025329529195348213 -0.0039166178974701692 0 -0.025926401226121713 -0.003374021893245796 0 -0.026392922368902484 -0.004432463815859519 0 -0.026693489682412006 -0.0031538105842648621 0 -0.026695542971985349 -0.0039298826170923095 0 -0.025926401226121713 -0.003374021893245796 0 -0.027453125012359286 -0.0045143478474361752 0 -0.026695542971985349 -0.0039298826170923095 0 -0.026392922368902484 -0.004432463815859519 0 -0.017110056557696773 -0.0017872008532824272 0 -0.017706993328116417 -0.0015220920922253015 0 -0.017887109013531254 -0.0026008358712988596 0 -0.017706993328116417 -0.0015220920922253015 0 -0.018676797870364064 -0.0021677084330880025 0 -0.017887109013531254 -0.0026008358712988596 0 -0.023679737320281682 -0.00016421732106031985 0 -0.024809985702976722 0.00044322016907492407 0 -0.017585049802363521 -0.00063230278581972673 0 -0.017706993328116417 -0.0015220920922253015 0 -0.018342284995724264 -0.0011496646646035596 0 -0.018342284995724264 -0.0011496646646035596 0 -0.019348767749908031 -0.001664548262219228 0 -0.019864058814444859 -0.00076183314485394856 0 -0.018342284995724264 -0.0011496646646035596 0 -0.019348767749908031 -0.001664548262219228 0 -0.018676797870364064 -0.0021677084330880025 0 -0.017706993328116417 -0.0015220920922253015 0 -0.018342284995724264 -0.0011496646646035596 0 -0.018676797870364064 -0.0021677084330880025 0 -0.018676797870364064 -0.0021677084330880025 0 -0.020228678362358844 -0.0022926960599354068 0 -0.019330332314403394 -0.0030998033535256189 0 -0.020228678362358844 -0.0022926960599354068 0 -0.021267008365392321 -0.0027829016612666208 0 -0.020763738136522228 -0.0041223069754648912 0 -0.019348767749908031 -0.001664548262219228 0 -0.018676797870364064 -0.0021677084330880025 0 -0.020228678362358844 -0.0022926960599354068 0 -0.018844265729756546 -0.00405220906987793 0 -0.025923833663572246 -0.00058147010987456306 0 -0.019914952963269065 0.00074773275253675663 0 -0.018342284995724264 -0.0011496646646035596 0 -0.019864058814444859 -0.00076183314485394856 0 -0.019348767749908031 -0.001664548262219228 0 -0.020228678362358844 -0.0022926960599354068 0 -0.019864058814444859 -0.00076183314485394856 0 -0.020228678362358844 -0.0022926960599354068 0 -0.019864058814444859 -0.00076183314485394856 0 -0.021178975187245565 -0.0015893979985011218 0 -0.020738264737822157 0.00021937246841463449 0 -0.019864058814444859 -0.00076183314485394856 0 -0.021174707128687617 -0.00056418852060253978 0 -0.019864058814444859 -0.00076183314485394856 0 -0.021178975187245565 -0.0015893979985011218 0 -0.021174707128687617 -0.00056418852060253978 0 -0.021859746517602661 -5.9606043932008027e-05 0 -0.022495192019262342 -0.00085809656180958586 0 -0.021174707128687617 -0.00056418852060253978 0 -0.022495192019262342 -0.00085809656180958586 0 -0.021178975187245565 -0.0015893979985011218 0 -0.021174707128687617 -0.00056418852060253978 0 -0.022495192019262342 -0.00085809656180958586 0 -0.021178975187245565 -0.0015893979985011218 0 -0.02240205862730462 -0.0020800364625637798 0 -0.020228678362358844 -0.0022926960599354068 0 -0.021178975187245565 -0.0015893979985011218 0 -0.021267008365392321 -0.0027829016612666208 0 -0.021178975187245565 -0.0015893979985011218 0 -0.02240205862730462 -0.0020800364625637798 0 -0.021267008365392321 -0.0027829016612666208 0 -0.021267008365392321 -0.0027829016612666208 0 -0.022076701404354363 -0.0030438283224575469 0 -0.021713270351638364 -0.0036950495025053418 0 -0.02240205862730462 -0.0020800364625637798 0 -0.021267008365392321 -0.0027829016612666208 0 -0.022076701404354363 -0.0030438283224575469 0 -0.022732006674268508 -0.0028631268441304462 0 -0.02240205862730462 -0.0020800364625637798 0 -0.022076701404354363 -0.0030438283224575469 0 -0.022732006674268508 -0.0028631268441304462 0 -0.022563167937496104 -0.0034978823130327771 0 -0.022076701404354363 -0.0030438283224575469 0 -0.021713270351638364 -0.0036950495025053418 0 -0.022172029390914061 -0.0035895085738982995 0 -0.022334386182515466 -0.0041205263906632312 0 -0.022563167937496104 -0.0034978823130327771 0 -0.022172029390914061 -0.0035895085738982995 0 -0.022334386182515466 -0.0041205263906632312 0 -0.022563167937496104 -0.0034978823130327771 0 -0.022076701404354363 -0.0030438283224575469 0 -0.022172029390914061 -0.0035895085738982995 0 -0.022076701404354363 -0.0030438283224575469 0 -0.021713270351638364 -0.0036950495025053418 0 -0.022172029390914061 -0.0035895085738982995 0 -0.021267008365392321 -0.0027829016612666208 0 -0.021713270351638364 -0.0036950495025053418 0 -0.020763738136522228 -0.0041223069754648912 0 -0.031593208415908236 -0.0009412710226946627 0 -0.026606662317035339 -0.0019191165686118388 0 -0.032757258052436553 -5.990756655815134e-05 0 -0.033186689872848625 0.00025192225705661673 0 -0.033206607109379477 -0.00016359081471499374 0 -0.021713270351638364 -0.0036950495025053418 0 -0.022333095002323351 -0.004487007055233222 0 -0.020763738136522228 -0.0041223069754648912 0 -0.021713270351638364 -0.0036950495025053418 0 -0.022334386182515466 -0.0041205263906632312 0 -0.022333095002323351 -0.004487007055233222 0 -0.030427654652336857 -0.0023359818891430634 0 -0.031593208415908236 -0.0009412710226946627 0 -0.04241619076729914 0.0011298051873613059 0 -0.04243993113634531 0.0010493069107385591 0 -0.04242963237324654 0.0011555848141223081 0 -0.031593208415908236 -0.0009412710226946627 0 -0.039550701107594857 -0.00014861780948000723 0 -0.032793232437004154 0.00032256489512804028 0 -0.033186689872848625 0.00025192225705661673 0 -0.033332511392036773 0.00087298425304841972 0 -0.032757258052436553 -5.990756655815134e-05 0 -0.032793232437004154 0.00032256489512804028 0 -0.033186689872848625 0.00025192225705661673 0 -0.040941432653393998 0.00092748041031301756 0 -0.039550701107594857 -0.00014861780948000723 0 -0.033186689872848625 0.00025192225705661673 0 -0.033577571053366374 0.00029732845979508295 0 -0.033332511392036773 0.00087298425304841972 0 -0.033186689872848625 0.00025192225705661673 0 -0.033577571053366374 0.00029732845979508295 0 -0.033206607109379477 -0.00016359081471499374 0 -0.020228678362358844 -0.0022926960599354068 0 -0.020763738136522228 -0.0041223069754648912 0 -0.019220298603222472 -0.0037456349351928631 0 -0.033577571053366374 0.00029732845979508295 0 -0.033206607109379477 -0.00016359081471499374 0 -0.033671875455792095 -0.00027612670777315418 0 -0.026606662317035339 -0.0019191165686118388 0 -0.025923833663572246 -0.00058147010987456306 0 -0.018676797870364064 -0.0021677084330880025 0 -0.019330332314403394 -0.0030998033535256189 0 -0.017887109013531254 -0.0026008358712988596 0 -0.025923833663572246 -0.00058147010987456306 0 -0.024809985702976722 0.00044322016907492407 0 -0.029182569460183744 0.0017778223794872369 0 -0.029702574469632915 0.0017892146773069066 0 -0.029929857671729738 0.0016815299007391937 0 -0.029182569460183744 0.0017778223794872369 0 -0.029887367430805348 0.0021003148622145513 0 -0.029702574469632915 0.0017892146773069066 0 -0.033577571053366374 0.00029732845979508295 0 -0.033671875455792095 -0.00027612670777315418 0 -0.034318632575826298 0.00050052870313690664 0 -0.025923833663572246 -0.00058147010987456306 0 -0.033117004886406703 0.0020281367710652393 0 -0.029182569460183744 0.0017778223794872369 0 -0.029852162712132931 0.0025744025443407959 0 -0.029887367430805348 0.0021003148622145513 0 -0.030513409603812429 0.0023174978219067115 0 -0.029852162712132931 0.0025744025443407959 0 -0.029887367430805348 0.0021003148622145513 0 -0.030423836608620757 0.002278323907361731 0 -0.029870316576498208 0.0017926112253218943 0 -0.030513409603812429 0.0023174978219067115 0 -0.029887367430805348 0.0021003148622145513 0 -0.029824182576077395 0.0017612764548493504 0 -0.030315309546809895 0.0018614680144290264 0 -0.029824182576077395 0.0017612764548493504 0 -0.029909844837158764 0.0017240719252873779 0 -0.029887367430805348 0.0021003148622145513 0 -0.029824182576077395 0.0017612764548493504 0 -0.029702574469632915 0.0017892146773069066 0 -0.029824182576077395 0.0017612764548493504 0 -0.029702574469632915 0.0017892146773069066 0 -0.029909844837158764 0.0017240719252873779 0 -0.028593378633351225 0.00015678320166726423 0 -0.024809985702976722 0.00044322016907492407 0 -0.034921436319962071 0.0012672029652906077 0 -0.034318632575826298 0.00050052870313690664 0 -0.033903791647490876 0.0014233514864914812 0 -0.034921436319962071 0.0012672029652906077 0 -0.033903791647490876 0.0014233514864914812 0 -0.03445907725431166 0.0019490771557315431 0 -0.030503886649116935 0.0033381333720083999 0 -0.030513409603812429 0.0023174978219067115 0 -0.029852162712132931 0.0025744025443407959 0 -0.032431871934667317 0.0022004433097393347 0 -0.033117004886406703 0.0020281367710652393 0 -0.034318632575826298 0.00050052870313690664 0 -0.033903791647490876 0.0014233514864914812 0 -0.033332511392036773 0.00087298425304841972 0 -0.033577571053366374 0.00029732845979508295 0 -0.034318632575826298 0.00050052870313690664 0 -0.033332511392036773 0.00087298425304841972 0 -0.038236501814903762 0.00011851198350893352 0 -0.037394990088357311 -0.00052320411156079596 0 -0.042456916250579749 -0.0012761927940455836 0 -0.042192823350357359 -0.0012403802705780013 0 -0.042171013204984439 -0.0014987384322693877 0 -0.039550701107594857 -0.00014861780948000723 0 -0.037394990088357311 -0.00052320411156079596 0 -0.041929441800969407 -0.0016938402482687173 0 -0.042171013204984439 -0.0014987384322693877 0 -0.041978365202169431 -0.0013855442777987342 0 -0.039550701107594857 -0.00014861780948000723 0 -0.042448937483860881 -0.00051919989474976335 0 -0.042192823350357359 -0.0012403802705780013 0 -0.042171013204984439 -0.0014987384322693877 0 -0.041978365202169431 -0.0013855442777987342 0 -0.042448937483860881 -0.00051919989474976335 0 -0.042214509790588176 -0.00074695426589227259 0 -0.042192823350357359 -0.0012403802705780013 0 -0.041978365202169431 -0.0013855442777987342 0 -0.042010565240681169 -0.0010342398186179169 0 -0.042214509790588176 -0.00074695426589227259 0 -0.042334901886462786 -0.00088601755168457293 0 -0.042010565240681169 -0.0010342398186179169 0 -0.042263087136426285 -0.00076978601107673648 0 -0.042022229864717008 -0.00063699945836590715 0 -0.042489852787349999 -0.00047871771940778695 0 -0.042861618924700848 -0.0006379546972158348 0 -0.042601444328580103 -0.0011821855400543882 0 -0.042010565240681169 -0.0010342398186179169 0 -0.042358132762484513 -0.00098181922869185396 0 -0.042263087136426285 -0.00076978601107673648 0 -0.042358132762484513 -0.00098181922869185396 0 -0.042263087136426285 -0.00076978601107673648 0 -0.042608854040200872 -0.00070260414975708457 0 -0.042456916250579749 -0.0012761927940455836 0 -0.042192823350357359 -0.0012403802705780013 0 -0.042358132762484513 -0.00098181922869185396 0 -0.042192823350357359 -0.0012403802705780013 0 -0.042010565240681169 -0.0010342398186179169 0 -0.042358132762484513 -0.00098181922869185396 0 -0.042456916250579749 -0.0012761927940455836 0 -0.042358132762484513 -0.00098181922869185396 0 -0.042607420632901467 -0.00091853537843757669 0 -0.042456916250579749 -0.0012761927940455836 0 -0.042607420632901467 -0.00091853537843757669 0 -0.042760851060368324 -0.0010087564916442576 0 -0.038236501814903762 0.00011851198350893352 0 -0.038651071559010923 0.00050524088697746056 0 -0.042358132762484513 -0.00098181922869185396 0 -0.042607420632901467 -0.00091853537843757669 0 -0.042608854040200872 -0.00070260414975708457 0 -0.042607420632901467 -0.00091853537843757669 0 -0.042789714435846483 -0.00081935109038277793 0 -0.042608854040200872 -0.00070260414975708457 0 -0.042875855053469338 -0.00079942686620012107 0 -0.042789714435846483 -0.00081935109038277793 0 -0.042760851060368324 -0.0010087564916442576 0 -0.042929948940521885 -0.00077943584560164413 0 -0.042875855053469338 -0.00079942686620012107 0 -0.042760851060368324 -0.0010087564916442576 0 -0.042607420632901467 -0.00091853537843757669 0 -0.042789714435846483 -0.00081935109038277793 0 -0.042760851060368324 -0.0010087564916442576 0 -0.038630495185019112 0.0006459742117014385 0 -0.038651071559010923 0.00050524088697746056 0 -0.042883277742486285 -0.00075796562154659543 0 -0.042875855053469338 -0.00079942686620012107 0 -0.042789714435846483 -0.00081935109038277793 0 -0.042339721430091327 -0.00064464513513629452 0 -0.042911327915302749 -0.00069857989773802818 0 -0.04404496964076924 0.00035665779113600038 0 -0.043556640497915293 0.00062503628782865179 0 -0.043456681012483331 0.00010901126567229587 0 -0.04404496964076924 0.00035665779113600038 0 -0.043456681012483331 0.00010901126567229587 0 -0.043918277366057475 -0.00015924115842528883 0 -0.04404496964076924 0.00035665779113600038 0 -0.044459939508254324 6.6496288271067426e-05 0 -0.043918277366057475 -0.00015924115842528883 0 -0.044459939508254324 6.6496288271067426e-05 0 -0.043918277366057475 -0.00015924115842528883 0 -0.044876130755697831 -0.0003186177158164771 0 -0.044459939508254324 6.6496288271067426e-05 0 -0.044935657073527618 0.0001477409416028623 0 -0.044876130755697831 -0.0003186177158164771 0 -0.044459939508254324 6.6496288271067426e-05 0 -0.044935657073527618 0.0001477409416028623 0 -0.044637232726736489 0.00041168390566784653 0 -0.044935657073527618 0.0001477409416028623 0 -0.044637232726736489 0.00041168390566784653 0 -0.045238044365875495 0.00038520774408906178 0 -0.04404496964076924 0.00035665779113600038 0 -0.044459939508254324 6.6496288271067426e-05 0 -0.044637232726736489 0.00041168390566784653 0 -0.04404496964076924 0.00035665779113600038 0 -0.044637232726736489 0.00041168390566784653 0 -0.04444799031066355 0.00073316886790508653 0 -0.044637232726736489 0.00041168390566784653 0 -0.044878950287452285 0.00067097659084409868 0 -0.045238044365875495 0.00038520774408906178 0 -0.044637232726736489 0.00041168390566784653 0 -0.04444799031066355 0.00073316886790508653 0 -0.044878950287452285 0.00067097659084409868 0 -0.04444799031066355 0.00073316886790508653 0 -0.044878950287452285 0.00067097659084409868 0 -0.044661958988566092 0.0011074329234707153 0 -0.04444799031066355 0.00073316886790508653 0 -0.044661958988566092 0.0011074329234707153 0 -0.044076153153921493 0.00083577671214046714 0 -0.043613952706961064 0.0011947973861767438 0 -0.044661958988566092 0.0011074329234707153 0 -0.044076153153921493 0.00083577671214046714 0 -0.04404496964076924 0.00035665779113600038 0 -0.04444799031066355 0.00073316886790508653 0 -0.044076153153921493 0.00083577671214046714 0 -0.04404496964076924 0.00035665779113600038 0 -0.044076153153921493 0.00083577671214046714 0 -0.043556640497915293 0.00062503628782865179 0 -0.043613952706961064 0.0011947973861767438 0 -0.044076153153921493 0.00083577671214046714 0 -0.043556640497915293 0.00062503628782865179 0 -0.043613952706961064 0.0011947973861767438 0 -0.043167880663838115 0.00088268349880753531 0 -0.043556640497915293 0.00062503628782865179 0 -0.043167880663838115 0.00088268349880753531 0 -0.04298617032516007 0.00046351008790965849 0 -0.042812976128784395 0.00084748983467260197 0 -0.043167880663838115 0.00088268349880753531 0 -0.04298617032516007 0.00046351008790965849 0 -0.043556640497915293 0.00062503628782865179 0 -0.042346696803418737 0.00036863088701156207 0 -0.04298617032516007 0.00046351008790965849 0 -0.042568511877161805 0.00083341300343996172 0 -0.042325721248472455 0.0011477640074196982 0 -0.042346696803418737 0.00036863088701156207 0 -0.042568511877161805 0.00083341300343996172 0 -0.042443236288749762 0.0011741297032450075 0 -0.043167880663838115 0.00088268349880753531 0 -0.042812976128784395 0.00084748983467260197 0 -0.042443236288749762 0.0011741297032450075 0 -0.042568511877161805 0.00083341300343996172 0 -0.042812976128784395 0.00084748983467260197 0 -0.04298617032516007 0.00046351008790965849 0 -0.042568511877161805 0.00083341300343996172 0 -0.042812976128784395 0.00084748983467260197 0 -0.042346696803418737 0.00036863088701156207 0 -0.04298617032516007 0.00046351008790965849 0 -0.043125179846355444 -0.00033045172719331565 0 -0.04298617032516007 0.00046351008790965849 0 -0.043456681012483331 0.00010901126567229587 0 -0.043125179846355444 -0.00033045172719331565 0 -0.04298617032516007 0.00046351008790965849 0 -0.043556640497915293 0.00062503628782865179 0 -0.043456681012483331 0.00010901126567229587 0 -0.043125179846355444 -0.00033045172719331565 0 -0.043799857636256365 -0.00066900217271459385 0 -0.043918277366057475 -0.00015924115842528883 0 -0.043456681012483331 0.00010901126567229587 0 -0.043125179846355444 -0.00033045172719331565 0 -0.043918277366057475 -0.00015924115842528883 0 -0.042346696803418737 0.00036863088701156207 0 -0.042489852787349999 -0.00047871771940778695 0 -0.043125179846355444 -0.00033045172719331565 0 -0.042489852787349999 -0.00047871771940778695 0 -0.043125179846355444 -0.00033045172719331565 0 -0.042861618924700848 -0.0006379546972158348 0 -0.043125179846355444 -0.00033045172719331565 0 -0.042861618924700848 -0.0006379546972158348 0 -0.043063561413742221 -0.00092016861969490755 0 -0.042861618924700848 -0.0006379546972158348 0 -0.043063561413742221 -0.00092016861969490755 0 -0.042601444328580103 -0.0011821855400543882 0 -0.043125179846355444 -0.00033045172719331565 0 -0.043063561413742221 -0.00092016861969490755 0 -0.043799857636256365 -0.00066900217271459385 0 -0.043063561413742221 -0.00092016861969490755 0 -0.043347937829597838 -0.00094646434087123006 0 -0.043940678147542919 -0.00049118769327179612 0 -0.043347937829597838 -0.00094646434087123006 0 -0.043729958056647686 -0.00093287524447700353 0 -0.043940678147542919 -0.00049118769327179612 0 -0.043106442510741388 -0.00090929090118175594 0 -0.043876938697335263 -0.00057609189281261262 0 -0.043940678147542919 -0.00049118769327179612 0 -0.044424421681261997 -0.00057165646400531261 0 -0.0439545134152768 -0.0010670070138022944 0 -0.043729958056647686 -0.00093287524447700353 0 -0.043940678147542919 -0.00049118769327179612 0 -0.0439545134152768 -0.0010670070138022944 0 -0.043799857636256365 -0.00066900217271459385 0 -0.043918277366057475 -0.00015924115842528883 0 -0.044876130755697831 -0.0003186177158164771 0 -0.043940678147542919 -0.00049118769327179612 0 -0.044726147771978614 -6.5674419549083024e-05 0 -0.044424421681261997 -0.00057165646400531261 0 -0.043876938697335263 -0.00057609189281261262 0 -0.044783619924313949 -0.00020455157288350612 0 -0.044726147771978614 -6.5674419549083024e-05 0 -0.044424421681261997 -0.00057165646400531261 0 -0.045043443677143996 -0.00034450456768882995 0 -0.044424421681261997 -0.00057165646400531261 0 -0.045043443677143996 -0.00034450456768882995 0 -0.044480251764134678 -0.0010157544301027423 0 -0.044424421681261997 -0.00057165646400531261 0 -0.0439545134152768 -0.0010670070138022944 0 -0.044480251764134678 -0.0010157544301027423 0 -0.046652607602135882 0.00092651605728499777 0 -0.046698605668872802 0.0010101724450968397 0 -0.046815206428406551 0.00097274656155563102 0 -0.046652607602135882 0.00092651605728499777 0 -0.046640160731654785 0.00081363411822887519 0 -0.046815206428406551 0.00097274656155563102 0 -0.045858035744751259 0.00025487427904175497 0 -0.04564301712760882 -1.6114599676987306e-05 0 -0.046652607602135882 0.00092651605728499777 0 -0.046540559943821773 0.00088628974853600354 0 -0.046640160731654785 0.00081363411822887519 0 -0.046652607602135882 0.00092651605728499777 0 -0.046540559943821773 0.00088628974853600354 0 -0.046594429581615998 0.00099118511773085469 0 -0.046652607602135882 0.00092651605728499777 0 -0.046698605668872802 0.0010101724450968397 0 -0.046594429581615998 0.00099118511773085469 0 -0.046454798634420376 0.00095881959021967107 0 -0.046540559943821773 0.00088628974853600354 0 -0.046594429581615998 0.00099118511773085469 0 -0.046454798634420376 0.00095881959021967107 0 -0.046540559943821773 0.00088628974853600354 0 -0.046443066467124088 0.0008428337068918353 0 -0.045858035744751259 0.00025487427904175497 0 -0.045920580015306557 0.00042080576462401206 0 -0.046540559943821773 0.00088628974853600354 0 -0.046443066467124088 0.0008428337068918353 0 -0.046486313874377273 0.00074831769616529075 0 -0.046486313874377273 0.00074831769616529075 0 -0.046640160731654785 0.00081363411822887519 0 -0.046389978979355838 0.00059639080846664555 0 -0.046367620707515683 0.00073534797512646495 0 -0.046486313874377273 0.00074831769616529075 0 -0.046365915857506351 0.00066932395216605682 0 -0.046443066467124088 0.0008428337068918353 0 -0.046367620707515683 0.00073534797512646495 0 -0.046486313874377273 0.00074831769616529075 0 -0.044726147771978614 -6.5674419549083024e-05 0 -0.045043443677143996 -0.00034450456768882995 0 -0.045607923465143044 0.00038166203024233653 0 -0.046540559943821773 0.00088628974853600354 0 -0.046486313874377273 0.00074831769616529075 0 -0.046640160731654785 0.00081363411822887519 0 -0.046334618650787349 0.0012037363230594654 0 -0.046373983702652249 0.00087666815169453122 0 -0.04628877275446433 0.00096473267732368536 0 -0.046334618650787349 0.0012037363230594654 0 -0.04628877275446433 0.00096473267732368536 0 -0.046292922761883647 0.0012281822631938094 0 -0.046693114908108728 0.001661150511615761 0 -0.046292922761883647 0.0012281822631938094 0 -0.046316500256116389 0.0018379740891939327 0 -0.047225872741106539 0.0012515983869799676 0 -0.046306768445837254 0.0011100858641350196 0 -0.047225872741106539 0.0012515983869799676 0 -0.046158772883644741 0.00097511766802789695 0 -0.046454798634420376 0.00095881959021967107 0 -0.046299174031608097 0.00098066694748417992 0 -0.046373983702652249 0.00087666815169453122 0 -0.046454798634420376 0.00095881959021967107 0 -0.046443066467124088 0.0008428337068918353 0 -0.046373983702652249 0.00087666815169453122 0 -0.046373983702652249 0.00087666815169453122 0 -0.04628877275446433 0.00096473267732368536 0 -0.046281430608850989 0.00071586834543730304 0 -0.046443066467124088 0.0008428337068918353 0 -0.046367620707515683 0.00073534797512646495 0 -0.046373983702652249 0.00087666815169453122 0 -0.046367620707515683 0.00073534797512646495 0 -0.046373983702652249 0.00087666815169453122 0 -0.046281430608850989 0.00071586834543730304 0 -0.04628877275446433 0.00096473267732368536 0 -0.046186628600658697 0.00071219252416219591 0 -0.046281430608850989 0.00071586834543730304 0 -0.04628877275446433 0.00096473267732368536 0 -0.046186628600658697 0.00071219252416219591 0 -0.046122051901519315 0.00093727299962717428 0 -0.04628877275446433 0.00096473267732368536 0 -0.046122051901519315 0.00093727299962717428 0 -0.046292922761883647 0.0012281822631938094 0 -0.046115863748041115 0.00048035833465263976 0 -0.046188625924085965 0.00058167354367687002 0 -0.046059614097272029 0.00049547509651875631 0 -0.046115863748041115 0.00048035833465263976 0 -0.046188625924085965 0.00058167354367687002 0 -0.046175332910022217 0.00052148586863437572 0 -0.046186628600658697 0.00071219252416219591 0 -0.046188625924085965 0.00058167354367687002 0 -0.046059614097272029 0.00049547509651875631 0 -0.046186628600658697 0.00071219252416219591 0 -0.046188625924085965 0.00058167354367687002 0 -0.046281430608850989 0.00071586834543730304 0 -0.046188625924085965 0.00058167354367687002 0 -0.046219429066131093 0.00058165180212663647 0 -0.046281430608850989 0.00071586834543730304 0 -0.046188625924085965 0.00058167354367687002 0 -0.046219429066131093 0.00058165180212663647 0 -0.046175332910022217 0.00052148586863437572 0 -0.046219429066131093 0.00058165180212663647 0 -0.046198786782484992 0.00054136855212437928 0 -0.046248776709204104 0.0005996431146121689 0 -0.046219429066131093 0.00058165180212663647 0 -0.046198786782484992 0.00054136855212437928 0 -0.046175332910022217 0.00052148586863437572 0 -0.046219429066131093 0.00058165180212663647 0 -0.046281430608850989 0.00071586834543730304 0 -0.046248776709204104 0.0005996431146121689 0 -0.046367620707515683 0.00073534797512646495 0 -0.046281430608850989 0.00071586834543730304 0 -0.046248776709204104 0.0005996431146121689 0 -0.046367620707515683 0.00073534797512646495 0 -0.046248776709204104 0.0005996431146121689 0 -0.046275942762212051 0.00060004520727513543 0 -0.046248776709204104 0.0005996431146121689 0 -0.046205246296000431 0.00054911375479607639 0 -0.046275942762212051 0.00060004520727513543 0 -0.046248776709204104 0.0005996431146121689 0 -0.046197453571679932 0.00054775988803773762 0 -0.046205246296000431 0.00054911375479607639 0 -0.046198786782484992 0.00054136855212437928 0 -0.046248776709204104 0.0005996431146121689 0 -0.046197453571679932 0.00054775988803773762 0 -0.046184377995357594 0.00071291464445227544 0 -0.046172366693944339 0.00047650986737463513 0 -0.043853627101852075 0.00053789030524283141 0 -0.04610505151030541 0.00059763822866552732 0 -0.046172366693944339 0.00047650986737463513 0 -0.046009801047555594 0.00070124961628948096 0 -0.046174980479694122 0.00053642949748247454 0 -0.04610505151030541 0.00059763822866552732 0 -0.046172366693944339 0.00047650986737463513 0 -0.046197453571679932 0.00054775988803773762 0 -0.046205246296000431 0.00054911375479607639 0 -0.04610505151030541 0.00059763822866552732 0 -0.046198786782484992 0.00054136855212437928 0 -0.046197453571679932 0.00054775988803773762 0 -0.046174980479694122 0.00053642949748247454 0 -0.046197453571679932 0.00054775988803773762 0 -0.046174980479694122 0.00053642949748247454 0 -0.04610505151030541 0.00059763822866552732 0 -0.046198786782484992 0.00054136855212437928 0 -0.046172366693944339 0.00047650986737463513 0 -0.046175332910022217 0.00052148586863437572 0 -0.046184377995357594 0.00071291464445227544 0 -0.046172366693944339 0.00047650986737463513 0 -0.046175332910022217 0.00052148586863437572 0 -0.046198786782484992 0.00054136855212437928 0 -0.046174980479694122 0.00053642949748247454 0 -0.046172366693944339 0.00047650986737463513 0 -0.046184377995357594 0.00071291464445227544 0 -0.046175332910022217 0.00052148586863437572 0 -0.046018909374488479 0.00032518659633717337 0 -0.034261204228733189 -0.0071568198387543533 0 -0.035680859557189644 -0.00586136990814863 0 -0.037695780032705684 -0.0077863359883932155 0 -0.040403406093151718 -0.0034957922875300113 0 -0.040952361021081338 -0.001884710208580391 0 -0.046115863748041115 0.00048035833465263976 0 -0.046175332910022217 0.00052148586863437572 0 -0.046018909374488479 0.00032518659633717337 0 -0.044783619924313949 -0.00020455157288350612 0 -0.045920580015306557 0.00042080576462401206 0 -0.044876130755697831 -0.0003186177158164771 0 -0.045473024677798124 0.00019860447950100605 0 -0.046037354866556003 0.00022676832244373669 0 -0.045473024677798124 0.00019860447950100605 0 -0.045601019029467782 0.00045971808877548839 0 -0.045797836396738151 0.00037172820048633754 0 -0.045473024677798124 0.00019860447950100605 0 -0.045601019029467782 0.00045971808877548839 0 -0.045238044365875495 0.00038520774408906178 0 -0.044935657073527618 0.0001477409416028623 0 -0.045473024677798124 0.00019860447950100605 0 -0.045238044365875495 0.00038520774408906178 0 -0.044935657073527618 0.0001477409416028623 0 -0.044876130755697831 -0.0003186177158164771 0 -0.045473024677798124 0.00019860447950100605 0 -0.046486313874377273 0.00074831769616529075 0 -0.046375179279825748 0.00062099654483834259 0 -0.046389978979355838 0.00059639080846664555 0 -0.046486313874377273 0.00074831769616529075 0 -0.046365915857506351 0.00066932395216605682 0 -0.046375179279825748 0.00062099654483834259 0 -0.046367620707515683 0.00073534797512646495 0 -0.046365915857506351 0.00066932395216605682 0 -0.046275942762212051 0.00060004520727513543 0 -0.046365915857506351 0.00066932395216605682 0 -0.046375179279825748 0.00062099654483834259 0 -0.046328487859325487 0.00062058138166308301 0 -0.046365915857506351 0.00066932395216605682 0 -0.046328487859325487 0.00062058138166308301 0 -0.046275942762212051 0.00060004520727513543 0 -0.046275942762212051 0.00060004520727513543 0 -0.046272813567955214 0.00057603628664266049 0 -0.046181344485504074 0.00051903814404195392 0 -0.046328487859325487 0.00062058138166308301 0 -0.046275942762212051 0.00060004520727513543 0 -0.046272813567955214 0.00057603628664266049 0 -0.046272813567955214 0.00057603628664266049 0 -0.046389978979355838 0.00059639080846664555 0 -0.046181344485504074 0.00051903814404195392 0 -0.045920580015306557 0.00042080576462401206 0 -0.046074985507437383 0.00052719936005039987 0 -0.046375179279825748 0.00062099654483834259 0 -0.046328487859325487 0.00062058138166308301 0 -0.046272813567955214 0.00057603628664266049 0 -0.046375179279825748 0.00062099654483834259 0 -0.046272813567955214 0.00057603628664266049 0 -0.046389978979355838 0.00059639080846664555 0 -0.046181344485504074 0.00051903814404195392 0 -0.045991493366399142 0.00045168561364377448 0 -0.045985032694040202 0.00059217037762784007 0 -0.046037354866556003 0.00022676832244373669 0 -0.046181344485504074 0.00051903814404195392 0 -0.045991493366399142 0.00045168561364377448 0 -0.046205246296000431 0.00054911375479607639 0 -0.046275942762212051 0.00060004520727513543 0 -0.046181344485504074 0.00051903814404195392 0 -0.045473024677798124 0.00019860447950100605 0 -0.046037354866556003 0.00022676832244373669 0 -0.045797836396738151 0.00037172820048633754 0 -0.045991493366399142 0.00045168561364377448 0 -0.045797836396738151 0.00037172820048633754 0 -0.045846796953189287 0.00054043954761439652 0 -0.046037354866556003 0.00022676832244373669 0 -0.045991493366399142 0.00045168561364377448 0 -0.045797836396738151 0.00037172820048633754 0 -0.045601019029467782 0.00045971808877548839 0 -0.045797836396738151 0.00037172820048633754 0 -0.045846796953189287 0.00054043954761439652 0 -0.046172366693944339 0.00047650986737463513 0 -0.046009801047555594 0.00070124961628948096 0 -0.045896569722252083 0.0008638023813235476 0 -0.046184377995357594 0.00071291464445227544 0 -0.043853627101852075 0.00053789030524283141 0 -0.043666487596017836 0.0010583757980823884 0 -0.034261204228733189 -0.0071568198387543533 0 -0.030807433769326632 -0.0064329196686617515 0 -0.032382427175914011 -0.0061877476528180543 0 -0.045846796953189287 0.00054043954761439652 0 -0.045902949196633999 0.00067495301222772518 0 -0.04574157064146863 0.00064357439484998577 0 -0.040403406093151718 -0.0034957922875300113 0 -0.037228594918122387 -0.0026554011964848886 0 -0.046055469790536548 0.00049770850416745358 0 -0.044868946003657172 0.00070450325064163591 0 -0.045601019029467782 0.00045971808877548839 0 -0.045846796953189287 0.00054043954761439652 0 -0.04574157064146863 0.00064357439484998577 0 -0.045991493366399142 0.00045168561364377448 0 -0.045846796953189287 0.00054043954761439652 0 -0.045985032694040202 0.00059217037762784007 0 -0.045846796953189287 0.00054043954761439652 0 -0.045985032694040202 0.00059217037762784007 0 -0.045902949196633999 0.00067495301222772518 0 -0.045985032694040202 0.00059217037762784007 0 -0.045902949196633999 0.00067495301222772518 0 -0.046009801047555594 0.00070124961628948096 0 -0.045902949196633999 0.00067495301222772518 0 -0.046009801047555594 0.00070124961628948096 0 -0.045896569722252083 0.0008638023813235476 0 -0.045902949196633999 0.00067495301222772518 0 -0.04574157064146863 0.00064357439484998577 0 -0.045896569722252083 0.0008638023813235476 0 -0.046205246296000431 0.00054911375479607639 0 -0.04610505151030541 0.00059763822866552732 0 -0.046181344485504074 0.00051903814404195392 0 -0.04610505151030541 0.00059763822866552732 0 -0.046181344485504074 0.00051903814404195392 0 -0.046009801047555594 0.00070124961628948096 0 -0.046181344485504074 0.00051903814404195392 0 -0.045985032694040202 0.00059217037762784007 0 -0.046009801047555594 0.00070124961628948096 0 -0.044661958988566092 0.0011074329234707153 0 -0.045896569722252083 0.0008638023813235476 0 -0.045431170277257064 0.00067984465544618667 0 -0.04352785874751143 0.00096966011558231467 0 -0.044868946003657172 0.00070450325064163591 0 -0.042335441250622413 0.00083475206246597219 0 -0.043853627101852075 0.00053789030524283141 0 -0.043666487596017836 0.0010583757980823884 0 -0.04574157064146863 0.00064357439484998577 0 -0.045896569722252083 0.0008638023813235476 0 -0.045431170277257064 0.00067984465544618667 0 -0.045601019029467782 0.00045971808877548839 0 -0.045238044365875495 0.00038520774408906178 0 -0.045431170277257064 0.00067984465544618667 0 -0.045601019029467782 0.00045971808877548839 0 -0.04574157064146863 0.00064357439484998577 0 -0.045431170277257064 0.00067984465544618667 0 -0.044878950287452285 0.00067097659084409868 0 -0.045238044365875495 0.00038520774408906178 0 -0.045431170277257064 0.00067984465544618667 0 -0.044878950287452285 0.00067097659084409868 0 -0.044661958988566092 0.0011074329234707153 0 -0.045431170277257064 0.00067984465544618667 0 -0.02785401258099033 -0.0057321777490241888 0 -0.029515557263475944 -0.0053475233126447797 0 -0.030807433769326632 -0.0064329196686617515 0 -0.042156766901892025 0.0011336749944077472 0 -0.042335441250622413 0.00083475206246597219 0 -0.043666487596017836 0.0010583757980823884 0 -0.034997781107068721 -0.0022891254032844908 0 -0.037228594918122387 -0.0026554011964848886 0 -0.030634289782545197 -0.0053971868111492979 0 -0.029515557263475944 -0.0053475233126447797 0 -0.030807433769326632 -0.0064329196686617515 0 -0.030634289782545197 -0.0053971868111492979 0 -0.029515557263475944 -0.0053475233126447797 0 -0.030592019930824582 -0.004432158239114704 0 -0.028516063688024115 -0.0048934736208905072 0 -0.029515557263475944 -0.0053475233126447797 0 -0.029373925950706665 -0.003947787870306709 0 -0.030592019930824582 -0.004432158239114704 0 -0.029373925950706665 -0.003947787870306709 0 -0.030101735991021835 -0.0029632368098163153 0 -0.029515557263475944 -0.0053475233126447797 0 -0.030592019930824582 -0.004432158239114704 0 -0.029373925950706665 -0.003947787870306709 0 -0.028370015549207629 -0.0032069602619588309 0 -0.029373925950706665 -0.003947787870306709 0 -0.029226297983216739 -0.0028549321964330496 0 -0.030592019930824582 -0.004432158239114704 0 -0.033685172628424992 -0.0039215476457827797 0 -0.031652287364299425 -0.0018750783403626275 0 -0.03043027457229194 -0.0049032560920881695 0 -0.031627246287977001 -0.00040994165796507813 0 -0.030592019930824582 -0.004432158239114704 0 -0.031692711333936245 -0.0053721078147667342 0 -0.033685172628424992 -0.0039215476457827797 0 -0.030592019930824582 -0.004432158239114704 0 -0.030101735991021835 -0.0029632368098163153 0 -0.031206244922134328 -0.0026562005262206504 0 -0.030634289782545197 -0.0053971868111492979 0 -0.030592019930824582 -0.004432158239114704 0 -0.031692711333936245 -0.0053721078147667342 0 -0.031692711333936245 -0.0053721078147667342 0 -0.030807433769326632 -0.0064329196686617515 0 -0.032382427175914011 -0.0061877476528180543 0 -0.030634289782545197 -0.0053971868111492979 0 -0.031692711333936245 -0.0053721078147667342 0 -0.030807433769326632 -0.0064329196686617515 0 -0.031692711333936245 -0.0053721078147667342 0 -0.032382427175914011 -0.0061877476528180543 0 -0.032944340125935785 -0.0055596090952174763 0 -0.034261204228733189 -0.0071568198387543533 0 -0.032382427175914011 -0.0061877476528180543 0 -0.033267653970417498 -0.0062019562477050663 0 -0.033267653970417498 -0.0062019562477050663 0 -0.034014823230203946 -0.0057880426513406595 0 -0.032944340125935785 -0.0055596090952174763 0 -0.034014823230203946 -0.0057880426513406595 0 -0.035680859557189644 -0.00586136990814863 0 -0.033685172628424992 -0.0039215476457827797 0 -0.032382427175914011 -0.0061877476528180543 0 -0.033267653970417498 -0.0062019562477050663 0 -0.032944340125935785 -0.0055596090952174763 0 -0.034261204228733189 -0.0071568198387543533 0 -0.034014823230203946 -0.0057880426513406595 0 -0.035680859557189644 -0.00586136990814863 0 -0.034261204228733189 -0.0071568198387543533 0 -0.033267653970417498 -0.0062019562477050663 0 -0.034014823230203946 -0.0057880426513406595 0 -0.034014823230203946 -0.0057880426513406595 0 -0.032944340125935785 -0.0055596090952174763 0 -0.033685172628424992 -0.0039215476457827797 0 -0.031692711333936245 -0.0053721078147667342 0 -0.032944340125935785 -0.0055596090952174763 0 -0.033685172628424992 -0.0039215476457827797 0 -0.034957881430144791 0.0018883102909594137 0 -0.035109583554676804 0.0031101661177086216 0 -0.036194634813408025 0.0018870873479506119 0 -0.034898257097008889 -0.0020232100275692634 0 -0.033957415947324994 -0.00034372620855888477 0 -0.034957881430144791 0.0018883102909594137 0 -0.035109583554676804 0.0031101661177086216 0 -0.034058339387518656 0.0030060271919720252 0 -0.035109583554676804 0.0031101661177086216 0 -0.034058339387518656 0.0030060271919720252 0 -0.034389561293134564 0.004068817443666088 0 -0.033957415947324994 -0.00034372620855888477 0 -0.031627246287977001 -0.00040994165796507813 0 -0.034058339387518656 0.0030060271919720252 0 -0.034389561293134564 0.004068817443666088 0 -0.033232827830032764 0.0038753629079651647 0 -0.034389561293134564 0.004068817443666088 0 -0.033759572753403404 0.0050259736267237818 0 -0.033232827830032764 0.0038753629079651647 0 -0.035109583554676804 0.0031101661177086216 0 -0.034389561293134564 0.004068817443666088 0 -0.035434347195468001 0.0041455424748170211 0 -0.034389561293134564 0.004068817443666088 0 -0.034802545865886381 0.0051343708391304831 0 -0.035434347195468001 0.0041455424748170211 0 -0.034716502402840042 0.0054811339054347055 0 -0.035392332696961633 0.0042521590745344378 0 -0.034704172846739725 0.0053131743864961948 0 -0.035545235405445234 0.0051751634079381702 0 -0.035246085099886977 0.0045042155975023061 0 -0.034389561293134564 0.004068817443666088 0 -0.034802545865886381 0.0051343708391304831 0 -0.033759572753403404 0.0050259736267237818 0 -0.032113464389906941 -0.00061629749374582236 0 -0.030839356998880598 -0.0010558027397701035 0 -0.031207376417502271 -0.0026707915618007384 0 -0.030713176720950482 -9.2073354373922755e-05 0 -0.032113464389906941 -0.00061629749374582236 0 -0.030839356998880598 -0.0010558027397701035 0 -0.03300340543136384 0.0023175148973473341 0 -0.031627246287977001 -0.00040994165796507813 0 -0.030713176720950482 -9.2073354373922755e-05 0 -0.030839356998880598 -0.0010558027397701035 0 -0.029822308803121637 -0.00097952439674711005 0 -0.02943082715989756 0.00019662070229775416 0 -0.030713176720950482 -9.2073354373922755e-05 0 -0.029822308803121637 -0.00097952439674711005 0 -0.028657841814414997 -0.0013145010207071153 0 -0.029822308803121637 -0.00097952439674711005 0 -0.02892357060002473 -0.00053324178077237205 0 -0.02943082715989756 0.00019662070229775416 0 -0.029822308803121637 -0.00097952439674711005 0 -0.02892357060002473 -0.00053324178077237205 0 -0.028657841814414997 -0.0013145010207071153 0 -0.029822308803121637 -0.00097952439674711005 0 -0.029485233210005173 -0.0020590328001968829 0 -0.029822308803121637 -0.00097952439674711005 0 -0.029485233210005173 -0.0020590328001968829 0 -0.030509504544205993 -0.0019667458515029252 0 -0.030839356998880598 -0.0010558027397701035 0 -0.029822308803121637 -0.00097952439674711005 0 -0.030509504544205993 -0.0019667458515029252 0 -0.029485233210005173 -0.0020590328001968829 0 -0.030101735991021835 -0.0029632368098163153 0 -0.030509504544205993 -0.0019667458515029252 0 -0.028657841814414997 -0.0013145010207071153 0 -0.028570454300312596 -0.0022665312536687748 0 -0.029485233210005173 -0.0020590328001968829 0 -0.028570454300312596 -0.0022665312536687748 0 -0.029485233210005173 -0.0020590328001968829 0 -0.029226297983216739 -0.0028549321964330496 0 -0.029373925950706665 -0.003947787870306709 0 -0.029226297983216739 -0.0028549321964330496 0 -0.030101735991021835 -0.0029632368098163153 0 -0.029485233210005173 -0.0020590328001968829 0 -0.029226297983216739 -0.0028549321964330496 0 -0.030101735991021835 -0.0029632368098163153 0 -0.030839356998880598 -0.0010558027397701035 0 -0.031207376417502271 -0.0026707915618007384 0 -0.030509504544205993 -0.0019667458515029252 0 -0.030101735991021835 -0.0029632368098163153 0 -0.031206244922134328 -0.0026562005262206504 0 -0.030509504544205993 -0.0019667458515029252 0 -0.031627246287977001 -0.00040994165796507813 0 -0.03130245757460505 -0.0017530609691234337 0 -0.036997139803522032 0.0048320244280538388 0 -0.037220775718368911 0.0038800273088335805 0 -0.039856604061009951 0.003817963846735448 0 -0.037254989493134757 0.0047627960089799389 0 -0.03941622782335593 0.0032588710112425438 0 -0.039589900205373958 0.004745284562809933 0 -0.036997139803522032 0.0048320244280538388 0 -0.039012884654790303 0.0027646557348074917 0 -0.039589900205373958 0.004745284562809933 0 -0.039012884654790303 0.0027646557348074917 0 -0.041037255601309691 0.0031176203044774192 0 -0.039133679456810261 0.0066157186722077301 0 -0.039589900205373958 0.004745284562809933 0 -0.040784854467568972 0.0061265410568641047 0 -0.036502497913260525 0.0056071198499589147 0 -0.03612160813960881 0.0058420823071798763 0 -0.037174646216253167 0.0053696983895028501 0 -0.039133679456810261 0.0066157186722077301 0 -0.039589900205373958 0.004745284562809933 0 -0.037174646216253167 0.0053696983895028501 0 -0.039589900205373958 0.004745284562809933 0 -0.037174646216253167 0.0053696983895028501 0 -0.036997139803522032 0.0048320244280538388 0 -0.037529789737772448 0.0060666074317359204 0 -0.037128759242896207 0.0054467428369526661 0 -0.036502497913260525 0.0056071198499589147 0 -0.037174646216253167 0.0053696983895028501 0 -0.036335419781103079 0.0052034603716270495 0 -0.035800850885548879 0.0055233832687105883 0 -0.036502497913260525 0.0056071198499589147 0 -0.036335419781103079 0.0052034603716270495 0 -0.037174646216253167 0.0053696983895028501 0 -0.036335419781103079 0.0052034603716270495 0 -0.036997139803522032 0.0048320244280538388 0 -0.035121762193816658 0.0055779298876584647 0 -0.034704172846739725 0.0053131743864961948 0 -0.035545235405445234 0.0051751634079381702 0 -0.035800850885548879 0.0055233832687105883 0 -0.036335419781103079 0.0052034603716270495 0 -0.035545235405445234 0.0051751634079381702 0 -0.036335419781103079 0.0052034603716270495 0 -0.035545235405445234 0.0051751634079381702 0 -0.036264611867079237 0.0045250919186319329 0 -0.035246085099886977 0.0045042155975023061 0 -0.036264611867079237 0.0045250919186319329 0 -0.036215970362826339 0.0031452968543173375 0 -0.035545235405445234 0.0051751634079381702 0 -0.035246085099886977 0.0045042155975023061 0 -0.036264611867079237 0.0045250919186319329 0 -0.036335419781103079 0.0052034603716270495 0 -0.036997139803522032 0.0048320244280538388 0 -0.036264611867079237 0.0045250919186319329 0 -0.036997139803522032 0.0048320244280538388 0 -0.036264611867079237 0.0045250919186319329 0 -0.037220775718368911 0.0038800273088335805 0 -0.036264611867079237 0.0045250919186319329 0 -0.037220775718368911 0.0038800273088335805 0 -0.036215970362826339 0.0031452968543173375 0 -0.037220775718368911 0.0038800273088335805 0 -0.036215970362826339 0.0031452968543173375 0 -0.038538757936782145 0.0029641364398735885 0 -0.035109583554676804 0.0031101661177086216 0 -0.036215970362826339 0.0031452968543173375 0 -0.036194634813408025 0.0018870873479506119 0 -0.035109583554676804 0.0031101661177086216 0 -0.035434347195468001 0.0041455424748170211 0 -0.036215970362826339 0.0031452968543173375 0 -0.035392332696961633 0.0042521590745344378 0 -0.036105185224692242 0.0032424819680405429 0 -0.034957881430144791 0.0018883102909594137 0 -0.036194634813408025 0.0018870873479506119 0 -0.036186232768937579 0.00040778526197962866 0 -0.036215970362826339 0.0031452968543173375 0 -0.036194634813408025 0.0018870873479506119 0 -0.037696467631659993 0.0017096096953505254 0 -0.036215970362826339 0.0031452968543173375 0 -0.037696467631659993 0.0017096096953505254 0 -0.038538757936782145 0.0029641364398735885 0 -0.040124559382924613 0.0017248433524196653 0 -0.038538757936782145 0.0029641364398735885 0 -0.039856604061009951 0.003817963846735448 0 -0.037696467631659993 0.0017096096953505254 0 -0.040124559382924613 0.0017248433524196653 0 -0.038538757936782145 0.0029641364398735885 0 -0.037220775718368911 0.0038800273088335805 0 -0.038538757936782145 0.0029641364398735885 0 -0.039856604061009951 0.003817963846735448 0 -0.03941622782335593 0.0032588710112425438 0 -0.041746936140958875 0.001615398373993388 0 -0.039012884654790303 0.0027646557348074917 0 -0.041037255601309691 0.0031176203044774192 0 -0.041177079472771404 0.0011523021293771191 0 -0.040124559382924613 0.0017248433524196653 0 -0.039856604061009951 0.003817963846735448 0 -0.042360407761411957 0.0019995987292381525 0 -0.040124559382924613 0.0017248433524196653 0 -0.043053036583055468 0.00024338241725195306 0 -0.042360407761411957 0.0019995987292381525 0 -0.040124559382924613 0.0017248433524196653 0 -0.039151246156453885 -0.00013371231957626567 0 -0.043053036583055468 0.00024338241725195306 0 -0.037696467631659993 0.0017096096953505254 0 -0.040124559382924613 0.0017248433524196653 0 -0.039151246156453885 -0.00013371231957626567 0 -0.045051731713993869 -1.3333568578517563e-05 0 -0.045482025282166931 0.00069428708842059303 0 -0.044706887781417223 0.00080121715060154405 0 -0.045051731713993869 -1.3333568578517563e-05 0 -0.043053036583055468 0.00024338241725195306 0 -0.044706887781417223 0.00080121715060154405 0 -0.042076552452706792 0.00028253671918201375 0 -0.042933598660366244 9.4374495751272202e-05 0 -0.036194634813408025 0.0018870873479506119 0 -0.037696467631659993 0.0017096096953505254 0 -0.036186232768937579 0.00040778526197962866 0 -0.034898257097008889 -0.0020232100275692634 0 -0.040952361021081338 -0.001884710208580391 0 -0.040952361021081338 -0.001884710208580391 0 -0.044827628684303858 -0.0011217793032321933 0 -0.045051731713993869 -1.3333568578517563e-05 0 -0.04609135002559784 6.8038364962212457e-05 0 -0.045819145785275787 0.00029654010001705424 0 -0.042076552452706792 0.00028253671918201375 0 -0.040952361021081338 -0.001884710208580391 0 -0.037696467631659993 0.0017096096953505254 0 -0.039151246156453885 -0.00013371231957626567 0 -0.036186232768937579 0.00040778526197962866 0 -0.045051731713993869 -1.3333568578517563e-05 0 -0.045819145785275787 0.00029654010001705424 0 -0.045482025282166931 0.00069428708842059303 0 -0.045819145785275787 0.00029654010001705424 0 -0.045933283872171181 0.00063785866050207224 0 -0.045482025282166931 0.00069428708842059303 0 -0.045819145785275787 0.00029654010001705424 0 -0.045933283872171181 0.00063785866050207224 0 -0.046059614097272029 0.00049547509651875631 0 -0.046018909374488479 0.00032518659633717337 0 -0.045819145785275787 0.00029654010001705424 0 -0.046059614097272029 0.00049547509651875631 0 -0.046186628600658697 0.00071219252416219591 0 -0.045933283872171181 0.00063785866050207224 0 -0.046059614097272029 0.00049547509651875631 0 -0.046115863748041115 0.00048035833465263976 0 -0.046018909374488479 0.00032518659633717337 0 -0.046059614097272029 0.00049547509651875631 0 -0.046122051901519315 0.00093727299962717428 0 -0.045983062582905583 0.0012093796258489584 0 -0.046292922761883647 0.0012281822631938094 0 -0.046186628600658697 0.00071219252416219591 0 -0.045933283872171181 0.00063785866050207224 0 -0.046122051901519315 0.00093727299962717428 0 -0.045933283872171181 0.00063785866050207224 0 -0.046122051901519315 0.00093727299962717428 0 -0.045843924251991096 0.00090442377397907366 0 -0.046122051901519315 0.00093727299962717428 0 -0.045843924251991096 0.00090442377397907366 0 -0.045983062582905583 0.0012093796258489584 0 -0.045843924251991096 0.00090442377397907366 0 -0.045648248383740778 0.0011436180290930163 0 -0.045983062582905583 0.0012093796258489584 0 -0.045843924251991096 0.00090442377397907366 0 -0.045648248383740778 0.0011436180290930163 0 -0.045482025282166931 0.00069428708842059303 0 -0.045933283872171181 0.00063785866050207224 0 -0.045843924251991096 0.00090442377397907366 0 -0.045482025282166931 0.00069428708842059303 0 -0.045648248383740778 0.0011436180290930163 0 -0.045482025282166931 0.00069428708842059303 0 -0.045206688687166506 0.0012556201241189975 0 -0.045648248383740778 0.0011436180290930163 0 -0.045689722438716454 0.0015502878852463105 0 -0.045206688687166506 0.0012556201241189975 0 -0.045689722438716454 0.0015502878852463105 0 -0.046081187455393434 0.0015225355891335718 0 -0.046066559905337992 0.0018015190904514648 0 -0.045648248383740778 0.0011436180290930163 0 -0.045689722438716454 0.0015502878852463105 0 -0.045983062582905583 0.0012093796258489584 0 -0.045983062582905583 0.0012093796258489584 0 -0.046081187455393434 0.0015225355891335718 0 -0.046292922761883647 0.0012281822631938094 0 -0.045689722438716454 0.0015502878852463105 0 -0.045983062582905583 0.0012093796258489584 0 -0.046081187455393434 0.0015225355891335718 0 -0.046081187455393434 0.0015225355891335718 0 -0.046066559905337992 0.0018015190904514648 0 -0.046316500256116389 0.0018379740891939327 0 -0.046081187455393434 0.0015225355891335718 0 -0.046292922761883647 0.0012281822631938094 0 -0.046316500256116389 0.0018379740891939327 0 -0.043053036583055468 0.00024338241725195306 0 -0.044382970540948662 0.0013669415013922428 0 -0.044706887781417223 0.00080121715060154405 0 -0.043053036583055468 0.00024338241725195306 0 -0.044382970540948662 0.0013669415013922428 0 -0.043887432798401446 0.0013576918263322791 0 -0.045482025282166931 0.00069428708842059303 0 -0.044706887781417223 0.00080121715060154405 0 -0.045206688687166506 0.0012556201241189975 0 -0.044382970540948662 0.0013669415013922428 0 -0.044706887781417223 0.00080121715060154405 0 -0.045206688687166506 0.0012556201241189975 0 -0.044382970540948662 0.0013669415013922428 0 -0.045206688687166506 0.0012556201241189975 0 -0.044949311947432027 0.0016599828041896519 0 -0.045689722438716454 0.0015502878852463105 0 -0.045206688687166506 0.0012556201241189975 0 -0.044949311947432027 0.0016599828041896519 0 -0.045689722438716454 0.0015502878852463105 0 -0.044949311947432027 0.0016599828041896519 0 -0.045225961455237322 0.0020018924084684035 0 -0.044382970540948662 0.0013669415013922428 0 -0.044949311947432027 0.0016599828041896519 0 -0.044494060143193223 0.0017477942706819157 0 -0.044949311947432027 0.0016599828041896519 0 -0.044494060143193223 0.0017477942706819157 0 -0.044854157453566544 0.0019332547945373282 0 -0.044382970540948662 0.0013669415013922428 0 -0.044494060143193223 0.0017477942706819157 0 -0.043887432798401446 0.0013576918263322791 0 -0.044494060143193223 0.0017477942706819157 0 -0.044666278713205936 0.0021431466489822493 0 -0.044854157453566544 0.0019332547945373282 0 -0.044666278713205936 0.0021431466489822493 0 -0.044854157453566544 0.0019332547945373282 0 -0.04491668135138855 0.0022453296384486844 0 -0.044949311947432027 0.0016599828041896519 0 -0.045225961455237322 0.0020018924084684035 0 -0.044854157453566544 0.0019332547945373282 0 -0.045225961455237322 0.0020018924084684035 0 -0.044854157453566544 0.0019332547945373282 0 -0.04491668135138855 0.0022453296384486844 0 -0.045225961455237322 0.0020018924084684035 0 -0.045177409361401237 0.002463490657338154 0 -0.04491668135138855 0.0022453296384486844 0 -0.045177409361401237 0.002463490657338154 0 -0.04491668135138855 0.0022453296384486844 0 -0.044922544400550171 0.0023674540814190713 0 -0.044666278713205936 0.0021431466489822493 0 -0.04491668135138855 0.0022453296384486844 0 -0.044922544400550171 0.0023674540814190713 0 -0.046507229270783129 0.0023211539906272754 0 -0.046537305164763267 0.002239119078038579 0 -0.047815202781657178 0.0023004056940322017 0 -0.048142317852567035 0.0020916296063698365 0 -0.048056602165140232 0.0020303960057739961 0 -0.048142317852567035 0.0020916296063698365 0 -0.048295181097188722 0.0023784153124983319 0 -0.048056602165140232 0.0020303960057739961 0 -0.048142317852567035 0.0020916296063698365 0 -0.048295181097188722 0.0023784153124983319 0 -0.048183390805513489 0.002365611233732961 0 -0.048142317852567035 0.0020916296063698365 0 -0.048183390805513489 0.002365611233732961 0 -0.047857366967143759 0.0021140118909160951 0 -0.048736679972438558 0.0023347382582667221 0 -0.048534382495285404 0.0024023776875024589 0 -0.048839844706521224 0.0025550171546241092 0 -0.048552228293141056 0.0021821518410114113 0 -0.048736679972438558 0.0023347382582667221 0 -0.048751832840483379 0.0021346372096066103 0 -0.048552228293141056 0.0021821518410114113 0 -0.048736679972438558 0.0023347382582667221 0 -0.048534382495285404 0.0024023776875024589 0 -0.048295181097188722 0.0023784153124983319 0 -0.048534382495285404 0.0024023776875024589 0 -0.048056602165140232 0.0020303960057739961 0 -0.048552228293141056 0.0021821518410114113 0 -0.048534382495285404 0.0024023776875024589 0 -0.048056602165140232 0.0020303960057739961 0 -0.048056602165140232 0.0020303960057739961 0 -0.048554778855140437 0.001950883183498453 0 -0.048585059833957556 0.0016022012680862504 0 -0.048552228293141056 0.0021821518410114113 0 -0.048056602165140232 0.0020303960057739961 0 -0.048554778855140437 0.001950883183498453 0 -0.047897521475469079 0.002041537814337259 0 -0.047595130968178974 0.0019654211540272612 0 -0.048552228293141056 0.0021821518410114113 0 -0.048554778855140437 0.001950883183498453 0 -0.048751832840483379 0.0021346372096066103 0 -0.048554778855140437 0.001950883183498453 0 -0.048751832840483379 0.0021346372096066103 0 -0.048764884147623852 0.0018560048806126996 0 -0.048554778855140437 0.001950883183498453 0 -0.048764884147623852 0.0018560048806126996 0 -0.048585059833957556 0.0016022012680862504 0 -0.048764884147623852 0.0018560048806126996 0 -0.048585059833957556 0.0016022012680862504 0 -0.04882062568070486 0.0017029734843144052 0 -0.048585059833957556 0.0016022012680862504 0 -0.04882062568070486 0.0017029734843144052 0 -0.048887070921543742 0.0015391380488349482 0 -0.046507229270783129 0.0023211539906272754 0 -0.046387603387566319 0.0022422911899155529 0 -0.047815202781657178 0.0023004056940322017 0 -0.046343293755886375 0.0022356203633810165 0 -0.046275737203592196 0.0022502256377923348 0 -0.047815202781657178 0.0023004056940322017 0 -0.048056602165140232 0.0020303960057739961 0 -0.046343293755886375 0.0022356203633810165 0 -0.045225961455237322 0.0020018924084684035 0 -0.045177409361401237 0.002463490657338154 0 -0.045704385928656444 0.0020303580915247621 0 -0.045177409361401237 0.002463490657338154 0 -0.045704385928656444 0.0020303580915247621 0 -0.046275737203592196 0.0022502256377923348 0 -0.045704385928656444 0.0020303580915247621 0 -0.046275737203592196 0.0022502256377923348 0 -0.046066559905337992 0.0018015190904514648 0 -0.045689722438716454 0.0015502878852463105 0 -0.045704385928656444 0.0020303580915247621 0 -0.046066559905337992 0.0018015190904514648 0 -0.045689722438716454 0.0015502878852463105 0 -0.045225961455237322 0.0020018924084684035 0 -0.045704385928656444 0.0020303580915247621 0 -0.046693114908108728 0.001661150511615761 0 -0.046343293755886375 0.0022356203633810165 0 -0.046316500256116389 0.0018379740891939327 0 -0.046343293755886375 0.0022356203633810165 0 -0.046275737203592196 0.0022502256377923348 0 -0.046316500256116389 0.0018379740891939327 0 -0.047225872741106539 0.0012515983869799676 0 -0.047595130968178974 0.0019654211540272612 0 -0.046275737203592196 0.0022502256377923348 0 -0.046066559905337992 0.0018015190904514648 0 -0.046316500256116389 0.0018379740891939327 0 -0.048917082617867091 0.0012369544789577482 0 -0.048585059833957556 0.0016022012680862504 0 -0.048887070921543742 0.0015391380488349482 0 -0.048917082617867091 0.0012369544789577482 0 -0.049240348409468948 0.001506674026306215 0 -0.048887070921543742 0.0015391380488349482 0 -0.047225872741106539 0.0012515983869799676 0 -0.047997472042737806 0.00134426032420954 0 -0.046454798634420376 0.00095881959021967107 0 -0.046299174031608097 0.00098066694748417992 0 -0.046425529866117123 0.0010935971807001597 0 -0.049240348409468948 0.001506674026306215 0 -0.049040590027473414 0.0018121228372292772 0 -0.048887070921543742 0.0015391380488349482 0 -0.049240348409468948 0.001506674026306215 0 -0.049314168311964342 0.0017555950942779648 0 -0.049040590027473414 0.0018121228372292772 0 -0.049314168311964342 0.0017555950942779648 0 -0.049040590027473414 0.0018121228372292772 0 -0.049270452850361038 0.0019132290846330096 0 -0.049040590027473414 0.0018121228372292772 0 -0.04882062568070486 0.0017029734843144052 0 -0.048887070921543742 0.0015391380488349482 0 -0.048764884147623852 0.0018560048806126996 0 -0.049040590027473414 0.0018121228372292772 0 -0.04882062568070486 0.0017029734843144052 0 -0.046698605668872802 0.0010101724450968397 0 -0.04667538558663524 0.0010820657613838623 0 -0.046768170959891657 0.0011023168267476032 0 -0.046698605668872802 0.0010101724450968397 0 -0.046594429581615998 0.00099118511773085469 0 -0.04667538558663524 0.0010820657613838623 0 -0.046594429581615998 0.00099118511773085469 0 -0.04667538558663524 0.0010820657613838623 0 -0.046571500875749711 0.0010805160462119476 0 -0.04667538558663524 0.0010820657613838623 0 -0.046571500875749711 0.0010805160462119476 0 -0.046653536357373647 0.0011320568093940041 0 -0.046454798634420376 0.00095881959021967107 0 -0.046594429581615998 0.00099118511773085469 0 -0.046571500875749711 0.0010805160462119476 0 -0.046454798634420376 0.00095881959021967107 0 -0.046425529866117123 0.0010935971807001597 0 -0.046571500875749711 0.0010805160462119476 0 -0.049240348409468948 0.001506674026306215 0 -0.049314168311964342 0.0017555950942779648 0 -0.049556673114303042 0.0017894531026229393 0 -0.046425529866117123 0.0010935971807001597 0 -0.046602577779615996 0.0012313600479483145 0 -0.046620892988870531 0.0011900047031576221 0 -0.047997472042737806 0.00134426032420954 0 -0.047348594435941568 0.0015015885369357202 0 -0.046425529866117123 0.0010935971807001597 0 -0.046571500875749711 0.0010805160462119476 0 -0.046620892988870531 0.0011900047031576221 0 -0.049314168311964342 0.0017555950942779648 0 -0.049556673114303042 0.0017894531026229393 0 -0.049381027800939586 0.0018653364032345855 0 -0.047348594435941568 0.0015015885369357202 0 -0.047195974103849334 0.001463245350146754 0 -0.046571500875749711 0.0010805160462119476 0 -0.046653536357373647 0.0011320568093940041 0 -0.046620892988870531 0.0011900047031576221 0 -0.04667538558663524 0.0010820657613838623 0 -0.046653536357373647 0.0011320568093940041 0 -0.046725960191632103 0.0011562718798608736 0 -0.046653536357373647 0.0011320568093940041 0 -0.04667332255855073 0.001186451720160684 0 -0.046725960191632103 0.0011562718798608736 0 -0.046653536357373647 0.0011320568093940041 0 -0.046620892988870531 0.0011900047031576221 0 -0.04667332255855073 0.001186451720160684 0 -0.046603674283948245 0.0012310968171689743 0 -0.04667332255855073 0.001186451720160684 0 -0.04676049049371267 0.001226513707858933 0 -0.046603674283948245 0.0012310968171689743 0 -0.046620892988870531 0.0011900047031576221 0 -0.04667332255855073 0.001186451720160684 0 -0.04676049049371267 0.001226513707858933 0 -0.046725960191632103 0.0011562718798608736 0 -0.046807650788848389 0.0011867396085533497 0 -0.04667332255855073 0.001186451720160684 0 -0.04676049049371267 0.001226513707858933 0 -0.046725960191632103 0.0011562718798608736 0 -0.046725960191632103 0.0011562718798608736 0 -0.046768170959891657 0.0011023168267476032 0 -0.046807650788848389 0.0011867396085533497 0 -0.04667538558663524 0.0010820657613838623 0 -0.046725960191632103 0.0011562718798608736 0 -0.046768170959891657 0.0011023168267476032 0 -0.046762605906404964 0.0013047564596114598 0 -0.04679777781000273 0.0013328665438296732 0 -0.046767144200889899 0.0013611583557345147 0 -0.047348594435941568 0.0015015885369357202 0 -0.046588294035588201 0.0011861140898469142 0 -0.046603674283948245 0.0012310968171689743 0 -0.04676049049371267 0.001226513707858933 0 -0.04679777781000273 0.0013328665438296732 0 -0.046762605906404964 0.0013047564596114598 0 -0.046767144200889899 0.0013611583557345147 0 -0.046712335842278317 0.0014066558176598896 0 -0.049556673114303042 0.0017894531026229393 0 -0.049383383486659195 0.0020026008866668977 0 -0.049334370837658896 0.0022770948504587094 0 -0.047348594435941568 0.0015015885369357202 0 -0.048783946419303656 0.0019527652321175923 0 -0.049556673114303042 0.0017894531026229393 0 -0.049381027800939586 0.0018653364032345855 0 -0.049383383486659195 0.0020026008866668977 0 -0.049381027800939586 0.0018653364032345855 0 -0.049383383486659195 0.0020026008866668977 0 -0.049270452850361038 0.0019132290846330096 0 -0.046767144200889899 0.0013611583557345147 0 -0.046712335842278317 0.0014066558176598896 0 -0.0467965143261879 0.0014101066710218778 0 -0.048783946419303656 0.0019527652321175923 0 -0.047794352489516655 0.0019068265542749206 0 -0.049383383486659195 0.0020026008866668977 0 -0.049334370837658896 0.0022770948504587094 0 -0.049304141973518144 0.0021312913062984449 0 -0.0467965143261879 0.0014101066710218778 0 -0.046815311591358544 0.0014970267867381768 0 -0.046861331977172301 0.0013700015628481514 0 -0.046712335842278317 0.0014066558176598896 0 -0.0467965143261879 0.0014101066710218778 0 -0.046815311591358544 0.0014970267867381768 0 -0.04679777781000273 0.0013328665438296732 0 -0.046767144200889899 0.0013611583557345147 0 -0.0467965143261879 0.0014101066710218778 0 -0.04679777781000273 0.0013328665438296732 0 -0.0467965143261879 0.0014101066710218778 0 -0.046861331977172301 0.0013700015628481514 0 -0.049040590027473414 0.0018121228372292772 0 -0.048884464300194969 0.002001881247157724 0 -0.049022566083515101 0.0021345913077505342 0 -0.048751832840483379 0.0021346372096066103 0 -0.048884464300194969 0.002001881247157724 0 -0.049022566083515101 0.0021345913077505342 0 -0.048751832840483379 0.0021346372096066103 0 -0.048764884147623852 0.0018560048806126996 0 -0.048884464300194969 0.002001881247157724 0 -0.048764884147623852 0.0018560048806126996 0 -0.049040590027473414 0.0018121228372292772 0 -0.048884464300194969 0.002001881247157724 0 -0.049040590027473414 0.0018121228372292772 0 -0.04917044259506323 0.0020194196794695155 0 -0.049022566083515101 0.0021345913077505342 0 -0.049040590027473414 0.0018121228372292772 0 -0.049270452850361038 0.0019132290846330096 0 -0.04917044259506323 0.0020194196794695155 0 -0.049314168311964342 0.0017555950942779648 0 -0.049381027800939586 0.0018653364032345855 0 -0.049270452850361038 0.0019132290846330096 0 -0.049268281064729962 0.0020561444159202837 0 -0.04917044259506323 0.0020194196794695155 0 -0.049211594337226598 0.0022160553155772195 0 -0.049383383486659195 0.0020026008866668977 0 -0.049270452850361038 0.0019132290846330096 0 -0.049268281064729962 0.0020561444159202837 0 -0.049270452850361038 0.0019132290846330096 0 -0.049268281064729962 0.0020561444159202837 0 -0.04917044259506323 0.0020194196794695155 0 -0.049383383486659195 0.0020026008866668977 0 -0.049268281064729962 0.0020561444159202837 0 -0.049304141973518144 0.0021312913062984449 0 -0.04917044259506323 0.0020194196794695155 0 -0.049211594337226598 0.0022160553155772195 0 -0.049022566083515101 0.0021345913077505342 0 -0.049211594337226598 0.0022160553155772195 0 -0.049069200158204769 0.0022937809371135617 0 -0.049022566083515101 0.0021345913077505342 0 -0.049334370837658896 0.0022770948504587094 0 -0.049304141973518144 0.0021312913062984449 0 -0.049211594337226598 0.0022160553155772195 0 -0.049268281064729962 0.0020561444159202837 0 -0.049304141973518144 0.0021312913062984449 0 -0.049211594337226598 0.0022160553155772195 0 -0.048783946419303656 0.0019527652321175923 0 -0.049235726315705088 0.0022076853079412398 0 -0.049333338602599634 0.002287074151909145 0 -0.049211594337226598 0.0022160553155772195 0 -0.049086247923154615 0.0024197079551877896 0 -0.049211594337226598 0.0022160553155772195 0 -0.049069200158204769 0.0022937809371135617 0 -0.049086247923154615 0.0024197079551877896 0 -0.049069200158204769 0.0022937809371135617 0 -0.048940896571350909 0.0023357172857523889 0 -0.049086247923154615 0.0024197079551877896 0 -0.048751832840483379 0.0021346372096066103 0 -0.049022566083515101 0.0021345913077505342 0 -0.048940896571350909 0.0023357172857523889 0 -0.049069200158204769 0.0022937809371135617 0 -0.049022566083515101 0.0021345913077505342 0 -0.048940896571350909 0.0023357172857523889 0 -0.048736679972438558 0.0023347382582667221 0 -0.048751832840483379 0.0021346372096066103 0 -0.048940896571350909 0.0023357172857523889 0 -0.048736679972438558 0.0023347382582667221 0 -0.048940896571350909 0.0023357172857523889 0 -0.048839844706521224 0.0025550171546241092 0 -0.049086247923154615 0.0024197079551877896 0 -0.049124554818492198 0.0026656610027538303 0 -0.048839844706521224 0.0025550171546241092 0 -0.048940896571350909 0.0023357172857523889 0 -0.049086247923154615 0.0024197079551877896 0 -0.048839844706521224 0.0025550171546241092 0 -0.049333338602599634 0.002287074151909145 0 -0.049086247923154615 0.0024197079551877896 0 -0.049124554818492198 0.0026656610027538303 0 -0.049710940970156103 0.0026923367665439915 0 -0.050032906138165044 0.0020549804679260179 0 -0.049521931810163268 0.0022030578511206722 0 -0.048783946419303656 0.0019527652321175923 0 -0.049649381403048962 0.0024340489149846664 0 -0.050032906138165044 0.0020549804679260179 0 -0.049574368568101435 0.0017255565421817308 0 -0.049964046561090804 0.0014313990952958169 0 -0.049649381403048962 0.0024340489149846664 0 -0.049616478879257339 0.002166784342813869 0 -0.049124554818492198 0.0026656610027538303 0 -0.048839844706521224 0.0025550171546241092 0 -0.048834840123198858 0.0027889117733150095 0 -0.049124554818492198 0.0026656610027538303 0 -0.048941289722883398 0.0029224127856108542 0 -0.048834840123198858 0.0027889117733150095 0 -0.048991208414996809 0.0023256823678409499 0 -0.049521931810163268 0.0022030578511206722 0 -0.048818211009831781 0.0018202737489339121 0 -0.049710940970156103 0.0026923367665439915 0 -0.048991208414996809 0.0023256823678409499 0 -0.049521931810163268 0.0022030578511206722 0 -0.049521931810163268 0.0022030578511206722 0 -0.049574368568101435 0.0017255565421817308 0 -0.048818211009831781 0.0018202737489339121 0 -0.050032906138165044 0.0020549804679260179 0 -0.049521931810163268 0.0022030578511206722 0 -0.049574368568101435 0.0017255565421817308 0 -0.049574368568101435 0.0017255565421817308 0 -0.04914651862011421 0.0014496092423906624 0 -0.048818211009831781 0.0018202737489339121 0 -0.049574368568101435 0.0017255565421817308 0 -0.04914651862011421 0.0014496092423906624 0 -0.049964046561090804 0.0014313990952958169 0 -0.049395558734448369 0.0015388782452972081 0 -0.049841611562342708 0.0012107280262195859 0 -0.049964046561090804 0.0014313990952958169 0 -0.049266469864148336 0.0014944975583297208 0 -0.049928124000943451 0.0014357417183118021 0 -0.049395558734448369 0.0015388782452972081 0 -0.049841611562342708 0.0012107280262195859 0 -0.049651901299001516 0.0010234686434641379 0 -0.049841611562342708 0.0012107280262195859 0 -0.049651901299001516 0.0010234686434641379 0 -0.04990035678790003 0.0010777493514630421 0 -0.049651901299001516 0.0010234686434641379 0 -0.049238989921314008 0.00093944062412905534 0 -0.049145261045759642 0.0012213107586813055 0 -0.049395558734448369 0.0015388782452972081 0 -0.049651901299001516 0.0010234686434641379 0 -0.049145261045759642 0.0012213107586813055 0 -0.048941289722883398 0.0029224127856108542 0 -0.048829129928831212 0.0029004750127116408 0 -0.048834840123198858 0.0027889117733150095 0 -0.050032906138165044 0.0020549804679260179 0 -0.050289797339317766 0.0014618401497048035 0 -0.049964046561090804 0.0014313990952958169 0 -0.050289797339317766 0.0014618401497048035 0 -0.049964046561090804 0.0014313990952958169 0 -0.05008723855087021 0.0011641918141892919 0 -0.049651901299001516 0.0010234686434641379 0 -0.04990035678790003 0.0010777493514630421 0 -0.05001725892578425 0.00091310465112987959 0 -0.049841611562342708 0.0012107280262195859 0 -0.05008723855087021 0.0011641918141892919 0 -0.04990035678790003 0.0010777493514630421 0 -0.049841611562342708 0.0012107280262195859 0 -0.049964046561090804 0.0014313990952958169 0 -0.05008723855087021 0.0011641918141892919 0 -0.05008723855087021 0.0011641918141892919 0 -0.04990035678790003 0.0010777493514630421 0 -0.05001725892578425 0.00091310465112987959 0 -0.05008723855087021 0.0011641918141892919 0 -0.050243651105369942 0.00096171905611339159 0 -0.05001725892578425 0.00091310465112987959 0 -0.050289797339317766 0.0014618401497048035 0 -0.050286827163836013 0.0011088912348197789 0 -0.050449163039565502 0.0010282057137051142 0 -0.049616478879257339 0.002166784342813869 0 -0.049564227530005653 0.002022952939214158 0 -0.048941289722883398 0.0029224127856108542 0 -0.048798251776840738 0.0029441065657392945 0 -0.048841683610080004 0.0029422359131033968 0 -0.050289797339317766 0.0014618401497048035 0 -0.05008723855087021 0.0011641918141892919 0 -0.050286827163836013 0.0011088912348197789 0 -0.05008723855087021 0.0011641918141892919 0 -0.050286827163836013 0.0011088912348197789 0 -0.050243651105369942 0.00096171905611339159 0 -0.050286827163836013 0.0011088912348197789 0 -0.050449163039565502 0.0010282057137051142 0 -0.050364384603271327 0.00095805720963074669 0 -0.048832271310318816 0.0029527349568225086 0 -0.048859979094074739 0.002950322751198416 0 -0.048888601343897671 0.0028857606498565941 0 -0.048798251776840738 0.0029441065657392945 0 -0.048832271310318816 0.0029527349568225086 0 -0.048888601343897671 0.0028857606498565941 0 -0.048832271310318816 0.0029527349568225086 0 -0.048816244429653967 0.0029497311240989023 0 -0.048859979094074739 0.002950322751198416 0 -0.048832271310318816 0.0029527349568225086 0 -0.048841683610080004 0.0029422359131033968 0 -0.048816244429653967 0.0029497311240989023 0 -0.048798251776840738 0.0029441065657392945 0 -0.048832271310318816 0.0029527349568225086 0 -0.048841683610080004 0.0029422359131033968 0 -0.048816244429653967 0.0029497311240989023 0 -0.048829129928831212 0.0029004750127116408 0 -0.048720636466458529 0.0028821509504250529 0 -0.048941289722883398 0.0029224127856108542 0 -0.048841683610080004 0.0029422359131033968 0 -0.048829129928831212 0.0029004750127116408 0 -0.048841683610080004 0.0029422359131033968 0 -0.048816244429653967 0.0029497311240989023 0 -0.048829129928831212 0.0029004750127116408 0 -0.048820046775234383 0.0029806012403252929 0 -0.048699728693815468 0.0029726321081337994 0 -0.048720636466458529 0.0028821509504250529 0 -0.048816244429653967 0.0029497311240989023 0 -0.048820046775234383 0.0029806012403252929 0 -0.048720636466458529 0.0028821509504250529 0 -0.048820046775234383 0.0029806012403252929 0 -0.048859979094074739 0.002950322751198416 0 -0.048978617174692506 0.00291198082314443 0 -0.048816244429653967 0.0029497311240989023 0 -0.048820046775234383 0.0029806012403252929 0 -0.048859979094074739 0.002950322751198416 0 -0.048859979094074739 0.002950322751198416 0 -0.048978617174692506 0.00291198082314443 0 -0.048888601343897671 0.0028857606498565941 0 -0.048820046775234383 0.0029806012403252929 0 -0.048885634188473449 0.0030094063070400458 0 -0.048978617174692506 0.00291198082314443 0 -0.048885634188473449 0.0030094063070400458 0 -0.048972568703785031 0.0030320671871556164 0 -0.048703489349359273 0.0030810254091980281 0 -0.048972568703785031 0.0030320671871556164 0 -0.048703489349359273 0.0030810254091980281 0 -0.0486099204953176 0.0032207668170997632 0 -0.048885634188473449 0.0030094063070400458 0 -0.048972568703785031 0.0030320671871556164 0 -0.049122435295727927 0.0028764142721773131 0 -0.048703489349359273 0.0030810254091980281 0 -0.048413424793470002 0.003053891330181148 0 -0.0486099204953176 0.0032207668170997632 0 -0.048703489349359273 0.0030810254091980281 0 -0.048413424793470002 0.003053891330181148 0 -0.048548489795630687 0.002951060948682597 0 -0.048820046775234383 0.0029806012403252929 0 -0.048885634188473449 0.0030094063070400458 0 -0.048699728693815468 0.0029726321081337994 0 -0.048885634188473449 0.0030094063070400458 0 -0.048703489349359273 0.0030810254091980281 0 -0.048699728693815468 0.0029726321081337994 0 -0.048703489349359273 0.0030810254091980281 0 -0.048699728693815468 0.0029726321081337994 0 -0.048548489795630687 0.002951060948682597 0 -0.048699728693815468 0.0029726321081337994 0 -0.048542800365509987 0.0027888298885012383 0 -0.048548489795630687 0.002951060948682597 0 -0.048542800365509987 0.0027888298885012383 0 -0.048548489795630687 0.002951060948682597 0 -0.048352305300529676 0.0027216990820317058 0 -0.048699728693815468 0.0029726321081337994 0 -0.048542800365509987 0.0027888298885012383 0 -0.048720636466458529 0.0028821509504250529 0 -0.048413424793470002 0.003053891330181148 0 -0.048352305300529676 0.0027216990820317058 0 -0.047991067425322741 0.0027691593367151703 0 -0.048413424793470002 0.003053891330181148 0 -0.048548489795630687 0.002951060948682597 0 -0.048352305300529676 0.0027216990820317058 0 -0.048183390805513489 0.002365611233732961 0 -0.048352305300529676 0.0027216990820317058 0 -0.047991067425322741 0.0027691593367151703 0 -0.048295181097188722 0.0023784153124983319 0 -0.048183390805513489 0.002365611233732961 0 -0.048352305300529676 0.0027216990820317058 0 -0.048295181097188722 0.0023784153124983319 0 -0.048542800365509987 0.0027888298885012383 0 -0.048517263287651387 0.0025564358875532055 0 -0.048295181097188722 0.0023784153124983319 0 -0.048542800365509987 0.0027888298885012383 0 -0.048352305300529676 0.0027216990820317058 0 -0.048534382495285404 0.0024023776875024589 0 -0.048517263287651387 0.0025564358875532055 0 -0.048709438418043018 0.0026838709809940556 0 -0.048295181097188722 0.0023784153124983319 0 -0.048534382495285404 0.0024023776875024589 0 -0.048517263287651387 0.0025564358875532055 0 -0.048542800365509987 0.0027888298885012383 0 -0.048517263287651387 0.0025564358875532055 0 -0.048615576103609601 0.0027354334327594518 0 -0.048517263287651387 0.0025564358875532055 0 -0.048709438418043018 0.0026838709809940556 0 -0.048615576103609601 0.0027354334327594518 0 -0.048534382495285404 0.0024023776875024589 0 -0.048839844706521224 0.0025550171546241092 0 -0.048709438418043018 0.0026838709809940556 0 -0.048839844706521224 0.0025550171546241092 0 -0.048709438418043018 0.0026838709809940556 0 -0.048834840123198858 0.0027889117733150095 0 -0.048709438418043018 0.0026838709809940556 0 -0.048834840123198858 0.0027889117733150095 0 -0.048720636466458529 0.0028821509504250529 0 -0.048829129928831212 0.0029004750127116408 0 -0.048834840123198858 0.0027889117733150095 0 -0.048720636466458529 0.0028821509504250529 0 -0.048542800365509987 0.0027888298885012383 0 -0.048720636466458529 0.0028821509504250529 0 -0.048615576103609601 0.0027354334327594518 0 -0.048709438418043018 0.0026838709809940556 0 -0.048720636466458529 0.0028821509504250529 0 -0.048615576103609601 0.0027354334327594518 0 -0.043054393818045537 0.00036845547638122782 0 -0.042886267817489457 0.00057642259854855874 0 -0.043143458988197263 0.00057166512456131944 0 -0.043054393818045537 0.00036845547638122782 0 -0.042840106429298586 0.0002883446952030671 0 -0.043016681567737809 0.00017083482089687996 0 -0.043273617205187041 0.00036949955110895813 0 -0.043054393818045537 0.00036845547638122782 0 -0.043179487301099981 0.00020082715447378909 0 -0.043054393818045537 0.00036845547638122782 0 -0.043016681567737809 0.00017083482089687996 0 -0.043179487301099981 0.00020082715447378909 0 -0.043273617205187041 0.00036949955110895813 0 -0.043054393818045537 0.00036845547638122782 0 -0.043143458988197263 0.00057166512456131944 0 -0.043054393818045537 0.00036845547638122782 0 -0.042840106429298586 0.0002883446952030671 0 -0.042886267817489457 0.00057642259854855874 0 -0.042840106429298586 0.0002883446952030671 0 -0.042527119396891737 0.00030795820853750025 0 -0.042886267817489457 0.00057642259854855874 0 -0.042840106429298586 0.0002883446952030671 0 -0.04277523180848563 -1.1803511820327377e-05 0 -0.042527119396891737 0.00030795820853750025 0 -0.042840106429298586 0.0002883446952030671 0 -0.04277523180848563 -1.1803511820327377e-05 0 -0.043016681567737809 0.00017083482089687996 0 -0.04277523180848563 -1.1803511820327377e-05 0 -0.04265366088546757 -0.00035542476913114421 0 -0.042409840027409072 -8.9987296346984676e-05 0 -0.04277523180848563 -1.1803511820327377e-05 0 -0.042409840027409072 -8.9987296346984676e-05 0 -0.042527119396891737 0.00030795820853750025 0 -0.04277523180848563 -1.1803511820327377e-05 0 -0.043016681567737809 0.00017083482089687996 0 -0.043118549703258929 -3.2279787311495546e-05 0 -0.04277523180848563 -1.1803511820327377e-05 0 -0.043118549703258929 -3.2279787311495546e-05 0 -0.042920722012134892 -0.00027033311559231885 0 -0.043016681567737809 0.00017083482089687996 0 -0.043179487301099981 0.00020082715447378909 0 -0.043118549703258929 -3.2279787311495546e-05 0 -0.043118549703258929 -3.2279787311495546e-05 0 -0.043188988234497412 -0.00032024576290402346 0 -0.042920722012134892 -0.00027033311559231885 0 -0.042920722012134892 -0.00027033311559231885 0 -0.042886511186910482 -0.00054301453438664992 0 -0.04265366088546757 -0.00035542476913114421 0 -0.043188988234497412 -0.00032024576290402346 0 -0.042920722012134892 -0.00027033311559231885 0 -0.042886511186910482 -0.00054301453438664992 0 -0.04321820354119215 -0.00058941862194476248 0 -0.043188988234497412 -0.00032024576290402346 0 -0.042886511186910482 -0.00054301453438664992 0 -0.042339721430091327 -0.00064464513513629452 0 -0.043054574748046415 -0.00073156745716165599 0 -0.04321928777849203 -0.00086190630666102249 0 -0.04321820354119215 -0.00058941862194476248 0 -0.042886511186910482 -0.00054301453438664992 0 -0.042886511186910482 -0.00054301453438664992 0 -0.04285855686730243 -0.00068810173207562168 0 -0.042608854040200872 -0.00070260414975708457 0 -0.042789714435846483 -0.00081935109038277793 0 -0.04285855686730243 -0.00068810173207562168 0 -0.042608854040200872 -0.00070260414975708457 0 -0.043020157446453676 -0.00071350537598235465 0 -0.042789714435846483 -0.00081935109038277793 0 -0.04285855686730243 -0.00068810173207562168 0 -0.043020157446453676 -0.00071350537598235465 0 -0.042886511186910482 -0.00054301453438664992 0 -0.04285855686730243 -0.00068810173207562168 0 -0.042886511186910482 -0.00054301453438664992 0 -0.042608854040200872 -0.00070260414975708457 0 -0.04265366088546757 -0.00035542476913114421 0 -0.042608854040200872 -0.00070260414975708457 0 -0.04265366088546757 -0.00035542476913114421 0 -0.04233999181478721 -0.00045540906393880107 0 -0.04277523180848563 -1.1803511820327377e-05 0 -0.042920722012134892 -0.00027033311559231885 0 -0.04265366088546757 -0.00035542476913114421 0 -0.04233999181478721 -0.00045540906393880107 0 -0.042018547338253213 -0.00015817291293993477 0 -0.042409840027409072 -8.9987296346984676e-05 0 -0.04265366088546757 -0.00035542476913114421 0 -0.04233999181478721 -0.00045540906393880107 0 -0.042409840027409072 -8.9987296346984676e-05 0 -0.042263087136426285 -0.00076978601107673648 0 -0.04233999181478721 -0.00045540906393880107 0 -0.042022229864717008 -0.00063699945836590715 0 -0.042263087136426285 -0.00076978601107673648 0 -0.042608854040200872 -0.00070260414975708457 0 -0.04233999181478721 -0.00045540906393880107 0 -0.042601444328580103 -0.0011821855400543882 0 -0.042659352895546974 -0.0017275342734131434 0 -0.042921585253370892 -0.0012342908577311202 0 -0.042334901886462786 -0.00088601755168457293 0 -0.042132675253564442 -0.0010016153473780096 0 -0.04233999181478721 -0.00045540906393880107 0 -0.042022229864717008 -0.00063699945836590715 0 -0.042018547338253213 -0.00015817291293993477 0 -0.042018547338253213 -0.00015817291293993477 0 -0.042409840027409072 -8.9987296346984676e-05 0 -0.042025462159024717 0.00040269011923938029 0 -0.042659352895546974 -0.0017275342734131434 0 -0.042690344252298784 -0.002108865130890107 0 -0.042890351173797352 -0.0018934313618677538 0 -0.042132675253564442 -0.0010016153473780096 0 -0.044228374376467372 -0.00058888380319716959 0 -0.042409840027409072 -8.9987296346984676e-05 0 -0.042527119396891737 0.00030795820853750025 0 -0.042025462159024717 0.00040269011923938029 0 -0.042527119396891737 0.00030795820853750025 0 -0.042025462159024717 0.00040269011923938029 0 -0.042367844256832092 0.00086586208479304879 0 -0.046037407221490294 -0.00089668797247086053 0 -0.045436636193141679 -0.00062907518672029872 0 -0.044979319801029566 -0.0020589444615746189 0 -0.044228374376467372 -0.00058888380319716959 0 -0.043960677033611006 -0.0018110468924340257 0 -0.045226047762318915 -0.00018265307176999011 0 -0.044762026147841416 -0.0010530183329557831 0 -0.044790435610371902 -4.5519672615825913e-05 0 -0.04558180080363216 0.00012608514009242698 0 -0.046049126886872724 0.000704219238917961 0 -0.043991661691842293 -0.0010566606105329157 0 -0.044762026147841416 -0.0010530183329557831 0 -0.044790435610371902 -4.5519672615825913e-05 0 -0.045417989817309809 -0.0002807293559727849 0 -0.043960677033611006 -0.0018110468924340257 0 -0.047176430793494123 0.0014222542202625087 0 -0.047223669333417165 0.0014847115598486855 0 -0.047301360080909231 0.0014790321451473608 0 -0.047176430793494123 0.0014222542202625087 0 -0.047142390905032923 0.0012937569981960029 0 -0.047301360080909231 0.0014790321451473608 0 -0.047176430793494123 0.0014222542202625087 0 -0.047075587706287877 0.0014117421456495442 0 -0.047163723153635317 0.0015245848796237413 0 -0.047176430793494123 0.0014222542202625087 0 -0.047142390905032923 0.0012937569981960029 0 -0.047075587706287877 0.0014117421456495442 0 -0.043960677033611006 -0.0018110468924340257 0 -0.043888780880168191 -0.0015566204188302646 0 -0.043991661691842293 -0.0010566606105329157 0 -0.044762026147841416 -0.0010530183329557831 0 -0.044197337072308288 -0.001351297661621431 0 -0.043960677033611006 -0.0018110468924340257 0 -0.043116433058921266 -0.0015764268708187202 0 -0.043210166394883474 -0.0021571613889851855 0 -0.043374271850293404 -0.0015410295037098871 0 -0.043488980819299139 -0.0018338297379414011 0 -0.042659352895546974 -0.0017275342734131434 0 -0.043049506981118299 -0.001499667780161918 0 -0.042921585253370892 -0.0012342908577311202 0 -0.042659352895546974 -0.0017275342734131434 0 -0.042890351173797352 -0.0018934313618677538 0 -0.043049506981118299 -0.001499667780161918 0 -0.043347937829597838 -0.00094646434087123006 0 -0.043049506981118299 -0.001499667780161918 0 -0.042921585253370892 -0.0012342908577311202 0 -0.043063561413742221 -0.00092016861969490755 0 -0.042601444328580103 -0.0011821855400543882 0 -0.042921585253370892 -0.0012342908577311202 0 -0.043063561413742221 -0.00092016861969490755 0 -0.043347937829597838 -0.00094646434087123006 0 -0.042921585253370892 -0.0012342908577311202 0 -0.043347937829597838 -0.00094646434087123006 0 -0.043374271850293404 -0.0015410295037098871 0 -0.043553113282883214 -0.0012904261139205994 0 -0.04337330011488269 -0.00093508405289868151 0 -0.043116433058921266 -0.0015764268708187202 0 -0.043673075770528702 -0.0011744089619101688 0 -0.043812357165079058 -0.0014926847634497901 0 -0.0439545134152768 -0.0010670070138022944 0 -0.043347937829597838 -0.00094646434087123006 0 -0.043729958056647686 -0.00093287524447700353 0 -0.043673075770528702 -0.0011744089619101688 0 -0.043347937829597838 -0.00094646434087123006 0 -0.043673075770528702 -0.0011744089619101688 0 -0.043553113282883214 -0.0012904261139205994 0 -0.043673075770528702 -0.0011744089619101688 0 -0.043553113282883214 -0.0012904261139205994 0 -0.043812357165079058 -0.0014926847634497901 0 -0.043991661691842293 -0.0010566606105329157 0 -0.043812357165079058 -0.0014926847634497901 0 -0.044197337072308288 -0.001351297661621431 0 -0.043991661691842293 -0.0010566606105329157 0 -0.043812357165079058 -0.0014926847634497901 0 -0.043886617636392074 -0.0014869460250049452 0 -0.043374271850293404 -0.0015410295037098871 0 -0.043553113282883214 -0.0012904261139205994 0 -0.043812357165079058 -0.0014926847634497901 0 -0.043374271850293404 -0.0015410295037098871 0 -0.043812357165079058 -0.0014926847634497901 0 -0.043488980819299139 -0.0018338297379414011 0 -0.043836170769657276 -0.0015179948439430226 0 -0.043888780880168191 -0.0015566204188302646 0 -0.046986768903201415 0.0011389982635740088 0 -0.046868999285898189 0.0011430348325192788 0 -0.046970942136283049 0.0012402993585040334 0 -0.043812357165079058 -0.0014926847634497901 0 -0.043886617636392074 -0.0014869460250049452 0 -0.0439545134152768 -0.0010670070138022944 0 -0.043886617636392074 -0.0014869460250049452 0 -0.0439545134152768 -0.0010670070138022944 0 -0.044480251764134678 -0.0010157544301027423 0 -0.043729958056647686 -0.00093287524447700353 0 -0.043673075770528702 -0.0011744089619101688 0 -0.0439545134152768 -0.0010670070138022944 0 -0.045452557361059506 -0.00015340448701476895 0 -0.04564301712760882 -1.6114599676987306e-05 0 -0.046815206428406551 0.00097274656155563102 0 -0.046768170959891657 0.0011023168267476032 0 -0.046868999285898189 0.0011430348325192788 0 -0.046986768903201415 0.0011389982635740088 0 -0.046815206428406551 0.00097274656155563102 0 -0.046868999285898189 0.0011430348325192788 0 -0.046698605668872802 0.0010101724450968397 0 -0.046815206428406551 0.00097274656155563102 0 -0.046768170959891657 0.0011023168267476032 0 -0.046768170959891657 0.0011023168267476032 0 -0.046868999285898189 0.0011430348325192788 0 -0.046807650788848389 0.0011867396085533497 0 -0.046868999285898189 0.0011430348325192788 0 -0.04686510564782799 0.0012411242986692308 0 -0.046970942136283049 0.0012402993585040334 0 -0.04676049049371267 0.001226513707858933 0 -0.046807650788848389 0.0011867396085533497 0 -0.04686510564782799 0.0012411242986692308 0 -0.046868999285898189 0.0011430348325192788 0 -0.046807650788848389 0.0011867396085533497 0 -0.04686510564782799 0.0012411242986692308 0 -0.04686510564782799 0.0012411242986692308 0 -0.046938351678045977 0.0012937518320086843 0 -0.046861331977172301 0.0013700015628481514 0 -0.04676049049371267 0.001226513707858933 0 -0.04679777781000273 0.0013328665438296732 0 -0.04686510564782799 0.0012411242986692308 0 -0.04679777781000273 0.0013328665438296732 0 -0.04686510564782799 0.0012411242986692308 0 -0.046861331977172301 0.0013700015628481514 0 -0.04686510564782799 0.0012411242986692308 0 -0.046938351678045977 0.0012937518320086843 0 -0.046970942136283049 0.0012402993585040334 0 -0.04558180080363216 0.00012608514009242698 0 -0.045452557361059506 -0.00015340448701476895 0 -0.047142390905032923 0.0012937569981960029 0 -0.046986768903201415 0.0011389982635740088 0 -0.046970942136283049 0.0012402993585040334 0 -0.047142390905032923 0.0012937569981960029 0 -0.046970942136283049 0.0012402993585040334 0 -0.04701901505447674 0.0013244738802804081 0 -0.046938351678045977 0.0012937518320086843 0 -0.04701901505447674 0.0013244738802804081 0 -0.046976146462756878 0.0014094405876261702 0 -0.046938351678045977 0.0012937518320086843 0 -0.046970942136283049 0.0012402993585040334 0 -0.04701901505447674 0.0013244738802804081 0 -0.04701901505447674 0.0013244738802804081 0 -0.047075587706287877 0.0014117421456495442 0 -0.046976146462756878 0.0014094405876261702 0 -0.047142390905032923 0.0012937569981960029 0 -0.04701901505447674 0.0013244738802804081 0 -0.047075587706287877 0.0014117421456495442 0 -0.047075587706287877 0.0014117421456495442 0 -0.046976146462756878 0.0014094405876261702 0 -0.047028344439739161 0.0014995301182151391 0 -0.046815311591358544 0.0014970267867381768 0 -0.046976146462756878 0.0014094405876261702 0 -0.046861331977172301 0.0013700015628481514 0 -0.046938351678045977 0.0012937518320086843 0 -0.046976146462756878 0.0014094405876261702 0 -0.046861331977172301 0.0013700015628481514 0 -0.046815311591358544 0.0014970267867381768 0 -0.046976146462756878 0.0014094405876261702 0 -0.047028344439739161 0.0014995301182151391 0 -0.047794352489516655 0.0019068265542749206 0 -0.047638517239513213 0.0017787306271503643 0 -0.046815311591358544 0.0014970267867381768 0 -0.047028344439739161 0.0014995301182151391 0 -0.047025640218395517 0.0016088629676501299 0 -0.047028344439739161 0.0014995301182151391 0 -0.047025640218395517 0.0016088629676501299 0 -0.047163723153635317 0.0015245848796237413 0 -0.047075587706287877 0.0014117421456495442 0 -0.047028344439739161 0.0014995301182151391 0 -0.047163723153635317 0.0015245848796237413 0 -0.048256565948520944 0.0019516568457599007 0 -0.048331873272514432 0.0015032465557445643 0 -0.047515352468245571 0.0015651876629452317 0 -0.048256565948520944 0.0019516568457599007 0 -0.048818211009831781 0.0018202737489339121 0 -0.048331873272514432 0.0015032465557445643 0 -0.048991208414996809 0.0023256823678409499 0 -0.048256565948520944 0.0019516568457599007 0 -0.048818211009831781 0.0018202737489339121 0 -0.04914651862011421 0.0014496092423906624 0 -0.048818211009831781 0.0018202737489339121 0 -0.048331873272514432 0.0015032465557445643 0 -0.049266469864148336 0.0014944975583297208 0 -0.048482341079058612 0.0015747758501974054 0 -0.049395558734448369 0.0015388782452972081 0 -0.049145261045759642 0.0012213107586813055 0 -0.048589035420816655 0.0016429199699097082 0 -0.049145261045759642 0.0012213107586813055 0 -0.048804949899623917 0.0010051754611193769 0 -0.048589035420816655 0.0016429199699097082 0 -0.049238989921314008 0.00093944062412905534 0 -0.049145261045759642 0.0012213107586813055 0 -0.048804949899623917 0.0010051754611193769 0 -0.048358250898884562 0.0011492241334839629 0 -0.04789531950191292 0.0011593617643805318 0 -0.048444586319726882 0.00054867715824684176 0 -0.048804949899623917 0.0010051754611193769 0 -0.048358250898884562 0.0011492241334839629 0 -0.048444586319726882 0.00054867715824684176 0 -0.048804949899623917 0.0010051754611193769 0 -0.048358250898884562 0.0011492241334839629 0 -0.048589035420816655 0.0016429199699097082 0 -0.048358250898884562 0.0011492241334839629 0 -0.048589035420816655 0.0016429199699097082 0 -0.048059479079105093 0.0013865245871239123 0 -0.048589035420816655 0.0016429199699097082 0 -0.047732565207210011 0.0016980763735079351 0 -0.048059479079105093 0.0013865245871239123 0 -0.048482341079058612 0.0015747758501974054 0 -0.047517023447321921 0.0016007974467531318 0 -0.047732511175038045 0.0013925651592340948 0 -0.048059479079105093 0.0013865245871239123 0 -0.04789531950191292 0.0011593617643805318 0 -0.047732565207210011 0.0016980763735079351 0 -0.047732511175038045 0.0013925651592340948 0 -0.048059479079105093 0.0013865245871239123 0 -0.048358250898884562 0.0011492241334839629 0 -0.048059479079105093 0.0013865245871239123 0 -0.04789531950191292 0.0011593617643805318 0 -0.047732511175038045 0.0013925651592340948 0 -0.04789531950191292 0.0011593617643805318 0 -0.047562597845277797 0.0012125277871095578 0 -0.04789531950191292 0.0011593617643805318 0 -0.047557066927429011 0.0010009912015358012 0 -0.04768850641189834 0.00069860283416187346 0 -0.047557066927429011 0.0010009912015358012 0 -0.047562597845277797 0.0012125277871095578 0 -0.047440621413865923 0.0011271045619172556 0 -0.047557066927429011 0.0010009912015358012 0 -0.047348131304442188 0.001040329515476062 0 -0.047394190536775002 0.00088810849372232504 0 -0.047557066927429011 0.0010009912015358012 0 -0.047440621413865923 0.0011271045619172556 0 -0.047348131304442188 0.001040329515476062 0 -0.047440621413865923 0.0011271045619172556 0 -0.047315013187241496 0.0011704117907467646 0 -0.047348131304442188 0.001040329515476062 0 -0.04789531950191292 0.0011593617643805318 0 -0.047557066927429011 0.0010009912015358012 0 -0.047562597845277797 0.0012125277871095578 0 -0.047562597845277797 0.0012125277871095578 0 -0.047405431574667409 0.0012538187438885656 0 -0.04746359423935901 0.0013693012664948269 0 -0.047562597845277797 0.0012125277871095578 0 -0.047440621413865923 0.0011271045619172556 0 -0.047405431574667409 0.0012538187438885656 0 -0.047440621413865923 0.0011271045619172556 0 -0.047405431574667409 0.0012538187438885656 0 -0.047315013187241496 0.0011704117907467646 0 -0.047405431574667409 0.0012538187438885656 0 -0.047308747354207897 0.0012617421720468843 0 -0.047315013187241496 0.0011704117907467646 0 -0.047405431574667409 0.0012538187438885656 0 -0.047334071409361821 0.0013574701850071315 0 -0.04746359423935901 0.0013693012664948269 0 -0.047405431574667409 0.0012538187438885656 0 -0.047334071409361821 0.0013574701850071315 0 -0.047308747354207897 0.0012617421720468843 0 -0.04746359423935901 0.0013693012664948269 0 -0.047377832770368535 0.0014540522589801695 0 -0.047449390417628606 0.0015278013719670315 0 -0.047334071409361821 0.0013574701850071315 0 -0.04746359423935901 0.0013693012664948269 0 -0.047377832770368535 0.0014540522589801695 0 -0.047334071409361821 0.0013574701850071315 0 -0.047377832770368535 0.0014540522589801695 0 -0.047316837684454945 0.0014454269106633168 0 -0.047732511175038045 0.0013925651592340948 0 -0.04746359423935901 0.0013693012664948269 0 -0.047449390417628606 0.0015278013719670315 0 -0.047732511175038045 0.0013925651592340948 0 -0.047562597845277797 0.0012125277871095578 0 -0.04746359423935901 0.0013693012664948269 0 -0.047497418531503036 0.0015878559116494629 0 -0.047449390417628606 0.0015278013719670315 0 -0.047400145639582052 0.0015952394258215599 0 -0.047732565207210011 0.0016980763735079351 0 -0.047732511175038045 0.0013925651592340948 0 -0.047449390417628606 0.0015278013719670315 0 -0.047517023447321921 0.0016007974467531318 0 -0.047497013815961164 0.0015754632626236863 0 -0.047277477595325912 0.0016624614452596853 0 -0.047400145639582052 0.0015952394258215599 0 -0.047319269583768968 0.0016125111522574775 0 -0.047517023447321921 0.0016007974467531318 0 -0.047398812154721776 0.0016078191983322217 0 -0.047377832770368535 0.0014540522589801695 0 -0.047345627677432368 0.001530040881925591 0 -0.047316837684454945 0.0014454269106633168 0 -0.047377832770368535 0.0014540522589801695 0 -0.047449390417628606 0.0015278013719670315 0 -0.047345627677432368 0.001530040881925591 0 -0.047449390417628606 0.0015278013719670315 0 -0.047400145639582052 0.0015952394258215599 0 -0.047345627677432368 0.001530040881925591 0 -0.047400145639582052 0.0015952394258215599 0 -0.047345627677432368 0.001530040881925591 0 -0.047346623692196825 0.0015821312482999941 0 -0.047345627677432368 0.001530040881925591 0 -0.047307451763727831 0.0015491959188519708 0 -0.047346623692196825 0.0015821312482999941 0 -0.047307451763727831 0.0015491959188519708 0 -0.047346623692196825 0.0015821312482999941 0 -0.047321489506179072 0.0016008896981277033 0 -0.047400145639582052 0.0015952394258215599 0 -0.047346623692196825 0.0015821312482999941 0 -0.047338976938474553 0.0015994925807424703 0 -0.047321489506179072 0.0016008896981277033 0 -0.047307620563473353 0.0015911284876844007 0 -0.047338976938474553 0.0015994925807424703 0 -0.047346623692196825 0.0015821312482999941 0 -0.047321489506179072 0.0016008896981277033 0 -0.047338976938474553 0.0015994925807424703 0 -0.047321489506179072 0.0016008896981277033 0 -0.047301253706432692 0.0016003658518378742 0 -0.047283987574891273 0.0016192233233622963 0 -0.047321489506179072 0.0016008896981277033 0 -0.047301253706432692 0.0016003658518378742 0 -0.047307620563473353 0.0015911284876844007 0 -0.047301253706432692 0.0016003658518378742 0 -0.047293536809290514 0.0015799267755548349 0 -0.047286553796661322 0.0015730304732496229 0 -0.047301253706432692 0.0016003658518378742 0 -0.047293536809290514 0.0015799267755548349 0 -0.047307620563473353 0.0015911284876844007 0 -0.047301253706432692 0.0016003658518378742 0 -0.047286553796661322 0.0015730304732496229 0 -0.04728097966461433 0.0016131029572290256 0 -0.047307620563473353 0.0015911284876844007 0 -0.047248790487530834 0.0015948675126335144 0 -0.047260876354496953 0.0015653781350773348 0 -0.047307620563473353 0.0015911284876844007 0 -0.047338976938474553 0.0015994925807424703 0 -0.047248790487530834 0.0015948675126335144 0 -0.047293536809290514 0.0015799267755548349 0 -0.047307620563473353 0.0015911284876844007 0 -0.047260876354496953 0.0015653781350773348 0 -0.047338976938474553 0.0015994925807424703 0 -0.047319269583768968 0.0016125111522574775 0 -0.047248790487530834 0.0015948675126335144 0 -0.047400145639582052 0.0015952394258215599 0 -0.047338976938474553 0.0015994925807424703 0 -0.047319269583768968 0.0016125111522574775 0 -0.047025640218395517 0.0016088629676501299 0 -0.047248790487530834 0.0015948675126335144 0 -0.047163723153635317 0.0015245848796237413 0 -0.047638517239513213 0.0017787306271503643 0 -0.047517023447321921 0.0016007974467531318 0 -0.047277477595325912 0.0016624614452596853 0 -0.047319269583768968 0.0016125111522574775 0 -0.047248790487530834 0.0015948675126335144 0 -0.047025640218395517 0.0016088629676501299 0 -0.047277477595325912 0.0016624614452596853 0 -0.047248790487530834 0.0015948675126335144 0 -0.047248790487530834 0.0015948675126335144 0 -0.047163723153635317 0.0015245848796237413 0 -0.047260876354496953 0.0015653781350773348 0 -0.047163723153635317 0.0015245848796237413 0 -0.047260876354496953 0.0015653781350773348 0 -0.047248185262500533 0.0015293687369749818 0 -0.047163723153635317 0.0015245848796237413 0 -0.047223669333417165 0.0014847115598486855 0 -0.047248185262500533 0.0015293687369749818 0 -0.047176430793494123 0.0014222542202625087 0 -0.047163723153635317 0.0015245848796237413 0 -0.047223669333417165 0.0014847115598486855 0 -0.047223669333417165 0.0014847115598486855 0 -0.047301360080909231 0.0014790321451473608 0 -0.047248185262500533 0.0015293687369749818 0 -0.047301360080909231 0.0014790321451473608 0 -0.047248185262500533 0.0015293687369749818 0 -0.047280865291577795 0.0015350254015346154 0 -0.047301360080909231 0.0014790321451473608 0 -0.047286553796661322 0.0015730304732496229 0 -0.047254840468296075 0.0016555603502142356 0 -0.045226047762318915 -0.00018265307176999011 0 -0.044790435610371902 -4.5519672615825913e-05 0 -0.045913972653595203 0.00079816421811025444 0 -0.047301360080909231 0.0014790321451473608 0 -0.047286553796661322 0.0015730304732496229 0 -0.047280865291577795 0.0015350254015346154 0 -0.047286553796661322 0.0015730304732496229 0 -0.047279145923639458 0.0015567942471582238 0 -0.047280865291577795 0.0015350254015346154 0 -0.047293536809290514 0.0015799267755548349 0 -0.047286553796661322 0.0015730304732496229 0 -0.047279145923639458 0.0015567942471582238 0 -0.047293536809290514 0.0015799267755548349 0 -0.047279145923639458 0.0015567942471582238 0 -0.047260876354496953 0.0015653781350773348 0 -0.047279145923639458 0.0015567942471582238 0 -0.047260876354496953 0.0015653781350773348 0 -0.047248185262500533 0.0015293687369749818 0 -0.047279145923639458 0.0015567942471582238 0 -0.047248185262500533 0.0015293687369749818 0 -0.047280865291577795 0.0015350254015346154 0 -0.046037407221490294 -0.00089668797247086053 0 -0.045436636193141679 -0.00062907518672029872 0 -0.045913972653595203 0.00079816421811025444 0 -0.046049126886872724 0.000704219238917961 0 -0.046670055670373294 0.0013042573900062496 0 -0.044228374376467372 -0.00058888380319716959 0 -0.046477767485037721 0.00090672936672552169 0 -0.046037407221490294 -0.00089668797247086053 0 -0.046162407111846299 0.00088492722882153407 0 -0.045913972653595203 0.00079816421811025444 0 -0.046119030250245101 0.00013081232131549118 0 -0.0463561925745598 0.00069054057912242082 0 -0.046628339299746149 0.00073567591182484879 0 -0.045417989817309809 -0.0002807293559727849 0 -0.045813207968019062 0.0006795900182171191 0 -0.044790435610371902 -4.5519672615825913e-05 0 -0.046149658232708682 0.0010391750346588333 0 -0.045913972653595203 0.00079816421811025444 0 -0.046119030250245101 0.00013081232131549118 0 -0.0463561925745598 0.00069054057912242082 0 -0.046162407111846299 0.00088492722882153407 0 -0.044228374376467372 -0.00058888380319716959 0 -0.04457816576085203 0.00096498750454786036 0 -0.0463561925745598 0.00069054057912242082 0 -0.046628339299746149 0.00073567591182484879 0 -0.046521541822040879 0.00098850082394144807 0 -0.046521541822040879 0.00098850082394144807 0 -0.046842688427383289 0.0013189797781039396 0 -0.046901963760855411 0.0011911059672132037 0 -0.046521541822040879 0.00098850082394144807 0 -0.046149658232708682 0.0010391750346588333 0 -0.046842688427383289 0.0013189797781039396 0 -0.046628339299746149 0.00073567591182484879 0 -0.046521541822040879 0.00098850082394144807 0 -0.046901963760855411 0.0011911059672132037 0 -0.046521541822040879 0.00098850082394144807 0 -0.046149658232708682 0.0010391750346588333 0 -0.046162407111846299 0.00088492722882153407 0 -0.0463561925745598 0.00069054057912242082 0 -0.046521541822040879 0.00098850082394144807 0 -0.046162407111846299 0.00088492722882153407 0 -0.047286553796661322 0.0015730304732496229 0 -0.047254840468296075 0.0016555603502142356 0 -0.04728097966461433 0.0016131029572290256 0 -0.046149658232708682 0.0010391750346588333 0 -0.046162407111846299 0.00088492722882153407 0 -0.045913972653595203 0.00079816421811025444 0 -0.047254840468296075 0.0016555603502142356 0 -0.04728097966461433 0.0016131029572290256 0 -0.047283987574891273 0.0016192233233622963 0 -0.047301253706432692 0.0016003658518378742 0 -0.04728097966461433 0.0016131029572290256 0 -0.047283987574891273 0.0016192233233622963 0 -0.047254840468296075 0.0016555603502142356 0 -0.047283987574891273 0.0016192233233622963 0 -0.047237458678995543 0.0015290607192800848 0 -0.047307451763727831 0.0015491959188519708 0 -0.047321489506179072 0.0016008896981277033 0 -0.047237458678995543 0.0015290607192800848 0 -0.047321489506179072 0.0016008896981277033 0 -0.047283987574891273 0.0016192233233622963 0 -0.047237458678995543 0.0015290607192800848 0 -0.047307451763727831 0.0015491959188519708 0 -0.047237458678995543 0.0015290607192800848 0 -0.047277033042375967 0.0014841530008667956 0 -0.047345627677432368 0.001530040881925591 0 -0.047307451763727831 0.0015491959188519708 0 -0.047277033042375967 0.0014841530008667956 0 -0.047237458678995543 0.0015290607192800848 0 -0.047152267177046292 0.001344075743076019 0 -0.046842688427383289 0.0013189797781039396 0 -0.047237458678995543 0.0015290607192800848 0 -0.047277033042375967 0.0014841530008667956 0 -0.047152267177046292 0.001344075743076019 0 -0.047254840468296075 0.0016555603502142356 0 -0.047237458678995543 0.0015290607192800848 0 -0.046842688427383289 0.0013189797781039396 0 -0.047345627677432368 0.001530040881925591 0 -0.047316837684454945 0.0014454269106633168 0 -0.047277033042375967 0.0014841530008667956 0 -0.047316837684454945 0.0014454269106633168 0 -0.047277033042375967 0.0014841530008667956 0 -0.047266736350658034 0.0013900743294796044 0 -0.047334071409361821 0.0013574701850071315 0 -0.047316837684454945 0.0014454269106633168 0 -0.047266736350658034 0.0013900743294796044 0 -0.047277033042375967 0.0014841530008667956 0 -0.047152267177046292 0.001344075743076019 0 -0.047266736350658034 0.0013900743294796044 0 -0.047152267177046292 0.001344075743076019 0 -0.047266736350658034 0.0013900743294796044 0 -0.047252775223892561 0.0013105204147731979 0 -0.047152267177046292 0.001344075743076019 0 -0.047252775223892561 0.0013105204147731979 0 -0.047222034876042547 0.0012170482028085168 0 -0.047334071409361821 0.0013574701850071315 0 -0.047266736350658034 0.0013900743294796044 0 -0.047252775223892561 0.0013105204147731979 0 -0.047334071409361821 0.0013574701850071315 0 -0.047252775223892561 0.0013105204147731979 0 -0.047308747354207897 0.0012617421720468843 0 -0.047308747354207897 0.0012617421720468843 0 -0.047315013187241496 0.0011704117907467646 0 -0.047222034876042547 0.0012170482028085168 0 -0.047315013187241496 0.0011704117907467646 0 -0.047222034876042547 0.0012170482028085168 0 -0.047223745802808942 0.0011170239254979094 0 -0.047252775223892561 0.0013105204147731979 0 -0.047308747354207897 0.0012617421720468843 0 -0.047222034876042547 0.0012170482028085168 0 -0.047152267177046292 0.001344075743076019 0 -0.047222034876042547 0.0012170482028085168 0 -0.047117640230243819 0.0011642582875703586 0 -0.047152267177046292 0.001344075743076019 0 -0.047117640230243819 0.0011642582875703586 0 -0.047022915735766828 0.0012403268222136996 0 -0.047222034876042547 0.0012170482028085168 0 -0.047117640230243819 0.0011642582875703586 0 -0.047223745802808942 0.0011170239254979094 0 -0.047117640230243819 0.0011642582875703586 0 -0.047092682139100069 0.001043754649488797 0 -0.046995466806604595 0.0011422412939991588 0 -0.047117640230243819 0.0011642582875703586 0 -0.047162468876848447 0.0010661902872768569 0 -0.047223745802808942 0.0011170239254979094 0 -0.047117640230243819 0.0011642582875703586 0 -0.047162468876848447 0.0010661902872768569 0 -0.047092682139100069 0.001043754649488797 0 -0.047162468876848447 0.0010661902872768569 0 -0.04722407723589566 0.0010229148341598041 0 -0.047161672404555273 0.00098496273168603233 0 -0.047162468876848447 0.0010661902872768569 0 -0.047092682139100069 0.001043754649488797 0 -0.047161672404555273 0.00098496273168603233 0 -0.04722407723589566 0.0010229148341598041 0 -0.047303523263579436 0.00096731004017241409 0 -0.047348131304442188 0.001040329515476062 0 -0.047303523263579436 0.00096731004017241409 0 -0.047348131304442188 0.001040329515476062 0 -0.047394190536775002 0.00088810849372232504 0 -0.047315013187241496 0.0011704117907467646 0 -0.047348131304442188 0.001040329515476062 0 -0.047223745802808942 0.0011170239254979094 0 -0.04722407723589566 0.0010229148341598041 0 -0.047348131304442188 0.001040329515476062 0 -0.047223745802808942 0.0011170239254979094 0 -0.047162468876848447 0.0010661902872768569 0 -0.04722407723589566 0.0010229148341598041 0 -0.047223745802808942 0.0011170239254979094 0 -0.046995466806604595 0.0011422412939991588 0 -0.046878703363666625 0.0011294536448946083 0 -0.04704490803467843 0.00099464258346115874 0 -0.047092682139100069 0.001043754649488797 0 -0.046995466806604595 0.0011422412939991588 0 -0.04704490803467843 0.00099464258346115874 0 -0.047022915735766828 0.0012403268222136996 0 -0.046995466806604595 0.0011422412939991588 0 -0.046842688427383289 0.0013189797781039396 0 -0.047117640230243819 0.0011642582875703586 0 -0.047022915735766828 0.0012403268222136996 0 -0.046995466806604595 0.0011422412939991588 0 -0.046995466806604595 0.0011422412939991588 0 -0.046842688427383289 0.0013189797781039396 0 -0.046878703363666625 0.0011294536448946083 0 -0.046670055670373294 0.0013042573900062496 0 -0.04681476234004802 0.0013211564156608375 0 -0.047152267177046292 0.001344075743076019 0 -0.047022915735766828 0.0012403268222136996 0 -0.046842688427383289 0.0013189797781039396 0 -0.046855781667709082 0.0012325130212150943 0 -0.046755924242172862 0.0012164865608502297 0 -0.046901963760855411 0.0011911059672132037 0 -0.046842688427383289 0.0013189797781039396 0 -0.046855781667709082 0.0012325130212150943 0 -0.046901963760855411 0.0011911059672132037 0 -0.046842688427383289 0.0013189797781039396 0 -0.046855781667709082 0.0012325130212150943 0 -0.046878703363666625 0.0011294536448946083 0 -0.046878703363666625 0.0011294536448946083 0 -0.046755924242172862 0.0012164865608502297 0 -0.046777672855901939 0.00099845997875489261 0 -0.046855781667709082 0.0012325130212150943 0 -0.046878703363666625 0.0011294536448946083 0 -0.046755924242172862 0.0012164865608502297 0 -0.047511967070695597 0.0014329006971362742 0 -0.049113757801982114 0.00097901428738046583 0 -0.050601683861912147 0.0018068641807120582 0 -0.050406046305375381 0.0015774252162487786 0 -0.051051262165476938 0.0011369549785873951 0 -0.047511967070695597 0.0014329006971362742 0 -0.051902836592935243 0.0014556213700964707 0 -0.047511967070695597 0.0014329006971362742 0 -0.044529832879401647 0.001191701297298411 0 -0.043792495100517519 0.0015178372705630279 0 -0.043446588545320186 0.002091789792289747 0 -0.042870781796934015 0.0014787954880358728 0 -0.047044296696261451 0.0019040104102123335 0 -0.047511967070695597 0.0014329006971362742 0 -0.043761593176493058 0.00094067473903041408 0 -0.043792495100517519 0.0015178372705630279 0 -0.043216655018844662 0.001055768894589206 0 -0.043792495100517519 0.0015178372705630279 0 -0.043216655018844662 0.001055768894589206 0 -0.042870781796934015 0.0014787954880358728 0 -0.042367844256832092 0.00086586208479304879 0 -0.043216655018844662 0.001055768894589206 0 -0.042870781796934015 0.0014787954880358728 0 -0.04457816576085203 0.00096498750454786036 0 -0.044529832879401647 0.001191701297298411 0 -0.042527119396891737 0.00030795820853750025 0 -0.042367844256832092 0.00086586208479304879 0 -0.042886267817489457 0.00057642259854855874 0 -0.042367844256832092 0.00086586208479304879 0 -0.043216655018844662 0.001055768894589206 0 -0.042886267817489457 0.00057642259854855874 0 -0.043216655018844662 0.001055768894589206 0 -0.042886267817489457 0.00057642259854855874 0 -0.043502274011482156 0.00056462774453765912 0 -0.04298024936597461 0.00057043585683052168 0 -0.043207116786160758 0.0005703919007668403 0 -0.043761593176493058 0.00094067473903041408 0 -0.043216655018844662 0.001055768894589206 0 -0.043502274011482156 0.00056462774453765912 0 -0.054940010774435909 6.103939636259721e-06 0 -0.055054457151142572 -3.2356983170068368e-06 0 -0.055000175756813971 9.5541713888356631e-05 0 -0.054940010774435909 6.103939636259721e-06 0 -0.055054457151142572 -3.2356983170068368e-06 0 -0.054964300209021412 -7.0923851363640324e-05 0 -0.054929537363895664 8.6217272584928335e-05 0 -0.054940010774435909 6.103939636259721e-06 0 -0.055000175756813971 9.5541713888356631e-05 0 -0.055090912954979726 9.5060453812471557e-05 0 -0.055143101941457016 0.00013238532833104492 0 -0.055148439593708694 5.5728485659771262e-05 0 -0.055090912954979726 9.5060453812471557e-05 0 -0.055143101941457016 0.00013238532833104492 0 -0.055071666352832047 0.00022478167415782184 0 -0.055068975569249341 5.5996845401977675e-05 0 -0.055069484481105831 0.00021063444186454595 0 -0.055143101941457016 0.00013238532833104492 0 -0.05516778509314868 0.00021580865359948032 0 -0.055071666352832047 0.00022478167415782184 0 -0.055054457151142572 -3.2356983170068368e-06 0 -0.055071666352832047 0.00022478167415782184 0 -0.055000175756813971 9.5541713888356631e-05 0 -0.055071666352832047 0.00022478167415782184 0 -0.054982358341934386 0.00020577163072593119 0 -0.054999734076188835 0.0003174902484948907 0 -0.055071666352832047 0.00022478167415782184 0 -0.055000175756813971 9.5541713888356631e-05 0 -0.054982358341934386 0.00020577163072593119 0 -0.054929537363895664 8.6217272584928335e-05 0 -0.055000175756813971 9.5541713888356631e-05 0 -0.054982358341934386 0.00020577163072593119 0 -0.055071666352832047 0.00022478167415782184 0 -0.054999734076188835 0.0003174902484948907 0 -0.055070683950811945 0.00048145345155421303 0 -0.054954888738471139 0.00030086155821648056 0 -0.054982358341934386 0.00020577163072593119 0 -0.054999734076188835 0.0003174902484948907 0 -0.053897744316746099 0.0011711745861366484 0 -0.055313938689956252 3.6613280217886191e-05 0 -0.054742640930464215 0.00073435265909146757 0 -0.054824120837593984 0.00083749314003037523 0 -0.055070683950811945 0.00048145345155421303 0 -0.050406046305375381 0.0015774252162487786 0 -0.050867735095047495 0.00086976797881999925 0 -0.051051262165476938 0.0011369549785873951 0 -0.051902836592935243 0.0014556213700964707 0 -0.053081306659685759 0.00059538820805232621 0 -0.054742640930464215 0.00073435265909146757 0 -0.054999734076188835 0.0003174902484948907 0 -0.055070683950811945 0.00048145345155421303 0 -0.049113757801982114 0.00097901428738046583 0 -0.048942021560680296 0.00058356566868390651 0 -0.046777672855901939 0.00099845997875489261 0 -0.047027449966843306 0.0004740876930815823 0 -0.047032142747380358 0.00095844375994682326 0 -0.050867735095047495 0.00086976797881999925 0 -0.051051262165476938 0.0011369549785873951 0 -0.051497598577940507 0.00047473118076302666 0 -0.046878703363666625 0.0011294536448946083 0 -0.046777672855901939 0.00099845997875489261 0 -0.047032142747380358 0.00095844375994682326 0 -0.053175751908256644 0.00020682208841793192 0 -0.053081306659685759 0.00059538820805232621 0 -0.051327307525490876 0.00017132873131398333 0 -0.050867735095047495 0.00086976797881999925 0 -0.051497598577940507 0.00047473118076302666 0 -0.05516778509314868 0.00021580865359948032 0 -0.055071666352832047 0.00022478167415782184 0 -0.055070683950811945 0.00048145345155421303 0 -0.047027449966843306 0.0004740876930815823 0 -0.047487512937822739 0.0004809815413606435 0 -0.047528764664151124 -3.3700732393457302e-05 0 -0.047027449966843306 0.0004740876930815823 0 -0.047249548132756947 0.0007169418149408132 0 -0.047032142747380358 0.00095844375994682326 0 -0.047249548132756947 0.0007169418149408132 0 -0.047470471726657915 0.00096488747388495059 0 -0.047487512937822739 0.0004809815413606435 0 -0.047027449966843306 0.0004740876930815823 0 -0.047249548132756947 0.0007169418149408132 0 -0.047487512937822739 0.0004809815413606435 0 -0.047249548132756947 0.0007169418149408132 0 -0.047032142747380358 0.00095844375994682326 0 -0.047470471726657915 0.00096488747388495059 0 -0.04704490803467843 0.00099464258346115874 0 -0.047032142747380358 0.00095844375994682326 0 -0.04710570106189195 0.00092087379097020579 0 -0.046542235212082832 0.001070600512712364 0 -0.049526096425233326 0.0012778537315229093 0 -0.04704490803467843 0.00099464258346115874 0 -0.047105288464787835 0.00093541505140990161 0 -0.04710570106189195 0.00092087379097020579 0 -0.047092682139100069 0.001043754649488797 0 -0.04704490803467843 0.00099464258346115874 0 -0.047105288464787835 0.00093541505140990161 0 -0.046878703363666625 0.0011294536448946083 0 -0.04704490803467843 0.00099464258346115874 0 -0.047032142747380358 0.00095844375994682326 0 -0.049526096425233326 0.0012778537315229093 0 -0.05159236441588462 0.00056741727992090164 0 -0.054232209106896835 0.00063034106042933794 0 -0.054440697062309529 0.00043685511873703799 0 -0.054630457188256723 0.00054053152331262643 0 -0.047253752837373743 0.00091601981236844629 0 -0.047097213577265214 0.00085485780884173468 0 -0.047394190536775002 0.00088810849372232504 0 -0.047303523263579436 0.00096731004017241409 0 -0.047253752837373743 0.00091601981236844629 0 -0.047394190536775002 0.00088810849372232504 0 -0.04722407723589566 0.0010229148341598041 0 -0.047303523263579436 0.00096731004017241409 0 -0.047253752837373743 0.00091601981236844629 0 -0.04722407723589566 0.0010229148341598041 0 -0.047253752837373743 0.00091601981236844629 0 -0.047161672404555273 0.00098496273168603233 0 -0.047161672404555273 0.00098496273168603233 0 -0.047154285194934559 0.00092630343240134364 0 -0.047105288464787835 0.00093541505140990161 0 -0.047253752837373743 0.00091601981236844629 0 -0.047161672404555273 0.00098496273168603233 0 -0.047154285194934559 0.00092630343240134364 0 -0.047092682139100069 0.001043754649488797 0 -0.047161672404555273 0.00098496273168603233 0 -0.047105288464787835 0.00093541505140990161 0 -0.047154285194934559 0.00092630343240134364 0 -0.047105288464787835 0.00093541505140990161 0 -0.047097213577265214 0.00085485780884173468 0 -0.049300763580068803 0.0011535538044058903 0 -0.049526096425233326 0.0012778537315229093 0 -0.047253752837373743 0.00091601981236844629 0 -0.047154285194934559 0.00092630343240134364 0 -0.047097213577265214 0.00085485780884173468 0 -0.054440697062309529 0.00043685511873703799 0 -0.054494750884810532 0.00032139612819915078 0 -0.054467207153523725 0.00024363659913709241 0 -0.054836099150670323 0.00055502711292952775 0 -0.052838906664400137 5.3367497057356144e-05 0 -0.054440697062309529 0.00043685511873703799 0 -0.054194830992501122 0.00030920710541004374 0 -0.054166637506964363 -5.5255121315296722e-05 0 -0.049526096425233326 0.0012778537315229093 0 -0.050844328630445315 0.00028879156975172984 0 -0.054232209106896835 0.00063034106042933794 0 -0.054440697062309529 0.00043685511873703799 0 -0.054194830992501122 0.00030920710541004374 0 -0.054440697062309529 0.00043685511873703799 0 -0.054494750884810532 0.00032139612819915078 0 -0.05456442863258442 0.00037881733842002788 0 -0.054494750884810532 0.00032139612819915078 0 -0.05449879300704525 0.00026826252477728599 0 -0.054597932905382292 0.0002805378011665479 0 -0.050844328630445315 0.00028879156975172984 0 -0.052838906664400137 5.3367497057356144e-05 0 -0.05449879300704525 0.00026826252477728599 0 -0.054575624736395753 0.00020648959641700963 0 -0.054597932905382292 0.0002805378011665479 0 -0.05449879300704525 0.00026826252477728599 0 -0.054509868502771515 0.00022595723427803712 0 -0.054575624736395753 0.00020648959641700963 0 -0.054509868502771515 0.00022595723427803712 0 -0.054575624736395753 0.00020648959641700963 0 -0.054518238402001734 0.00020049214113419282 0 -0.054488287401238095 0.00022347136293279478 0 -0.054467207153523725 0.00024363659913709241 0 -0.05446266635308885 0.00019445154458079891 0 -0.052838906664400137 5.3367497057356144e-05 0 -0.052126535954118203 9.0007545381702362e-06 0 -0.052838906664400137 5.3367497057356144e-05 0 -0.05370798874747016 -0.00019748182829499856 0 -0.053200122822702055 -0.00011535189261361625 0 -0.053263385695921532 9.2314354017431107e-06 0 -0.053207787023553048 9.8753590925916348e-05 0 -0.054488287401238095 0.00022347136293279478 0 -0.054490497036445117 0.00024086458600743887 0 -0.054467207153523725 0.00024363659913709241 0 -0.054488287401238095 0.00022347136293279478 0 -0.054509868502771515 0.00022595723427803712 0 -0.054518238402001734 0.00020049214113419282 0 -0.054488287401238095 0.00022347136293279478 0 -0.054509868502771515 0.00022595723427803712 0 -0.054490497036445117 0.00024086458600743887 0 -0.05449879300704525 0.00026826252477728599 0 -0.054509868502771515 0.00022595723427803712 0 -0.054490497036445117 0.00024086458600743887 0 -0.05449879300704525 0.00026826252477728599 0 -0.054490497036445117 0.00024086458600743887 0 -0.054467207153523725 0.00024363659913709241 0 -0.054494750884810532 0.00032139612819915078 0 -0.05449879300704525 0.00026826252477728599 0 -0.054467207153523725 0.00024363659913709241 0 -0.051327307525490876 0.00017132873131398333 0 -0.051947128134366576 -0.00018860026273080093 0 -0.05178851414985703 -0.00052866309981024022 0 -0.048942021560680296 0.00058356566868390651 0 -0.052126535954118203 9.0007545381702362e-06 0 -0.047027449966843306 0.0004740876930815823 0 -0.047528764664151124 -3.3700732393457302e-05 0 -0.047471803352502312 -0.00016564330702307465 0 -0.051327307525490876 0.00017132873131398333 0 -0.051497598577940507 0.00047473118076302666 0 -0.051947128134366576 -0.00018860026273080093 0 -0.053175751908256644 0.00020682208841793192 0 -0.053935815788850018 -4.1321252908100176e-05 0 -0.055143101941457016 0.00013238532833104492 0 -0.05516778509314868 0.00021580865359948032 0 -0.055213708733481782 8.7837702124768136e-05 0 -0.05489082583475316 -0.00014547360888176293 0 -0.054920255962442745 -0.0001150389945362387 0 -0.054889179564967423 -0.00013627633224727319 0 -0.052126535954118203 9.0007545381702362e-06 0 -0.053935815788850018 -4.1321252908100176e-05 0 -0.055143101941457016 0.00013238532833104492 0 -0.055213708733481782 8.7837702124768136e-05 0 -0.055148439593708694 5.5728485659771262e-05 0 -0.054939440632789806 -0.00011280672876812455 0 -0.054924826436940105 -9.4388162496722612e-05 0 -0.054950776465381823 -8.5346541925500466e-05 0 -0.054920255962442745 -0.0001150389945362387 0 -0.054889179564967423 -0.00013627633224727319 0 -0.054924826436940105 -9.4388162496722612e-05 0 -0.053935815788850018 -4.1321252908100176e-05 0 -0.054590891918335618 -0.00031260209850131332 0 -0.05370798874747016 -0.00019748182829499856 0 -0.054883503910808033 -3.2221046583922512e-05 0 -0.054563374658724018 0.00015075617774260228 0 -0.05446266635308885 0.00019445154458079891 0 -0.054627855881507197 5.4373888088609531e-05 0 -0.054889179564967423 -0.00013627633224727319 0 -0.054934306987088101 -7.0950769673799131e-05 0 -0.054924826436940105 -9.4388162496722612e-05 0 -0.05370798874747016 -0.00019748182829499856 0 -0.055051093148427439 -6.1633243850522658e-05 0 -0.054563374658724018 0.00015075617774260228 0 -0.05465756124837777 0.00013605377320943739 0 -0.054627855881507197 5.4373888088609531e-05 0 -0.054563374658724018 0.00015075617774260228 0 -0.054575624736395753 0.00020648959641700963 0 -0.05465756124837777 0.00013605377320943739 0 -0.054563374658724018 0.00015075617774260228 0 -0.054575624736395753 0.00020648959641700963 0 -0.054518238402001734 0.00020049214113419282 0 -0.054488287401238095 0.00022347136293279478 0 -0.054518238402001734 0.00020049214113419282 0 -0.05446266635308885 0.00019445154458079891 0 -0.054563374658724018 0.00015075617774260228 0 -0.054518238402001734 0.00020049214113419282 0 -0.05446266635308885 0.00019445154458079891 0 -0.052126535954118203 9.0007545381702362e-06 0 -0.05370798874747016 -0.00019748182829499856 0 -0.054687135385351845 0.00019782644406342661 0 -0.05465756124837777 0.00013605377320943739 0 -0.054743196339345948 0.00013062885946076505 0 -0.054575624736395753 0.00020648959641700963 0 -0.054687135385351845 0.00019782644406342661 0 -0.05465756124837777 0.00013605377320943739 0 -0.05465756124837777 0.00013605377320943739 0 -0.054743196339345948 0.00013062885946076505 0 -0.054760459277767182 5.8742817272104865e-05 0 -0.054743196339345948 0.00013062885946076505 0 -0.054791599537567036 0.00016152071050699478 0 -0.054806029533927859 8.7892085617125482e-05 0 -0.054791599537567036 0.00016152071050699478 0 -0.054869665927745649 9.2851734280858375e-05 0 -0.054806029533927859 8.7892085617125482e-05 0 -0.054791599537567036 0.00016152071050699478 0 -0.054751057197550822 0.0002553825720718503 0 -0.054867180203777295 0.0001834719396493356 0 -0.054687135385351845 0.00019782644406342661 0 -0.054743196339345948 0.00013062885946076505 0 -0.054791599537567036 0.00016152071050699478 0 -0.054687135385351845 0.00019782644406342661 0 -0.054791599537567036 0.00016152071050699478 0 -0.054751057197550822 0.0002553825720718503 0 -0.054751057197550822 0.0002553825720718503 0 -0.054682812098479104 0.00036165768601101425 0 -0.05481633396119602 0.00032258610276737374 0 -0.054687135385351845 0.00019782644406342661 0 -0.054751057197550822 0.0002553825720718503 0 -0.054597932905382292 0.0002805378011665479 0 -0.054751057197550822 0.0002553825720718503 0 -0.054597932905382292 0.0002805378011665479 0 -0.054682812098479104 0.00036165768601101425 0 -0.054575624736395753 0.00020648959641700963 0 -0.054687135385351845 0.00019782644406342661 0 -0.054597932905382292 0.0002805378011665479 0 -0.054494750884810532 0.00032139612819915078 0 -0.054597932905382292 0.0002805378011665479 0 -0.05456442863258442 0.00037881733842002788 0 -0.054440697062309529 0.00043685511873703799 0 -0.05456442863258442 0.00037881733842002788 0 -0.054630457188256723 0.00054053152331262643 0 -0.05456442863258442 0.00037881733842002788 0 -0.054630457188256723 0.00054053152331262643 0 -0.054682812098479104 0.00036165768601101425 0 -0.054597932905382292 0.0002805378011665479 0 -0.05456442863258442 0.00037881733842002788 0 -0.054682812098479104 0.00036165768601101425 0 -0.047097213577265214 0.00085485780884173468 0 -0.04768850641189834 0.00069860283416187346 0 -0.047394190536775002 0.00088810849372232504 0 -0.047557066927429011 0.0010009912015358012 0 -0.04768850641189834 0.00069860283416187346 0 -0.047394190536775002 0.00088810849372232504 0 -0.04789531950191292 0.0011593617643805318 0 -0.04768850641189834 0.00069860283416187346 0 -0.048408167936195373 0.00063036504954117707 0 -0.054630457188256723 0.00054053152331262643 0 -0.054741999160531289 0.0004282146393943214 0 -0.054830597887540085 0.00049127053037006322 0 -0.047162805816730859 0.0013990116740653048 0 -0.050725154891401752 0.00041313626932826166 0 -0.05159236441588462 0.00056741727992090164 0 -0.050725154891401752 0.00041313626932826166 0 -0.054741999160531289 0.0004282146393943214 0 -0.054682812098479104 0.00036165768601101425 0 -0.05481633396119602 0.00032258610276737374 0 -0.054630457188256723 0.00054053152331262643 0 -0.054741999160531289 0.0004282146393943214 0 -0.054682812098479104 0.00036165768601101425 0 -0.054741999160531289 0.0004282146393943214 0 -0.054830597887540085 0.00049127053037006322 0 -0.05481633396119602 0.00032258610276737374 0 -0.054830597887540085 0.00049127053037006322 0 -0.054948066980442412 0.00034400213025718833 0 -0.05481633396119602 0.00032258610276737374 0 -0.050725154891401752 0.00041313626932826166 0 -0.053309631322700224 0.00026782537540439531 0 -0.050725154891401752 0.00041313626932826166 0 -0.049849194053302973 0.00043705890739335435 0 -0.049238989921314008 0.00093944062412905534 0 -0.048804949899623917 0.0010051754611193769 0 -0.049099473939320411 0.0005207146078611254 0 -0.048804949899623917 0.0010051754611193769 0 -0.048444586319726882 0.00054867715824684176 0 -0.049099473939320411 0.0005207146078611254 0 -0.051206302236286153 0.00032468781853277378 0 -0.051071636156213254 0.00048756261097563589 0 -0.050978334115565543 0.0003377536564701991 0 -0.051071636156213254 0.00048756261097563589 0 -0.050978334115565543 0.0003377536564701991 0 -0.050910682759088624 0.00047388421390068611 0 -0.053309631322700224 0.00026782537540439531 0 -0.052927297647391854 0.00048001364348563121 0 -0.054927655696204856 0.000242665116794031 0 -0.054959379799629754 0.00016185256444885989 0 -0.055028365421675461 0.00021413448483637265 0 -0.054948066980442412 0.00034400213025718833 0 -0.054927655696204856 0.000242665116794031 0 -0.055028365421675461 0.00021413448483637265 0 -0.054751057197550822 0.0002553825720718503 0 -0.05481633396119602 0.00032258610276737374 0 -0.054867180203777295 0.0001834719396493356 0 -0.054948066980442412 0.00034400213025718833 0 -0.054927655696204856 0.000242665116794031 0 -0.05481633396119602 0.00032258610276737374 0 -0.054927655696204856 0.000242665116794031 0 -0.05481633396119602 0.00032258610276737374 0 -0.054867180203777295 0.0001834719396493356 0 -0.054867180203777295 0.0001834719396493356 0 -0.054959379799629754 0.00016185256444885989 0 -0.054931863875675967 8.0612110916034786e-05 0 -0.054867180203777295 0.0001834719396493356 0 -0.054931863875675967 8.0612110916034786e-05 0 -0.054869665927745649 9.2851734280858375e-05 0 -0.054791599537567036 0.00016152071050699478 0 -0.054867180203777295 0.0001834719396493356 0 -0.054869665927745649 9.2851734280858375e-05 0 -0.054959379799629754 0.00016185256444885989 0 -0.054931863875675967 8.0612110916034786e-05 0 -0.055004315834952203 8.5876881019978626e-05 0 -0.054927655696204856 0.000242665116794031 0 -0.054867180203777295 0.0001834719396493356 0 -0.054959379799629754 0.00016185256444885989 0 -0.054959379799629754 0.00016185256444885989 0 -0.055028365421675461 0.00021413448483637265 0 -0.055004315834952203 8.5876881019978626e-05 0 -0.054931863875675967 8.0612110916034786e-05 0 -0.054967329218987802 9.6284451991160064e-06 0 -0.055004315834952203 8.5876881019978626e-05 0 -0.054967329218987802 9.6284451991160064e-06 0 -0.055004315834952203 8.5876881019978626e-05 0 -0.055026500560929566 -1.8907254959634931e-05 0 -0.054931863875675967 8.0612110916034786e-05 0 -0.054869665927745649 9.2851734280858375e-05 0 -0.054922866906213175 1.140686406101255e-05 0 -0.054869665927745649 9.2851734280858375e-05 0 -0.054922866906213175 1.140686406101255e-05 0 -0.054861910707256982 1.9433820464914147e-05 0 -0.054931863875675967 8.0612110916034786e-05 0 -0.054922866906213175 1.140686406101255e-05 0 -0.054967329218987802 9.6284451991160064e-06 0 -0.054922866906213175 1.140686406101255e-05 0 -0.054982035750990865 -2.0521610704612618e-05 0 -0.054932444254734598 -1.6076294002525992e-05 0 -0.054967329218987802 9.6284451991160064e-06 0 -0.054997605069308425 -1.5036554775437606e-05 0 -0.054982035750990865 -2.0521610704612618e-05 0 -0.054922866906213175 1.140686406101255e-05 0 -0.054967329218987802 9.6284451991160064e-06 0 -0.054982035750990865 -2.0521610704612618e-05 0 -0.054967329218987802 9.6284451991160064e-06 0 -0.054997605069308425 -1.5036554775437606e-05 0 -0.055026500560929566 -1.8907254959634931e-05 0 -0.054997605069308425 -1.5036554775437606e-05 0 -0.054982035750990865 -2.0521610704612618e-05 0 -0.055010738913901049 -2.1165938808546417e-05 0 -0.054982035750990865 -2.0521610704612618e-05 0 -0.055000003301445645 -1.3386737176163236e-08 0 -0.054999919457692191 -3.0687137618408289e-08 0 -0.054982035750990865 -2.0521610704612618e-05 0 -0.055000003301445645 -1.3386737176163236e-08 0 -0.055003888384458438 -1.061163383248017e-05 0 -0.054982035750990865 -2.0521610704612618e-05 0 -0.054932444254734598 -1.6076294002525992e-05 0 -0.054999919457692191 -3.0687137618408289e-08 0 -0.054932444254734598 -1.6076294002525992e-05 0 -0.05494800930916284 -8.2479202083220774e-06 0 -0.054866600545442193 -2.6527574752123094e-05 0 -0.054932444254734598 -1.6076294002525992e-05 0 -0.054999919457692191 -3.0687137618408289e-08 0 -0.05494800930916284 -8.2479202083220774e-06 0 -0.054999919457692191 -3.0687137618408289e-08 0 -0.05494800930916284 -8.2479202083220774e-06 0 -0.05499992558100493 9.7626878579466481e-09 0 -0.05494800930916284 -8.2479202083220774e-06 0 -0.054969765309765418 -5.6465402910102226e-06 0 -0.05499992558100493 9.7626878579466481e-09 0 -0.05494800930916284 -8.2479202083220774e-06 0 -0.054866600545442193 -2.6527574752123094e-05 0 -0.054939379725280499 -1.3588752051414222e-05 0 -0.05494800930916284 -8.2479202083220774e-06 0 -0.054939379725280499 -1.3588752051414222e-05 0 -0.054969765309765418 -5.6465402910102226e-06 0 -0.054866600545442193 -2.6527574752123094e-05 0 -0.054920606049236716 -9.6353446077912812e-05 0 -0.0549336157641006 -4.5249944759968093e-05 0 -0.054866600545442193 -2.6527574752123094e-05 0 -0.0549336157641006 -4.5249944759968093e-05 0 -0.054939379725280499 -1.3588752051414222e-05 0 -0.054922866906213175 1.140686406101255e-05 0 -0.054932444254734598 -1.6076294002525992e-05 0 -0.054861910707256982 1.9433820464914147e-05 0 -0.054932444254734598 -1.6076294002525992e-05 0 -0.054866600545442193 -2.6527574752123094e-05 0 -0.054861910707256982 1.9433820464914147e-05 0 -0.054869665927745649 9.2851734280858375e-05 0 -0.054861910707256982 1.9433820464914147e-05 0 -0.054806029533927859 8.7892085617125482e-05 0 -0.054861910707256982 1.9433820464914147e-05 0 -0.054806029533927859 8.7892085617125482e-05 0 -0.054760459277767182 5.8742817272104865e-05 0 -0.054743196339345948 0.00013062885946076505 0 -0.054806029533927859 8.7892085617125482e-05 0 -0.054760459277767182 5.8742817272104865e-05 0 -0.054817074984948387 -6.3947366827917461e-06 0 -0.054883503910808033 -3.2221046583922512e-05 0 -0.054866600545442193 -2.6527574752123094e-05 0 -0.054861910707256982 1.9433820464914147e-05 0 -0.054760459277767182 5.8742817272104865e-05 0 -0.054866600545442193 -2.6527574752123094e-05 0 -0.054760459277767182 5.8742817272104865e-05 0 -0.054627855881507197 5.4373888088609531e-05 0 -0.05465756124837777 0.00013605377320943739 0 -0.054760459277767182 5.8742817272104865e-05 0 -0.054627855881507197 5.4373888088609531e-05 0 -0.054955914410624952 -8.3012000543783996e-05 0 -0.054920606049236716 -9.6353446077912812e-05 0 -0.0549336157641006 -4.5249944759968093e-05 0 -0.054938035303303011 -0.000142351397391751 0 -0.054955914410624952 -8.3012000543783996e-05 0 -0.054920606049236716 -9.6353446077912812e-05 0 -0.053935815788850018 -4.1321252908100176e-05 0 -0.055199961039570707 2.424539740480877e-05 0 -0.054939440632789806 -0.00011280672876812455 0 -0.054950776465381823 -8.5346541925500466e-05 0 -0.054979356167698917 -6.2366700389004747e-05 0 -0.055213708733481782 8.7837702124768136e-05 0 -0.055163106668159441 -1.6062549553866311e-05 0 -0.055148439593708694 5.5728485659771262e-05 0 -0.054934306987088101 -7.0950769673799131e-05 0 -0.054924826436940105 -9.4388162496722612e-05 0 -0.054950776465381823 -8.5346541925500466e-05 0 -0.054934306987088101 -7.0950769673799131e-05 0 -0.054966026518588097 -1.83673006929774e-05 0 -0.054985623028555072 -1.5696953075119856e-05 0 -0.054954999099594892 -8.1797045047100439e-05 0 -0.054980822471239969 -2.1757293320526957e-05 0 -0.054934306987088101 -7.0950769673799131e-05 0 -0.054950776465381823 -8.5346541925500466e-05 0 -0.054985623028555072 -1.5696953075119856e-05 0 -0.054950776465381823 -8.5346541925500466e-05 0 -0.054978683108301153 -2.4408396647751344e-05 0 -0.054979356167698917 -6.2366700389004747e-05 0 -0.055051093148427439 -6.1633243850522658e-05 0 -0.05494310896347699 -3.047598880708492e-05 0 -0.054955914410624952 -8.3012000543783996e-05 0 -0.0549336157641006 -4.5249944759968093e-05 0 -0.054966026518588097 -1.83673006929774e-05 0 -0.0549336157641006 -4.5249944759968093e-05 0 -0.054939379725280499 -1.3588752051414222e-05 0 -0.054966026518588097 -1.83673006929774e-05 0 -0.054939379725280499 -1.3588752051414222e-05 0 -0.054966026518588097 -1.83673006929774e-05 0 -0.054969765309765418 -5.6465402910102226e-06 0 -0.054966026518588097 -1.83673006929774e-05 0 -0.054969765309765418 -5.6465402910102226e-06 0 -0.054976198082479388 -1.0595414181019594e-05 0 -0.054969765309765418 -5.6465402910102226e-06 0 -0.054986052160444179 -4.0597117414334839e-06 0 -0.054976198082479388 -1.0595414181019594e-05 0 -0.054969765309765418 -5.6465402910102226e-06 0 -0.05499992558100493 9.7626878579466481e-09 0 -0.054986052160444179 -4.0597117414334839e-06 0 -0.05499992558100493 9.7626878579466481e-09 0 -0.055000002511718805 1.0398457509045338e-09 0 -0.054986052160444179 -4.0597117414334839e-06 0 -0.055000002511718805 1.0398457509045338e-09 0 -0.054986052160444179 -4.0597117414334839e-06 0 -0.054985623028555072 -1.5696953075119856e-05 0 -0.054999995286212508 -1.3532633745960767e-09 0 -0.054980822471239969 -2.1757293320526957e-05 0 -0.054999975495279595 1.2666216962983074e-09 0 -0.054978683108301153 -2.4408396647751344e-05 0 -0.054995594031898978 -1.1234152974311781e-05 0 -0.054986052160444179 -4.0597117414334839e-06 0 -0.054976198082479388 -1.0595414181019594e-05 0 -0.054985623028555072 -1.5696953075119856e-05 0 -0.054966026518588097 -1.83673006929774e-05 0 -0.054976198082479388 -1.0595414181019594e-05 0 -0.054985623028555072 -1.5696953075119856e-05 0 -0.054931081891213505 -9.6376106410739609e-05 0 -0.054938800716044317 -8.9844359744126323e-05 0 -0.054999867926729971 -4.1664002505371298e-08 0 -0.054978683108301153 -2.4408396647751344e-05 0 -0.055002124914858147 -2.3246856903894492e-05 0 -0.054995594031898978 -1.1234152974311781e-05 0 -0.054948122129986954 -0.00010045683458841804 0 -0.054937423764877966 -0.00010035048454088533 0 -0.054954883833875187 -0.00010845437194384469 0 -0.054948122129986954 -0.00010045683458841804 0 -0.054937423764877966 -0.00010035048454088533 0 -0.054938800716044317 -8.9844359744126323e-05 0 -0.055005956352933684 -8.538769127612006e-05 0 -0.055001379121908875 -8.8931200714800757e-05 0 -0.054948122129986954 -0.00010045683458841804 0 -0.054938800716044317 -8.9844359744126323e-05 0 -0.054950203908887232 -9.1260281273754075e-05 0 -0.054938800716044317 -8.9844359744126323e-05 0 -0.054958728007440109 -7.4703223454243518e-05 0 -0.054950203908887232 -9.1260281273754075e-05 0 -0.055005956352933684 -8.538769127612006e-05 0 -0.054999963575200518 1.5643161469266501e-08 0 -0.054938800716044317 -8.9844359744126323e-05 0 -0.054999867926729971 -4.1664002505371298e-08 0 -0.054974944724676199 -4.0959077870482955e-05 0 -0.055002124914858147 -2.3246856903894492e-05 0 -0.054995594031898978 -1.1234152974311781e-05 0 -0.055000017107919692 -6.4083506512624319e-11 0 -0.054999975495279595 1.2666216962983074e-09 0 -0.054995594031898978 -1.1234152974311781e-05 0 -0.055000017107919692 -6.4083506512624319e-11 0 -0.05499995496305992 -6.0447276014707503e-08 0 -0.054999867926729971 -4.1664002505371298e-08 0 -0.054974944724676199 -4.0959077870482955e-05 0 -0.05499995496305992 -6.0447276014707503e-08 0 -0.054974944724676199 -4.0959077870482955e-05 0 -0.054963843932246514 -6.1659486939193571e-05 0 -0.054963843932246514 -6.1659486939193571e-05 0 -0.054958728007440109 -7.4703223454243518e-05 0 -0.05494651867862544 -9.4483777636495843e-05 0 -0.054938800716044317 -8.9844359744126323e-05 0 -0.054974944724676199 -4.0959077870482955e-05 0 -0.054958728007440109 -7.4703223454243518e-05 0 -0.054974944724676199 -4.0959077870482955e-05 0 -0.054963843932246514 -6.1659486939193571e-05 0 -0.054958728007440109 -7.4703223454243518e-05 0 -0.054958728007440109 -7.4703223454243518e-05 0 -0.054950203908887232 -9.1260281273754075e-05 0 -0.054949758104582809 -0.00010493764756406232 0 -0.054958728007440109 -7.4703223454243518e-05 0 -0.054949758104582809 -0.00010493764756406232 0 -0.05494651867862544 -9.4483777636495843e-05 0 -0.054948122129986954 -0.00010045683458841804 0 -0.054950203908887232 -9.1260281273754075e-05 0 -0.054949758104582809 -0.00010493764756406232 0 -0.054949758104582809 -0.00010493764756406232 0 -0.05494651867862544 -9.4483777636495843e-05 0 -0.054927775394149364 -0.00011869778164360954 0 -0.054949758104582809 -0.00010493764756406232 0 -0.054927775394149364 -0.00011869778164360954 0 -0.054955326546668751 -0.00011420503714625642 0 -0.054955326546668751 -0.00011420503714625642 0 -0.054986972351637915 -0.00011200990396817496 0 -0.054934706671473009 -0.00011244605823980598 0 -0.054927775394149364 -0.00011869778164360954 0 -0.054955326546668751 -0.00011420503714625642 0 -0.054934706671473009 -0.00011244605823980598 0 -0.054955326546668751 -0.00011420503714625642 0 -0.054954883833875187 -0.00010845437194384469 0 -0.054986972351637915 -0.00011200990396817496 0 -0.054949758104582809 -0.00010493764756406232 0 -0.054955326546668751 -0.00011420503714625642 0 -0.054954883833875187 -0.00010845437194384469 0 -0.054948122129986954 -0.00010045683458841804 0 -0.054949758104582809 -0.00010493764756406232 0 -0.054954883833875187 -0.00010845437194384469 0 -0.055005956352933684 -8.538769127612006e-05 0 -0.055047238915374476 -6.18117378578222e-05 0 -0.055110495528855587 -0.00011860581498239734 0 -0.055101927397466409 -1.3007697112699664e-05 0 -0.055163106668159441 -1.6062549553866311e-05 0 -0.054978683108301153 -2.4408396647751344e-05 0 -0.055002124914858147 -2.3246856903894492e-05 0 -0.054979356167698917 -6.2366700389004747e-05 0 -0.055005956352933684 -8.538769127612006e-05 0 -0.055199961039570707 2.424539740480877e-05 0 -0.054937423764877966 -0.00010035048454088533 0 -0.054954883833875187 -0.00010845437194384469 0 -0.054986972351637915 -0.00011200990396817496 0 -0.055090912954979726 9.5060453812471557e-05 0 -0.055101927397466409 -1.3007697112699664e-05 0 -0.055148439593708694 5.5728485659771262e-05 0 -0.055068975569249341 5.5996845401977675e-05 0 -0.055047238915374476 -6.18117378578222e-05 0 -0.055101927397466409 -1.3007697112699664e-05 0 -0.055163106668159441 -1.6062549553866311e-05 0 -0.055148439593708694 5.5728485659771262e-05 0 -0.054986972351637915 -0.00011200990396817496 0 -0.054964300209021412 -7.0923851363640324e-05 0 -0.054934706671473009 -0.00011244605823980598 0 -0.055054457151142572 -3.2356983170068368e-06 0 -0.054986972351637915 -0.00011200990396817496 0 -0.054964300209021412 -7.0923851363640324e-05 0 -0.054883515125028419 -9.5607746286561297e-05 0 -0.054964300209021412 -7.0923851363640324e-05 0 -0.054934706671473009 -0.00011244605823980598 0 -0.050513407338292446 0.0016684699199387149 0 -0.050193077584466714 0.0015692261497223766 0 -0.04933951685619662 0.0022118518031421764 0 -0.049598230675789154 0.0023076631822440325 0 -0.049343271524472279 0.0024521071150414341 0 -0.051865264029012648 0.00082503136375757511 0 -0.052040182534193659 0.00077503538975820117 0 -0.051937411636652164 0.00066279535065365974 0 -0.051865264029012648 0.00082503136375757511 0 -0.052040182534193659 0.00077503538975820117 0 -0.051997475319872685 0.00099161099515665367 0 -0.051865264029012648 0.00082503136375757511 0 -0.051997475319872685 0.00099161099515665367 0 -0.051793140599262398 0.00098313371552424963 0 -0.04933951685619662 0.0022118518031421764 0 -0.050089429845046399 0.0015681877303533967 0 -0.049981222775590986 0.001897881188951413 0 -0.050513407338292446 0.0016684699199387149 0 -0.052057321435082085 0.00074521684362748139 0 -0.053500297224838678 0.00020089846845383594 0 -0.052057321435082085 0.00074521684362748139 0 -0.050089429845046399 0.0015681877303533967 0 -0.050281191416951476 0.0017203589151467255 0 -0.049981222775590986 0.001897881188951413 0 -0.052057321435082085 0.00074521684362748139 0 -0.051716453770683325 0.00077620097771557007 0 -0.050089429845046399 0.0015681877303533967 0 -0.050281191416951476 0.0017203589151467255 0 -0.050245014239310812 0.0015768720042717936 0 -0.050281191416951476 0.0017203589151467255 0 -0.050245014239310812 0.0015768720042717936 0 -0.050736845084357308 0.0016401400559882119 0 -0.050245014239310812 0.0015768720042717936 0 -0.050736845084357308 0.0016401400559882119 0 -0.051431866675210755 0.0013444319358636764 0 -0.050736845084357308 0.0016401400559882119 0 -0.050363504243102195 0.0018283450196229275 0 -0.050746510961888668 0.0016444342477613789 0 -0.050281191416951476 0.0017203589151467255 0 -0.050736845084357308 0.0016401400559882119 0 -0.050363504243102195 0.0018283450196229275 0 -0.050363504243102195 0.0018283450196229275 0 -0.0502234655703305 0.0019630230702411197 0 -0.049887943369133464 0.0020967010298960881 0 -0.050363504243102195 0.0018283450196229275 0 -0.049981222775590986 0.001897881188951413 0 -0.049887943369133464 0.0020967010298960881 0 -0.050281191416951476 0.0017203589151467255 0 -0.050363504243102195 0.0018283450196229275 0 -0.049981222775590986 0.001897881188951413 0 -0.050736845084357308 0.0016401400559882119 0 -0.050746510961888668 0.0016444342477613789 0 -0.051431866675210755 0.0013444319358636764 0 -0.050746510961888668 0.0016444342477613789 0 -0.0502234655703305 0.0019630230702411197 0 -0.050298059721705229 0.0018738035790731515 0 -0.050363504243102195 0.0018283450196229275 0 -0.050746510961888668 0.0016444342477613789 0 -0.0502234655703305 0.0019630230702411197 0 -0.050746510961888668 0.0016444342477613789 0 -0.050298059721705229 0.0018738035790731515 0 -0.050217826483469848 0.0018000442684051108 0 -0.04998300928865524 0.0021198784964358893 0 -0.049698949783918873 0.0023416638518323754 0 -0.049673206405133057 0.0023992906614274398 0 -0.050298059721705229 0.0018738035790731515 0 -0.04998300928865524 0.0021198784964358893 0 -0.049962519866761652 0.0020752864011555554 0 -0.050298059721705229 0.0018738035790731515 0 -0.050217826483469848 0.0018000442684051108 0 -0.049962519866761652 0.0020752864011555554 0 -0.0502234655703305 0.0019630230702411197 0 -0.050298059721705229 0.0018738035790731515 0 -0.04998300928865524 0.0021198784964358893 0 -0.0502234655703305 0.0019630230702411197 0 -0.04998300928865524 0.0021198784964358893 0 -0.049698949783918873 0.0023416638518323754 0 -0.04998300928865524 0.0021198784964358893 0 -0.049673206405133057 0.0023992906614274398 0 -0.049962519866761652 0.0020752864011555554 0 -0.04933951685619662 0.0022118518031421764 0 -0.049887943369133464 0.0020967010298960881 0 -0.049598230675789154 0.0023076631822440325 0 -0.04933951685619662 0.0022118518031421764 0 -0.049981222775590986 0.001897881188951413 0 -0.049887943369133464 0.0020967010298960881 0 -0.0502234655703305 0.0019630230702411197 0 -0.049887943369133464 0.0020967010298960881 0 -0.049698949783918873 0.0023416638518323754 0 -0.049887943369133464 0.0020967010298960881 0 -0.049698949783918873 0.0023416638518323754 0 -0.049598230675789154 0.0023076631822440325 0 -0.049598230675789154 0.0023076631822440325 0 -0.049409240057443772 0.0025543267281123499 0 -0.049343271524472279 0.0024521071150414341 0 -0.049698949783918873 0.0023416638518323754 0 -0.049598230675789154 0.0023076631822440325 0 -0.049409240057443772 0.0025543267281123499 0 -0.049698949783918873 0.0023416638518323754 0 -0.049409240057443772 0.0025543267281123499 0 -0.049430013585378775 0.0026044479542982587 0 -0.049409240057443772 0.0025543267281123499 0 -0.049430013585378775 0.0026044479542982587 0 -0.049179834322513473 0.0027538614990962663 0 -0.049409240057443772 0.0025543267281123499 0 -0.049179834322513473 0.0027538614990962663 0 -0.049343271524472279 0.0024521071150414341 0 -0.049698949783918873 0.0023416638518323754 0 -0.049673206405133057 0.0023992906614274398 0 -0.049430013585378775 0.0026044479542982587 0 -0.049673206405133057 0.0023992906614274398 0 -0.049430013585378775 0.0026044479542982587 0 -0.049291711725760967 0.0027852973465794014 0 -0.049430013585378775 0.0026044479542982587 0 -0.049291711725760967 0.0027852973465794014 0 -0.049122435295727927 0.0028764142721773131 0 -0.048972568703785031 0.0030320671871556164 0 -0.049291711725760967 0.0027852973465794014 0 -0.049122435295727927 0.0028764142721773131 0 -0.049430013585378775 0.0026044479542982587 0 -0.049179834322513473 0.0027538614990962663 0 -0.049122435295727927 0.0028764142721773131 0 -0.048885634188473449 0.0030094063070400458 0 -0.049122435295727927 0.0028764142721773131 0 -0.048978617174692506 0.00291198082314443 0 -0.049179834322513473 0.0027538614990962663 0 -0.049122435295727927 0.0028764142721773131 0 -0.048978617174692506 0.00291198082314443 0 -0.048888601343897671 0.0028857606498565941 0 -0.049026858934049386 0.0027571485472096986 0 -0.048855194879967555 0.0026323074276640148 0 -0.048978617174692506 0.00291198082314443 0 -0.048888601343897671 0.0028857606498565941 0 -0.049026858934049386 0.0027571485472096986 0 -0.049179834322513473 0.0027538614990962663 0 -0.048978617174692506 0.00291198082314443 0 -0.049026858934049386 0.0027571485472096986 0 -0.049179834322513473 0.0027538614990962663 0 -0.049026858934049386 0.0027571485472096986 0 -0.049343271524472279 0.0024521071150414341 0 -0.04933951685619662 0.0022118518031421764 0 -0.049343271524472279 0.0024521071150414341 0 -0.049130987820900855 0.0025417122621557921 0 -0.049026858934049386 0.0027571485472096986 0 -0.049343271524472279 0.0024521071150414341 0 -0.048855194879967555 0.0026323074276640148 0 -0.048836076415869387 0.0026804341833799776 0 -0.050193077584466714 0.0015692261497223766 0 -0.050193077584466714 0.0015692261497223766 0 -0.0511178397933277 0.00064141419467383975 0 -0.052040182534193659 0.00077503538975820117 0 -0.051937411636652164 0.00066279535065365974 0 -0.052074427128248786 0.00059550272250044243 0 -0.050449163039565502 0.0010282057137051142 0 -0.050588340577339429 0.00071250232851649922 0 -0.050433887611266451 0.00088170918560353932 0 -0.048798251776840738 0.0029441065657392945 0 -0.048888601343897671 0.0028857606498565941 0 -0.048855194879967555 0.0026323074276640148 0 -0.050588340577339429 0.00071250232851649922 0 -0.050433887611266451 0.00088170918560353932 0 -0.050377981446551791 0.00081304975664164348 0 -0.049564227530005653 0.002022952939214158 0 -0.050193077584466714 0.0015692261497223766 0 -0.050449163039565502 0.0010282057137051142 0 -0.050433887611266451 0.00088170918560353932 0 -0.050364384603271327 0.00095805720963074669 0 -0.0511178397933277 0.00064141419467383975 0 -0.050057476455847856 0.00084954097980602925 0 -0.050286827163836013 0.0011088912348197789 0 -0.050364384603271327 0.00095805720963074669 0 -0.050243651105369942 0.00096171905611339159 0 -0.050364384603271327 0.00095805720963074669 0 -0.050369136451859066 0.00078637284720331155 0 -0.050243651105369942 0.00096171905611339159 0 -0.050714965796272271 0.00046197612091843348 0 -0.050358347984038564 0.00072673837761982342 0 -0.050530963506475145 0.00046962659951402778 0 -0.050369136451859066 0.00078637284720331155 0 -0.050243651105369942 0.00096171905611339159 0 -0.05001725892578425 0.00091310465112987959 0 -0.050433887611266451 0.00088170918560353932 0 -0.050364384603271327 0.00095805720963074669 0 -0.050369136451859066 0.00078637284720331155 0 -0.05077844508799944 0.00061122781811436065 0 -0.0511178397933277 0.00064141419467383975 0 -0.050496317970265575 0.0004551874009912122 0 -0.050312912699292327 0.00042338534384051951 0 -0.050358347984038564 0.00072673837761982342 0 -0.050530963506475145 0.00046962659951402778 0 -0.049787323393086218 0.00046746913588942876 0 -0.050530963506475145 0.00046962659951402778 0 -0.050645961590359098 0.00048855475905683397 0 -0.05074020920120486 0.00036730564385621488 0 -0.050530963506475145 0.00046962659951402778 0 -0.050645961590359098 0.00048855475905683397 0 -0.050549666393113778 0.00048351070400214259 0 -0.052040182534193659 0.00077503538975820117 0 -0.052074427128248786 0.00059550272250044243 0 -0.052195148166292657 0.0007197578455831286 0 -0.0511178397933277 0.00064141419467383975 0 -0.051425716820452508 0.00062321647763369519 0 -0.050714965796272271 0.00046197612091843348 0 -0.050530963506475145 0.00046962659951402778 0 -0.050549666393113778 0.00048351070400214259 0 -0.049238989921314008 0.00093944062412905534 0 -0.049099473939320411 0.0005207146078611254 0 -0.049787323393086218 0.00046746913588942876 0 -0.049849194053302973 0.00043705890739335435 0 -0.050312912699292327 0.00042338534384051951 0 -0.049651901299001516 0.0010234686434641379 0 -0.050358347984038564 0.00072673837761982342 0 -0.049787323393086218 0.00046746913588942876 0 -0.049651901299001516 0.0010234686434641379 0 -0.049238989921314008 0.00093944062412905534 0 -0.049787323393086218 0.00046746913588942876 0 -0.049739514543426892 0.00099732850515626276 0 -0.050057476455847856 0.00084954097980602925 0 -0.05074020920120486 0.00036730564385621488 0 -0.050910682759088624 0.00047388421390068611 0 -0.050791364996736803 0.00054214174450761441 0 -0.050645961590359098 0.00048855475905683397 0 -0.05074020920120486 0.00036730564385621488 0 -0.050791364996736803 0.00054214174450761441 0 -0.050978334115565543 0.0003377536564701991 0 -0.05074020920120486 0.00036730564385621488 0 -0.050910682759088624 0.00047388421390068611 0 -0.050910682759088624 0.00047388421390068611 0 -0.050935313923905601 0.0006466019552993919 0 -0.050791364996736803 0.00054214174450761441 0 -0.051071636156213254 0.00048756261097563589 0 -0.050910682759088624 0.00047388421390068611 0 -0.050935313923905601 0.0006466019552993919 0 -0.050935313923905601 0.0006466019552993919 0 -0.050799706348905405 0.00066191616865839749 0 -0.050791364996736803 0.00054214174450761441 0 -0.050645961590359098 0.00048855475905683397 0 -0.050791364996736803 0.00054214174450761441 0 -0.050664188415856515 0.00065482367606044874 0 -0.050799706348905405 0.00066191616865839749 0 -0.050791364996736803 0.00054214174450761441 0 -0.050664188415856515 0.00065482367606044874 0 -0.052982965219666493 0.00042259015691760123 0 -0.051372195209219984 0.00071688630283213797 0 -0.052452287476569499 0.00097936639571168885 0 -0.052321606979667742 0.00084585239481827998 0 -0.052430122046773053 0.0010060937195239092 0 -0.050799706348905405 0.00066191616865839749 0 -0.050807747049691328 0.00080657855327336437 0 -0.050664188415856515 0.00065482367606044874 0 -0.055028365421675461 0.00021413448483637265 0 -0.055004315834952203 8.5876881019978626e-05 0 -0.055079193526022426 9.8763237899075144e-05 0 -0.050935313923905601 0.0006466019552993919 0 -0.050799706348905405 0.00066191616865839749 0 -0.050807747049691328 0.00080657855327336437 0 -0.052927297647391854 0.00048001364348563121 0 -0.052982965219666493 0.00042259015691760123 0 -0.055028365421675461 0.00021413448483637265 0 -0.055090240819381325 0.00011652239070422953 0 -0.055079193526022426 9.8763237899075144e-05 0 -0.052040182534193659 0.00077503538975820117 0 -0.052195148166292657 0.0007197578455831286 0 -0.052174551811102129 0.00085520479943218151 0 -0.052195148166292657 0.0007197578455831286 0 -0.052174551811102129 0.00085520479943218151 0 -0.052321606979667742 0.00084585239481827998 0 -0.050645961590359098 0.00048855475905683397 0 -0.050549666393113778 0.00048351070400214259 0 -0.050664188415856515 0.00065482367606044874 0 -0.051425716820452508 0.00062321647763369519 0 -0.051372195209219984 0.00071688630283213797 0 -0.052174551811102129 0.00085520479943218151 0 -0.052321606979667742 0.00084585239481827998 0 -0.05220904986981853 0.0010000079175739754 0 -0.052321606979667742 0.00084585239481827998 0 -0.05220904986981853 0.0010000079175739754 0 -0.052430122046773053 0.0010060937195239092 0 -0.051997475319872685 0.00099161099515665367 0 -0.052174551811102129 0.00085520479943218151 0 -0.05220904986981853 0.0010000079175739754 0 -0.052040182534193659 0.00077503538975820117 0 -0.051997475319872685 0.00099161099515665367 0 -0.052174551811102129 0.00085520479943218151 0 -0.054926221321338099 -0.00025572563856076692 0 -0.054964091985309438 -9.6099936427810446e-05 0 -0.054845994585775736 -0.00011550619543853392 0 -0.053500297224838678 0.00020089846845383594 0 -0.05351271389382254 0.00039414750797060218 0 -0.054677058723906047 -0.00045508298130725121 0 -0.054926221321338099 -0.00025572563856076692 0 -0.054845994585775736 -0.00011550619543853392 0 -0.05351271389382254 0.00039414750797060218 0 -0.053766006896077329 0.00023038137661156785 0 -0.054926221321338099 -0.00025572563856076692 0 -0.054974960371695476 -0.00013861939399198415 0 -0.055000214824549067 -0.00012616693015502327 0 -0.054926221321338099 -0.00025572563856076692 0 -0.054974960371695476 -0.00013861939399198415 0 -0.054964091985309438 -9.6099936427810446e-05 0 -0.054926221321338099 -0.00025572563856076692 0 -0.05501123399639133 -0.00013267107434344736 0 -0.055000214824549067 -0.00012616693015502327 0 -0.054974960371695476 -0.00013861939399198415 0 -0.054964091985309438 -9.6099936427810446e-05 0 -0.054997373664691089 -8.6458148630397179e-05 0 -0.054964091985309438 -9.6099936427810446e-05 0 -0.055002112673385409 -3.7775710407881491e-05 0 -0.054948477235746453 -6.3075625524655658e-06 0 -0.054964091985309438 -9.6099936427810446e-05 0 -0.054845994585775736 -0.00011550619543853392 0 -0.054948477235746453 -6.3075625524655658e-06 0 -0.054845994585775736 -0.00011550619543853392 0 -0.054948477235746453 -6.3075625524655658e-06 0 -0.05480413387243873 6.7331678491431681e-05 0 -0.055235590641219544 0.00010767748199737838 0 -0.054387071451552339 0.00035762012263627929 0 -0.055004315834952203 8.5876881019978626e-05 0 -0.05511345688646474 9.0666046479762668e-05 0 -0.055026500560929566 -1.8907254959634931e-05 0 -0.055014927102481508 -6.3609840499340124e-05 0 -0.055019659674137002 -0.00011851530201555863 0 -0.055026500560929566 -1.8907254959634931e-05 0 -0.054387071451552339 0.00035762012263627929 0 -0.055097172721223421 -1.2020439882050285e-05 0 -0.055014927102481508 -6.3609840499340124e-05 0 -0.055007209991217505 -0.00010284945572458428 0 -0.055019659674137002 -0.00011851530201555863 0 -0.055014927102481508 -6.3609840499340124e-05 0 -0.055007209991217505 -0.00010284945572458428 0 -0.054997373664691089 -8.6458148630397179e-05 0 -0.052982965219666493 0.00042259015691760123 0 -0.054387071451552339 0.00035762012263627929 0 -0.054387071451552339 0.00035762012263627929 0 -0.053766006896077329 0.00023038137661156785 0 -0.053540151019805284 0.00017938044030315026 0 -0.053613749517847337 0.00026643453767492901 0 -0.053472079503949568 0.00025904920700128224 0 -0.052982965219666493 0.00042259015691760123 0 -0.053766006896077329 0.00023038137661156785 0 -0.055007209991217505 -0.00010284945572458428 0 -0.055019659674137002 -0.00011851530201555863 0 -0.055002800299664152 -0.00012231680628911818 0 -0.053766006896077329 0.00023038137661156785 0 -0.05438682741835564 -0.00021098200161999561 0 -0.055007209991217505 -0.00010284945572458428 0 -0.055002800299664152 -0.00012231680628911818 0 -0.055000214824549067 -0.00012616693015502327 0 -0.054974960371695476 -0.00013861939399198415 0 -0.055000214824549067 -0.00012616693015502327 0 -0.054997373664691089 -8.6458148630397179e-05 0 -0.055007209991217505 -0.00010284945572458428 0 -0.055000214824549067 -0.00012616693015502327 0 -0.054997373664691089 -8.6458148630397179e-05 0 -0.055014927102481508 -6.3609840499340124e-05 0 -0.055002112673385409 -3.7775710407881491e-05 0 -0.055010738913901049 -2.1165938808546417e-05 0 -0.054964091985309438 -9.6099936427810446e-05 0 -0.054997373664691089 -8.6458148630397179e-05 0 -0.055002112673385409 -3.7775710407881491e-05 0 -0.055014927102481508 -6.3609840499340124e-05 0 -0.054997373664691089 -8.6458148630397179e-05 0 -0.055002112673385409 -3.7775710407881491e-05 0 -0.055014927102481508 -6.3609840499340124e-05 0 -0.055026500560929566 -1.8907254959634931e-05 0 -0.055010738913901049 -2.1165938808546417e-05 0 -0.054997605069308425 -1.5036554775437606e-05 0 -0.055026500560929566 -1.8907254959634931e-05 0 -0.055010738913901049 -2.1165938808546417e-05 0 -0.054982035750990865 -2.0521610704612618e-05 0 -0.055003888384458438 -1.061163383248017e-05 0 -0.055010738913901049 -2.1165938808546417e-05 0 -0.055002112673385409 -3.7775710407881491e-05 0 -0.055003888384458438 -1.061163383248017e-05 0 -0.054984977917227826 -2.8739948440614555e-06 0 -0.055002112673385409 -3.7775710407881491e-05 0 -0.055003888384458438 -1.061163383248017e-05 0 -0.055010738913901049 -2.1165938808546417e-05 0 -0.055003888384458438 -1.061163383248017e-05 0 -0.054999997636493443 -8.1983294116912773e-09 0 -0.054984977917227826 -2.8739948440614555e-06 0 -0.055000003301445645 -1.3386737176163236e-08 0 -0.055003888384458438 -1.061163383248017e-05 0 -0.054999997636493443 -8.1983294116912773e-09 0 -0.054948477235746453 -6.3075625524655658e-06 0 -0.05499990315925693 4.4261842714667485e-08 0 -0.05480413387243873 6.7331678491431681e-05 0 -0.055002112673385409 -3.7775710407881491e-05 0 -0.054984977917227826 -2.8739948440614555e-06 0 -0.054948477235746453 -6.3075625524655658e-06 0 -0.054984977917227826 -2.8739948440614555e-06 0 -0.054948477235746453 -6.3075625524655658e-06 0 -0.05499990315925693 4.4261842714667485e-08 0 -0.054999997636493443 -8.1983294116912773e-09 0 -0.054984977917227826 -2.8739948440614555e-06 0 -0.05499990315925693 4.4261842714667485e-08 0 -0.05499990315925693 4.4261842714667485e-08 0 -0.054999363958200764 2.5296171886537174e-07 0 -0.05480413387243873 6.7331678491431681e-05 0 -0.054999363958200764 2.5296171886537174e-07 0 -0.054473404527134721 0.0001614595575908051 0 -0.05480413387243873 6.7331678491431681e-05 0 -0.054473404527134721 0.0001614595575908051 0 -0.05480413387243873 6.7331678491431681e-05 0 -0.054500188813394863 -7.099969433010417e-05 0 -0.054845994585775736 -0.00011550619543853392 0 -0.05480413387243873 6.7331678491431681e-05 0 -0.054500188813394863 -7.099969433010417e-05 0 -0.054473404527134721 0.0001614595575908051 0 -0.054500188813394863 -7.099969433010417e-05 0 -0.054044975071502563 0.00014255898614973873 0 -0.054500188813394863 -7.099969433010417e-05 0 -0.054090918595710739 -0.000163384630291259 0 -0.054044975071502563 0.00014255898614973873 0 -0.054677058723906047 -0.00045508298130725121 0 -0.054500188813394863 -7.099969433010417e-05 0 -0.054342831245156355 -0.00037675018088215991 0 -0.054049568033698953 -0.00077093547068892104 0 -0.054342831245156355 -0.00037675018088215991 0 -0.054090918595710739 -0.000163384630291259 0 -0.054677058723906047 -0.00045508298130725121 0 -0.054049568033698953 -0.00077093547068892104 0 -0.054342831245156355 -0.00037675018088215991 0 -0.054500188813394863 -7.099969433010417e-05 0 -0.054342831245156355 -0.00037675018088215991 0 -0.054090918595710739 -0.000163384630291259 0 -0.054677058723906047 -0.00045508298130725121 0 -0.054845994585775736 -0.00011550619543853392 0 -0.054500188813394863 -7.099969433010417e-05 0 -0.052336389116847008 0.00083821474100684279 0 -0.052171173789578855 0.0012151731523683241 0 -0.052516647512742022 0.00078908844084354945 0 -0.053875391847566484 0.00034620272450707948 0 -0.054033457668091776 0.0008448655588465942 0 -0.052516647512742022 0.00078908844084354945 0 -0.051431866675210755 0.0013444319358636764 0 -0.050389296909424224 0.0017978514277947472 0 -0.050746510961888668 0.0016444342477613789 0 -0.051431866675210755 0.0013444319358636764 0 -0.050389296909424224 0.0017978514277947472 0 -0.049985051053232012 0.0015504282306385245 0 -0.050245014239310812 0.0015768720042717936 0 -0.052516647512742022 0.00078908844084354945 0 -0.054049568033698953 -0.00077093547068892104 0 -0.054090918595710739 -0.000163384630291259 0 -0.053212531782089768 0.00022129922568976432 0 -0.049985051053232012 0.0015504282306385245 0 -0.052516647512742022 0.00078908844084354945 0 -0.053212531782089768 0.00022129922568976432 0 -0.052057321435082085 0.00074521684362748139 0 -0.052988589238715397 0.00019126347472350432 0 -0.050245014239310812 0.0015768720042717936 0 -0.052516647512742022 0.00078908844084354945 0 -0.051431866675210755 0.0013444319358636764 0 -0.054090918595710739 -0.000163384630291259 0 -0.053212531782089768 0.00022129922568976432 0 -0.054044975071502563 0.00014255898614973873 0 -0.053212531782089768 0.00022129922568976432 0 -0.054044975071502563 0.00014255898614973873 0 -0.054165643447570126 0.00015276597038717759 0 -0.052516647512742022 0.00078908844084354945 0 -0.053212531782089768 0.00022129922568976432 0 -0.053875391847566484 0.00034620272450707948 0 -0.053212531782089768 0.00022129922568976432 0 -0.054336780743248589 8.7134248384383099e-05 0 -0.053875391847566484 0.00034620272450707948 0 -0.053212531782089768 0.00022129922568976432 0 -0.054336780743248589 8.7134248384383099e-05 0 -0.054165643447570126 0.00015276597038717759 0 -0.054473404527134721 0.0001614595575908051 0 -0.054044975071502563 0.00014255898614973873 0 -0.054165643447570126 0.00015276597038717759 0 -0.054473404527134721 0.0001614595575908051 0 -0.054165643447570126 0.00015276597038717759 0 -0.054998894174911279 7.7743424959332641e-08 0 -0.054999363958200764 2.5296171886537174e-07 0 -0.054473404527134721 0.0001614595575908051 0 -0.054998894174911279 7.7743424959332641e-08 0 -0.054336780743248589 8.7134248384383099e-05 0 -0.054165643447570126 0.00015276597038717759 0 -0.054998894174911279 7.7743424959332641e-08 0 -0.054336780743248589 8.7134248384383099e-05 0 -0.054998894174911279 7.7743424959332641e-08 0 -0.054999412867886448 -3.3042570364979439e-10 0 -0.054999412867886448 -3.3042570364979439e-10 0 -0.054417639768318912 0.00020123510554128014 0 -0.054509481966366923 0.00022245703823581023 0 -0.054336780743248589 8.7134248384383099e-05 0 -0.054417639768318912 0.00020123510554128014 0 -0.053875391847566484 0.00034620272450707948 0 -0.054336780743248589 8.7134248384383099e-05 0 -0.054999412867886448 -3.3042570364979439e-10 0 -0.054417639768318912 0.00020123510554128014 0 -0.054999490624459468 9.9506270760556949e-08 0 -0.054509481966366923 0.00022245703823581023 0 -0.05477891227125993 8.5375908733532218e-05 0 -0.054999412867886448 -3.3042570364979439e-10 0 -0.054999490624459468 9.9506270760556949e-08 0 -0.054509481966366923 0.00022245703823581023 0 -0.054509481966366923 0.00022245703823581023 0 -0.054565843311605633 0.00020317630961835223 0 -0.05477891227125993 8.5375908733532218e-05 0 -0.054509481966366923 0.00022245703823581023 0 -0.053981033963413784 0.00056161973159628298 0 -0.054565843311605633 0.00020317630961835223 0 -0.054509481966366923 0.00022245703823581023 0 -0.053981033963413784 0.00056161973159628298 0 -0.054202470591004248 0.00054706609575804323 0 -0.053981033963413784 0.00056161973159628298 0 -0.054202470591004248 0.00054706609575804323 0 -0.053795913438924946 0.00074077838922649954 0 -0.053981033963413784 0.00056161973159628298 0 -0.053354701968978999 0.00085483525129686035 0 -0.054010007110163898 0.00069445657235952868 0 -0.054417639768318912 0.00020123510554128014 0 -0.053875391847566484 0.00034620272450707948 0 -0.054202470591004248 0.00054706609575804323 0 -0.054417639768318912 0.00020123510554128014 0 -0.054509481966366923 0.00022245703823581023 0 -0.054202470591004248 0.00054706609575804323 0 -0.054202470591004248 0.00054706609575804323 0 -0.054033457668091776 0.0008448655588465942 0 -0.053795913438924946 0.00074077838922649954 0 -0.053875391847566484 0.00034620272450707948 0 -0.054202470591004248 0.00054706609575804323 0 -0.054033457668091776 0.0008448655588465942 0 -0.050746510961888668 0.0016444342477613789 0 -0.050389296909424224 0.0017978514277947472 0 -0.050217826483469848 0.0018000442684051108 0 -0.050389296909424224 0.0017978514277947472 0 -0.050217826483469848 0.0018000442684051108 0 -0.050034604501681894 0.0014973565140532306 0 -0.050217826483469848 0.0018000442684051108 0 -0.049962519866761652 0.0020752864011555554 0 -0.049853465634322976 0.0021174870276297964 0 -0.049673206405133057 0.0023992906614274398 0 -0.049962519866761652 0.0020752864011555554 0 -0.049853465634322976 0.0021174870276297964 0 -0.049853465634322976 0.0021174870276297964 0 -0.050034604501681894 0.0014973565140532306 0 -0.049931722994387764 0.002475431966794393 0 -0.050217826483469848 0.0018000442684051108 0 -0.049853465634322976 0.0021174870276297964 0 -0.050034604501681894 0.0014973565140532306 0 -0.052171173789578855 0.0012151731523683241 0 -0.052004952331486207 0.0011872134398799527 0 -0.053981033963413784 0.00056161973159628298 0 -0.053795913438924946 0.00074077838922649954 0 -0.053354701968978999 0.00085483525129686035 0 -0.052004952331486207 0.0011872134398799527 0 -0.052522150838091232 0.001480438451415405 0 -0.053795913438924946 0.00074077838922649954 0 -0.053354701968978999 0.00085483525129686035 0 -0.052440872166203467 0.0014534860461541963 0 -0.053354701968978999 0.00085483525129686035 0 -0.053816166281835894 0.0012656420257761097 0 -0.054010007110163898 0.00069445657235952868 0 -0.052440872166203467 0.0014534860461541963 0 -0.050651570025987927 0.0021313846469611071 0 -0.05040199620478323 0.0029182321068756826 0 -0.052440872166203467 0.0014534860461541963 0 -0.05040199620478323 0.0029182321068756826 0 -0.053816166281835894 0.0012656420257761097 0 -0.050638598039585245 0.0028290972246726633 0 -0.051911606205464499 0.0019520193901250242 0 -0.05040199620478323 0.0029182321068756826 0 -0.050098004767806972 0.0028776778369770579 0 -0.050106026724636245 0.0027262214653277941 0 -0.053354701968978999 0.00085483525129686035 0 -0.052440872166203467 0.0014534860461541963 0 -0.053816166281835894 0.0012656420257761097 0 -0.050034604501681894 0.0014973565140532306 0 -0.052440872166203467 0.0014534860461541963 0 -0.050651570025987927 0.0021313846469611071 0 -0.050034604501681894 0.0014973565140532306 0 -0.050651570025987927 0.0021313846469611071 0 -0.049931722994387764 0.002475431966794393 0 -0.05040199620478323 0.0029182321068756826 0 -0.04935270563541231 0.0030321462577991838 0 -0.049931722994387764 0.002475431966794393 0 -0.050651570025987927 0.0021313846469611071 0 -0.05040199620478323 0.0029182321068756826 0 -0.049931722994387764 0.002475431966794393 0 -0.05040199620478323 0.0029182321068756826 0 -0.049816000230256362 0.0029658251764191554 0 -0.050098004767806972 0.0028776778369770579 0 -0.05040199620478323 0.0029182321068756826 0 -0.049816000230256362 0.0029658251764191554 0 -0.049541753504537697 0.0031002324799723532 0 -0.049816000230256362 0.0029658251764191554 0 -0.049541753504537697 0.0031002324799723532 0 -0.049183759778578216 0.0032856363900709939 0 -0.049541753504537697 0.0031002324799723532 0 -0.04935270563541231 0.0030321462577991838 0 -0.048908899631162239 0.0033254984725886081 0 -0.049541753504537697 0.0031002324799723532 0 -0.048908899631162239 0.0033254984725886081 0 -0.049183759778578216 0.0032856363900709939 0 -0.05040199620478323 0.0029182321068756826 0 -0.049541753504537697 0.0031002324799723532 0 -0.04935270563541231 0.0030321462577991838 0 -0.04935270563541231 0.0030321462577991838 0 -0.049019911757184946 0.0031030709333243452 0 -0.048908899631162239 0.0033254984725886081 0 -0.04935270563541231 0.0030321462577991838 0 -0.049019911757184946 0.0031030709333243452 0 -0.049550982311259803 0.0027083710700594229 0 -0.048972568703785031 0.0030320671871556164 0 -0.049291711725760967 0.0027852973465794014 0 -0.049019911757184946 0.0031030709333243452 0 -0.049291711725760967 0.0027852973465794014 0 -0.049019911757184946 0.0031030709333243452 0 -0.04943512870154796 0.0026916606576136656 0 -0.049019911757184946 0.0031030709333243452 0 -0.04943512870154796 0.0026916606576136656 0 -0.049550982311259803 0.0027083710700594229 0 -0.049853465634322976 0.0021174870276297964 0 -0.04943512870154796 0.0026916606576136656 0 -0.049550982311259803 0.0027083710700594229 0 -0.049673206405133057 0.0023992906614274398 0 -0.049853465634322976 0.0021174870276297964 0 -0.04943512870154796 0.0026916606576136656 0 -0.049673206405133057 0.0023992906614274398 0 -0.049291711725760967 0.0027852973465794014 0 -0.04943512870154796 0.0026916606576136656 0 -0.049853465634322976 0.0021174870276297964 0 -0.049550982311259803 0.0027083710700594229 0 -0.049931722994387764 0.002475431966794393 0 -0.04935270563541231 0.0030321462577991838 0 -0.049550982311259803 0.0027083710700594229 0 -0.049931722994387764 0.002475431966794393 0 -0.050791465607910521 0.0030491472195216807 0 -0.051059083276723656 0.0028588754611278046 0 -0.050736369442451017 0.0028188139373763808 0 -0.050791465607910521 0.0030491472195216807 0 -0.051104033566702491 0.0032826026829391626 0 -0.051059083276723656 0.0028588754611278046 0 -0.051104033566702491 0.0032826026829391626 0 -0.051059083276723656 0.0028588754611278046 0 -0.051468144609819931 0.0027347008782079331 0 -0.051104033566702491 0.0032826026829391626 0 -0.050645590511164053 0.0033063235264332936 0 -0.050998359545105953 0.0034469726885310811 0 -0.050791465607910521 0.0030491472195216807 0 -0.051104033566702491 0.0032826026829391626 0 -0.050645590511164053 0.0033063235264332936 0 -0.050791465607910521 0.0030491472195216807 0 -0.050645590511164053 0.0033063235264332936 0 -0.050425326690968025 0.0029983718071365487 0 -0.050645590511164053 0.0033063235264332936 0 -0.049905477185669719 0.0031938466870573465 0 -0.050425326690968025 0.0029983718071365487 0 -0.049816000230256362 0.0029658251764191554 0 -0.049905477185669719 0.0031938466870573465 0 -0.049183759778578216 0.0032856363900709939 0 -0.049905477185669719 0.0031938466870573465 0 -0.050112351388905414 0.0029432440632058336 0 -0.050425326690968025 0.0029983718071365487 0 -0.049816000230256362 0.0029658251764191554 0 -0.049905477185669719 0.0031938466870573465 0 -0.050112351388905414 0.0029432440632058336 0 -0.049816000230256362 0.0029658251764191554 0 -0.050112351388905414 0.0029432440632058336 0 -0.050098004767806972 0.0028776778369770579 0 -0.050112351388905414 0.0029432440632058336 0 -0.050425326690968025 0.0029983718071365487 0 -0.050308894969911151 0.0028125726825572904 0 -0.050112351388905414 0.0029432440632058336 0 -0.050098004767806972 0.0028776778369770579 0 -0.050308894969911151 0.0028125726825572904 0 -0.050425326690968025 0.0029983718071365487 0 -0.050736369442451017 0.0028188139373763808 0 -0.050308894969911151 0.0028125726825572904 0 -0.050791465607910521 0.0030491472195216807 0 -0.050425326690968025 0.0029983718071365487 0 -0.050736369442451017 0.0028188139373763808 0 -0.050736369442451017 0.0028188139373763808 0 -0.050308894969911151 0.0028125726825572904 0 -0.050616809669815362 0.0026023114182645185 0 -0.050736369442451017 0.0028188139373763808 0 -0.050616809669815362 0.0026023114182645185 0 -0.051064185464403208 0.0025000343331915758 0 -0.050308894969911151 0.0028125726825572904 0 -0.050106026724636245 0.0027262214653277941 0 -0.050616809669815362 0.0026023114182645185 0 -0.050098004767806972 0.0028776778369770579 0 -0.050308894969911151 0.0028125726825572904 0 -0.050106026724636245 0.0027262214653277941 0 -0.053816166281835894 0.0012656420257761097 0 -0.054010007110163898 0.00069445657235952868 0 -0.054554290995802029 0.00062100112414649803 0 -0.050106026724636245 0.0027262214653277941 0 -0.050616809669815362 0.0026023114182645185 0 -0.050607979532763255 0.0020732141381206116 0 -0.051911606205464499 0.0019520193901250242 0 -0.052601528986448279 0.001347100750359246 0 -0.050616809669815362 0.0026023114182645185 0 -0.050966224060311607 0.0023803864837137218 0 -0.050607979532763255 0.0020732141381206116 0 -0.050616809669815362 0.0026023114182645185 0 -0.050966224060311607 0.0023803864837137218 0 -0.051064185464403208 0.0025000343331915758 0 -0.050966224060311607 0.0023803864837137218 0 -0.050607979532763255 0.0020732141381206116 0 -0.051451108788473907 0.0021828952027796865 0 -0.050966224060311607 0.0023803864837137218 0 -0.051064185464403208 0.0025000343331915758 0 -0.051451108788473907 0.0021828952027796865 0 -0.051287797783150922 0.0024155203027116609 0 -0.051409404389581942 0.0021286028891245308 0 -0.051451108788473907 0.0021828952027796865 0 -0.051064185464403208 0.0025000343331915758 0 -0.051287797783150922 0.0024155203027116609 0 -0.051451108788473907 0.0021828952027796865 0 -0.051059083276723656 0.0028588754611278046 0 -0.050736369442451017 0.0028188139373763808 0 -0.051064185464403208 0.0025000343331915758 0 -0.051059083276723656 0.0028588754611278046 0 -0.051064185464403208 0.0025000343331915758 0 -0.051287797783150922 0.0024155203027116609 0 -0.051059083276723656 0.0028588754611278046 0 -0.051287797783150922 0.0024155203027116609 0 -0.051468144609819931 0.0027347008782079331 0 -0.051287797783150922 0.0024155203027116609 0 -0.051468144609819931 0.0027347008782079331 0 -0.051696974821891797 0.0023401852274986699 0 -0.051287797783150922 0.0024155203027116609 0 -0.051409404389581942 0.0021286028891245308 0 -0.051696974821891797 0.0023401852274986699 0 -0.054122850126139807 0.0016227416301183004 0 -0.052441028192987023 0.0006028927037168792 0 -0.051451108788473907 0.0021828952027796865 0 -0.05272187608785546 0.0018483638366168546 0 -0.051537678073767225 0.0021704186625383193 0 -0.052441028192987023 0.0006028927037168792 0 -0.054534515416759154 -3.1002873494042274e-05 0 -0.054626256771122067 0.00051974033370161114 0 -0.054122850126139807 0.0016227416301183004 0 -0.052441028192987023 0.0006028927037168792 0 -0.054626256771122067 0.00051974033370161114 0 -0.054010007110163898 0.00069445657235952868 0 -0.054361442763654975 0.00044013350117354683 0 -0.054554290995802029 0.00062100112414649803 0 -0.053981033963413784 0.00056161973159628298 0 -0.054010007110163898 0.00069445657235952868 0 -0.054361442763654975 0.00044013350117354683 0 -0.054826417987929213 0.00014371871761430094 0 -0.054361442763654975 0.00044013350117354683 0 -0.054554290995802029 0.00062100112414649803 0 -0.053617164140154848 0.00044071888406854362 0 -0.052601528986448279 0.001347100750359246 0 -0.052441028192987023 0.0006028927037168792 0 -0.050607979532763255 0.0020732141381206116 0 -0.051451108788473907 0.0021828952027796865 0 -0.054826417987929213 0.00014371871761430094 0 -0.054361442763654975 0.00044013350117354683 0 -0.054565843311605633 0.00020317630961835223 0 -0.053981033963413784 0.00056161973159628298 0 -0.054361442763654975 0.00044013350117354683 0 -0.054565843311605633 0.00020317630961835223 0 -0.054565843311605633 0.00020317630961835223 0 -0.05477891227125993 8.5375908733532218e-05 0 -0.054857101581970123 4.8267323670903045e-05 0 -0.054826417987929213 0.00014371871761430094 0 -0.054565843311605633 0.00020317630961835223 0 -0.054857101581970123 4.8267323670903045e-05 0 -0.05477891227125993 8.5375908733532218e-05 0 -0.054857101581970123 4.8267323670903045e-05 0 -0.054999906648866267 -2.9379939325709655e-09 0 -0.054999490624459468 9.9506270760556949e-08 0 -0.05477891227125993 8.5375908733532218e-05 0 -0.054999906648866267 -2.9379939325709655e-09 0 -0.054534515416759154 -3.1002873494042274e-05 0 -0.054824996934972926 2.8713368723872731e-05 0 -0.054626256771122067 0.00051974033370161114 0 -0.053617164140154848 0.00044071888406854362 0 -0.054389224633775574 1.1144134305557849e-05 0 -0.054826417987929213 0.00014371871761430094 0 -0.054857101581970123 4.8267323670903045e-05 0 -0.054534515416759154 -3.1002873494042274e-05 0 -0.054857101581970123 4.8267323670903045e-05 0 -0.054999906648866267 -2.9379939325709655e-09 0 -0.054999222486495421 8.9778054523284682e-08 0 -0.054857101581970123 4.8267323670903045e-05 0 -0.054534515416759154 -3.1002873494042274e-05 0 -0.054999222486495421 8.9778054523284682e-08 0 -0.054534515416759154 -3.1002873494042274e-05 0 -0.054999222486495421 8.9778054523284682e-08 0 -0.054824996934972926 2.8713368723872731e-05 0 -0.054999222486495421 8.9778054523284682e-08 0 -0.054824996934972926 2.8713368723872731e-05 0 -0.054999981522224725 -1.229367385222697e-07 0 -0.054824996934972926 2.8713368723872731e-05 0 -0.05499317290305139 0.00026670625315714126 0 -0.054999981522224725 -1.229367385222697e-07 0 -0.054824996934972926 2.8713368723872731e-05 0 -0.05499317290305139 0.00026670625315714126 0 -0.054626256771122067 0.00051974033370161114 0 -0.05499317290305139 0.00026670625315714126 0 -0.055112923259498764 0.00019246398987368449 0 -0.05523487185013911 0.00049232415666820785 0 -0.055112923259498764 0.00019246398987368449 0 -0.054999981522224725 -1.229367385222697e-07 0 -0.05507726431704784 4.1457280799304639e-05 0 -0.05499317290305139 0.00026670625315714126 0 -0.055112923259498764 0.00019246398987368449 0 -0.054999981522224725 -1.229367385222697e-07 0 -0.054999981522224725 -1.229367385222697e-07 0 -0.055000218097141493 1.4349506360414653e-07 0 -0.05507726431704784 4.1457280799304639e-05 0 -0.055000218097141493 1.4349506360414653e-07 0 -0.05507726431704784 4.1457280799304639e-05 0 -0.055000450590092655 1.571462211282194e-05 0 -0.055000218097141493 1.4349506360414653e-07 0 -0.054958046608881067 2.5627009276139739e-05 0 -0.05499973815287202 2.5728905512327588e-08 0 -0.055000218097141493 1.4349506360414653e-07 0 -0.054958046608881067 2.5627009276139739e-05 0 -0.055000450590092655 1.571462211282194e-05 0 -0.054958046608881067 2.5627009276139739e-05 0 -0.055000450590092655 1.571462211282194e-05 0 -0.054964386825583085 -1.6946769560135343e-05 0 -0.055000450590092655 1.571462211282194e-05 0 -0.054964386825583085 -1.6946769560135343e-05 0 -0.055025828050438236 -2.0223286327649019e-05 0 -0.055115813451406162 6.8166098475326564e-05 0 -0.055203992974475334 0.00016247482851912225 0 -0.055112923259498764 0.00019246398987368449 0 -0.05507726431704784 4.1457280799304639e-05 0 -0.055384671443963751 0.00033065393109930224 0 -0.05507726431704784 4.1457280799304639e-05 0 -0.055000450590092655 1.571462211282194e-05 0 -0.055025828050438236 -2.0223286327649019e-05 0 -0.055112923259498764 0.00019246398987368449 0 -0.055384671443963751 0.00033065393109930224 0 -0.05523487185013911 0.00049232415666820785 0 -0.055203992974475334 0.00016247482851912225 0 -0.053923017008944009 0.00067079979284052297 0 -0.053923017008944009 0.00067079979284052297 0 -0.053582850815234402 0.0014625336674815167 0 -0.05523487185013911 0.00049232415666820785 0 -0.055510284292031774 0.00065421138078622723 0 -0.055133756118711817 0.00091184669131700886 0 -0.055384671443963751 0.00033065393109930224 0 -0.05523487185013911 0.00049232415666820785 0 -0.055510284292031774 0.00065421138078622723 0 -0.053923017008944009 0.00067079979284052297 0 -0.054250813457096786 5.1540541486859567e-05 0 -0.052664538645643778 0.00040847798746154041 0 -0.053586998452030639 0.00019627644101838186 0 -0.053381679467436723 0.00090774216121059632 0 -0.054964386825583085 -1.6946769560135343e-05 0 -0.055002267651634469 -9.4466898114889356e-05 0 -0.054901318542379396 -8.5604812308956132e-05 0 -0.054964386825583085 -1.6946769560135343e-05 0 -0.055025828050438236 -2.0223286327649019e-05 0 -0.055002267651634469 -9.4466898114889356e-05 0 -0.053923017008944009 0.00067079979284052297 0 -0.052788541825424806 0.002145776066843619 0 -0.052664538645643778 0.00040847798746154041 0 -0.053381679467436723 0.00090774216121059632 0 -0.053024680553115808 0.0017902013873608168 0 -0.05268658196212269 0.0016526110920921716 0 -0.052279479126661067 0.0022651699348110723 0 -0.052911997078870461 0.0023622974261845366 0 -0.05268658196212269 0.0016526110920921716 0 -0.051995919117569088 0.0018473313680934084 0 -0.052279479126661067 0.0022651699348110723 0 -0.051995919117569088 0.0018473313680934084 0 -0.051696974821891797 0.0023401852274986699 0 -0.052279479126661067 0.0022651699348110723 0 -0.05272187608785546 0.0018483638366168546 0 -0.053582850815234402 0.0014625336674815167 0 -0.051409404389581942 0.0021286028891245308 0 -0.051995919117569088 0.0018473313680934084 0 -0.051696974821891797 0.0023401852274986699 0 -0.054122850126139807 0.0016227416301183004 0 -0.055133756118711817 0.00091184669131700886 0 -0.054626256771122067 0.00051974033370161114 0 -0.05499317290305139 0.00026670625315714126 0 -0.055133756118711817 0.00091184669131700886 0 -0.054626256771122067 0.00051974033370161114 0 -0.05499317290305139 0.00026670625315714126 0 -0.05523487185013911 0.00049232415666820785 0 -0.055133756118711817 0.00091184669131700886 0 -0.054886512337129191 4.5569332313169919e-05 0 -0.054999796281700132 2.7298783866602191e-09 0 -0.054999951478198118 -1.9638994137640329e-08 0 -0.054999796281700132 2.7298783866602191e-09 0 -0.054842031522730192 2.5820531230699028e-05 0 -0.054879460532902422 2.210910334408354e-05 0 -0.054886512337129191 4.5569332313169919e-05 0 -0.054842031522730192 2.5820531230699028e-05 0 -0.054757309960664448 0.00010062002689279772 0 -0.054886512337129191 4.5569332313169919e-05 0 -0.054999796281700132 2.7298783866602191e-09 0 -0.054842031522730192 2.5820531230699028e-05 0 -0.054842031522730192 2.5820531230699028e-05 0 -0.054732083903303697 2.0939980187145863e-05 0 -0.054757309960664448 0.00010062002689279772 0 -0.054842031522730192 2.5820531230699028e-05 0 -0.05477291002606334 2.1498294305314084e-05 0 -0.054732083903303697 2.0939980187145863e-05 0 -0.05477291002606334 2.1498294305314084e-05 0 -0.054879460532902422 2.210910334408354e-05 0 -0.054831476971504124 2.4472461740165846e-05 0 -0.05477291002606334 2.1498294305314084e-05 0 -0.054831476971504124 2.4472461740165846e-05 0 -0.054612734885859986 5.5530669534310852e-05 0 -0.054842031522730192 2.5820531230699028e-05 0 -0.05477291002606334 2.1498294305314084e-05 0 -0.054879460532902422 2.210910334408354e-05 0 -0.054999796281700132 2.7298783866602191e-09 0 -0.054879460532902422 2.210910334408354e-05 0 -0.05499973815287202 2.5728905512327588e-08 0 -0.054958046608881067 2.5627009276139739e-05 0 -0.054879460532902422 2.210910334408354e-05 0 -0.05499973815287202 2.5728905512327588e-08 0 -0.054958046608881067 2.5627009276139739e-05 0 -0.054879460532902422 2.210910334408354e-05 0 -0.054831476971504124 2.4472461740165846e-05 0 -0.054958046608881067 2.5627009276139739e-05 0 -0.054964386825583085 -1.6946769560135343e-05 0 -0.054831476971504124 2.4472461740165846e-05 0 -0.054964386825583085 -1.6946769560135343e-05 0 -0.054831476971504124 2.4472461740165846e-05 0 -0.054901318542379396 -8.5604812308956132e-05 0 -0.054250813457096786 5.1540541486859567e-05 0 -0.054571350709040914 4.0861718062427722e-05 0 -0.054831476971504124 2.4472461740165846e-05 0 -0.054901318542379396 -8.5604812308956132e-05 0 -0.054612734885859986 5.5530669534310852e-05 0 -0.053586998452030639 0.00019627644101838186 0 -0.053917279312565999 0.0007141603978261734 0 -0.054612734885859986 5.5530669534310852e-05 0 -0.053586998452030639 0.00019627644101838186 0 -0.053381679467436723 0.00090774216121059632 0 -0.053917279312565999 0.0007141603978261734 0 -0.053381679467436723 0.00090774216121059632 0 -0.053917279312565999 0.0007141603978261734 0 -0.053724969687617169 0.0014111749897470979 0 -0.053917279312565999 0.0007141603978261734 0 -0.054418474016664171 0.0010227768017107438 0 -0.053724969687617169 0.0014111749897470979 0 -0.054264229988414799 0.00034156979376579984 0 -0.054605958970132658 0.00023207534078245251 0 -0.05444068035274955 0.00053242480589203636 0 -0.053917279312565999 0.0007141603978261734 0 -0.054418474016664171 0.0010227768017107438 0 -0.054612734885859986 5.5530669534310852e-05 0 -0.054471224753336871 0.00068072327922795613 0 -0.05464805327095662 8.6392076854320416e-05 0 -0.054418474016664171 0.0010227768017107438 0 -0.054612734885859986 5.5530669534310852e-05 0 -0.054732083903303697 2.0939980187145863e-05 0 -0.054264229988414799 0.00034156979376579984 0 -0.054732083903303697 2.0939980187145863e-05 0 -0.054605958970132658 0.00023207534078245251 0 -0.05477291002606334 2.1498294305314084e-05 0 -0.054612734885859986 5.5530669534310852e-05 0 -0.054732083903303697 2.0939980187145863e-05 0 -0.054757309960664448 0.00010062002689279772 0 -0.054605958970132658 0.00023207534078245251 0 -0.054776660447395403 0.00028802880346016907 0 -0.054732083903303697 2.0939980187145863e-05 0 -0.054757309960664448 0.00010062002689279772 0 -0.054605958970132658 0.00023207534078245251 0 -0.054605958970132658 0.00023207534078245251 0 -0.054776660447395403 0.00028802880346016907 0 -0.05444068035274955 0.00053242480589203636 0 -0.054886512337129191 4.5569332313169919e-05 0 -0.054757309960664448 0.00010062002689279772 0 -0.054776660447395403 0.00028802880346016907 0 -0.054886512337129191 4.5569332313169919e-05 0 -0.054776660447395403 0.00028802880346016907 0 -0.054957261601800894 0.00010391824404564914 0 -0.054515241007270086 0.00099992408166484775 0 -0.054690643775250902 0.00070873793946342185 0 -0.054394595564465249 0.00084955754679539501 0 -0.054515241007270086 0.00099992408166484775 0 -0.054690643775250902 0.00070873793946342185 0 -0.054804680373888519 0.0010079473492679619 0 -0.054776660447395403 0.00028802880346016907 0 -0.054690643775250902 0.00070873793946342185 0 -0.054529466058102015 0.0006616815370712564 0 -0.054776660447395403 0.00028802880346016907 0 -0.054690643775250902 0.00070873793946342185 0 -0.05495969670319481 0.00061494242010523613 0 -0.054776660447395403 0.00028802880346016907 0 -0.054529466058102015 0.0006616815370712564 0 -0.05444068035274955 0.00053242480589203636 0 -0.054529466058102015 0.0006616815370712564 0 -0.05444068035274955 0.00053242480589203636 0 -0.054394595564465249 0.00084955754679539501 0 -0.054394595564465249 0.00084955754679539501 0 -0.054208645405853781 0.00098832529557416689 0 -0.054258479110645824 0.0011684524926333689 0 -0.05444068035274955 0.00053242480589203636 0 -0.054394595564465249 0.00084955754679539501 0 -0.054204233418786579 0.0008119560498646987 0 -0.054515241007270086 0.00099992408166484775 0 -0.054394595564465249 0.00084955754679539501 0 -0.054258479110645824 0.0011684524926333689 0 -0.054690643775250902 0.00070873793946342185 0 -0.054529466058102015 0.0006616815370712564 0 -0.054394595564465249 0.00084955754679539501 0 -0.054394595564465249 0.00084955754679539501 0 -0.054208645405853781 0.00098832529557416689 0 -0.054204233418786579 0.0008119560498646987 0 -0.054071994577394589 0.00093111440655182674 0 -0.053917349780414972 0.00084352113404334973 0 -0.053955588176386342 0.0011960769721615588 0 -0.051002557155057936 0.0019144252560946836 0 -0.051068550109790542 0.0021549829332078679 0 -0.054208645405853781 0.00098832529557416689 0 -0.054071994577394589 0.00093111440655182674 0 -0.054204233418786579 0.0008119560498646987 0 -0.054071994577394589 0.00093111440655182674 0 -0.054061491075612714 0.00080931280225350329 0 -0.053917349780414972 0.00084352113404334973 0 -0.054071994577394589 0.00093111440655182674 0 -0.054061491075612714 0.00080931280225350329 0 -0.054204233418786579 0.0008119560498646987 0 -0.054061491075612714 0.00080931280225350329 0 -0.053952931952378623 0.000758737528854917 0 -0.053917349780414972 0.00084352113404334973 0 -0.054061491075612714 0.00080931280225350329 0 -0.054204233418786579 0.0008119560498646987 0 -0.054194604170903264 0.00061643617146592484 0 -0.05444068035274955 0.00053242480589203636 0 -0.054204233418786579 0.0008119560498646987 0 -0.054194604170903264 0.00061643617146592484 0 -0.054264229988414799 0.00034156979376579984 0 -0.054194604170903264 0.00061643617146592484 0 -0.053952931952378623 0.000758737528854917 0 -0.054471224753336871 0.00068072327922795613 0 -0.052722608339899384 0.0012847379762620918 0 -0.054264229988414799 0.00034156979376579984 0 -0.05444068035274955 0.00053242480589203636 0 -0.054194604170903264 0.00061643617146592484 0 -0.054061491075612714 0.00080931280225350329 0 -0.054194604170903264 0.00061643617146592484 0 -0.053952931952378623 0.000758737528854917 0 -0.053724969687617169 0.0014111749897470979 0 -0.053941092166994609 0.0021498004045330545 0 -0.053024680553115808 0.0017902013873608168 0 -0.054418474016664171 0.0010227768017107438 0 -0.053724969687617169 0.0014111749897470979 0 -0.053941092166994609 0.0021498004045330545 0 -0.053381679467436723 0.00090774216121059632 0 -0.053724969687617169 0.0014111749897470979 0 -0.053024680553115808 0.0017902013873608168 0 -0.053941092166994609 0.0021498004045330545 0 -0.053235609915367958 0.0031214638414601165 0 -0.053024680553115808 0.0017902013873608168 0 -0.053941092166994609 0.0021498004045330545 0 -0.053850503926736633 0.0023528155240390234 0 -0.053235609915367958 0.0031214638414601165 0 -0.051002557155057936 0.0019144252560946836 0 -0.050679967443803445 0.003125264096987664 0 -0.052722608339899384 0.0012847379762620918 0 -0.051002557155057936 0.0019144252560946836 0 -0.047114733862448868 0.0023521691264636805 0 -0.047112517218724573 0.0031650396223496689 0 -0.04743768239965384 0.0033411302809001255 0 -0.047114733862448868 0.0023521691264636805 0 -0.047112517218724573 0.0031650396223496689 0 -0.046775926934265154 0.0033300683009535028 0 -0.053850503926736633 0.0023528155240390234 0 -0.053235609915367958 0.0031214638414601165 0 -0.053432791527857078 0.0032105025005403961 0 -0.047112517218724573 0.0031650396223496689 0 -0.047092568458503001 0.0036237745463931206 0 -0.046775926934265154 0.0033300683009535028 0 -0.047092568458503001 0.0036237745463931206 0 -0.046775926934265154 0.0033300683009535028 0 -0.046915930144101753 0.0040678811948149122 0 -0.053432791527857078 0.0032105025005403961 0 -0.053208512268537109 0.0032980944460056483 0 -0.05312925941189605 0.0035161850668864142 0 -0.053235609915367958 0.0031214638414601165 0 -0.053432791527857078 0.0032105025005403961 0 -0.053208512268537109 0.0032980944460056483 0 -0.053235609915367958 0.0031214638414601165 0 -0.053208512268537109 0.0032980944460056483 0 -0.053094116369754391 0.0032388983786963829 0 -0.046775926934265154 0.0033300683009535028 0 -0.046915930144101753 0.0040678811948149122 0 -0.046378029266949859 0.0045809985511363711 0 -0.053432791527857078 0.0032105025005403961 0 -0.05312925941189605 0.0035161850668864142 0 -0.053069540318089921 0.0039346222247887046 0 -0.041924757332926103 0.0055233400047232043 0 -0.044934554094571637 0.0045549272527676014 0 -0.046915930144101753 0.0040678811948149122 0 -0.047727602999898769 0.0043043438603912352 0 -0.046378029266949859 0.0045809985511363711 0 -0.050679967443803445 0.003125264096987664 0 -0.044934554094571637 0.0045549272527676014 0 -0.053963642311164274 0.0015718186756209335 0 -0.053955588176386342 0.0011960769721615588 0 -0.054146673586306732 0.001369548067419767 0 -0.041924757332926103 0.0055233400047232043 0 -0.051068550109790542 0.0021549829332078679 0 -0.047092568458503001 0.0036237745463931206 0 -0.047727602999898769 0.0043043438603912352 0 -0.04743768239965384 0.0033411302809001255 0 -0.047092568458503001 0.0036237745463931206 0 -0.046915930144101753 0.0040678811948149122 0 -0.047727602999898769 0.0043043438603912352 0 -0.054208645405853781 0.00098832529557416689 0 -0.053955588176386342 0.0011960769721615588 0 -0.054258479110645824 0.0011684524926333689 0 -0.053955588176386342 0.0011960769721615588 0 -0.054258479110645824 0.0011684524926333689 0 -0.054146673586306732 0.001369548067419767 0 -0.047112517218724573 0.0031650396223496689 0 -0.047092568458503001 0.0036237745463931206 0 -0.04743768239965384 0.0033411302809001255 0 -0.054208645405853781 0.00098832529557416689 0 -0.054071994577394589 0.00093111440655182674 0 -0.053955588176386342 0.0011960769721615588 0 -0.054515241007270086 0.00099992408166484775 0 -0.054258479110645824 0.0011684524926333689 0 -0.054425372060028405 0.0012504758169482441 0 -0.054258479110645824 0.0011684524926333689 0 -0.054146673586306732 0.001369548067419767 0 -0.054425372060028405 0.0012504758169482441 0 -0.053963642311164274 0.0015718186756209335 0 -0.054146673586306732 0.001369548067419767 0 -0.054271817025735705 0.0015028875503463887 0 -0.0303696076356498 0.0063548798723739542 0 -0.029789358403215498 0.0064308845825451089 0 -0.029749638499411805 0.0060568245581167843 0 -0.041924757332926103 0.0055233400047232043 0 -0.042105965620797221 0.0039211528657592757 0 -0.029789358403215498 0.0064308845825451089 0 -0.029474356071370913 0.0062292922214469866 0 -0.029749638499411805 0.0060568245581167843 0 -0.054146673586306732 0.001369548067419767 0 -0.054271817025735705 0.0015028875503463887 0 -0.054425372060028405 0.0012504758169482441 0 -0.042105965620797221 0.0039211528657592757 0 -0.0416095252315428 0.0016740631667378095 0 -0.054271817025735705 0.0015028875503463887 0 -0.054566966488415018 0.0014351951654024847 0 -0.054425372060028405 0.0012504758169482441 0 -0.029789358403215498 0.0064308845825451089 0 -0.029474356071370913 0.0062292922214469866 0 -0.029300617631332425 0.0064317805563133459 0 -0.029474356071370913 0.0062292922214469866 0 -0.029207097299155091 0.0062440729111104794 0 -0.029300617631332425 0.0064317805563133459 0 -0.054515241007270086 0.00099992408166484775 0 -0.054425372060028405 0.0012504758169482441 0 -0.054804680373888519 0.0010079473492679619 0 -0.0416095252315428 0.0016740631667378095 0 -0.049196950420019883 0.00043322526535113633 0 -0.054566966488415018 0.0014351951654024847 0 -0.054425372060028405 0.0012504758169482441 0 -0.054804680373888519 0.0010079473492679619 0 -0.051962055453206327 0.0026307482537531418 0 -0.052407094513301333 0.0028109307812608422 0 -0.051852456923160983 0.0030336358134257571 0 -0.051962055453206327 0.0026307482537531418 0 -0.052279479126661067 0.0022651699348110723 0 -0.052407094513301333 0.0028109307812608422 0 -0.051962055453206327 0.0026307482537531418 0 -0.051468144609819931 0.0027347008782079331 0 -0.051696974821891797 0.0023401852274986699 0 -0.051962055453206327 0.0026307482537531418 0 -0.051468144609819931 0.0027347008782079331 0 -0.051852456923160983 0.0030336358134257571 0 -0.051962055453206327 0.0026307482537531418 0 -0.051696974821891797 0.0023401852274986699 0 -0.052279479126661067 0.0022651699348110723 0 -0.052279479126661067 0.0022651699348110723 0 -0.052911997078870461 0.0023622974261845366 0 -0.052407094513301333 0.0028109307812608422 0 -0.053235609915367958 0.0031214638414601165 0 -0.052911997078870461 0.0023622974261845366 0 -0.052890185773231249 0.0029471122264107651 0 -0.05328292606592918 0.0030711589046937774 0 -0.052788541825424806 0.002145776066843619 0 -0.052911997078870461 0.0023622974261845366 0 -0.052890185773231249 0.0029471122264107651 0 -0.052407094513301333 0.0028109307812608422 0 -0.052890185773231249 0.0029471122264107651 0 -0.052407094513301333 0.0028109307812608422 0 -0.05268808066043399 0.0032081741948708315 0 -0.052407094513301333 0.0028109307812608422 0 -0.052313444310972831 0.003292520199722036 0 -0.05268808066043399 0.0032081741948708315 0 -0.052313444310972831 0.003292520199722036 0 -0.05268808066043399 0.0032081741948708315 0 -0.052645280359422925 0.003484056089351545 0 -0.053235609915367958 0.0031214638414601165 0 -0.052890185773231249 0.0029471122264107651 0 -0.052998983313467814 0.0031268341783595335 0 -0.053235609915367958 0.0031214638414601165 0 -0.052998983313467814 0.0031268341783595335 0 -0.053094116369754391 0.0032388983786963829 0 -0.052890185773231249 0.0029471122264107651 0 -0.052998983313467814 0.0031268341783595335 0 -0.05268808066043399 0.0032081741948708315 0 -0.05268808066043399 0.0032081741948708315 0 -0.05296854621599828 0.0032818479214642262 0 -0.052909470731102019 0.0034852719460067168 0 -0.052998983313467814 0.0031268341783595335 0 -0.05268808066043399 0.0032081741948708315 0 -0.05296854621599828 0.0032818479214642262 0 -0.05268808066043399 0.0032081741948708315 0 -0.052909470731102019 0.0034852719460067168 0 -0.052645280359422925 0.003484056089351545 0 -0.052998983313467814 0.0031268341783595335 0 -0.05296854621599828 0.0032818479214642262 0 -0.053094116369754391 0.0032388983786963829 0 -0.05296854621599828 0.0032818479214642262 0 -0.053069597758223543 0.0033646445852132845 0 -0.052909470731102019 0.0034852719460067168 0 -0.053208512268537109 0.0032980944460056483 0 -0.053069597758223543 0.0033646445852132845 0 -0.053094116369754391 0.0032388983786963829 0 -0.053208512268537109 0.0032980944460056483 0 -0.053069597758223543 0.0033646445852132845 0 -0.05312925941189605 0.0035161850668864142 0 -0.05296854621599828 0.0032818479214642262 0 -0.053069597758223543 0.0033646445852132845 0 -0.053094116369754391 0.0032388983786963829 0 -0.052816722135698546 0.0036750828460605858 0 -0.052461143375088302 0.0037157475633595128 0 -0.053069540318089921 0.0039346222247887046 0 -0.052553397252140928 0.0037605324628174298 0 -0.044934554094571637 0.0045549272527676014 0 -0.05312925941189605 0.0035161850668864142 0 -0.052909470731102019 0.0034852719460067168 0 -0.05300172214000233 0.003710261465794134 0 -0.053069597758223543 0.0033646445852132845 0 -0.05312925941189605 0.0035161850668864142 0 -0.052909470731102019 0.0034852719460067168 0 -0.052909470731102019 0.0034852719460067168 0 -0.052816722135698546 0.0036750828460605858 0 -0.05300172214000233 0.003710261465794134 0 -0.052909470731102019 0.0034852719460067168 0 -0.052816722135698546 0.0036750828460605858 0 -0.052645280359422925 0.003484056089351545 0 -0.052816722135698546 0.0036750828460605858 0 -0.05300172214000233 0.003710261465794134 0 -0.053069540318089921 0.0039346222247887046 0 -0.05312925941189605 0.0035161850668864142 0 -0.05300172214000233 0.003710261465794134 0 -0.053069540318089921 0.0039346222247887046 0 -0.052313444310972831 0.003292520199722036 0 -0.052645280359422925 0.003484056089351545 0 -0.052461143375088302 0.0037157475633595128 0 -0.052816722135698546 0.0036750828460605858 0 -0.052645280359422925 0.003484056089351545 0 -0.052461143375088302 0.0037157475633595128 0 -0.050166373312973196 0.0036404867164678808 0 -0.050858091098783538 0.0035943773759490438 0 -0.050292079707722308 0.0032858212607715436 0 -0.052313444310972831 0.003292520199722036 0 -0.052461143375088302 0.0037157475633595128 0 -0.051826722489472669 0.0035190864400856904 0 -0.052553397252140928 0.0037605324628174298 0 -0.051050013241231457 0.0034905535870790303 0 -0.052313444310972831 0.003292520199722036 0 -0.051826722489472669 0.0035190864400856904 0 -0.051852456923160983 0.0030336358134257571 0 -0.052407094513301333 0.0028109307812608422 0 -0.052313444310972831 0.003292520199722036 0 -0.051852456923160983 0.0030336358134257571 0 -0.051104033566702491 0.0032826026829391626 0 -0.051468144609819931 0.0027347008782079331 0 -0.051852456923160983 0.0030336358134257571 0 -0.051104033566702491 0.0032826026829391626 0 -0.051826722489472669 0.0035190864400856904 0 -0.051852456923160983 0.0030336358134257571 0 -0.051104033566702491 0.0032826026829391626 0 -0.050858091098783538 0.0035943773759490438 0 -0.050998359545105953 0.0034469726885310811 0 -0.051207136584471936 0.0033521951544840077 0 -0.051050013241231457 0.0034905535870790303 0 -0.050858091098783538 0.0035943773759490438 0 -0.050916371550918653 0.0033569655637083625 0 -0.050998359545105953 0.0034469726885310811 0 -0.039651829721095058 0.0064986476835539693 0 -0.038607401749694903 0.0056738058296260628 0 -0.04043421733291911 0.0051073066325774278 0 -0.039651829721095058 0.0064986476835539693 0 -0.038607401749694903 0.0056738058296260628 0 -0.038244145928221771 0.0063911842536975762 0 -0.050858091098783538 0.0035943773759490438 0 -0.050916371550918653 0.0033569655637083625 0 -0.050292079707722308 0.0032858212607715436 0 -0.045365204975382496 0.0049141453151702258 0 -0.043930106502414343 0.0049179367498358639 0 -0.050166373312973196 0.0036404867164678808 0 -0.050292079707722308 0.0032858212607715436 0 -0.049163636162783173 0.0034259129806297733 0 -0.038244145928221771 0.0063911842536975762 0 -0.03794677818336991 0.006251096163561543 0 -0.038088428121476982 0.0059187239680566061 0 -0.043930106502414343 0.0049179367498358639 0 -0.044934554094571637 0.0045549272527676014 0 -0.03766352117084807 0.0062120088878021744 0 -0.03794677818336991 0.006251096163561543 0 -0.037553761289860953 0.0063092566464628798 0 -0.038244145928221771 0.0063911842536975762 0 -0.03794677818336991 0.006251096163561543 0 -0.037553761289860953 0.0063092566464628798 0 -0.03766352117084807 0.0062120088878021744 0 -0.037553761289860953 0.0063092566464628798 0 -0.037521764865213948 0.0061778035437033627 0 -0.03766352117084807 0.0062120088878021744 0 -0.03794677818336991 0.006251096163561543 0 -0.037648429910089098 0.0061201041969643618 0 -0.03794677818336991 0.006251096163561543 0 -0.037745806282862428 0.0059158235061774886 0 -0.038088428121476982 0.0059187239680566061 0 -0.03794677818336991 0.006251096163561543 0 -0.037648429910089098 0.0061201041969643618 0 -0.037745806282862428 0.0059158235061774886 0 -0.037648429910089098 0.0061201041969643618 0 -0.037745806282862428 0.0059158235061774886 0 -0.037448664240223382 0.006029486083927618 0 -0.03766352117084807 0.0062120088878021744 0 -0.037648429910089098 0.0061201041969643618 0 -0.037521764865213948 0.0061778035437033627 0 -0.03658222150234635 0.0055379754607809166 0 -0.035230945810563755 0.0061405051627519318 0 -0.037745806282862428 0.0059158235061774886 0 -0.037928728999806524 0.0053248617575733749 0 -0.037333813518669184 0.0057273314181489092 0 -0.038607401749694903 0.0056738058296260628 0 -0.038244145928221771 0.0063911842536975762 0 -0.038088428121476982 0.0059187239680566061 0 -0.038607401749694903 0.0056738058296260628 0 -0.038088428121476982 0.0059187239680566061 0 -0.037928728999806524 0.0053248617575733749 0 -0.037745806282862428 0.0059158235061774886 0 -0.038088428121476982 0.0059187239680566061 0 -0.037928728999806524 0.0053248617575733749 0 -0.035300094578462678 0.0058603299675157872 0 -0.035340395992144176 0.0032891451003387146 0 -0.038815558936475314 0.0045467253986108741 0 -0.035300094578462678 0.0058603299675157872 0 -0.035340395992144176 0.0032891451003387146 0 -0.032685163157422072 0.0049213905904025813 0 -0.035300094578462678 0.0058603299675157872 0 -0.032338211795677176 0.0064353266260785405 0 -0.032685163157422072 0.0049213905904025813 0 -0.035340395992144176 0.0032891451003387146 0 -0.032685163157422072 0.0049213905904025813 0 -0.032303092462940788 0.0033575779118846859 0 -0.038815558936475314 0.0045467253986108741 0 -0.039673381575874432 0.0024318656712894221 0 -0.038015343969234734 0.0026905624881552051 0 -0.035340395992144176 0.0032891451003387146 0 -0.038815558936475314 0.0045467253986108741 0 -0.038015343969234734 0.0026905624881552051 0 -0.038815558936475314 0.0045467253986108741 0 -0.039673381575874432 0.0024318656712894221 0 -0.040659530588424427 0.0036209356301789525 0 -0.038815558936475314 0.0045467253986108741 0 -0.04043421733291911 0.0051073066325774278 0 -0.040659530588424427 0.0036209356301789525 0 -0.038607401749694903 0.0056738058296260628 0 -0.038815558936475314 0.0045467253986108741 0 -0.04043421733291911 0.0051073066325774278 0 -0.038607401749694903 0.0056738058296260628 0 -0.037928728999806524 0.0053248617575733749 0 -0.038815558936475314 0.0045467253986108741 0 -0.03658222150234635 0.0055379754607809166 0 -0.038756965697997039 0.0046262366078286534 0 -0.029191754867333761 0.0055125680727203781 0 -0.029431444302795845 0.0057562563340567072 0 -0.029612128801966547 0.0056176447437646703 0 -0.029191754867333761 0.0055125680727203781 0 -0.029162393255602548 0.0058256794910051821 0 -0.029431444302795845 0.0057562563340567072 0 -0.029191754867333761 0.0055125680727203781 0 -0.029162393255602548 0.0058256794910051821 0 -0.028823219982503138 0.0058254422424410743 0 -0.029162393255602548 0.0058256794910051821 0 -0.029357127618787081 0.0060033006166561121 0 -0.029059170277819815 0.0060462315288667325 0 -0.029207097299155091 0.0062440729111104794 0 -0.029357127618787081 0.0060033006166561121 0 -0.029059170277819815 0.0060462315288667325 0 -0.029474356071370913 0.0062292922214469866 0 -0.029207097299155091 0.0062440729111104794 0 -0.029357127618787081 0.0060033006166561121 0 -0.029474356071370913 0.0062292922214469866 0 -0.029357127618787081 0.0060033006166561121 0 -0.029749638499411805 0.0060568245581167843 0 -0.029357127618787081 0.0060033006166561121 0 -0.029572069029682072 0.0058922494772266397 0 -0.029749638499411805 0.0060568245581167843 0 -0.029357127618787081 0.0060033006166561121 0 -0.029431444302795845 0.0057562563340567072 0 -0.029572069029682072 0.0058922494772266397 0 -0.029162393255602548 0.0058256794910051821 0 -0.029357127618787081 0.0060033006166561121 0 -0.029431444302795845 0.0057562563340567072 0 -0.029572069029682072 0.0058922494772266397 0 -0.029761567036287136 0.0057519106180860041 0 -0.029749638499411805 0.0060568245581167843 0 -0.0303696076356498 0.0063548798723739542 0 -0.029749638499411805 0.0060568245581167843 0 -0.029996878593912944 0.005669159412274573 0 -0.029431444302795845 0.0057562563340567072 0 -0.029572069029682072 0.0058922494772266397 0 -0.029761567036287136 0.0057519106180860041 0 -0.029761567036287136 0.0057519106180860041 0 -0.029749638499411805 0.0060568245581167843 0 -0.029996878593912944 0.005669159412274573 0 -0.030289694604901867 0.005865983950253546 0 -0.03156562186504494 0.0055453084619676712 0 -0.029878672275895801 0.0057104013776110912 0 -0.029612128801966547 0.0056176447437646703 0 -0.029695122655417752 0.0053387234587985652 0 -0.03156562186504494 0.0055453084619676712 0 -0.029709420658578258 0.0055271280122985867 0 -0.030109411124362412 0.0068807779709657473 0 -0.031068799409088816 0.0056116504288684019 0 -0.029695122655417752 0.0053387234587985652 0 -0.029431444302795845 0.0057562563340567072 0 -0.029761567036287136 0.0057519106180860041 0 -0.029612128801966547 0.0056176447437646703 0 -0.029761567036287136 0.0057519106180860041 0 -0.029878672275895801 0.0057104013776110912 0 -0.029612128801966547 0.0056176447437646703 0 -0.029191754867333761 0.0055125680727203781 0 -0.029612128801966547 0.0056176447437646703 0 -0.029695122655417752 0.0053387234587985652 0 -0.036697214679608833 0.0059331287374433305 0 -0.037160544730046034 0.0060134487941137047 0 -0.037333813518669184 0.0057273314181489092 0 -0.03156562186504494 0.0055453084619676712 0 -0.035230945810563755 0.0061405051627519318 0 -0.030109411124362412 0.0068807779709657473 0 -0.032338211795677176 0.0064353266260785405 0 -0.031068799409088816 0.0056116504288684019 0 -0.041924757332926103 0.0055233400047232043 0 -0.03156562186504494 0.0055453084619676712 0 -0.036893610058474836 0.0064942229555413648 0 -0.036697214679608833 0.0059331287374433305 0 -0.037012057768800156 0.0061452448374350512 0 -0.036697214679608833 0.0059331287374433305 0 -0.037012057768800156 0.0061452448374350512 0 -0.037160544730046034 0.0060134487941137047 0 -0.036893610058474836 0.0064942229555413648 0 -0.037012057768800156 0.0061452448374350512 0 -0.037293436629345082 0.0062345091172720168 0 -0.037012057768800156 0.0061452448374350512 0 -0.037160544730046034 0.0060134487941137047 0 -0.037293436629345082 0.0062345091172720168 0 -0.036893610058474836 0.0064942229555413648 0 -0.037293436629345082 0.0062345091172720168 0 -0.037756931390962929 0.0063498984582603998 0 -0.037160544730046034 0.0060134487941137047 0 -0.037293436629345082 0.0062345091172720168 0 -0.037448664240223382 0.006029486083927618 0 -0.037293436629345082 0.0062345091172720168 0 -0.037553761289860953 0.0063092566464628798 0 -0.037521764865213948 0.0061778035437033627 0 -0.035914058033692034 0.005263099432267185 0 -0.044934554094571637 0.0045549272527676014 0 -0.037648429910089098 0.0061201041969643618 0 -0.037521764865213948 0.0061778035437033627 0 -0.037448664240223382 0.006029486083927618 0 -0.037293436629345082 0.0062345091172720168 0 -0.037521764865213948 0.0061778035437033627 0 -0.037448664240223382 0.006029486083927618 0 -0.037745806282862428 0.0059158235061774886 0 -0.037448664240223382 0.006029486083927618 0 -0.037333813518669184 0.0057273314181489092 0 -0.037160544730046034 0.0060134487941137047 0 -0.037448664240223382 0.006029486083927618 0 -0.037333813518669184 0.0057273314181489092 0 -0.032338211795677176 0.0064353266260785405 0 -0.032685163157422072 0.0049213905904025813 0 -0.031068799409088816 0.0056116504288684019 0 -0.032685163157422072 0.0049213905904025813 0 -0.032303092462940788 0.0033575779118846859 0 -0.030875630872602429 0.0043660046381975648 0 -0.030875630872602429 0.0043660046381975648 0 -0.029539632569402074 0.003838839707092779 0 -0.030261272348337268 0.0025661240804859906 0 -0.032303092462940788 0.0033575779118846859 0 -0.030875630872602429 0.0043660046381975648 0 -0.030261272348337268 0.0025661240804859906 0 -0.030875630872602429 0.0043660046381975648 0 -0.031068799409088816 0.0056116504288684019 0 -0.029695122655417752 0.0053387234587985652 0 -0.032685163157422072 0.0049213905904025813 0 -0.030875630872602429 0.0043660046381975648 0 -0.031068799409088816 0.0056116504288684019 0 -0.030875630872602429 0.0043660046381975648 0 -0.029695122655417752 0.0053387234587985652 0 -0.029539632569402074 0.003838839707092779 0 -0.029539632569402074 0.003838839707092779 0 -0.028571946333911583 0.0031915778681101854 0 -0.028548560863136774 0.004783579381981963 0 -0.029191754867333761 0.0055125680727203781 0 -0.029695122655417752 0.0053387234587985652 0 -0.028548560863136774 0.004783579381981963 0 -0.029695122655417752 0.0053387234587985652 0 -0.029539632569402074 0.003838839707092779 0 -0.028548560863136774 0.004783579381981963 0 -0.028571946333911583 0.0031915778681101854 0 -0.029300154960370445 0.0026501429682160111 0 -0.028628546512245428 0.0021517230482914068 0 -0.027959080051753869 0.002432713390591785 0 -0.028073446584872801 0.001864808965631783 0 -0.029539632569402074 0.003838839707092779 0 -0.028571946333911583 0.0031915778681101854 0 -0.029300154960370445 0.0026501429682160111 0 -0.029539632569402074 0.003838839707092779 0 -0.029300154960370445 0.0026501429682160111 0 -0.030261272348337268 0.0025661240804859906 0 -0.029300154960370445 0.0026501429682160111 0 -0.029482695871627992 0.002137233596435504 0 -0.028628546512245428 0.0021517230482914068 0 -0.029300154960370445 0.0026501429682160111 0 -0.030261272348337268 0.0025661240804859906 0 -0.029482695871627992 0.002137233596435504 0 -0.030261272348337268 0.0025661240804859906 0 -0.030259960314498346 0.0022367392750511149 0 -0.029482695871627992 0.002137233596435504 0 -0.032303092462940788 0.0033575779118846859 0 -0.030261272348337268 0.0025661240804859906 0 -0.032961756016124187 0.0014234538359754539 0 -0.030399380621311811 0.0024662712699484871 0 -0.031801645487448793 0.0020636352320724644 0 -0.030552686055623387 0.0026319375033897544 0 -0.030259960314498346 0.0022367392750511149 0 -0.030819753829147759 0.0022789054262179831 0 -0.030261272348337268 0.0025661240804859906 0 -0.030552686055623387 0.0026319375033897544 0 -0.030259960314498346 0.0022367392750511149 0 -0.02984528008059506 0.0014757706121167327 0 -0.031309908666899339 0.0022010533605032836 0 -0.031922762272915704 0.0007872881119626666 0 -0.030259960314498346 0.0022367392750511149 0 -0.02984528008059506 0.0014757706121167327 0 -0.030655529386221632 0.0017819411029852358 0 -0.030259960314498346 0.0022367392750511149 0 -0.030819753829147759 0.0022789054262179831 0 -0.030655529386221632 0.0017819411029852358 0 -0.029899964644816292 0.0014822925651638271 0 -0.031036764040187789 0.0019975881089068638 0 -0.030259960314498346 0.0022367392750511149 0 -0.02984528008059506 0.0014757706121167327 0 -0.029482695871627992 0.002137233596435504 0 -0.02984528008059506 0.0014757706121167327 0 -0.029482695871627992 0.002137233596435504 0 -0.028053218980315594 0.0014317501417531687 0 -0.0280781847286414 0.0013999142369109931 0 -0.028073446584872801 0.001864808965631783 0 -0.028053218980315594 0.0014317501417531687 0 -0.027528414915788332 0.0016638564684802334 0 -0.027402237245182235 0.0015437531840819683 0 -0.029482695871627992 0.002137233596435504 0 -0.028053218980315594 0.0014317501417531687 0 -0.028628546512245428 0.0021517230482914068 0 -0.038601370726161599 0.00047742525903113705 0 -0.037306144938253773 0.0015160789109387278 0 -0.035804382974817819 0.00079996005207585465 0 -0.03585616439838421 0.001947984685288402 0 -0.031735419013328291 0.0026370641253069976 0 -0.03585616439838421 0.001947984685288402 0 -0.033517313071228648 0.001707445865331982 0 -0.034566179019318369 0.0041035139186675462 0 -0.03280741194068313 0.0030007686373971628 0 -0.034077980732670377 0.0028338001341980217 0 -0.034566179019318369 0.0041035139186675462 0 -0.034754620700722147 0.0032348599543058874 0 -0.034077980732670377 0.0028338001341980217 0 -0.034566179019318369 0.0041035139186675462 0 -0.035442522873449067 0.0033427155463110758 0 -0.037091018445511367 0.0038509366230863634 0 -0.038718629643003002 0.00065575294100999649 0 -0.039538784126660877 0.0011481852462444221 0 -0.041289777734101037 0.00042885258937868037 0 -0.03585616439838421 0.001947984685288402 0 -0.039949205819856726 0.0031253321106736471 0 -0.034566179019318369 0.0041035139186675462 0 -0.034754620700722147 0.0032348599543058874 0 -0.035442522873449067 0.0033427155463110758 0 -0.03585616439838421 0.001947984685288402 0 -0.038924924583752567 0.0019352255683710473 0 -0.038601370726161599 0.00047742525903113705 0 -0.039538784126660877 0.0011481852462444221 0 -0.038650131000020356 0.0016683388049037221 0 -0.039538784126660877 0.0011481852462444221 0 -0.039673381575874432 0.0024318656712894221 0 -0.038650131000020356 0.0016683388049037221 0 -0.039538784126660877 0.0011481852462444221 0 -0.039673381575874432 0.0024318656712894221 0 -0.040397901861777767 0.0015360152965001274 0 -0.039673381575874432 0.0024318656712894221 0 -0.038015343969234734 0.0026905624881552051 0 -0.038650131000020356 0.0016683388049037221 0 -0.038015343969234734 0.0026905624881552051 0 -0.038650131000020356 0.0016683388049037221 0 -0.037306144938253773 0.0015160789109387278 0 -0.038601370726161599 0.00047742525903113705 0 -0.038650131000020356 0.0016683388049037221 0 -0.037306144938253773 0.0015160789109387278 0 -0.035340395992144176 0.0032891451003387146 0 -0.037306144938253773 0.0015160789109387278 0 -0.035804382974817819 0.00079996005207585465 0 -0.035340395992144176 0.0032891451003387146 0 -0.038015343969234734 0.0026905624881552051 0 -0.037306144938253773 0.0015160789109387278 0 -0.035340395992144176 0.0032891451003387146 0 -0.032303092462940788 0.0033575779118846859 0 -0.032961756016124187 0.0014234538359754539 0 -0.035340395992144176 0.0032891451003387146 0 -0.032961756016124187 0.0014234538359754539 0 -0.035804382974817819 0.00079996005207585465 0 -0.031801645487448793 0.0020636352320724644 0 -0.033517313071228648 0.001707445865331982 0 -0.030552686055623387 0.0026319375033897544 0 -0.030819753829147759 0.0022789054262179831 0 -0.031352769498004827 0.0026736756605047953 0 -0.030819753829147759 0.0022789054262179831 0 -0.031352769498004827 0.0026736756605047953 0 -0.031414535919046416 0.0020946351727116324 0 -0.032345105176212176 0.0025754976581724128 0 -0.031352769498004827 0.0026736756605047953 0 -0.031414535919046416 0.0020946351727116324 0 -0.03280741194068313 0.0030007686373971628 0 -0.033322338596532018 0.0023145517233214225 0 -0.034077980732670377 0.0028338001341980217 0 -0.03280741194068313 0.0030007686373971628 0 -0.032533538641786895 0.0021420979104627689 0 -0.033322338596532018 0.0023145517233214225 0 -0.031735419013328291 0.0026370641253069976 0 -0.031036764040187789 0.0019975881089068638 0 -0.03280741194068313 0.0030007686373971628 0 -0.032533538641786895 0.0021420979104627689 0 -0.031309908666899339 0.0022010533605032836 0 -0.030819753829147759 0.0022789054262179831 0 -0.031414535919046416 0.0020946351727116324 0 -0.030655529386221632 0.0017819411029852358 0 -0.032533538641786895 0.0021420979104627689 0 -0.031309908666899339 0.0022010533605032836 0 -0.031922762272915704 0.0007872881119626666 0 -0.032533538641786895 0.0021420979104627689 0 -0.033264299317593386 0.0016166225105407397 0 -0.031922762272915704 0.0007872881119626666 0 -0.032533538641786895 0.0021420979104627689 0 -0.033322338596532018 0.0023145517233214225 0 -0.033264299317593386 0.0016166225105407397 0 -0.033264299317593386 0.0016166225105407397 0 -0.03425524834273462 0.0012576634129054043 0 -0.033695725057012446 0.00072728034853030657 0 -0.03425524834273462 0.0012576634129054043 0 -0.034996538082360813 0.00098800308865755341 0 -0.034612155994553986 0.00063855034890140288 0 -0.03425524834273462 0.0012576634129054043 0 -0.034003912196730886 0.0019831034515380361 0 -0.034856120261599059 0.0015807724587928701 0 -0.033322338596532018 0.0023145517233214225 0 -0.033264299317593386 0.0016166225105407397 0 -0.034003912196730886 0.0019831034515380361 0 -0.033264299317593386 0.0016166225105407397 0 -0.03425524834273462 0.0012576634129054043 0 -0.034003912196730886 0.0019831034515380361 0 -0.033322338596532018 0.0023145517233214225 0 -0.034003912196730886 0.0019831034515380361 0 -0.034077980732670377 0.0028338001341980217 0 -0.034003912196730886 0.0019831034515380361 0 -0.034467326691362155 0.0022392391300776453 0 -0.034077980732670377 0.0028338001341980217 0 -0.034003912196730886 0.0019831034515380361 0 -0.034467326691362155 0.0022392391300776453 0 -0.034856120261599059 0.0015807724587928701 0 -0.034467326691362155 0.0022392391300776453 0 -0.034077980732670377 0.0028338001341980217 0 -0.034953168611555618 0.0026604911999135146 0 -0.034754620700722147 0.0032348599543058874 0 -0.034077980732670377 0.0028338001341980217 0 -0.034953168611555618 0.0026604911999135146 0 -0.035442522873449067 0.0033427155463110758 0 -0.036000944961818923 0.0027406442764300225 0 -0.034953168611555618 0.0026604911999135146 0 -0.034754620700722147 0.0032348599543058874 0 -0.035442522873449067 0.0033427155463110758 0 -0.034953168611555618 0.0026604911999135146 0 -0.036000944961818923 0.0027406442764300225 0 -0.034953168611555618 0.0026604911999135146 0 -0.034856120261599059 0.0015807724587928701 0 -0.034467326691362155 0.0022392391300776453 0 -0.034953168611555618 0.0026604911999135146 0 -0.034856120261599059 0.0015807724587928701 0 -0.036496157509930544 0.0027508486929655406 0 -0.035101852988241672 0.0016630689337279667 0 -0.037186537525205926 0.003001261413659459 0 -0.036853405464097641 0.0017140773916861263 0 -0.034856120261599059 0.0015807724587928701 0 -0.036853405464097641 0.0017140773916861263 0 -0.035680442671454711 0.0011450683718783033 0 -0.034856120261599059 0.0015807724587928701 0 -0.036853405464097641 0.0017140773916861263 0 -0.035680442671454711 0.0011450683718783033 0 -0.038304713983209469 0.00086199954194845943 0 -0.035680442671454711 0.0011450683718783033 0 -0.034856120261599059 0.0015807724587928701 0 -0.034996538082360813 0.00098800308865755341 0 -0.03425524834273462 0.0012576634129054043 0 -0.034856120261599059 0.0015807724587928701 0 -0.034996538082360813 0.00098800308865755341 0 -0.035680442671454711 0.0011450683718783033 0 -0.034996538082360813 0.00098800308865755341 0 -0.035375843965870069 0.00087958692641179181 0 -0.035680442671454711 0.0011450683718783033 0 -0.035375843965870069 0.00087958692641179181 0 -0.035546344759183418 0.00075559311194312647 0 -0.034996538082360813 0.00098800308865755341 0 -0.035375843965870069 0.00087958692641179181 0 -0.035196096200476659 0.00060089045795952065 0 -0.035680442671454711 0.0011450683718783033 0 -0.040027497610571429 -0.0012003202498741203 0 -0.038304713983209469 0.00086199954194845943 0 -0.040027497610571429 -0.0012003202498741203 0 -0.039815005527170835 0.0010436648094564263 0 -0.040950940968433554 0.0023230230345299033 0 -0.035589250578887559 0.00086176959409271412 0 -0.038791178266168139 0.00087707806181055385 0 -0.035680442671454711 0.0011450683718783033 0 -0.035809458048716984 0.00081464086271661835 0 -0.035546344759183418 0.00075559311194312647 0 -0.035809458048716984 0.00081464086271661835 0 -0.035955889453760964 0.00075910962500101058 0 -0.035546344759183418 0.00075559311194312647 0 -0.040027497610571429 -0.0012003202498741203 0 -0.039815005527170835 0.0010436648094564263 0 -0.038304713983209469 0.00086199954194845943 0 -0.040390134476452462 0.0011497283273232662 0 -0.040722186199589727 0.0010009080717817437 0 -0.041066887035787543 0.0022084738837827673 0 -0.038791178266168139 0.00087707806181055385 0 -0.042225293730693218 0.0018995201795101964 0 -0.040027497610571429 -0.0012003202498741203 0 -0.041715667548105913 0.0016277939360067706 0 -0.040950940968433554 0.0023230230345299033 0 -0.044175012158693065 0.0018379567882047417 0 -0.044148125492205724 0.0018631668395832862 0 -0.044194172883741625 0.0018367177500307837 0 -0.040274947351189132 0.0017295675676627955 0 -0.042225293730693218 0.0018995201795101964 0 -0.038791178266168139 0.00087707806181055385 0 -0.040274947351189132 0.0017295675676627955 0 -0.044148125492205724 0.0018631668395832862 0 -0.044199819025817648 0.0018572883504792215 0 -0.044194172883741625 0.0018367177500307837 0 -0.041715667548105913 0.0016277939360067706 0 -0.040950940968433554 0.0023230230345299033 0 -0.042396182511916569 0.0029700138344561709 0 -0.044148125492205724 0.0018631668395832862 0 -0.044143275882088329 0.001939364770343155 0 -0.044199819025817648 0.0018572883504792215 0 -0.042225293730693218 0.0018995201795101964 0 -0.043224968007465107 0.002461592363551451 0 -0.040950940968433554 0.0023230230345299033 0 -0.039929897635666088 0.0029552293991500127 0 -0.041957937740620586 0.0035927651273421806 0 -0.040950940968433554 0.0023230230345299033 0 -0.042396182511916569 0.0029700138344561709 0 -0.041957937740620586 0.0035927651273421806 0 -0.037186537525205926 0.003001261413659459 0 -0.036853405464097641 0.0017140773916861263 0 -0.038706180847969542 0.0019531368717719336 0 -0.036853405464097641 0.0017140773916861263 0 -0.038304713983209469 0.00086199954194845943 0 -0.038706180847969542 0.0019531368717719336 0 -0.039815005527170835 0.0010436648094564263 0 -0.038304713983209469 0.00086199954194845943 0 -0.038706180847969542 0.0019531368717719336 0 -0.039815005527170835 0.0010436648094564263 0 -0.038706180847969542 0.0019531368717719336 0 -0.040164605077302865 0.0021028585505779617 0 -0.038706180847969542 0.0019531368717719336 0 -0.040164605077302865 0.0021028585505779617 0 -0.039929897635666088 0.0029552293991500127 0 -0.039815005527170835 0.0010436648094564263 0 -0.040950940968433554 0.0023230230345299033 0 -0.040164605077302865 0.0021028585505779617 0 -0.040950940968433554 0.0023230230345299033 0 -0.040164605077302865 0.0021028585505779617 0 -0.039929897635666088 0.0029552293991500127 0 -0.037186537525205926 0.003001261413659459 0 -0.038706180847969542 0.0019531368717719336 0 -0.039929897635666088 0.0029552293991500127 0 -0.037186537525205926 0.003001261413659459 0 -0.039929897635666088 0.0029552293991500127 0 -0.039670243477893156 0.0045428910838112525 0 -0.039538784126660877 0.0011481852462444221 0 -0.041289777734101037 0.00042885258937868037 0 -0.040397901861777767 0.0015360152965001274 0 -0.035442522873449067 0.0033427155463110758 0 -0.036000944961818923 0.0027406442764300225 0 -0.037091018445511367 0.0038509366230863634 0 -0.036496157509930544 0.0027508486929655406 0 -0.039949205819856726 0.0031253321106736471 0 -0.039929897635666088 0.0029552293991500127 0 -0.039670243477893156 0.0045428910838112525 0 -0.041957937740620586 0.0035927651273421806 0 -0.039949205819856726 0.0031253321106736471 0 -0.041715510075520927 0.003511965806246162 0 -0.04176415156404472 0.0036183598414533014 0 -0.041957937740620586 0.0035927651273421806 0 -0.042654510815411481 0.0036273967861044139 0 -0.039949205819856726 0.0031253321106736471 0 -0.042884358733485221 0.0026815467255743622 0 -0.041289777734101037 0.00042885258937868037 0 -0.041061500756185969 0.0021757468340730629 0 -0.040397901861777767 0.0015360152965001274 0 -0.041289777734101037 0.00042885258937868037 0 -0.042747546857189143 0.0019898130171606154 0 -0.041061500756185969 0.0021757468340730629 0 -0.039673381575874432 0.0024318656712894221 0 -0.041061500756185969 0.0021757468340730629 0 -0.040397901861777767 0.0015360152965001274 0 -0.04452368336459319 0.0024234017573782018 0 -0.044956972883394244 0.0022087040568484822 0 -0.045502454644006624 0.0026588845707610689 0 -0.041957937740620586 0.0035927651273421806 0 -0.042654510815411481 0.0036273967861044139 0 -0.043632401629702576 0.0032849895313053295 0 -0.042654510815411481 0.0036273967861044139 0 -0.043632401629702576 0.0032849895313053295 0 -0.044163063130039856 0.003471148586404862 0 -0.043224968007465107 0.002461592363551451 0 -0.044187772840056455 0.0028804603076133025 0 -0.042396182511916569 0.0029700138344561709 0 -0.041957937740620586 0.0035927651273421806 0 -0.043632401629702576 0.0032849895313053295 0 -0.044143275882088329 0.001939364770343155 0 -0.04452368336459319 0.0024234017573782018 0 -0.04446211640910714 0.0020688030509797696 0 -0.04446211640910714 0.0020688030509797696 0 -0.044956972883394244 0.0022087040568484822 0 -0.044561466111449559 0.0019777350453739728 0 -0.04452368336459319 0.0024234017573782018 0 -0.04446211640910714 0.0020688030509797696 0 -0.044956972883394244 0.0022087040568484822 0 -0.04446211640910714 0.0020688030509797696 0 -0.044561466111449559 0.0019777350453739728 0 -0.044316146705407483 0.0019047604835326448 0 -0.044561466111449559 0.0019777350453739728 0 -0.044316146705407483 0.0019047604835326448 0 -0.044290375108480169 0.0018467537545050934 0 -0.044316146705407483 0.0019047604835326448 0 -0.044216626897381754 0.0018336041720332041 0 -0.044290375108480169 0.0018467537545050934 0 -0.044561466111449559 0.0019777350453739728 0 -0.044290375108480169 0.0018467537545050934 0 -0.044448139900109936 0.0019208450549889639 0 -0.044143275882088329 0.001939364770343155 0 -0.04446211640910714 0.0020688030509797696 0 -0.044316146705407483 0.0019047604835326448 0 -0.044316146705407483 0.0019047604835326448 0 -0.044199819025817648 0.0018572883504792215 0 -0.044216626897381754 0.0018336041720332041 0 -0.044143275882088329 0.001939364770343155 0 -0.044316146705407483 0.0019047604835326448 0 -0.044199819025817648 0.0018572883504792215 0 -0.044216626897381754 0.0018336041720332041 0 -0.044194172883741625 0.0018367177500307837 0 -0.044119382341974885 0.0018044333232535546 0 -0.044199819025817648 0.0018572883504792215 0 -0.044216626897381754 0.0018336041720332041 0 -0.044194172883741625 0.0018367177500307837 0 -0.044290375108480169 0.0018467537545050934 0 -0.044119382341974885 0.0018044333232535546 0 -0.044022003144684123 0.0018398025793950996 0 -0.044216626897381754 0.0018336041720332041 0 -0.044290375108480169 0.0018467537545050934 0 -0.044119382341974885 0.0018044333232535546 0 -0.044290375108480169 0.0018467537545050934 0 -0.044022003144684123 0.0018398025793950996 0 -0.044448139900109936 0.0019208450549889639 0 -0.044135184796369117 0.0018797196768189247 0 -0.044566071602227482 0.0019988898655923988 0 -0.044448139900109936 0.0019208450549889639 0 -0.044022003144684123 0.0018398025793950996 0 -0.044135184796369117 0.0018797196768189247 0 -0.044448139900109936 0.0019208450549889639 0 -0.044022003144684123 0.0018398025793950996 0 -0.044135184796369117 0.0018797196768189247 0 -0.043663355502647654 0.0018214876360515364 0 -0.044135184796369117 0.0018797196768189247 0 -0.044396069468451614 0.0019616394556731171 0 -0.043985626587082681 0.0017883743531067395 0 -0.044135184796369117 0.0018797196768189247 0 -0.044396069468451614 0.0019616394556731171 0 -0.044566071602227482 0.0019988898655923988 0 -0.044566071602227482 0.0019988898655923988 0 -0.044879402470482534 0.0021411754356001952 0 -0.044989821404639786 0.0021012198178121115 0 -0.044396069468451614 0.0019616394556731171 0 -0.044566071602227482 0.0019988898655923988 0 -0.044879402470482534 0.0021411754356001952 0 -0.044561466111449559 0.0019777350453739728 0 -0.044448139900109936 0.0019208450549889639 0 -0.044989821404639786 0.0021012198178121115 0 -0.044566071602227482 0.0019988898655923988 0 -0.044448139900109936 0.0019208450549889639 0 -0.044989821404639786 0.0021012198178121115 0 -0.044666278713205936 0.0021431466489822493 0 -0.044410733154936662 0.0019900170625520323 0 -0.044255698661488423 0.0017918324920585722 0 -0.044494060143193223 0.0017477942706819157 0 -0.044666278713205936 0.0021431466489822493 0 -0.044255698661488423 0.0017918324920585722 0 -0.044396069468451614 0.0019616394556731171 0 -0.044410733154936662 0.0019900170625520323 0 -0.044879402470482534 0.0021411754356001952 0 -0.044396069468451614 0.0019616394556731171 0 -0.044410733154936662 0.0019900170625520323 0 -0.043985626587082681 0.0017883743531067395 0 -0.044410733154936662 0.0019900170625520323 0 -0.044879402470482534 0.0021411754356001952 0 -0.044920207880276931 0.0022707416059275301 0 -0.044666278713205936 0.0021431466489822493 0 -0.044922544400550171 0.0023674540814190713 0 -0.044920207880276931 0.0022707416059275301 0 -0.044666278713205936 0.0021431466489822493 0 -0.044410733154936662 0.0019900170625520323 0 -0.044920207880276931 0.0022707416059275301 0 -0.046537305164763267 0.002239119078038579 0 -0.046568163376759314 0.0022568630036562637 0 -0.044922544400550171 0.0023674540814190713 0 -0.044920207880276931 0.0022707416059275301 0 -0.045310749897239336 0.0022634222338644965 0 -0.044879402470482534 0.0021411754356001952 0 -0.044920207880276931 0.0022707416059275301 0 -0.045563986831195981 0.0023032263472488766 0 -0.044920207880276931 0.0022707416059275301 0 -0.045563986831195981 0.0023032263472488766 0 -0.045310749897239336 0.0022634222338644965 0 -0.045563986831195981 0.0023032263472488766 0 -0.045310749897239336 0.0022634222338644965 0 -0.046709930142839251 0.0025399355679664552 0 -0.046568163376759314 0.0022568630036562637 0 -0.046598259594812487 0.0025140120351388627 0 -0.048183390805513489 0.002365611233732961 0 -0.047857366967143759 0.0021140118909160951 0 -0.047991067425322741 0.0027691593367151703 0 -0.044956972883394244 0.0022087040568484822 0 -0.044989821404639786 0.0021012198178121115 0 -0.045726091347518497 0.0024084836482355511 0 -0.044956972883394244 0.0022087040568484822 0 -0.044561466111449559 0.0019777350453739728 0 -0.044989821404639786 0.0021012198178121115 0 -0.044879402470482534 0.0021411754356001952 0 -0.045563986831195981 0.0023032263472488766 0 -0.044989821404639786 0.0021012198178121115 0 -0.045563986831195981 0.0023032263472488766 0 -0.044989821404639786 0.0021012198178121115 0 -0.045726091347518497 0.0024084836482355511 0 -0.045563986831195981 0.0023032263472488766 0 -0.045726091347518497 0.0024084836482355511 0 -0.046709930142839251 0.0025399355679664552 0 -0.044956972883394244 0.0022087040568484822 0 -0.045502454644006624 0.0026588845707610689 0 -0.045726091347518497 0.0024084836482355511 0 -0.045502454644006624 0.0026588845707610689 0 -0.045726091347518497 0.0024084836482355511 0 -0.046692478240395505 0.003115824402631927 0 -0.045502454644006624 0.0026588845707610689 0 -0.046692478240395505 0.003115824402631927 0 -0.04570800164168777 0.0033646070995842661 0 -0.045726091347518497 0.0024084836482355511 0 -0.046692478240395505 0.003115824402631927 0 -0.046709930142839251 0.0025399355679664552 0 -0.046692478240395505 0.003115824402631927 0 -0.046709930142839251 0.0025399355679664552 0 -0.047513769830208566 0.0031187573307284444 0 -0.046692478240395505 0.003115824402631927 0 -0.047757472861481763 0.0035668220614189887 0 -0.047513769830208566 0.0031187573307284444 0 -0.046692478240395505 0.003115824402631927 0 -0.047757472861481763 0.0035668220614189887 0 -0.047559126528882258 0.0043244087674230661 0 -0.046692478240395505 0.003115824402631927 0 -0.047559126528882258 0.0043244087674230661 0 -0.04570800164168777 0.0033646070995842661 0 -0.047857366967143759 0.0021140118909160951 0 -0.047991067425322741 0.0027691593367151703 0 -0.046709930142839251 0.0025399355679664552 0 -0.047991067425322741 0.0027691593367151703 0 -0.046709930142839251 0.0025399355679664552 0 -0.047513769830208566 0.0031187573307284444 0 -0.047757472861481763 0.0035668220614189887 0 -0.047513769830208566 0.0031187573307284444 0 -0.048124596785142137 0.0032254911894298295 0 -0.047991067425322741 0.0027691593367151703 0 -0.047513769830208566 0.0031187573307284444 0 -0.048124596785142137 0.0032254911894298295 0 -0.048413424793470002 0.003053891330181148 0 -0.047991067425322741 0.0027691593367151703 0 -0.048124596785142137 0.0032254911894298295 0 -0.048124596785142137 0.0032254911894298295 0 -0.0486099204953176 0.0032207668170997632 0 -0.048440347216280447 0.0034211958192588809 0 -0.048413424793470002 0.003053891330181148 0 -0.048124596785142137 0.0032254911894298295 0 -0.0486099204953176 0.0032207668170997632 0 -0.047757472861481763 0.0035668220614189887 0 -0.048124596785142137 0.0032254911894298295 0 -0.048440347216280447 0.0034211958192588809 0 -0.049019911757184946 0.0031030709333243452 0 -0.048440347216280447 0.0034211958192588809 0 -0.048908899631162239 0.0033254984725886081 0 -0.049019911757184946 0.0031030709333243452 0 -0.0486099204953176 0.0032207668170997632 0 -0.048440347216280447 0.0034211958192588809 0 -0.048972568703785031 0.0030320671871556164 0 -0.049019911757184946 0.0031030709333243452 0 -0.0486099204953176 0.0032207668170997632 0 -0.047559126528882258 0.0043244087674230661 0 -0.048300666276914456 0.0036753530885867362 0 -0.04887455035020221 0.0036008228829589595 0 -0.047757472861481763 0.0035668220614189887 0 -0.047559126528882258 0.0043244087674230661 0 -0.048300666276914456 0.0036753530885867362 0 -0.047757472861481763 0.0035668220614189887 0 -0.048440347216280447 0.0034211958192588809 0 -0.048300666276914456 0.0036753530885867362 0 -0.048440347216280447 0.0034211958192588809 0 -0.048908899631162239 0.0033254984725886081 0 -0.048300666276914456 0.0036753530885867362 0 -0.048908899631162239 0.0033254984725886081 0 -0.048300666276914456 0.0036753530885867362 0 -0.049183759778578216 0.0032856363900709939 0 -0.048300666276914456 0.0036753530885867362 0 -0.049183759778578216 0.0032856363900709939 0 -0.04887455035020221 0.0036008228829589595 0 -0.049905477185669719 0.0031938466870573465 0 -0.049183759778578216 0.0032856363900709939 0 -0.04887455035020221 0.0036008228829589595 0 -0.049905477185669719 0.0031938466870573465 0 -0.04887455035020221 0.0036008228829589595 0 -0.0500695414061798 0.0041203193321339487 0 -0.047559126528882258 0.0043244087674230661 0 -0.04887455035020221 0.0036008228829589595 0 -0.0500695414061798 0.0041203193321339487 0 -0.04752686157743264 0.0044446136408448867 0 -0.047102745294284806 0.004912070946110474 0 -0.047559126528882258 0.0043244087674230661 0 -0.044187105518462048 0.005831489263625385 0 -0.044904859885157432 0.004150340242114527 0 -0.044187105518462048 0.005831489263625385 0 -0.041746890188937728 0.0063365520930398229 0 -0.043437850552463665 0.0044951624914137053 0 -0.050645590511164053 0.0033063235264332936 0 -0.049905477185669719 0.0031938466870573465 0 -0.0500695414061798 0.0041203193321339487 0 -0.050645590511164053 0.0033063235264332936 0 -0.0500695414061798 0.0041203193321339487 0 -0.050849841343733368 0.0037607656794915937 0 -0.050645590511164053 0.0033063235264332936 0 -0.050998359545105953 0.0034469726885310811 0 -0.050849841343733368 0.0037607656794915937 0 -0.045365204975382496 0.0049141453151702258 0 -0.046267290135435353 0.0050431354049308525 0 -0.050916371550918653 0.0033569655637083625 0 -0.050998359545105953 0.0034469726885310811 0 -0.050849841343733368 0.0037607656794915937 0 -0.039651829721095058 0.0064986476835539693 0 -0.041746890188937728 0.0063365520930398229 0 -0.04043421733291911 0.0051073066325774278 0 -0.047102745294284806 0.004912070946110474 0 -0.046267290135435353 0.0050431354049308525 0 -0.041746890188937728 0.0063365520930398229 0 -0.042090758755693299 0.0038862908740185959 0 -0.043437850552463665 0.0044951624914137053 0 -0.041746890188937728 0.0063365520930398229 0 -0.04043421733291911 0.0051073066325774278 0 -0.042090758755693299 0.0038862908740185959 0 -0.04043421733291911 0.0051073066325774278 0 -0.040659530588424427 0.0036209356301789525 0 -0.042090758755693299 0.0038862908740185959 0 -0.039673381575874432 0.0024318656712894221 0 -0.041061500756185969 0.0021757468340730629 0 -0.040659530588424427 0.0036209356301789525 0 -0.041061500756185969 0.0021757468340730629 0 -0.040659530588424427 0.0036209356301789525 0 -0.042090758755693299 0.0038862908740185959 0 -0.042747546857189143 0.0019898130171606154 0 -0.041061500756185969 0.0021757468340730629 0 -0.042090758755693299 0.0038862908740185959 0 -0.042747546857189143 0.0019898130171606154 0 -0.042090758755693299 0.0038862908740185959 0 -0.044163063130039856 0.003471148586404862 0 -0.042884358733485221 0.0026815467255743622 0 -0.043907135961699012 0.0034435079189770071 0 -0.04452368336459319 0.0024234017573782018 0 -0.045502454644006624 0.0026588845707610689 0 -0.04570800164168777 0.0033646070995842661 0 -0.044187772840056455 0.0028804603076133025 0 -0.045541320332583027 0.00345104432257041 0 -0.043632401629702576 0.0032849895313053295 0 -0.044163063130039856 0.003471148586404862 0 -0.04570800164168777 0.0033646070995842661 0 -0.044163063130039856 0.003471148586404862 0 -0.04570800164168777 0.0033646070995842661 0 -0.044904859885157432 0.004150340242114527 0 -0.047559126528882258 0.0043244087674230661 0 -0.04570800164168777 0.0033646070995842661 0 -0.044904859885157432 0.004150340242114527 0 -0.042090758755693299 0.0038862908740185959 0 -0.044163063130039856 0.003471148586404862 0 -0.043437850552463665 0.0044951624914137053 0 -0.044187105518462048 0.005831489263625385 0 -0.044904859885157432 0.004150340242114527 0 -0.043437850552463665 0.0044951624914137053 0 -0.044163063130039856 0.003471148586404862 0 -0.044904859885157432 0.004150340242114527 0 -0.043437850552463665 0.0044951624914137053 0 -0.0428426053448311 0.00024131042308101131 0 -0.042397605010336889 0.00016031810615300401 0 -0.043749369835418682 -2.7608649753604386e-05 0 -0.0428426053448311 0.00024131042308101131 0 -0.042827160835726873 8.0503373915774476e-07 0 -0.045444190205883556 1.0967202788518808e-06 0 -0.042827160835726873 8.0503373915774476e-07 0 -0.041833372898776353 0.00029897969085305358 0 -0.040218695742372974 -5.1234879715113814e-07 0 -0.0428426053448311 0.00024131042308101131 0 -0.042827160835726873 8.0503373915774476e-07 0 -0.041833372898776353 0.00029897969085305358 0 -0.0428426053448311 0.00024131042308101131 0 -0.041705117312467663 0.00018538637995158436 0 -0.042397605010336889 0.00016031810615300401 0 -0.0428426053448311 0.00024131042308101131 0 -0.041833372898776353 0.00029897969085305358 0 -0.041705117312467663 0.00018538637995158436 0 -0.041705117312467663 0.00018538637995158436 0 -0.041586521691785464 0.00017211293838713135 0 -0.040864259591297629 9.1788330308712195e-05 0 -0.041705117312467663 0.00018538637995158436 0 -0.041586521691785464 0.00017211293838713135 0 -0.042397605010336889 0.00016031810615300401 0 -0.041586521691785464 0.00017211293838713135 0 -0.041405461970433849 0.00017879122162259569 0 -0.040864259591297629 9.1788330308712195e-05 0 -0.041586521691785464 0.00017211293838713135 0 -0.041405461970433849 0.00017879122162259569 0 -0.041563611907530738 -1.4681724130942013e-05 0 -0.041586521691785464 0.00017211293838713135 0 -0.041563611907530738 -1.4681724130942013e-05 0 -0.042204048165731749 -0.00014433114640374279 0 -0.041586521691785464 0.00017211293838713135 0 -0.042397605010336889 0.00016031810615300401 0 -0.042204048165731749 -0.00014433114640374279 0 -0.042397605010336889 0.00016031810615300401 0 -0.042204048165731749 -0.00014433114640374279 0 -0.043749369835418682 -2.7608649753604386e-05 0 -0.041563611907530738 -1.4681724130942013e-05 0 -0.042204048165731749 -0.00014433114640374279 0 -0.041593957184996644 -0.00035321030396891808 0 -0.042204048165731749 -0.00014433114640374279 0 -0.041593957184996644 -0.00035321030396891808 0 -0.041967816457349164 -0.00090935148980865986 0 -0.042204048165731749 -0.00014433114640374279 0 -0.041967816457349164 -0.00090935148980865986 0 -0.043704983050292544 -0.0011633796253405963 0 -0.047761880488541825 -0.0011147484248032564 0 -0.047791090970540864 -0.0011087234453116116 0 -0.05373609552265942 -0.0013403681759378218 0 -0.051915420639408433 -0.001322888510056492 0 -0.053480304893701341 -0.00051335161654025353 0 -0.042204048165731749 -0.00014433114640374279 0 -0.043704983050292544 -0.0011633796253405963 0 -0.043749369835418682 -2.7608649753604386e-05 0 -0.043749369835418682 -2.7608649753604386e-05 0 -0.045444190205883556 1.0967202788518808e-06 0 -0.048052973374881014 -3.826490335894952e-06 0 -0.0428426053448311 0.00024131042308101131 0 -0.043749369835418682 -2.7608649753604386e-05 0 -0.045444190205883556 1.0967202788518808e-06 0 -0.043704983050292544 -0.0011633796253405963 0 -0.043749369835418682 -2.7608649753604386e-05 0 -0.048052973374881014 -3.826490335894952e-06 0 -0.047791090970540864 -0.0011087234453116116 0 -0.048058172922821905 -4.8777705694718253e-07 0 -0.051915420639408433 -0.001322888510056492 0 -0.048070618835006733 -4.1064963120159172e-06 0 -0.053552442171067742 0.00034544072131991474 0 -0.048070618835006733 -4.1064963120159172e-06 0 -0.054994150810042212 2.1277987411964445e-06 0 -0.053552442171067742 0.00034544072131991474 0 -0.054994150810042212 2.1277987411964445e-06 0 -0.053552442171067742 0.00034544072131991474 0 -0.054999367408388296 1.0684570217386465e-07 0 -0.053552442171067742 0.00034544072131991474 0 -0.054368212325584107 -0.0003687993558164225 0 -0.054999367408388296 1.0684570217386465e-07 0 -0.053552442171067742 0.00034544072131991474 0 -0.053480304893701341 -0.00051335161654025353 0 -0.054368212325584107 -0.0003687993558164225 0 -0.051915420639408433 -0.001322888510056492 0 -0.053552442171067742 0.00034544072131991474 0 -0.053480304893701341 -0.00051335161654025353 0 -0.05373609552265942 -0.0013403681759378218 0 -0.053480304893701341 -0.00051335161654025353 0 -0.054368212325584107 -0.0003687993558164225 0 -0.05470394520277342 -0.00071205974053774226 0 -0.054368212325584107 -0.0003687993558164225 0 -0.054403781729743694 -0.0012082434900378587 0 -0.05470394520277342 -0.00071205974053774226 0 -0.054758515737032241 -0.00041700392221987961 0 -0.054368212325584107 -0.0003687993558164225 0 -0.054758515737032241 -0.00041700392221987961 0 -0.054368212325584107 -0.0003687993558164225 0 -0.054813888439971349 -0.00019479093359891519 0 -0.054368212325584107 -0.0003687993558164225 0 -0.054999367408388296 1.0684570217386465e-07 0 -0.054813888439971349 -0.00019479093359891519 0 -0.054999367408388296 1.0684570217386465e-07 0 -0.054813888439971349 -0.00019479093359891519 0 -0.054941175915232704 -0.00010637370475761303 0 -0.054999367408388296 1.0684570217386465e-07 0 -0.055000058425207263 -2.3588712171097837e-07 0 -0.054941175915232704 -0.00010637370475761303 0 -0.055000058425207263 -2.3588712171097837e-07 0 -0.054941175915232704 -0.00010637370475761303 0 -0.055018095254331878 -0.00011419072583153819 0 -0.054813888439971349 -0.00019479093359891519 0 -0.054941175915232704 -0.00010637370475761303 0 -0.054944024504797635 -0.00030230399150714177 0 -0.054941175915232704 -0.00010637370475761303 0 -0.055023834272130714 -0.0002034378784852122 0 -0.054944024504797635 -0.00030230399150714177 0 -0.054941175915232704 -0.00010637370475761303 0 -0.055023834272130714 -0.0002034378784852122 0 -0.055018095254331878 -0.00011419072583153819 0 -0.055023834272130714 -0.0002034378784852122 0 -0.055042936726783794 -0.00035904463937744757 0 -0.055110546814695169 -0.00024140161381483804 0 -0.055023834272130714 -0.0002034378784852122 0 -0.055042936726783794 -0.00035904463937744757 0 -0.054944024504797635 -0.00030230399150714177 0 -0.055042936726783794 -0.00035904463937744757 0 -0.054944024504797635 -0.00030230399150714177 0 -0.055002384371221062 -0.00046164133102928828 0 -0.054758515737032241 -0.00041700392221987961 0 -0.054944024504797635 -0.00030230399150714177 0 -0.05490475729995558 -0.0005534618667348241 0 -0.054758515737032241 -0.00041700392221987961 0 -0.054813888439971349 -0.00019479093359891519 0 -0.054944024504797635 -0.00030230399150714177 0 -0.05470394520277342 -0.00071205974053774226 0 -0.054758515737032241 -0.00041700392221987961 0 -0.05490475729995558 -0.0005534618667348241 0 -0.054944024504797635 -0.00030230399150714177 0 -0.05490475729995558 -0.0005534618667348241 0 -0.055002384371221062 -0.00046164133102928828 0 -0.05490475729995558 -0.0005534618667348241 0 -0.055095486751868879 -0.00066476550624253747 0 -0.054858021154491801 -0.00081682508108434917 0 -0.05470394520277342 -0.00071205974053774226 0 -0.05490475729995558 -0.0005534618667348241 0 -0.054858021154491801 -0.00081682508108434917 0 -0.055042936726783794 -0.00035904463937744757 0 -0.055002384371221062 -0.00046164133102928828 0 -0.055095486751868879 -0.00066476550624253747 0 -0.052875308380585274 -0.0019918786237903474 0 -0.052788024002186289 -0.0022931594146736417 0 -0.053838821392330302 -0.0013780517006335574 0 -0.055042936726783794 -0.00035904463937744757 0 -0.055095486751868879 -0.00066476550624253747 0 -0.055110546814695169 -0.00024140161381483804 0 -0.049353866315908268 -0.001652420498587495 0 -0.048206822659090071 -0.00064052573712080685 0 -0.054995952455149169 -0.0012931308176146947 0 -0.054380276984225741 -0.00063771382055549924 0 -0.05490475729995558 -0.0005534618667348241 0 -0.055002384371221062 -0.00046164133102928828 0 -0.055095486751868879 -0.00066476550624253747 0 -0.052875308380585274 -0.0019918786237903474 0 -0.052788024002186289 -0.0022931594146736417 0 -0.051583915158170547 -0.0032612923739597163 0 -0.045187520853321998 -0.00094257673486264142 0 -0.045242592697686025 -0.00086376232656984215 0 -0.045076598234874275 -0.00084292886039867955 0 -0.03698547883233378 -0.0027600000310816796 0 -0.036180635082289719 -0.0021226566074041904 0 -0.035212915239749655 -0.0023957839205747795 0 -0.046086352945862871 -0.00087343739171829562 0 -0.038958899546558685 -0.0015871443858256531 0 -0.041406212172329211 -0.0017315375453952194 0 -0.041286804286232021 -9.0901816035411583e-05 0 -0.037140607441720749 -0.0025530896500282141 0 -0.036781793023584114 -0.0021552191787923584 0 -0.037064054856264544 -0.0020532012584485357 0 -0.040962496448911222 -0.00035241135601594053 0 -0.040928870999299878 -0.00039772661030726636 0 -0.041107085612319141 -0.00032970007639449575 0 -0.03698547883233378 -0.0027600000310816796 0 -0.036180635082289719 -0.0021226566074041904 0 -0.036781793023584114 -0.0021552191787923584 0 -0.037140607441720749 -0.0025530896500282141 0 -0.03698547883233378 -0.0027600000310816796 0 -0.036781793023584114 -0.0021552191787923584 0 -0.041406212172329211 -0.0017315375453952194 0 -0.046086352945862871 -0.00087343739171829562 0 -0.049353866315908268 -0.001652420498587495 0 -0.046086352945862871 -0.00087343739171829562 0 -0.055095486751868879 -0.00066476550624253747 0 -0.05484265322262636 -0.0011586608798329248 0 -0.054858021154491801 -0.00081682508108434917 0 -0.05484265322262636 -0.0011586608798329248 0 -0.054858021154491801 -0.00081682508108434917 0 -0.054706575232493511 -0.00097374217189774071 0 -0.054995952455149169 -0.0012931308176146947 0 -0.046086352945862871 -0.00087343739171829562 0 -0.05470394520277342 -0.00071205974053774226 0 -0.054858021154491801 -0.00081682508108434917 0 -0.054706575232493511 -0.00097374217189774071 0 -0.05373609552265942 -0.0013403681759378218 0 -0.054368212325584107 -0.0003687993558164225 0 -0.054403781729743694 -0.0012082434900378587 0 -0.05470394520277342 -0.00071205974053774226 0 -0.054706575232493511 -0.00097374217189774071 0 -0.054403781729743694 -0.0012082434900378587 0 -0.047761880488541825 -0.0011147484248032564 0 -0.048241245930865213 -0.00091389591361519908 0 -0.041593957184996644 -0.00035321030396891808 0 -0.041301250187337893 -0.00054460996664544873 0 -0.041296367233596698 -0.00017972440650407839 0 -0.041593957184996644 -0.00035321030396891808 0 -0.041967816457349164 -0.00090935148980865986 0 -0.041301250187337893 -0.00054460996664544873 0 -0.041301250187337893 -0.00054460996664544873 0 -0.041107085612319141 -0.00032970007639449575 0 -0.041296367233596698 -0.00017972440650407839 0 -0.040928870999299878 -0.00039772661030726636 0 -0.041301250187337893 -0.00054460996664544873 0 -0.041107085612319141 -0.00032970007639449575 0 -0.046086352945862871 -0.00087343739171829562 0 -0.048241245930865213 -0.00091389591361519908 0 -0.05484265322262636 -0.0011586608798329248 0 -0.054706575232493511 -0.00097374217189774071 0 -0.054403781729743694 -0.0012082434900378587 0 -0.040962496448911222 -0.00035241135601594053 0 -0.041107085612319141 -0.00032970007639449575 0 -0.04107882135636743 -0.00015045725034502864 0 -0.040870734597859767 -0.00042177045128421212 0 -0.04107882135636743 -0.00015045725034502864 0 -0.041137452208455112 -1.4691597053641792e-06 0 -0.041406212172329211 -0.0017315375453952194 0 -0.039248792848766048 -0.00082507487000882634 0 -0.041107085612319141 -0.00032970007639449575 0 -0.04107882135636743 -0.00015045725034502864 0 -0.041296367233596698 -0.00017972440650407839 0 -0.04107882135636743 -0.00015045725034502864 0 -0.041137452208455112 -1.4691597053641792e-06 0 -0.041296367233596698 -0.00017972440650407839 0 -0.041137452208455112 -1.4691597053641792e-06 0 -0.041296367233596698 -0.00017972440650407839 0 -0.041353538898637833 6.1093997748075464e-05 0 -0.037872234798776432 -0.0014349561088666232 0 -0.037303700489708297 -0.0018227313521493593 0 -0.037261170867063133 -0.0014375538462022643 0 -0.037872234798776432 -0.0014349561088666232 0 -0.037274584610877147 -0.0010183137698142654 0 -0.037261170867063133 -0.0014375538462022643 0 -0.041563611907530738 -1.4681724130942013e-05 0 -0.041296367233596698 -0.00017972440650407839 0 -0.041353538898637833 6.1093997748075464e-05 0 -0.041563611907530738 -1.4681724130942013e-05 0 -0.041593957184996644 -0.00035321030396891808 0 -0.041296367233596698 -0.00017972440650407839 0 -0.041405461970433849 0.00017879122162259569 0 -0.041563611907530738 -1.4681724130942013e-05 0 -0.041353538898637833 6.1093997748075464e-05 0 -0.041405461970433849 0.00017879122162259569 0 -0.041353538898637833 6.1093997748075464e-05 0 -0.041350790595474848 0.00018479996319023667 0 -0.041137452208455112 -1.4691597053641792e-06 0 -0.041353538898637833 6.1093997748075464e-05 0 -0.041350790595474848 0.00018479996319023667 0 -0.041405461970433849 0.00017879122162259569 0 -0.041350790595474848 0.00018479996319023667 0 -0.041245106502607785 0.00010838655522344895 0 -0.037872234798776432 -0.0014349561088666232 0 -0.037394169466628741 -0.00029523031342641639 0 -0.037274584610877147 -0.0010183137698142654 0 -0.039248792848766048 -0.00082507487000882634 0 -0.040040732962146108 -4.8374347051803407e-05 0 -0.037872234798776432 -0.0014349561088666232 0 -0.038642970946094347 -0.00027761072100194344 0 -0.037394169466628741 -0.00029523031342641639 0 -0.037394169466628741 -0.00029523031342641639 0 -0.037274584610877147 -0.0010183137698142654 0 -0.036335914958437417 -0.0010192954763025167 0 -0.037274584610877147 -0.0010183137698142654 0 -0.036335914958437417 -0.0010192954763025167 0 -0.036842711424507402 -0.0013572568127515092 0 -0.035866507338041947 -0.0007609994108657139 0 -0.036335914958437417 -0.0010192954763025167 0 -0.036059687705147225 -0.00026211497615233711 0 -0.035866507338041947 -0.0007609994108657139 0 -0.035378533101850192 -0.00058585326262043929 0 -0.036059687705147225 -0.00026211497615233711 0 -0.035866507338041947 -0.0007609994108657139 0 -0.03577070878164517 -0.0012416468673144998 0 -0.035378533101850192 -0.00058585326262043929 0 -0.035866507338041947 -0.0007609994108657139 0 -0.036335914958437417 -0.0010192954763025167 0 -0.03577070878164517 -0.0012416468673144998 0 -0.035696356241888834 -0.0017368531772972268 0 -0.036180635082289719 -0.0021226566074041904 0 -0.035212915239749655 -0.0023957839205747795 0 -0.036335914958437417 -0.0010192954763025167 0 -0.036361575675800832 -0.0015996207690623383 0 -0.03577070878164517 -0.0012416468673144998 0 -0.036361575675800832 -0.0015996207690623383 0 -0.03577070878164517 -0.0012416468673144998 0 -0.035696356241888834 -0.0017368531772972268 0 -0.03577070878164517 -0.0012416468673144998 0 -0.035696356241888834 -0.0017368531772972268 0 -0.03518855011213913 -0.001738423370794949 0 -0.036361575675800832 -0.0015996207690623383 0 -0.035696356241888834 -0.0017368531772972268 0 -0.036180635082289719 -0.0021226566074041904 0 -0.036361575675800832 -0.0015996207690623383 0 -0.036180635082289719 -0.0021226566074041904 0 -0.036781793023584114 -0.0021552191787923584 0 -0.036361575675800832 -0.0015996207690623383 0 -0.036781793023584114 -0.0021552191787923584 0 -0.036991247489260123 -0.0016938341935494611 0 -0.037140607441720749 -0.0025530896500282141 0 -0.037872234798776432 -0.0014349561088666232 0 -0.037303700489708297 -0.0018227313521493593 0 -0.036781793023584114 -0.0021552191787923584 0 -0.037064054856264544 -0.0020532012584485357 0 -0.036991247489260123 -0.0016938341935494611 0 -0.037140607441720749 -0.0025530896500282141 0 -0.037064054856264544 -0.0020532012584485357 0 -0.037303700489708297 -0.0018227313521493593 0 -0.037064054856264544 -0.0020532012584485357 0 -0.037303700489708297 -0.0018227313521493593 0 -0.036991247489260123 -0.0016938341935494611 0 -0.037303700489708297 -0.0018227313521493593 0 -0.036991247489260123 -0.0016938341935494611 0 -0.037261170867063133 -0.0014375538462022643 0 -0.036991247489260123 -0.0016938341935494611 0 -0.037261170867063133 -0.0014375538462022643 0 -0.036842711424507402 -0.0013572568127515092 0 -0.037274584610877147 -0.0010183137698142654 0 -0.037261170867063133 -0.0014375538462022643 0 -0.036842711424507402 -0.0013572568127515092 0 -0.036335914958437417 -0.0010192954763025167 0 -0.036361575675800832 -0.0015996207690623383 0 -0.036842711424507402 -0.0013572568127515092 0 -0.036361575675800832 -0.0015996207690623383 0 -0.036991247489260123 -0.0016938341935494611 0 -0.036842711424507402 -0.0013572568127515092 0 -0.030448580755537066 -0.00078726360070459822 0 -0.030101780736830386 -0.0011512163124134871 0 -0.030827324949748717 -0.0012991540627973741 0 -0.030448580755537066 -0.00078726360070459822 0 -0.029977599033407951 -0.00062107065567217209 0 -0.030218773565638724 -0.00033178368914712754 0 -0.029977599033407951 -0.00062107065567217209 0 -0.029704990592828308 -0.00075277371680578734 0 -0.030101780736830386 -0.0011512163124134871 0 -0.030448580755537066 -0.00078726360070459822 0 -0.029977599033407951 -0.00062107065567217209 0 -0.030101780736830386 -0.0011512163124134871 0 -0.030448580755537066 -0.00078726360070459822 0 -0.030880927711054999 -0.00086331492261612402 0 -0.030827324949748717 -0.0012991540627973741 0 -0.033752705197110072 -0.001259086994342639 0 -0.038958899546558685 -0.0015871443858256531 0 -0.035696356241888834 -0.0017368531772972268 0 -0.03518855011213913 -0.001738423370794949 0 -0.035212915239749655 -0.0023957839205747795 0 -0.033752705197110072 -0.001259086994342639 0 -0.037532810266438045 -0.0014642912685545785 0 -0.030448580755537066 -0.00078726360070459822 0 -0.030880927711054999 -0.00086331492261612402 0 -0.030559284428898693 -0.00034789633913735035 0 -0.030880927711054999 -0.00086331492261612402 0 -0.030559284428898693 -0.00034789633913735035 0 -0.030821364677306954 0.00020901751678200609 0 -0.033752705197110072 -0.001259086994342639 0 -0.033138671638684336 -0.00037288448364612763 0 -0.03577070878164517 -0.0012416468673144998 0 -0.03518855011213913 -0.001738423370794949 0 -0.035378533101850192 -0.00058585326262043929 0 -0.030940360267191314 -0.00095623597476704307 0 -0.03101899738890097 -9.384243165301448e-05 0 -0.030821364677306954 0.00020901751678200609 0 -0.033752705197110072 -0.001259086994342639 0 -0.030161188214179242 0.00030978614130312848 0 -0.030559284428898693 -0.00034789633913735035 0 -0.030426235830542155 3.5351390847457603e-05 0 -0.030821364677306954 0.00020901751678200609 0 -0.030426235830542155 3.5351390847457603e-05 0 -0.030218773565638724 -0.00033178368914712754 0 -0.030003503166718175 8.5955068149641013e-05 0 -0.030559284428898693 -0.00034789633913735035 0 -0.030426235830542155 3.5351390847457603e-05 0 -0.030218773565638724 -0.00033178368914712754 0 -0.030448580755537066 -0.00078726360070459822 0 -0.030559284428898693 -0.00034789633913735035 0 -0.030218773565638724 -0.00033178368914712754 0 -0.029977599033407951 -0.00062107065567217209 0 -0.030218773565638724 -0.00033178368914712754 0 -0.029857719877882567 -0.00023939998878136511 0 -0.029977599033407951 -0.00062107065567217209 0 -0.029857719877882567 -0.00023939998878136511 0 -0.029643231434098694 -0.00051998169039030014 0 -0.030218773565638724 -0.00033178368914712754 0 -0.029857719877882567 -0.00023939998878136511 0 -0.030003503166718175 8.5955068149641013e-05 0 -0.029857719877882567 -0.00023939998878136511 0 -0.030003503166718175 8.5955068149641013e-05 0 -0.029675541175372796 3.4429612121235959e-06 0 -0.030003503166718175 8.5955068149641013e-05 0 -0.029675541175372796 3.4429612121235959e-06 0 -0.02967601691702219 0.00032030767261238629 0 -0.029675541175372796 3.4429612121235959e-06 0 -0.029288785831315604 0.00013299394035271183 0 -0.029479664436854406 -0.00023347922963815304 0 -0.029857719877882567 -0.00023939998878136511 0 -0.029675541175372796 3.4429612121235959e-06 0 -0.029479664436854406 -0.00023347922963815304 0 -0.029675541175372796 3.4429612121235959e-06 0 -0.029288785831315604 0.00013299394035271183 0 -0.02967601691702219 0.00032030767261238629 0 -0.029288785831315604 0.00013299394035271183 0 -0.029240214886949122 -0.00012466497195015813 0 -0.029479664436854406 -0.00023347922963815304 0 -0.029288785831315604 0.00013299394035271183 0 -0.029240214886949122 -0.00012466497195015813 0 -0.028983868085138555 -3.7972755731305587e-05 0 -0.029240214886949122 -0.00012466497195015813 0 -0.02920815549255729 -0.00036458000268854522 0 -0.029479664436854406 -0.00023347922963815304 0 -0.029240214886949122 -0.00012466497195015813 0 -0.02920815549255729 -0.00036458000268854522 0 -0.028983868085138555 -3.7972755731305587e-05 0 -0.02920815549255729 -0.00036458000268854522 0 -0.029479664436854406 -0.00023347922963815304 0 -0.029399497061732366 -0.00051227741456424242 0 -0.029857719877882567 -0.00023939998878136511 0 -0.029479664436854406 -0.00023347922963815304 0 -0.029643231434098694 -0.00051998169039030014 0 -0.029479664436854406 -0.00023347922963815304 0 -0.029643231434098694 -0.00051998169039030014 0 -0.029399497061732366 -0.00051227741456424242 0 -0.028699794064841758 -4.9733358977865501e-07 0 -0.028445869618511706 0.00025362500876295575 0 -0.028808701092375464 0.00036162443415460718 0 -0.028699794064841758 -4.9733358977865501e-07 0 -0.028463341254775967 -6.6644867756238103e-05 0 -0.028445869618511706 0.00025362500876295575 0 -0.028699794064841758 -4.9733358977865501e-07 0 -0.028983868085138555 -3.7972755731305587e-05 0 -0.028808701092375464 0.00036162443415460718 0 -0.029288785831315604 0.00013299394035271183 0 -0.028983868085138555 -3.7972755731305587e-05 0 -0.028808701092375464 0.00036162443415460718 0 -0.028699794064841758 -4.9733358977865501e-07 0 -0.028983868085138555 -3.7972755731305587e-05 0 -0.02875870148219729 -0.00038526843525212338 0 -0.02920815549255729 -0.00036458000268854522 0 -0.028983868085138555 -3.7972755731305587e-05 0 -0.029025622274696915 -0.0004704228567108505 0 -0.028983868085138555 -3.7972755731305587e-05 0 -0.02875870148219729 -0.00038526843525212338 0 -0.029025622274696915 -0.0004704228567108505 0 -0.028699794064841758 -4.9733358977865501e-07 0 -0.02875870148219729 -0.00038526843525212338 0 -0.028463341254775967 -6.6644867756238103e-05 0 -0.02875870148219729 -0.00038526843525212338 0 -0.028375094033603741 -0.00054719016873392009 0 -0.028463341254775967 -6.6644867756238103e-05 0 -0.02875870148219729 -0.00038526843525212338 0 -0.02896655629888123 -0.00088945638727097804 0 -0.028375094033603741 -0.00054719016873392009 0 -0.03472090893095401 -0.0010655865504845116 0 -0.033879540065666298 -0.00088817317538743192 0 -0.033682446917964896 -0.00047597777527208545 0 -0.034483552367564431 -0.00038026068859135131 0 -0.031155995185605571 -5.6075541447939673e-05 0 -0.029025622274696915 -0.0004704228567108505 0 -0.02896655629888123 -0.00088945638727097804 0 -0.029205690717991537 -0.00068966192717095497 0 -0.02875870148219729 -0.00038526843525212338 0 -0.029025622274696915 -0.0004704228567108505 0 -0.02896655629888123 -0.00088945638727097804 0 -0.034483552367564431 -0.00038026068859135131 0 -0.039425321095739693 -0.00076728077759258425 0 -0.034483552367564431 -0.00038026068859135131 0 -0.03718719719643522 -0.0010920255625244324 0 -0.041770393977023978 -0.00012529744415906637 0 -0.03718719719643522 -0.0010920255625244324 0 -0.03963701391423486 6.9687531075368766e-05 0 -0.039408881442528486 -0.00069670347035664286 0 -0.03894680454416765 0.00020742932179349213 0 -0.036958260409620601 -0.00095550634024716471 0 -0.036882984857016105 -0.0012198873838540662 0 -0.038364154911350618 -0.0012459361068793791 0 -0.034858991833669875 -0.0010926614546327806 0 -0.033605771211883052 -0.0010686276926269119 0 -0.029704990592828308 -0.00075277371680578734 0 -0.029402839671399072 -0.0009941119086058338 0 -0.030101780736830386 -0.0011512163124134871 0 -0.029977599033407951 -0.00062107065567217209 0 -0.029704990592828308 -0.00075277371680578734 0 -0.029643231434098694 -0.00051998169039030014 0 -0.029704990592828308 -0.00075277371680578734 0 -0.029643231434098694 -0.00051998169039030014 0 -0.029459349635817068 -0.00075753949902819724 0 -0.029643231434098694 -0.00051998169039030014 0 -0.029399497061732366 -0.00051227741456424242 0 -0.029459349635817068 -0.00075753949902819724 0 -0.02920815549255729 -0.00036458000268854522 0 -0.029025622274696915 -0.0004704228567108505 0 -0.029205690717991537 -0.00068966192717095497 0 -0.02920815549255729 -0.00036458000268854522 0 -0.029399497061732366 -0.00051227741456424242 0 -0.029205690717991537 -0.00068966192717095497 0 -0.029399497061732366 -0.00051227741456424242 0 -0.029205690717991537 -0.00068966192717095497 0 -0.029459349635817068 -0.00075753949902819724 0 -0.033195351018072972 -0.0015689753707124865 0 -0.034858991833669875 -0.0010926614546327806 0 -0.034483552367564431 -0.00038026068859135131 0 -0.034858991833669875 -0.0010926614546327806 0 -0.029205690717991537 -0.00068966192717095497 0 -0.029459349635817068 -0.00075753949902819724 0 -0.029405597131068734 -0.00098377731304730132 0 -0.02896655629888123 -0.00088945638727097804 0 -0.029205690717991537 -0.00068966192717095497 0 -0.029405597131068734 -0.00098377731304730132 0 -0.035013756533710659 0.00033112215857263765 0 -0.037601992949811341 -0.00019666014842649273 0 -0.037368038190962571 -0.0009830401819602751 0 -0.034858991833669875 -0.0010926614546327806 0 -0.039425321095739693 -0.00076728077759258425 0 -0.029704990592828308 -0.00075277371680578734 0 -0.029459349635817068 -0.00075753949902819724 0 -0.029402839671399072 -0.0009941119086058338 0 -0.039425321095739693 -0.00076728077759258425 0 -0.042378129233740125 -0.0020999657002786576 0 -0.039425321095739693 -0.00076728077759258425 0 -0.044436671850595022 -0.0009947538596085056 0 -0.046563850272368881 -0.002240524102332503 0 -0.046383953906877044 -0.0015360739099484916 0 -0.045884596901481986 -0.001864520370311524 0 -0.046563850272368881 -0.002240524102332503 0 -0.046918875887910751 -0.0012859391718152214 0 -0.046383953906877044 -0.0015360739099484916 0 -0.040228595528998497 -0.00025839104577972735 0 -0.039408881442528486 -0.00069670347035664286 0 -0.039870244242151409 -0.0015932546706793325 0 -0.03963701391423486 6.9687531075368766e-05 0 -0.040228595528998497 -0.00025839104577972735 0 -0.039408881442528486 -0.00069670347035664286 0 -0.041770393977023978 -0.00012529744415906637 0 -0.044436671850595022 -0.0009947538596085056 0 -0.044563457229046199 -0.00013949437175204434 0 -0.044417091634732418 -0.0007335290791838612 0 -0.043984664113840652 -0.00016482291136435943 0 -0.04432260033469064 0.00031260338753455951 0 -0.044563457229046199 -0.00013949437175204434 0 -0.043984664113840652 -0.00016482291136435943 0 -0.046383953906877044 -0.0015360739099484916 0 -0.046493554332781094 -0.0010780192685935865 0 -0.04604197533893567 -0.0011925615435183692 0 -0.046918875887910751 -0.0012859391718152214 0 -0.046383953906877044 -0.0015360739099484916 0 -0.046493554332781094 -0.0010780192685935865 0 -0.046918875887910751 -0.0012859391718152214 0 -0.046493554332781094 -0.0010780192685935865 0 -0.046695583459924576 -0.00059914351579705481 0 -0.044436671850595022 -0.0009947538596085056 0 -0.046839773932085924 -0.0011175252686781974 0 -0.046493554332781094 -0.0010780192685935865 0 -0.04604197533893567 -0.0011925615435183692 0 -0.046135092482626275 -0.00056153617257551514 0 -0.04604197533893567 -0.0011925615435183692 0 -0.045567213326495222 -0.0011779252514410596 0 -0.04572886294525072 -0.0007727243333267743 0 -0.045567213326495222 -0.0011779252514410596 0 -0.045884596901481986 -0.001864520370311524 0 -0.045142888241279759 -0.0014720870736516318 0 -0.045567213326495222 -0.0011779252514410596 0 -0.045281081608594398 -0.00070488086304038174 0 -0.04572886294525072 -0.0007727243333267743 0 -0.04604197533893567 -0.0011925615435183692 0 -0.045567213326495222 -0.0011779252514410596 0 -0.045884596901481986 -0.001864520370311524 0 -0.046383953906877044 -0.0015360739099484916 0 -0.04604197533893567 -0.0011925615435183692 0 -0.045884596901481986 -0.001864520370311524 0 -0.033605771211883052 -0.0010686276926269119 0 -0.037532810266438045 -0.0014642912685545785 0 -0.042378129233740125 -0.0020999657002786576 0 -0.04282111857858352 -0.0019532061985297285 0 -0.03822630351144863 -0.0019704742901799454 0 -0.038364154911350618 -0.0012459361068793791 0 -0.039770871997985645 -0.001532267455839634 0 -0.036882984857016105 -0.0012198873838540662 0 -0.03822630351144863 -0.0019704742901799454 0 -0.038364154911350618 -0.0012459361068793791 0 -0.03822630351144863 -0.0019704742901799454 0 -0.039770871997985645 -0.001532267455839634 0 -0.039568661007063209 -0.0027117095665920637 0 -0.038958899546558685 -0.0015871443858256531 0 -0.045111984696055943 -0.0010552661533375605 0 -0.036198483342886792 -0.0016388981889734176 0 -0.03621847954627528 -0.000940746676495309 0 -0.036351221288540195 -0.00096779056044243546 0 -0.038958899546558685 -0.0015871443858256531 0 -0.037532810266438045 -0.0014642912685545785 0 -0.037532810266438045 -0.0014642912685545785 0 -0.04282111857858352 -0.0019532061985297285 0 -0.044701492513572076 -0.0022668111627942729 0 -0.045029260166256711 -0.0015542421684775385 0 -0.044942286988277354 -0.0015011294879745576 0 -0.044701492513572076 -0.0022668111627942729 0 -0.044807591505445124 -0.0022889477596680732 0 -0.045029260166256711 -0.0015542421684775385 0 -0.04282111857858352 -0.0019532061985297285 0 -0.045246854706655876 -0.00051053693081923399 0 -0.044701492513572076 -0.0022668111627942729 0 -0.044942286988277354 -0.0015011294879745576 0 -0.044813215527240539 -0.001204712815874548 0 -0.045187520853321998 -0.00094257673486264142 0 -0.045076598234874275 -0.00084292886039867955 0 -0.045123709868246341 -0.00092950156299044485 0 -0.045036308410956821 -0.0015541658797226148 0 -0.044813215527240539 -0.001204712815874548 0 -0.045281081608594398 -0.00070488086304038174 0 -0.045567213326495222 -0.0011779252514410596 0 -0.045142888241279759 -0.0014720870736516318 0 -0.045281081608594398 -0.00070488086304038174 0 -0.04282111857858352 -0.0019532061985297285 0 -0.043082945045744669 -0.0020285993273819634 0 -0.045036308410956821 -0.0015541658797226148 0 -0.044942286988277354 -0.0015011294879745576 0 -0.044813215527240539 -0.001204712815874548 0 -0.044813215527240539 -0.001204712815874548 0 -0.045281081608594398 -0.00070488086304038174 0 -0.044883202327570607 -0.00014923877368461688 0 -0.052875308380585274 -0.0019918786237903474 0 -0.053838821392330302 -0.0013780517006335574 0 -0.054010663301677288 -0.00085722842217610053 0 -0.045187520853321998 -0.00094257673486264142 0 -0.045123709868246341 -0.00092950156299044485 0 -0.045168983427384339 -0.00098907881005231538 0 -0.045111984696055943 -0.0010552661533375605 0 -0.048206822659090071 -0.00064052573712080685 0 -0.045281081608594398 -0.00070488086304038174 0 -0.044883202327570607 -0.00014923877368461688 0 -0.045604562474687499 -0.00019422132302636925 0 -0.04604197533893567 -0.0011925615435183692 0 -0.046135092482626275 -0.00056153617257551514 0 -0.04572886294525072 -0.0007727243333267743 0 -0.046135092482626275 -0.00056153617257551514 0 -0.04572886294525072 -0.0007727243333267743 0 -0.045604562474687499 -0.00019422132302636925 0 -0.045281081608594398 -0.00070488086304038174 0 -0.04572886294525072 -0.0007727243333267743 0 -0.045604562474687499 -0.00019422132302636925 0 -0.046135092482626275 -0.00056153617257551514 0 -0.045604562474687499 -0.00019422132302636925 0 -0.046165617705922229 5.5916979328365125e-05 0 -0.046165617705922229 5.5916979328365125e-05 0 -0.045742750260427734 0.00086686622111814353 0 -0.046739796562272666 0.00063197067464487527 0 -0.045604562474687499 -0.00019422132302636925 0 -0.046165617705922229 5.5916979328365125e-05 0 -0.045742750260427734 0.00086686622111814353 0 -0.053838821392330302 -0.0013780517006335574 0 -0.054010663301677288 -0.00085722842217610053 0 -0.054839634703400836 -0.00049458003591657711 0 -0.048206822659090071 -0.00064052573712080685 0 -0.050283408532059551 0.00028422668412865217 0 -0.044883202327570607 -0.00014923877368461688 0 -0.045604562474687499 -0.00019422132302636925 0 -0.045742750260427734 0.00086686622111814353 0 -0.055023834272130714 -0.0002034378784852122 0 -0.055110546814695169 -0.00024140161381483804 0 -0.055018095254331878 -0.00011419072583153819 0 -0.055110546814695169 -0.00024140161381483804 0 -0.055018095254331878 -0.00011419072583153819 0 -0.05495219374847659 -0.00010674395152717577 0 -0.055000058425207263 -2.3588712171097837e-07 0 -0.05495219374847659 -0.00010674395152717577 0 -0.055000056576222943 1.3500276500349261e-07 0 -0.054380276984225741 -0.00063771382055549924 0 -0.054966703080192664 -0.00010593219719593107 0 -0.054839634703400836 -0.00049458003591657711 0 -0.05495219374847659 -0.00010674395152717577 0 -0.055167130400662616 -6.357138784211215e-06 0 -0.050283408532059551 0.00028422668412865217 0 -0.052196394288514143 0.00022240766311331506 0 -0.054010663301677288 -0.00085722842217610053 0 -0.054839634703400836 -0.00049458003591657711 0 -0.05495219374847659 -0.00010674395152717577 0 -0.05495219374847659 -0.00010674395152717577 0 -0.055000056576222943 1.3500276500349261e-07 0 -0.055167130400662616 -6.357138784211215e-06 0 -0.055000058425207263 -2.3588712171097837e-07 0 -0.055018095254331878 -0.00011419072583153819 0 -0.05495219374847659 -0.00010674395152717577 0 -0.054983262783074929 1.0140019585198375e-05 0 -0.054999954643194716 1.3650366060149789e-08 0 -0.054999961571631846 7.2230581272338305e-09 0 -0.054983262783074929 1.0140019585198375e-05 0 -0.054949938524319904 2.0599088526379089e-05 0 -0.054971948933621513 3.6216856559527571e-05 0 -0.054983262783074929 1.0140019585198375e-05 0 -0.054949938524319904 2.0599088526379089e-05 0 -0.054999961571631846 7.2230581272338305e-09 0 -0.054983262783074929 1.0140019585198375e-05 0 -0.054999954643194716 1.3650366060149789e-08 0 -0.054991433793596479 1.1818068620075052e-05 0 -0.054999085762933574 1.1563486376926978e-06 0 -0.052196394288514143 0.00022240766311331506 0 -0.055000209128253083 -1.1606521039605273e-06 0 -0.052196394288514143 0.00022240766311331506 0 -0.054999990840313061 -6.5082868519580322e-10 0 -0.054999985168864098 1.3690713601873704e-09 0 -0.054992052866071839 7.379785261240863e-07 0 -0.052196394288514143 0.00022240766311331506 0 -0.050845526775278774 0.00096112652691118295 0 -0.054983262783074929 1.0140019585198375e-05 0 -0.054991433793596479 1.1818068620075052e-05 0 -0.054971948933621513 3.6216856559527571e-05 0 -0.046617433216903613 0.0018860902884181433 0 -0.047204160957532798 0.0013372187358455206 0 -0.046739796562272666 0.00063197067464487527 0 -0.045742750260427734 0.00086686622111814353 0 -0.046617433216903613 0.0018860902884181433 0 -0.046739796562272666 0.00063197067464487527 0 -0.047249545702742625 0.00072251458603440606 0 -0.047204160957532798 0.0013372187358455206 0 -0.047823136965863711 0.000789816935759383 0 -0.047249545702742625 0.00072251458603440606 0 -0.047204160957532798 0.0013372187358455206 0 -0.046739796562272666 0.00063197067464487527 0 -0.054949938524319904 2.0599088526379089e-05 0 -0.054971948933621513 3.6216856559527571e-05 0 -0.054912150327378409 4.7398628730742121e-05 0 -0.052837405385620609 0.00085128864293200881 0 -0.053587830207662744 0.00046772602132138678 0 -0.054971948933621513 3.6216856559527571e-05 0 -0.054913331291444781 8.3056659516337456e-05 0 -0.054912150327378409 4.7398628730742121e-05 0 -0.050845526775278774 0.00096112652691118295 0 -0.052837405385620609 0.00085128864293200881 0 -0.054858715692042988 5.1936221582141807e-05 0 -0.054764067097243886 2.4066560438413559e-05 0 -0.054836040011586804 4.8634298600061116e-05 0 -0.052837405385620609 0.00085128864293200881 0 -0.048576670328123635 -0.00085175117352086422 0 -0.047823136965863711 0.000789816935759383 0 -0.047162881799933422 0.00021509024577789004 0 -0.047441700475817541 -0.00036873431741021135 0 -0.047249545702742625 0.00072251458603440606 0 -0.047162881799933422 0.00021509024577789004 0 -0.046739796562272666 0.00063197067464487527 0 -0.047249545702742625 0.00072251458603440606 0 -0.047823136965863711 0.000789816935759383 0 -0.047162881799933422 0.00021509024577789004 0 -0.047162881799933422 0.00021509024577789004 0 -0.046717071977229283 5.2407655191095214e-05 0 -0.046871249635069862 -0.00035227541059647363 0 -0.047162881799933422 0.00021509024577789004 0 -0.046739796562272666 0.00063197067464487527 0 -0.046717071977229283 5.2407655191095214e-05 0 -0.046165617705922229 5.5916979328365125e-05 0 -0.046739796562272666 0.00063197067464487527 0 -0.046717071977229283 5.2407655191095214e-05 0 -0.046165617705922229 5.5916979328365125e-05 0 -0.046717071977229283 5.2407655191095214e-05 0 -0.046487055362069624 -0.00027339631181546551 0 -0.046135092482626275 -0.00056153617257551514 0 -0.046487055362069624 -0.00027339631181546551 0 -0.046695583459924576 -0.00059914351579705481 0 -0.046135092482626275 -0.00056153617257551514 0 -0.046165617705922229 5.5916979328365125e-05 0 -0.046487055362069624 -0.00027339631181546551 0 -0.046487055362069624 -0.00027339631181546551 0 -0.046871249635069862 -0.00035227541059647363 0 -0.046695583459924576 -0.00059914351579705481 0 -0.046717071977229283 5.2407655191095214e-05 0 -0.046487055362069624 -0.00027339631181546551 0 -0.046871249635069862 -0.00035227541059647363 0 -0.046493554332781094 -0.0010780192685935865 0 -0.046135092482626275 -0.00056153617257551514 0 -0.046695583459924576 -0.00059914351579705481 0 -0.044436671850595022 -0.0009947538596085056 0 -0.048576670328123635 -0.00085175117352086422 0 -0.047046133671762559 -0.0013711352469639143 0 -0.046695583459924576 -0.00059914351579705481 0 -0.047380650681219216 -0.00035396977148720424 0 -0.047162881799933422 0.00021509024577789004 0 -0.046871249635069862 -0.00035227541059647363 0 -0.047441700475817541 -0.00036873431741021135 0 -0.046871249635069862 -0.00035227541059647363 0 -0.046695583459924576 -0.00059914351579705481 0 -0.047380650681219216 -0.00035396977148720424 0 -0.046907448296983359 -0.0005428488102441326 0 -0.048576670328123635 -0.00085175117352086422 0 -0.054764067097243886 2.4066560438413559e-05 0 -0.054813110871559767 5.9671167344685023e-05 0 -0.054836040011586804 4.8634298600061116e-05 0 -0.044417091634732418 -0.0007335290791838612 0 -0.04366072015581126 -0.00071909996541828628 0 -0.043984664113840652 -0.00016482291136435943 0 -0.048576670328123635 -0.00085175117352086422 0 -0.04881503541709574 -0.00035846687820356769 0 -0.04881503541709574 -0.00035846687820356769 0 -0.051866482503744239 0.00046268904606947811 0 -0.04366072015581126 -0.00071909996541828628 0 -0.042926507085660467 -0.00071199206517725893 0 -0.043525008942841087 -0.00032278108221782604 0 -0.054813110871559767 5.9671167344685023e-05 0 -0.054871527744214409 4.2483446191342384e-05 0 -0.054839252695264622 3.3572340090231831e-05 0 -0.054813110871559767 5.9671167344685023e-05 0 -0.054839252695264622 3.3572340090231831e-05 0 -0.05474983804858128 7.7708796684195796e-05 0 -0.054813110871559767 5.9671167344685023e-05 0 -0.054836040011586804 4.8634298600061116e-05 0 -0.054871527744214409 4.2483446191342384e-05 0 -0.054836040011586804 4.8634298600061116e-05 0 -0.054881646459250547 4.6978200706202238e-05 0 -0.054871527744214409 4.2483446191342384e-05 0 -0.054858715692042988 5.1936221582141807e-05 0 -0.054836040011586804 4.8634298600061116e-05 0 -0.054881646459250547 4.6978200706202238e-05 0 -0.054858715692042988 5.1936221582141807e-05 0 -0.054881646459250547 4.6978200706202238e-05 0 -0.054912150327378409 4.7398628730742121e-05 0 -0.054881646459250547 4.6978200706202238e-05 0 -0.054912150327378409 4.7398628730742121e-05 0 -0.054911691393193518 3.4818036945159501e-05 0 -0.054949938524319904 2.0599088526379089e-05 0 -0.054911691393193518 3.4818036945159501e-05 0 -0.054939809602199838 1.7031768777301642e-05 0 -0.054949938524319904 2.0599088526379089e-05 0 -0.054912150327378409 4.7398628730742121e-05 0 -0.054911691393193518 3.4818036945159501e-05 0 -0.054911691393193518 3.4818036945159501e-05 0 -0.054871527744214409 4.2483446191342384e-05 0 -0.054939809602199838 1.7031768777301642e-05 0 -0.054881646459250547 4.6978200706202238e-05 0 -0.054911691393193518 3.4818036945159501e-05 0 -0.054871527744214409 4.2483446191342384e-05 0 -0.054871527744214409 4.2483446191342384e-05 0 -0.054939809602199838 1.7031768777301642e-05 0 -0.054839252695264622 3.3572340090231831e-05 0 -0.054999780254903381 7.9568745326389038e-10 0 -0.054939809602199838 1.7031768777301642e-05 0 -0.054839252695264622 3.3572340090231831e-05 0 -0.054999582821907929 4.3305937908487075e-07 0 -0.055372996482105682 -9.069086097002104e-05 0 -0.054999780254903381 7.9568745326389038e-10 0 -0.054999961571631846 7.2230581272338305e-09 0 -0.054939809602199838 1.7031768777301642e-05 0 -0.054949938524319904 2.0599088526379089e-05 0 -0.054999961571631846 7.2230581272338305e-09 0 -0.054939809602199838 1.7031768777301642e-05 0 -0.054999951478198118 -1.9638994137640329e-08 0 -0.055026838769639409 6.2308823032966067e-05 0 -0.054957261601800894 0.00010391824404564914 0 -0.054886512337129191 4.5569332313169919e-05 0 -0.054999951478198118 -1.9638994137640329e-08 0 -0.054957261601800894 0.00010391824404564914 0 -0.055000102050855128 4.3058140087151523e-08 0 -0.054999951478198118 -1.9638994137640329e-08 0 -0.055026838769639409 6.2308823032966067e-05 0 -0.054776660447395403 0.00028802880346016907 0 -0.054957261601800894 0.00010391824404564914 0 -0.055000450479659589 0.00024240133897189938 0 -0.055026838769639409 6.2308823032966067e-05 0 -0.054957261601800894 0.00010391824404564914 0 -0.055000450479659589 0.00024240133897189938 0 -0.055372996482105682 -9.069086097002104e-05 0 -0.051866482503744239 0.00046268904606947811 0 -0.056146512415409792 0.00023893762430448359 0 -0.051866482503744239 0.00046268904606947811 0 -0.054776660447395403 0.00028802880346016907 0 -0.055040316056195679 0.00034898298417561791 0 -0.05495969670319481 0.00061494242010523613 0 -0.054690643775250902 0.00070873793946342185 0 -0.05495969670319481 0.00061494242010523613 0 -0.054804680373888519 0.0010079473492679619 0 -0.048464021827702194 0.0003649308940172751 0 -0.049196950420019883 0.00043322526535113633 0 -0.042603610016598431 -9.7287048852715159e-05 0 -0.042716309957243903 0.00018588257290381424 0 -0.042277089740892594 0.00058586855341340291 0 -0.042716309957243903 0.00018588257290381424 0 -0.043094114625119341 0.00020911264853530739 0 -0.042991760851144242 0.00059226616022050541 0 -0.042716309957243903 0.00018588257290381424 0 -0.043094114625119341 0.00020911264853530739 0 -0.042907304305559939 -0.00011802485355303716 0 -0.042926507085660467 -0.00071199206517725893 0 -0.043196813058904389 -0.00015621636822401485 0 -0.043525008942841087 -0.00032278108221782604 0 -0.042926507085660467 -0.00071199206517725893 0 -0.043196813058904389 -0.00015621636822401485 0 -0.042907304305559939 -0.00011802485355303716 0 -0.051866482503744239 0.00046268904606947811 0 -0.048464021827702194 0.0003649308940172751 0 -0.042926507085660467 -0.00071199206517725893 0 -0.042603610016598431 -9.7287048852715159e-05 0 -0.042907304305559939 -0.00011802485355303716 0 -0.043094114625119341 0.00020911264853530739 0 -0.043196813058904389 -0.00015621636822401485 0 -0.042907304305559939 -0.00011802485355303716 0 -0.042603610016598431 -9.7287048852715159e-05 0 -0.042716309957243903 0.00018588257290381424 0 -0.042907304305559939 -0.00011802485355303716 0 -0.043094114625119341 0.00020911264853530739 0 -0.043196813058904389 -0.00015621636822401485 0 -0.043541138351239655 9.4045185885055298e-05 0 -0.043196813058904389 -0.00015621636822401485 0 -0.043525008942841087 -0.00032278108221782604 0 -0.043541138351239655 9.4045185885055298e-05 0 -0.04366072015581126 -0.00071909996541828628 0 -0.043525008942841087 -0.00032278108221782604 0 -0.043984664113840652 -0.00016482291136435943 0 -0.043525008942841087 -0.00032278108221782604 0 -0.043984664113840652 -0.00016482291136435943 0 -0.043541138351239655 9.4045185885055298e-05 0 -0.043870099526054709 0.00030517714629226683 0 -0.04347690479380957 0.00048465554298758059 0 -0.044071179417260013 0.00076694310597340937 0 -0.04432260033469064 0.00031260338753455951 0 -0.043984664113840652 -0.00016482291136435943 0 -0.043870099526054709 0.00030517714629226683 0 -0.043984664113840652 -0.00016482291136435943 0 -0.043870099526054709 0.00030517714629226683 0 -0.043541138351239655 9.4045185885055298e-05 0 -0.04432260033469064 0.00031260338753455951 0 -0.043870099526054709 0.00030517714629226683 0 -0.044071179417260013 0.00076694310597340937 0 -0.043094114625119341 0.00020911264853530739 0 -0.043541138351239655 9.4045185885055298e-05 0 -0.04347690479380957 0.00048465554298758059 0 -0.043870099526054709 0.00030517714629226683 0 -0.043541138351239655 9.4045185885055298e-05 0 -0.04347690479380957 0.00048465554298758059 0 -0.043094114625119341 0.00020911264853530739 0 -0.04347690479380957 0.00048465554298758059 0 -0.042991760851144242 0.00059226616022050541 0 -0.04347690479380957 0.00048465554298758059 0 -0.043281306672310366 0.00094358022751424373 0 -0.042991760851144242 0.00059226616022050541 0 -0.029771292355204405 -0.0015393545285120845 0 -0.032506894778463948 -0.0020802757429481014 0 -0.032221451468880197 -0.0015072166238358393 0 -0.04347690479380957 0.00048465554298758059 0 -0.043281306672310366 0.00094358022751424373 0 -0.044071179417260013 0.00076694310597340937 0 -0.036746685014118319 -0.00048264060722014412 0 -0.03718719719643522 -0.0010920255625244324 0 -0.03718719719643522 -0.0010920255625244324 0 -0.031155995185605571 -5.6075541447939673e-05 0 -0.028375094033603741 -0.00054719016873392009 0 -0.028463341254775967 -6.6644867756238103e-05 0 -0.028052057302165166 0.00041593765367840867 0 -0.031155995185605571 -5.6075541447939673e-05 0 -0.027508498961057684 0.00053956152030059496 0 -0.031155995185605571 -5.6075541447939673e-05 0 -0.028593642463110771 -1.6514401100598293e-05 0 -0.028283441277179522 1.1972558451237961e-05 0 -0.027783499844677064 0.00032680030782556498 0 -0.028052057302165166 0.00041593765367840867 0 -0.028463341254775967 -6.6644867756238103e-05 0 -0.028445869618511706 0.00025362500876295575 0 -0.028052057302165166 0.00041593765367840867 0 -0.029771292355204405 -0.0015393545285120845 0 -0.032221451468880197 -0.0015072166238358393 0 -0.029706095524148733 -0.00021883695336653703 0 -0.029771292355204405 -0.0015393545285120845 0 -0.029706095524148733 -0.00021883695336653703 0 -0.028582152398455806 -0.00046117409652723555 0 -0.029706095524148733 -0.00021883695336653703 0 -0.028582152398455806 -0.00046117409652723555 0 -0.027490268718591417 0.00063474204567055522 0 -0.029771292355204405 -0.0015393545285120845 0 -0.028582152398455806 -0.00046117409652723555 0 -0.027447321567022131 -0.00088581548780635529 0 -0.028582152398455806 -0.00046117409652723555 0 -0.027447321567022131 -0.00088581548780635529 0 -0.027490268718591417 0.00063474204567055522 0 -0.0416095252315428 0.0016740631667378095 0 -0.035157757278267303 0.002057176943567753 0 -0.029207097299155091 0.0062440729111104794 0 -0.028934264597197674 0.0064641166184244477 0 -0.029059170277819815 0.0060462315288667325 0 -0.029207097299155091 0.0062440729111104794 0 -0.029300617631332425 0.0064317805563133459 0 -0.028934264597197674 0.0064641166184244477 0 -0.042716309957243903 0.00018588257290381424 0 -0.042515951613625924 0.0011931174357620578 0 -0.042277089740892594 0.00058586855341340291 0 -0.044796847661716148 -0.00034191818421447796 0 -0.035157757278267303 0.002057176943567753 0 -0.041962300480797576 0.0013100252861459878 0 -0.042515951613625924 0.0011931174357620578 0 -0.042277089740892594 0.00058586855341340291 0 -0.043281306672310366 0.00094358022751424373 0 -0.042423175741136146 0.0011275496676099765 0 -0.042991760851144242 0.00059226616022050541 0 -0.036746685014118319 -0.00048264060722014412 0 -0.035157757278267303 0.002057176943567753 0 -0.042716309957243903 0.00018588257290381424 0 -0.042423175741136146 0.0011275496676099765 0 -0.042991760851144242 0.00059226616022050541 0 -0.027489865583537779 0.00098503972323754239 0 -0.027591724697635007 0.0012131787634167765 0 -0.027705713832175811 0.00074854427946099641 0 -0.027489865583537779 0.00098503972323754239 0 -0.027591724697635007 0.0012131787634167765 0 -0.027402678217040406 0.0012447767299858497 0 -0.027402678217040406 0.0012447767299858497 0 -0.027157904232140023 0.0010051766494925919 0 -0.02726966585156539 0.0014218730551939932 0 -0.027489865583537779 0.00098503972323754239 0 -0.027402678217040406 0.0012447767299858497 0 -0.027157904232140023 0.0010051766494925919 0 -0.029191754867333761 0.0055125680727203781 0 -0.028823219982503138 0.0058254422424410743 0 -0.028548560863136774 0.004783579381981963 0 -0.027058861706743258 0.0036428188806699323 0 -0.028048171048557197 0.0029983647804229761 0 -0.027489865583537779 0.00098503972323754239 0 -0.027157904232140023 0.0010051766494925919 0 -0.027490268718591417 0.00063474204567055522 0 -0.027447321567022131 -0.00088581548780635529 0 -0.027157904232140023 0.0010051766494925919 0 -0.027490268718591417 0.00063474204567055522 0 -0.028934264597197674 0.0064641166184244477 0 -0.028823219982503138 0.0058254422424410743 0 -0.029059170277819815 0.0060462315288667325 0 -0.035157757278267303 0.002057176943567753 0 -0.027058861706743258 0.0036428188806699323 0 -0.029162393255602548 0.0058256794910051821 0 -0.028823219982503138 0.0058254422424410743 0 -0.029059170277819815 0.0060462315288667325 0 -0.027783499844677064 0.00032680030782556498 0 -0.027490268718591417 0.00063474204567055522 0 -0.027625119337666745 0.00065557002794253496 0 -0.028593642463110771 -1.6514401100598293e-05 0 -0.02763901079721295 0.00060934007537708044 0 -0.027489865583537779 0.00098503972323754239 0 -0.027490268718591417 0.00063474204567055522 0 -0.027625119337666745 0.00065557002794253496 0 -0.027489865583537779 0.00098503972323754239 0 -0.027625119337666745 0.00065557002794253496 0 -0.027705713832175811 0.00074854427946099641 0 -0.027783499844677064 0.00032680030782556498 0 -0.02785746190892005 0.00056409857979366248 0 -0.027705713832175811 0.00074854427946099641 0 -0.027783499844677064 0.00032680030782556498 0 -0.027625119337666745 0.00065557002794253496 0 -0.027705713832175811 0.00074854427946099641 0 -0.02785746190892005 0.00056409857979366248 0 -0.02791355644899236 0.00076931001612314063 0 -0.028052057302165166 0.00041593765367840867 0 -0.027783499844677064 0.00032680030782556498 0 -0.02785746190892005 0.00056409857979366248 0 -0.028052057302165166 0.00041593765367840867 0 -0.02785746190892005 0.00056409857979366248 0 -0.02791355644899236 0.00076931001612314063 0 -0.027705713832175811 0.00074854427946099641 0 -0.028445869618511706 0.00025362500876295575 0 -0.028052057302165166 0.00041593765367840867 0 -0.028305192109377986 0.00063222499031202295 0 -0.02791355644899236 0.00076931001612314063 0 -0.028052057302165166 0.00041593765367840867 0 -0.028305192109377986 0.00063222499031202295 0 -0.028305192109377986 0.00063222499031202295 0 -0.028070155395172498 0.0010333101423048883 0 -0.028724509968307294 0.00090367903074731594 0 -0.02791355644899236 0.00076931001612314063 0 -0.028305192109377986 0.00063222499031202295 0 -0.028070155395172498 0.0010333101423048883 0 -0.027591724697635007 0.0012131787634167765 0 -0.028070155395172498 0.0010333101423048883 0 -0.027750421229774891 0.0013567600846837542 0 -0.027591724697635007 0.0012131787634167765 0 -0.02791355644899236 0.00076931001612314063 0 -0.027705713832175811 0.00074854427946099641 0 -0.027591724697635007 0.0012131787634167765 0 -0.02791355644899236 0.00076931001612314063 0 -0.028070155395172498 0.0010333101423048883 0 -0.027591724697635007 0.0012131787634167765 0 -0.027750421229774891 0.0013567600846837542 0 -0.027471031386345234 0.0015108285087888185 0 -0.027750421229774891 0.0013567600846837542 0 -0.027694336982078328 0.0016347224283658009 0 -0.027471031386345234 0.0015108285087888185 0 -0.027750421229774891 0.0013567600846837542 0 -0.027694336982078328 0.0016347224283658009 0 -0.028770354657649627 0.0015903775151295842 0 -0.028070155395172498 0.0010333101423048883 0 -0.027750421229774891 0.0013567600846837542 0 -0.028770354657649627 0.0015903775151295842 0 -0.027702665459791782 0.0016502704411382144 0 -0.028230230673711599 0.0015232299245550177 0 -0.027694336982078328 0.0016347224283658009 0 -0.027426202470935537 0.0015606660721447601 0 -0.02746563851417708 0.0015814987236831969 0 -0.027694336982078328 0.0016347224283658009 0 -0.027471031386345234 0.0015108285087888185 0 -0.027435024296784918 0.0016213155994513403 0 -0.027591724697635007 0.0012131787634167765 0 -0.027402678217040406 0.0012447767299858497 0 -0.027471031386345234 0.0015108285087888185 0 -0.027402678217040406 0.0012447767299858497 0 -0.027471031386345234 0.0015108285087888185 0 -0.02726966585156539 0.0014218730551939932 0 -0.02736759313250223 0.001638084796090602 0 -0.027471031386345234 0.0015108285087888185 0 -0.02726966585156539 0.0014218730551939932 0 -0.027959080051753869 0.002432713390591785 0 -0.028048171048557197 0.0029983647804229761 0 -0.027435024296784918 0.0016213155994513403 0 -0.02740153089854706 0.0016138943551799129 0 -0.027216544425407319 0.0014451268812730117 0 -0.02736759313250223 0.001638084796090602 0 -0.027471031386345234 0.0015108285087888185 0 -0.027435024296784918 0.0016213155994513403 0 -0.02736759313250223 0.001638084796090602 0 -0.027435024296784918 0.0016213155994513403 0 -0.02740153089854706 0.0016138943551799129 0 -0.02736759313250223 0.001638084796090602 0 -0.027528414915788332 0.0016638564684802334 0 -0.02740153089854706 0.0016138943551799129 0 -0.027528414915788332 0.0016638564684802334 0 -0.02740153089854706 0.0016138943551799129 0 -0.027402237245182235 0.0015437531840819683 0 -0.02740153089854706 0.0016138943551799129 0 -0.027402237245182235 0.0015437531840819683 0 -0.027216544425407319 0.0014451268812730117 0 -0.027216544425407319 0.0014451268812730117 0 -0.027071188123724582 0.0012394228589125945 0 -0.027028131731198588 0.0012024685083458066 0 -0.027402237245182235 0.0015437531840819683 0 -0.027216544425407319 0.0014451268812730117 0 -0.027028131731198588 0.0012024685083458066 0 -0.028053218980315594 0.0014317501417531687 0 -0.027402237245182235 0.0015437531840819683 0 -0.027028131731198588 0.0012024685083458066 0 -0.027170540402986144 0.0013771758682947063 0 -0.027063663102979762 0.001245550890736778 0 -0.027071188123724582 0.0012394228589125945 0 -0.027170540402986144 0.0013771758682947063 0 -0.027216544425407319 0.0014451268812730117 0 -0.027071188123724582 0.0012394228589125945 0 -0.027170540402986144 0.0013771758682947063 0 -0.027216544425407319 0.0014451268812730117 0 -0.027301417537565889 0.0015017413383083347 0 -0.027170540402986144 0.0013771758682947063 0 -0.027301417537565889 0.0015017413383083347 0 -0.027217462940744907 0.0014673015138283734 0 -0.027435024296784918 0.0016213155994513403 0 -0.027216544425407319 0.0014451268812730117 0 -0.027301417537565889 0.0015017413383083347 0 -0.027301417537565889 0.0015017413383083347 0 -0.027426202470935537 0.0015606660721447601 0 -0.027217462940744907 0.0014673015138283734 0 -0.027435024296784918 0.0016213155994513403 0 -0.027301417537565889 0.0015017413383083347 0 -0.027426202470935537 0.0015606660721447601 0 -0.027694336982078328 0.0016347224283658009 0 -0.027435024296784918 0.0016213155994513403 0 -0.027426202470935537 0.0015606660721447601 0 -0.027426202470935537 0.0015606660721447601 0 -0.027408935007755084 0.0015866127405606847 0 -0.02746563851417708 0.0015814987236831969 0 -0.027186491381683678 0.0014816182974526995 0 -0.028225309992980251 0.0021081957405874527 0 -0.027408935007755084 0.0015866127405606847 0 -0.027628763009139582 0.0016312174352095601 0 -0.027491259729923563 0.0015968037431413648 0 -0.027111576806541606 0.00150002876782063 0 -0.027096007830476186 0.0014875813460345241 0 -0.027108080023152674 0.0014982313265362757 0 -0.027408935007755084 0.0015866127405606847 0 -0.027491259729923563 0.0015968037431413648 0 -0.02746563851417708 0.0015814987236831969 0 -0.027111576806541606 0.00150002876782063 0 -0.027061782078607516 0.0014515936998898253 0 -0.027217462940744907 0.0014673015138283734 0 -0.027111576806541606 0.00150002876782063 0 -0.027061782078607516 0.0014515936998898253 0 -0.027071422163634624 0.0014651191816787241 0 -0.027186491381683678 0.0014816182974526995 0 -0.027254761875045892 0.0014739658028679516 0 -0.027426202470935537 0.0015606660721447601 0 -0.027408935007755084 0.0015866127405606847 0 -0.027217462940744907 0.0014673015138283734 0 -0.027170540402986144 0.0013771758682947063 0 -0.027217462940744907 0.0014673015138283734 0 -0.027125587514080292 0.0013630668766492706 0 -0.027217462940744907 0.0014673015138283734 0 -0.027063100894837731 0.0013789411625539879 0 -0.027125587514080292 0.0013630668766492706 0 -0.027061782078607516 0.0014515936998898253 0 -0.027217462940744907 0.0014673015138283734 0 -0.027063100894837731 0.0013789411625539879 0 -0.027061782078607516 0.0014515936998898253 0 -0.027063100894837731 0.0013789411625539879 0 -0.027019606486733093 0.0014024856249648453 0 -0.027063100894837731 0.0013789411625539879 0 -0.027037376531665828 0.001286196795839543 0 -0.027125587514080292 0.0013630668766492706 0 -0.027063100894837731 0.0013789411625539879 0 -0.026934533423389667 0.0012367622530470729 0 -0.027019606486733093 0.0014024856249648453 0 -0.027063100894837731 0.0013789411625539879 0 -0.027037376531665828 0.001286196795839543 0 -0.026934533423389667 0.0012367622530470729 0 -0.027037376531665828 0.001286196795839543 0 -0.026934533423389667 0.0012367622530470729 0 -0.026975358543497068 0.0012106178516491444 0 -0.027170540402986144 0.0013771758682947063 0 -0.027125587514080292 0.0013630668766492706 0 -0.027063663102979762 0.001245550890736778 0 -0.027037376531665828 0.001286196795839543 0 -0.027125587514080292 0.0013630668766492706 0 -0.027063663102979762 0.001245550890736778 0 -0.026770889047216785 0.0011664428827974005 0 -0.026795761692638295 0.0011459930367336215 0 -0.026734316032771623 0.0011216992159502107 0 -0.026795761692638295 0.0011459930367336215 0 -0.026734316032771623 0.0011216992159502107 0 -0.026747093326150155 0.0010548626816141687 0 -0.026770889047216785 0.0011664428827974005 0 -0.026795761692638295 0.0011459930367336215 0 -0.026810337541649531 0.0011846625580182245 0 -0.026934533423389667 0.0012367622530470729 0 -0.027000114035114063 0.001388785835600847 0 -0.027019606486733093 0.0014024856249648453 0 -0.026795761692638295 0.0011459930367336215 0 -0.026934533423389667 0.0012367622530470729 0 -0.026810337541649531 0.0011846625580182245 0 -0.026948445244008558 0.0012321135855996529 0 -0.026912687459632594 0.0012702000476122913 0 -0.027000114035114063 0.001388785835600847 0 -0.027019606486733093 0.0014024856249648453 0 -0.02703348917375489 0.0014359012760173872 0 -0.027061782078607516 0.0014515936998898253 0 -0.027019606486733093 0.0014024856249648453 0 -0.027045234450643298 0.001448296468221856 0 -0.027019606486733093 0.0014024856249648453 0 -0.027045234450643298 0.001448296468221856 0 -0.02703348917375489 0.0014359012760173872 0 -0.026770889047216785 0.0011664428827974005 0 -0.026758051017359282 0.0012070434107259659 0 -0.026734316032771623 0.0011216992159502107 0 -0.027045234450643298 0.001448296468221856 0 -0.02703348917375489 0.0014359012760173872 0 -0.027054848585833523 0.0014674907918522484 0 -0.026770889047216785 0.0011664428827974005 0 -0.026810337541649531 0.0011846625580182245 0 -0.026758051017359282 0.0012070434107259659 0 -0.027000114035114063 0.001388785835600847 0 -0.02703348917375489 0.0014359012760173872 0 -0.027052619297040774 0.0014701446327384869 0 -0.026912687459632594 0.0012702000476122913 0 -0.027091412074186187 0.0015562739505266697 0 -0.02703348917375489 0.0014359012760173872 0 -0.027052619297040774 0.0014701446327384869 0 -0.027054848585833523 0.0014674907918522484 0 -0.027091412074186187 0.0015562739505266697 0 -0.027066893184765614 0.0015319387573444086 0 -0.027054848585833523 0.0014674907918522484 0 -0.027079166726689943 0.0014527141866642463 0 -0.027142564994934146 0.0014458507977088383 0 -0.027096957248091785 0.0014965888257362056 0 -0.027054848585833523 0.0014674907918522484 0 -0.027142564994934146 0.0014458507977088383 0 -0.027045234450643298 0.001448296468221856 0 -0.027054848585833523 0.0014674907918522484 0 -0.027079166726689943 0.0014527141866642463 0 -0.027079166726689943 0.0014527141866642463 0 -0.027071422163634624 0.0014651191816787241 0 -0.027087581844424186 0.0014583707876173121 0 -0.027079166726689943 0.0014527141866642463 0 -0.027126386919863778 0.0014390688882963117 0 -0.027087581844424186 0.0014583707876173121 0 -0.027079166726689943 0.0014527141866642463 0 -0.027126386919863778 0.0014390688882963117 0 -0.027142564994934146 0.0014458507977088383 0 -0.027061782078607516 0.0014515936998898253 0 -0.027045234450643298 0.001448296468221856 0 -0.027071422163634624 0.0014651191816787241 0 -0.027045234450643298 0.001448296468221856 0 -0.027079166726689943 0.0014527141866642463 0 -0.027071422163634624 0.0014651191816787241 0 -0.027111576806541606 0.00150002876782063 0 -0.027071422163634624 0.0014651191816787241 0 -0.027096007830476186 0.0014875813460345241 0 -0.027096007830476186 0.0014875813460345241 0 -0.027100971011928467 0.0014874692360659382 0 -0.027087581844424186 0.0014583707876173121 0 -0.027071422163634624 0.0014651191816787241 0 -0.027096007830476186 0.0014875813460345241 0 -0.027087581844424186 0.0014583707876173121 0 -0.027096007830476186 0.0014875813460345241 0 -0.027100971011928467 0.0014874692360659382 0 -0.027102885565103922 0.0014920821813588813 0 -0.027096007830476186 0.0014875813460345241 0 -0.027102885565103922 0.0014920821813588813 0 -0.027108080023152674 0.0014982313265362757 0 -0.027126386919863778 0.0014390688882963117 0 -0.027087581844424186 0.0014583707876173121 0 -0.027137891289343824 0.0014088519649554699 0 -0.026988490117357003 0.0021911601074257442 0 -0.030619330825089962 0.0023252622688907363 0 -0.027100971011928467 0.0014874692360659382 0 -0.027087581844424186 0.0014583707876173121 0 -0.027101149557859777 0.0014835903473219292 0 -0.034324825218674603 0.0032636297456496008 0 -0.033749665243861943 0.0020322746195230662 0 -0.032812650601522123 0.0033064387182765343 0 -0.027100971011928467 0.0014874692360659382 0 -0.027101149557859777 0.0014835903473219292 0 -0.027111019002359786 0.0015024448302040586 0 -0.034618613669812427 0.004536885789026026 0 -0.034324825218674603 0.0032636297456496008 0 -0.032812650601522123 0.0033064387182765343 0 -0.030619330825089962 0.0023252622688907363 0 -0.029252704424930425 0.0026137010148013493 0 -0.033749665243861943 0.0020322746195230662 0 -0.035332769362909834 0.0016825069979432405 0 -0.035152622304819345 0.0026863095066308688 0 -0.034324825218674603 0.0032636297456496008 0 -0.033749665243861943 0.0020322746195230662 0 -0.035152622304819345 0.0026863095066308688 0 -0.030958865463084455 0.0015856312554995099 0 -0.029252704424930425 0.0026137010148013493 0 -0.027712727518318034 0.001475070001617076 0 -0.027533917679234667 0.0015638398245328023 0 -0.027719869075904523 0.0012353561043662519 0 -0.028012425695789499 0.0014065658425984153 0 -0.027712727518318034 0.001475070001617076 0 -0.027689574739450367 0.0016007437724337211 0 -0.028012425695789499 0.0014065658425984153 0 -0.027712727518318034 0.001475070001617076 0 -0.027719869075904523 0.0012353561043662519 0 -0.027712727518318034 0.001475070001617076 0 -0.027689574739450367 0.0016007437724337211 0 -0.027628763009139582 0.0016312174352095601 0 -0.027712727518318034 0.001475070001617076 0 -0.027628763009139582 0.0016312174352095601 0 -0.027579844068112598 0.0015859404236645295 0 -0.029252704424930425 0.0026137010148013493 0 -0.028225309992980251 0.0021081957405874527 0 -0.027100971011928467 0.0014874692360659382 0 -0.027102885565103922 0.0014920821813588813 0 -0.027111019002359786 0.0015024448302040586 0 -0.027102885565103922 0.0014920821813588813 0 -0.027111019002359786 0.0015024448302040586 0 -0.027108080023152674 0.0014982313265362757 0 -0.027628763009139582 0.0016312174352095601 0 -0.027491259729923563 0.0015968037431413648 0 -0.027579844068112598 0.0015859404236645295 0 -0.027491259729923563 0.0015968037431413648 0 -0.027533917679234667 0.0015638398245328023 0 -0.02746563851417708 0.0015814987236831969 0 -0.027491259729923563 0.0015968037431413648 0 -0.027579844068112598 0.0015859404236645295 0 -0.027533917679234667 0.0015638398245328023 0 -0.027712727518318034 0.001475070001617076 0 -0.027579844068112598 0.0015859404236645295 0 -0.027533917679234667 0.0015638398245328023 0 -0.027533917679234667 0.0015638398245328023 0 -0.02746563851417708 0.0015814987236831969 0 -0.027450787311330854 0.0015534068241853612 0 -0.027694336982078328 0.0016347224283658009 0 -0.02746563851417708 0.0015814987236831969 0 -0.027450787311330854 0.0015534068241853612 0 -0.028230230673711599 0.0015232299245550177 0 -0.028397940318994844 0.0013360310400687219 0 -0.027533917679234667 0.0015638398245328023 0 -0.027450787311330854 0.0015534068241853612 0 -0.027719869075904523 0.0012353561043662519 0 -0.028770354657649627 0.0015903775151295842 0 -0.029296302542681368 0.0010278444622423366 0 -0.02992579663831002 0.0013124919467097766 0 -0.029296302542681368 0.0010278444622423366 0 -0.028724509968307294 0.00090367903074731594 0 -0.029262946266781827 0.0005774929558199233 0 -0.029296302542681368 0.0010278444622423366 0 -0.029262946266781827 0.0005774929558199233 0 -0.029841418020139718 0.00070921617055600219 0 -0.028070155395172498 0.0010333101423048883 0 -0.028770354657649627 0.0015903775151295842 0 -0.028724509968307294 0.00090367903074731594 0 -0.028770354657649627 0.0015903775151295842 0 -0.029296302542681368 0.0010278444622423366 0 -0.028724509968307294 0.00090367903074731594 0 -0.028305192109377986 0.00063222499031202295 0 -0.028724509968307294 0.00090367903074731594 0 -0.028808701092375464 0.00036162443415460718 0 -0.028724509968307294 0.00090367903074731594 0 -0.028808701092375464 0.00036162443415460718 0 -0.029262946266781827 0.0005774929558199233 0 -0.028445869618511706 0.00025362500876295575 0 -0.028305192109377986 0.00063222499031202295 0 -0.028808701092375464 0.00036162443415460718 0 -0.029262946266781827 0.0005774929558199233 0 -0.02967601691702219 0.00032030767261238629 0 -0.029841418020139718 0.00070921617055600219 0 -0.029288785831315604 0.00013299394035271183 0 -0.028808701092375464 0.00036162443415460718 0 -0.029262946266781827 0.0005774929558199233 0 -0.029288785831315604 0.00013299394035271183 0 -0.029262946266781827 0.0005774929558199233 0 -0.02967601691702219 0.00032030767261238629 0 -0.030003503166718175 8.5955068149641013e-05 0 -0.02967601691702219 0.00032030767261238629 0 -0.029964621401395605 0.00042014249178676358 0 -0.02967601691702219 0.00032030767261238629 0 -0.029964621401395605 0.00042014249178676358 0 -0.029841418020139718 0.00070921617055600219 0 -0.029964621401395605 0.00042014249178676358 0 -0.029841418020139718 0.00070921617055600219 0 -0.0301404391092789 0.00059481475562275224 0 -0.029841418020139718 0.00070921617055600219 0 -0.0301404391092789 0.00059481475562275224 0 -0.030237640789625139 0.00083891856250440863 0 -0.0301404391092789 0.00059481475562275224 0 -0.030458188729732012 0.00062633146547081959 0 -0.030237640789625139 0.00083891856250440863 0 -0.029964621401395605 0.00042014249178676358 0 -0.0301404391092789 0.00059481475562275224 0 -0.030242440185603944 0.00037818339487446947 0 -0.0301404391092789 0.00059481475562275224 0 -0.030242440185603944 0.00037818339487446947 0 -0.030458188729732012 0.00062633146547081959 0 -0.030426235830542155 3.5351390847457603e-05 0 -0.030003503166718175 8.5955068149641013e-05 0 -0.030242440185603944 0.00037818339487446947 0 -0.030003503166718175 8.5955068149641013e-05 0 -0.029964621401395605 0.00042014249178676358 0 -0.030242440185603944 0.00037818339487446947 0 -0.030426235830542155 3.5351390847457603e-05 0 -0.030242440185603944 0.00037818339487446947 0 -0.030539407884010321 0.00037023643153336576 0 -0.030426235830542155 3.5351390847457603e-05 0 -0.030539407884010321 0.00037023643153336576 0 -0.030821364677306954 0.00020901751678200609 0 -0.030539407884010321 0.00037023643153336576 0 -0.030821364677306954 0.00020901751678200609 0 -0.030710602801992882 0.00056364379651193861 0 -0.03101899738890097 -9.384243165301448e-05 0 -0.030821364677306954 0.00020901751678200609 0 -0.031147386118599539 0.00075649012137414019 0 -0.030894130798220617 0.00064691950092761008 0 -0.030550123564816106 0.00080918468092342204 0 -0.031074389996815249 0.00086147105198970187 0 -0.030821364677306954 0.00020901751678200609 0 -0.030894130798220617 0.00064691950092761008 0 -0.030710602801992882 0.00056364379651193861 0 -0.030821364677306954 0.00020901751678200609 0 -0.030894130798220617 0.00064691950092761008 0 -0.031147386118599539 0.00075649012137414019 0 -0.030894130798220617 0.00064691950092761008 0 -0.030710602801992882 0.00056364379651193861 0 -0.030550123564816106 0.00080918468092342204 0 -0.030894130798220617 0.00064691950092761008 0 -0.031074389996815249 0.00086147105198970187 0 -0.031147386118599539 0.00075649012137414019 0 -0.030242440185603944 0.00037818339487446947 0 -0.030539407884010321 0.00037023643153336576 0 -0.030458188729732012 0.00062633146547081959 0 -0.030539407884010321 0.00037023643153336576 0 -0.030710602801992882 0.00056364379651193861 0 -0.030458188729732012 0.00062633146547081959 0 -0.030710602801992882 0.00056364379651193861 0 -0.030458188729732012 0.00062633146547081959 0 -0.030550123564816106 0.00080918468092342204 0 -0.030458188729732012 0.00062633146547081959 0 -0.030550123564816106 0.00080918468092342204 0 -0.030237640789625139 0.00083891856250440863 0 -0.028397940318994844 0.0013360310400687219 0 -0.031875141031718651 0.00093082276915762983 0 -0.030550123564816106 0.00080918468092342204 0 -0.02992579663831002 0.0013124919467097766 0 -0.031074389996815249 0.00086147105198970187 0 -0.028012425695789499 0.0014065658425984153 0 -0.027719869075904523 0.0012353561043662519 0 -0.02845761168601061 0.00086844429844742076 0 -0.030958865463084455 0.0015856312554995099 0 -0.031875141031718651 0.00093082276915762983 0 -0.033749665243861943 0.0020322746195230662 0 -0.034893956240261613 0.00043945081257863136 0 -0.035332769362909834 0.0016825069979432405 0 -0.029296302542681368 0.0010278444622423366 0 -0.029841418020139718 0.00070921617055600219 0 -0.02992579663831002 0.0013124919467097766 0 -0.029841418020139718 0.00070921617055600219 0 -0.02992579663831002 0.0013124919467097766 0 -0.030237640789625139 0.00083891856250440863 0 -0.030550123564816106 0.00080918468092342204 0 -0.02992579663831002 0.0013124919467097766 0 -0.030237640789625139 0.00083891856250440863 0 -0.03677129240972226 0.00087081763626364753 0 -0.036498851090280685 0.0018197718509761767 0 -0.036798246083753379 0.00079324724310402309 0 -0.037682280801165806 0.0012375854935078793 0 -0.037215255055044423 0.0025539398842293897 0 -0.036798246083753379 0.00079324724310402309 0 -0.037742970423190907 0.00041844419322932205 0 -0.037682280801165806 0.0012375854935078793 0 -0.036520211854735599 0.0005916600254703237 0 -0.035809939616256954 0.001179912066622956 0 -0.036007093375987897 0.0021013707115082095 0 -0.036520211854735599 0.0005916600254703237 0 -0.035809939616256954 0.001179912066622956 0 -0.035302951823339764 0.00053542209385546238 0 -0.035017159038974316 0.00038209174377131129 0 -0.035029487148877277 0.00024108750107588217 0 -0.035332769362909834 0.0016825069979432405 0 -0.033919714261419168 0.00048284344896890426 0 -0.03535879423775215 0.0016035343105253337 0 -0.035017159038974316 0.00038209174377131129 0 -0.034893956240261613 0.00043945081257863136 0 -0.035332769362909834 0.0016825069979432405 0 -0.035809939616256954 0.001179912066622956 0 -0.035302951823339764 0.00053542209385546238 0 -0.035332769362909834 0.0016825069979432405 0 -0.032165153404640337 0.00082048917024846581 0 -0.031875141031718651 0.00093082276915762983 0 -0.031875141031718651 0.00093082276915762983 0 -0.033919714261419168 0.00048284344896890426 0 -0.035017159038974316 0.00038209174377131129 0 -0.034889736551777947 0.00044175123776865247 0 -0.035029487148877277 0.00024108750107588217 0 -0.036520211854735599 0.0005916600254703237 0 -0.035302951823339764 0.00053542209385546238 0 -0.036059687705147225 -0.00026211497615233711 0 -0.035378533101850192 -0.00058585326262043929 0 -0.035549880204086386 0.0004439258619066408 0 -0.036059687705147225 -0.00026211497615233711 0 -0.033138671638684336 -0.00037288448364612763 0 -0.033919714261419168 0.00048284344896890426 0 -0.033919714261419168 0.00048284344896890426 0 -0.036090372623509108 -0.00041711187442233886 0 -0.037394169466628741 -0.00029523031342641639 0 -0.036798246083753379 0.00079324724310402309 0 -0.037742970423190907 0.00041844419322932205 0 -0.036335914958437417 -0.0010192954763025167 0 -0.036520211854735599 0.0005916600254703237 0 -0.036059687705147225 -0.00026211497615233711 0 -0.037394169466628741 -0.00029523031342641639 0 -0.036335914958437417 -0.0010192954763025167 0 -0.036798246083753379 0.00079324724310402309 0 -0.036300460762703379 -0.001039800506301332 0 -0.03677129240972226 0.00087081763626364753 0 -0.038642970946094347 -0.00027761072100194344 0 -0.037394169466628741 -0.00029523031342641639 0 -0.037742970423190907 0.00041844419322932205 0 -0.038642970946094347 -0.00027761072100194344 0 -0.038396682356365092 0.00070941711489341959 0 -0.037742970423190907 0.00041844419322932205 0 -0.040040732962146108 -4.8374347051803407e-05 0 -0.040054891320081477 0.00057976187417929247 0 -0.041350790595474848 0.00018479996319023667 0 -0.041247835352464055 -0.00013929714757243388 0 -0.041245106502607785 0.00010838655522344895 0 -0.038642970946094347 -0.00027761072100194344 0 -0.038396682356365092 0.00070941711489341959 0 -0.039405909521332105 0.00087262868226774281 0 -0.038396682356365092 0.00070941711489341959 0 -0.038305288852435386 0.0017181889546839294 0 -0.039405909521332105 0.00087262868226774281 0 -0.039312102176545759 0.00071087812148498361 0 -0.039043219454555793 0.0013118274793345675 0 -0.03981344260931427 0.00058237394267485556 0 -0.039312102176545759 0.00071087812148498361 0 -0.038714620402744489 0.00086399355727515145 0 -0.039461956820718326 0.00037126132311841376 0 -0.038561567493835505 0.0012945324342956436 0 -0.040054891320081477 0.00057976187417929247 0 -0.038396682356365092 0.00070941711489341959 0 -0.037682280801165806 0.0012375854935078793 0 -0.038305288852435386 0.0017181889546839294 0 -0.038396682356365092 0.00070941711489341959 0 -0.037742970423190907 0.00041844419322932205 0 -0.037682280801165806 0.0012375854935078793 0 -0.037682280801165806 0.0012375854935078793 0 -0.038305288852435386 0.0017181889546839294 0 -0.037215255055044423 0.0025539398842293897 0 -0.038714620402744489 0.00086399355727515145 0 -0.038480947718481172 0.0013485313407576986 0 -0.037919941670233742 0.0014314655248064991 0 -0.038561567493835505 0.0012945324342956436 0 -0.036498851090280685 0.0018197718509761767 0 -0.038714620402744489 0.00086399355727515145 0 -0.038480947718481172 0.0013485313407576986 0 -0.039043219454555793 0.0013118274793345675 0 -0.038119445361473867 0.00053812949275622269 0 -0.038307995076744643 0.00078951210868181563 0 -0.038873700572263581 0.00060492926023217721 0 -0.039312102176545759 0.00071087812148498361 0 -0.038714620402744489 0.00086399355727515145 0 -0.039043219454555793 0.0013118274793345675 0 -0.038119445361473867 0.00053812949275622269 0 -0.038307995076744643 0.00078951210868181563 0 -0.037969809526413045 0.00090833997486716158 0 -0.038307995076744643 0.00078951210868181563 0 -0.037969809526413045 0.00090833997486716158 0 -0.037934867516854688 0.0010477722497559011 0 -0.038480947718481172 0.0013485313407576986 0 -0.038077558763653249 0.0021510700585558747 0 -0.037919941670233742 0.0014314655248064991 0 -0.038119445361473867 0.00053812949275622269 0 -0.037969809526413045 0.00090833997486716158 0 -0.037653457308637374 0.00096163354761259745 0 -0.038480947718481172 0.0013485313407576986 0 -0.039043219454555793 0.0013118274793345675 0 -0.038077558763653249 0.0021510700585558747 0 -0.038958616412934473 0.00097158640772412137 0 -0.035961121839821523 0.0010292588292047534 0 -0.035961121839821523 0.0010292588292047534 0 -0.036498851090280685 0.0018197718509761767 0 -0.03464798320494239 0.0015825209167182246 0 -0.034312764523132935 0.0001037963713572587 0 -0.03291010881773377 0.0011701797668330603 0 -0.036498851090280685 0.0018197718509761767 0 -0.03453571000619398 0.0023135218054803753 0 -0.037009024687788987 0.0026340528981394634 0 -0.036007093375987897 0.0021013707115082095 0 -0.035863495479150534 0.0035787317309147392 0 -0.036520211854735599 0.0005916600254703237 0 -0.037009024687788987 0.0026340528981394634 0 -0.036007093375987897 0.0021013707115082095 0 -0.036007093375987897 0.0021013707115082095 0 -0.035152622304819345 0.0026863095066308688 0 -0.035863495479150534 0.0035787317309147392 0 -0.035332769362909834 0.0016825069979432405 0 -0.036007093375987897 0.0021013707115082095 0 -0.035152622304819345 0.0026863095066308688 0 -0.035809939616256954 0.001179912066622956 0 -0.035332769362909834 0.0016825069979432405 0 -0.036007093375987897 0.0021013707115082095 0 -0.034324825218674603 0.0032636297456496008 0 -0.035152622304819345 0.0026863095066308688 0 -0.035863495479150534 0.0035787317309147392 0 -0.034618613669812427 0.004536885789026026 0 -0.034324825218674603 0.0032636297456496008 0 -0.035863495479150534 0.0035787317309147392 0 -0.030619330825089962 0.0023252622688907363 0 -0.03453571000619398 0.0023135218054803753 0 -0.031505126118063269 0.0022441802234968731 0 -0.03291010881773377 0.0011701797668330603 0 -0.032834203102778514 0.0031597922013031649 0 -0.027126386919863778 0.0014390688882963117 0 -0.027137891289343824 0.0014088519649554699 0 -0.027188427771745644 0.0014336434890782688 0 -0.030619330825089962 0.0023252622688907363 0 -0.029819954698430701 0.0015835929887851826 0 -0.033029656511787117 4.2028032337051952e-05 0 -0.031591635107265391 0.0012704698117424842 0 -0.032673944262328898 0.00089058364667261413 0 -0.032673944262328898 0.00089058364667261413 0 -0.031988074143249015 0.0014891500829587638 0 -0.033299834667037155 0.0013302259823056268 0 -0.035961121839821523 0.0010292588292047534 0 -0.029819954698430701 0.0015835929887851826 0 -0.03464798320494239 0.0015825209167182246 0 -0.03291010881773377 0.0011701797668330603 0 -0.032834203102778514 0.0031597922013031649 0 -0.031591635107265391 0.0012704698117424842 0 -0.032673944262328898 0.00089058364667261413 0 -0.031945840514029884 0.0015173268054982203 0 -0.032599878437813333 0.00056848102129359386 0 -0.029960647766660728 0.0013326496249543062 0 -0.031988074143249015 0.0014891500829587638 0 -0.033590468510537319 0.0025774672820112208 0 -0.033299834667037155 0.0013302259823056268 0 -0.029960647766660728 0.0013326496249543062 0 -0.033549049617278198 0.0016451091329366288 0 -0.027096957248091785 0.0014965888257362056 0 -0.027278991921833928 0.0014227906566001342 0 -0.027142564994934146 0.0014458507977088383 0 -0.027091412074186187 0.0015562739505266697 0 -0.029960647766660728 0.0013326496249543062 0 -0.027126386919863778 0.0014390688882963117 0 -0.027188427771745644 0.0014336434890782688 0 -0.027142564994934146 0.0014458507977088383 0 -0.029819954698430701 0.0015835929887851826 0 -0.027115802321334224 0.0020121076437259137 0 -0.027238833290514634 0.0013904972890629605 0 -0.027278991921833928 0.0014227906566001342 0 -0.027142564994934146 0.0014458507977088383 0 -0.029819954698430701 0.0015835929887851826 0 -0.029960647766660728 0.0013326496249543062 0 -0.026758051017359282 0.0012070434107259659 0 -0.026676549609408299 0.0011615837196884875 0 -0.026734316032771623 0.0011216992159502107 0 -0.027091412074186187 0.0015562739505266697 0 -0.027858377092780603 0.0016408755983338982 0 -0.027874452709668384 0.0016623983886923015 0 -0.029114134733392426 0.0005868459266688609 0 -0.029341293618584674 0.0020264199106826016 0 -0.026676549609408299 0.0011615837196884875 0 -0.026656837049952333 0.0011167938083163828 0 -0.02664906819674517 0.0011215352482590128 0 -0.029114134733392426 0.0005868459266688609 0 -0.029341293618584674 0.0020264199106826016 0 -0.03062985611616368 0.0016262450416608231 0 -0.026676549609408299 0.0011615837196884875 0 -0.026681926724541612 0.0011195874830456194 0 -0.026656837049952333 0.0011167938083163828 0 -0.026681926724541612 0.0011195874830456194 0 -0.026656837049952333 0.0011167938083163828 0 -0.026649793935026127 0.0010625344642315679 0 -0.026676549609408299 0.0011615837196884875 0 -0.026681926724541612 0.0011195874830456194 0 -0.026734316032771623 0.0011216992159502107 0 -0.026681926724541612 0.0011195874830456194 0 -0.026734316032771623 0.0011216992159502107 0 -0.026722446576207769 0.00092824159704258053 0 -0.028589172006944226 -0.0019848696962539714 0 -0.0277123839311566 -0.0025204482781329188 0 -0.028033283790836267 -0.00097810611088267984 0 -0.032686955517187415 0.00049360914857882751 0 -0.032835190892845742 0.00053726597897866028 0 -0.032611342625589103 0.00053933448555351443 0 -0.028411521966217611 -0.0029348751562497687 0 -0.028589172006944226 -0.0019848696962539714 0 -0.0277123839311566 -0.0025204482781329188 0 -0.03124344474146739 -0.00024211434561781229 0 -0.029855314269382555 0.00083320730652097178 0 -0.03124344474146739 -0.00024211434561781229 0 -0.028443963677020262 -7.2162203634200449e-05 0 -0.03124344474146739 -0.00024211434561781229 0 -0.035622589184801844 -0.00016317108222920409 0 -0.03358472137148976 -0.00079877284404845732 0 -0.033337855094677057 -0.00065558395105065072 0 -0.0328592688732013 -0.00099978153256428319 0 -0.028411521966217611 -0.0029348751562497687 0 -0.028589172006944226 -0.0019848696962539714 0 -0.029722439925861877 -0.0026274583713634982 0 -0.03124344474146739 -0.00024211434561781229 0 -0.032544275348025953 -0.0016599170571361505 0 -0.035622589184801844 -0.00016317108222920409 0 -0.032544275348025953 -0.0016599170571361505 0 -0.028589172006944226 -0.0019848696962539714 0 -0.029722439925861877 -0.0026274583713634982 0 -0.029555424647304169 -0.0015680620031360598 0 -0.027956198773715715 -0.00019317948416385438 0 -0.028089897074552721 0.00033248534196053762 0 -0.0272653471991505 0.00027413804796604248 0 -0.028443963677020262 -7.2162203634200449e-05 0 -0.028024104525776621 -0.00052483313612998689 0 -0.028443963677020262 -7.2162203634200449e-05 0 -0.026733135783049148 0.00080365920800499157 0 -0.026656837049952333 0.0011167938083163828 0 -0.026645667739242266 0.0011135219831677941 0 -0.026649793935026127 0.0010625344642315679 0 -0.026656837049952333 0.0011167938083163828 0 -0.026645667739242266 0.0011135219831677941 0 -0.02664906819674517 0.0011215352482590128 0 -0.030144438174121279 3.0242500435626955e-05 0 -0.0295496579472369 0.00037745652579464879 0 -0.029429052796305321 -0.00014605413924239914 0 -0.028443963677020262 -7.2162203634200449e-05 0 -0.029855314269382555 0.00083320730652097178 0 -0.032835190892845742 0.00053726597897866028 0 -0.032887011893242876 0.00074758103696040911 0 -0.032611342625589103 0.00053933448555351443 0 -0.029855314269382555 0.00083320730652097178 0 -0.033549049617278198 0.0016451091329366288 0 -0.027858377092780603 0.0016408755983338982 0 -0.029855314269382555 0.00083320730652097178 0 -0.029341293618584674 0.0020264199106826016 0 -0.030801359828438277 0.002380965313687213 0 -0.03062985611616368 0.0016262450416608231 0 -0.033549049617278198 0.0016451091329366288 0 -0.035622589184801844 -0.00016317108222920409 0 -0.037948064903503068 0.00095540840670261184 0 -0.037805818963680425 0.00086024566050318463 0 -0.037819203094673702 0.0010401292535077229 0 -0.037948064903503068 0.00095540840670261184 0 -0.037805818963680425 0.00086024566050318463 0 -0.037817052032615046 0.00050480284453873869 0 -0.037805818963680425 0.00086024566050318463 0 -0.037817052032615046 0.00050480284453873869 0 -0.037500058257268688 0.00095376788394054468 0 -0.037805818963680425 0.00086024566050318463 0 -0.037819203094673702 0.0010401292535077229 0 -0.037500058257268688 0.00095376788394054468 0 -0.037819203094673702 0.0010401292535077229 0 -0.03768432049396863 0.001203334831069909 0 -0.037500058257268688 0.00095376788394054468 0 -0.037819203094673702 0.0010401292535077229 0 -0.037832202175245307 0.0011345611945262229 0 -0.03768432049396863 0.001203334831069909 0 -0.033549049617278198 0.0016451091329366288 0 -0.035608678857696828 0.0011928621788000707 0 -0.037819203094673702 0.0010401292535077229 0 -0.037832202175245307 0.0011345611945262229 0 -0.037841609270115352 0.0011339664928885431 0 -0.037948064903503068 0.00095540840670261184 0 -0.037819203094673702 0.0010401292535077229 0 -0.037841609270115352 0.0011339664928885431 0 -0.033029656511787117 4.2028032337051952e-05 0 -0.032673944262328898 0.00089058364667261413 0 -0.033299834667037155 0.0013302259823056268 0 -0.037653457308637374 0.00096163354761259745 0 -0.037841609270115352 0.0011339664928885431 0 -0.037848416264734661 0.0010714173150250144 0 -0.035961121839821523 0.0010292588292047534 0 -0.035608678857696828 0.0011928621788000707 0 -0.037969809526413045 0.00090833997486716158 0 -0.037653457308637374 0.00096163354761259745 0 -0.037848416264734661 0.0010714173150250144 0 -0.037832202175245307 0.0011345611945262229 0 -0.037841609270115352 0.0011339664928885431 0 -0.037848416264734661 0.0010714173150250144 0 -0.03768432049396863 0.001203334831069909 0 -0.037934867516854688 0.0010477722497559011 0 -0.0378508374525817 0.001089051365008413 0 -0.037832202175245307 0.0011345611945262229 0 -0.03768432049396863 0.001203334831069909 0 -0.037934867516854688 0.0010477722497559011 0 -0.037832202175245307 0.0011345611945262229 0 -0.037848416264734661 0.0010714173150250144 0 -0.037934867516854688 0.0010477722497559011 0 -0.037969809526413045 0.00090833997486716158 0 -0.037848416264734661 0.0010714173150250144 0 -0.037934867516854688 0.0010477722497559011 0 -0.037934867516854688 0.0010477722497559011 0 -0.038147142162972117 0.00089307918952836335 0 -0.0378508374525817 0.001089051365008413 0 -0.038147142162972117 0.00089307918952836335 0 -0.037930568982315935 0.0010356888908031382 0 -0.0384173506533508 0.00071299045357608895 0 -0.038147142162972117 0.00089307918952836335 0 -0.037930568982315935 0.0010356888908031382 0 -0.0378508374525817 0.001089051365008413 0 -0.037930568982315935 0.0010356888908031382 0 -0.0378508374525817 0.001089051365008413 0 -0.037592207759748801 0.0012132819616277779 0 -0.037930568982315935 0.0010356888908031382 0 -0.0384173506533508 0.00071299045357608895 0 -0.038639943325679119 0.0010487914281292587 0 -0.035959878317900727 0.0015477483593183176 0 -0.035432416390323067 0.00086290174430924619 0 -0.03443557650636974 0.0033728116584822426 0 -0.033838115436043439 0.00088203404229812623 0 -0.03591470816359224 0.00084568019568918959 0 -0.03730232725702394 0.001798605013745359 0 -0.03591470816359224 0.00084568019568918959 0 -0.037930568982315935 0.0010356888908031382 0 -0.037186988263857232 0.0014060766536575903 0 -0.038639943325679119 0.0010487914281292587 0 -0.035959878317900727 0.0015477483593183176 0 -0.037186988263857232 0.0014060766536575903 0 -0.03443557650636974 0.0033728116584822426 0 -0.037930568982315935 0.0010356888908031382 0 -0.037592207759748801 0.0012132819616277779 0 -0.037186988263857232 0.0014060766536575903 0 -0.03768432049396863 0.001203334831069909 0 -0.037592207759748801 0.0012132819616277779 0 -0.037425201623824379 0.0012157008430354235 0 -0.03768432049396863 0.001203334831069909 0 -0.0378508374525817 0.001089051365008413 0 -0.037592207759748801 0.0012132819616277779 0 -0.037592207759748801 0.0012132819616277779 0 -0.037186988263857232 0.0014060766536575903 0 -0.037425201623824379 0.0012157008430354235 0 -0.035959878317900727 0.0015477483593183176 0 -0.037186988263857232 0.0014060766536575903 0 -0.036546246838574714 0.00079969824904893333 0 -0.037186988263857232 0.0014060766536575903 0 -0.037188710630170617 0.0011298644227947219 0 -0.036546246838574714 0.00079969824904893333 0 -0.037186988263857232 0.0014060766536575903 0 -0.037188710630170617 0.0011298644227947219 0 -0.037425201623824379 0.0012157008430354235 0 -0.037188710630170617 0.0011298644227947219 0 -0.037425201623824379 0.0012157008430354235 0 -0.037500058257268688 0.00095376788394054468 0 -0.03768432049396863 0.001203334831069909 0 -0.037425201623824379 0.0012157008430354235 0 -0.037500058257268688 0.00095376788394054468 0 -0.038278044060313217 -0.00043919221179558121 0 -0.036369981476815784 -0.00025838999921556319 0 -0.036546246838574714 0.00079969824904893333 0 -0.035622589184801844 -0.00016317108222920409 0 -0.037429166282419483 0.00058944057683976421 0 -0.037817052032615046 0.00050480284453873869 0 -0.037500058257268688 0.00095376788394054468 0 -0.036546246838574714 0.00079969824904893333 0 -0.037188710630170617 0.0011298644227947219 0 -0.037500058257268688 0.00095376788394054468 0 -0.036546246838574714 0.00079969824904893333 0 -0.032791782446103195 0.00055677426647037745 0 -0.03485768700318144 -0.0012281419100117726 0 -0.032972972923505997 -0.00069329510176142331 0 -0.033838115436043439 0.00088203404229812623 0 -0.034934667758248883 -0.0013690707074697265 0 -0.036369981476815784 -0.00025838999921556319 0 -0.035432416390323067 0.00086290174430924619 0 -0.03485768700318144 -0.0012281419100117726 0 -0.035959878317900727 0.0015477483593183176 0 -0.036546246838574714 0.00079969824904893333 0 -0.035432416390323067 0.00086290174430924619 0 -0.032791782446103195 0.00055677426647037745 0 -0.032972972923505997 -0.00069329510176142331 0 -0.03226854587841279 -0.00019742999202443498 0 -0.036369981476815784 -0.00025838999921556319 0 -0.036546246838574714 0.00079969824904893333 0 -0.035432416390323067 0.00086290174430924619 0 -0.032991501440864185 -0.0017761778758219567 0 -0.032544275348025953 -0.0016599170571361505 0 -0.03485768700318144 -0.0012281419100117726 0 -0.032456446488276502 -0.0016680215601919161 0 -0.037425600535301959 -0.0012201003737325117 0 -0.032456446488276502 -0.0016680215601919161 0 -0.030939527700134143 -0.001769164036091611 0 -0.02980598036638667 -0.0026994171589935596 0 -0.03485768700318144 -0.0012281419100117726 0 -0.032972972923505997 -0.00069329510176142331 0 -0.032456446488276502 -0.0016680215601919161 0 -0.038278044060313217 -0.00043919221179558121 0 -0.036369981476815784 -0.00025838999921556319 0 -0.037425600535301959 -0.0012201003737325117 0 -0.030189034297152074 -0.0024332263976220405 0 -0.032544275348025953 -0.0016599170571361505 0 -0.030939527700134143 -0.001769164036091611 0 -0.029722439925861877 -0.0026274583713634982 0 -0.029555424647304169 -0.0015680620031360598 0 -0.036369981476815784 -0.00025838999921556319 0 -0.03485768700318144 -0.0012281419100117726 0 -0.037425600535301959 -0.0012201003737325117 0 -0.031076269186570915 -0.0010142190371501389 0 -0.028547663653952282 -0.0010261376153472171 0 -0.028648497814965847 -6.6650237551407576e-07 0 -0.028547663653952282 -0.0010261376153472171 0 -0.028653574276973629 -4.2194691220361154e-06 0 -0.0308788017483538 -0.00025594233117635251 0 -0.031508538610914211 -0.00277224902277255 0 -0.0308788017483538 -0.00025594233117635251 0 -0.03191851366449304 -0.00098335607196963631 0 -0.031969957063814156 -0.0015859722259467016 0 -0.032456446488276502 -0.0016680215601919161 0 -0.03191851366449304 -0.00098335607196963631 0 -0.031969957063814156 -0.0015859722259467016 0 -0.032972972923505997 -0.00069329510176142331 0 -0.03191851366449304 -0.00098335607196963631 0 -0.03226854587841279 -0.00019742999202443498 0 -0.032972972923505997 -0.00069329510176142331 0 -0.032456446488276502 -0.0016680215601919161 0 -0.03191851366449304 -0.00098335607196963631 0 -0.0308788017483538 -0.00025594233117635251 0 -0.03191851366449304 -0.00098335607196963631 0 -0.03226854587841279 -0.00019742999202443498 0 -0.0308788017483538 -0.00025594233117635251 0 -0.03226854587841279 -0.00019742999202443498 0 -0.031814145992677165 0.00022889138405250036 0 -0.03226854587841279 -0.00019742999202443498 0 -0.032310458286064159 0.00031392243578437311 0 -0.031814145992677165 0.00022889138405250036 0 -0.032791782446103195 0.00055677426647037745 0 -0.03226854587841279 -0.00019742999202443498 0 -0.032310458286064159 0.00031392243578437311 0 -0.0308788017483538 -0.00025594233117635251 0 -0.031814145992677165 0.00022889138405250036 0 -0.03091430750285452 2.0656310048504194e-06 0 -0.028653574276973629 -4.2194691220361154e-06 0 -0.0308788017483538 -0.00025594233117635251 0 -0.03091430750285452 2.0656310048504194e-06 0 -0.03091430750285452 2.0656310048504194e-06 0 -0.032306855263356471 0.00040250372651931326 0 -0.033181776666470077 7.2558589101565597e-07 0 -0.031814145992677165 0.00022889138405250036 0 -0.03091430750285452 2.0656310048504194e-06 0 -0.032306855263356471 0.00040250372651931326 0 -0.032791782446103195 0.00055677426647037745 0 -0.032283191707818522 0.00045946139109172989 0 -0.032230124859157466 0.00039077052078950692 0 -0.032791782446103195 0.00055677426647037745 0 -0.032310458286064159 0.00031392243578437311 0 -0.032283191707818522 0.00045946139109172989 0 -0.032310458286064159 0.00031392243578437311 0 -0.031814145992677165 0.00022889138405250036 0 -0.032283191707818522 0.00045946139109172989 0 -0.031814145992677165 0.00022889138405250036 0 -0.032306855263356471 0.00040250372651931326 0 -0.032283191707818522 0.00045946139109172989 0 -0.032306855263356471 0.00040250372651931326 0 -0.032283191707818522 0.00045946139109172989 0 -0.032230124859157466 0.00039077052078950692 0 -0.03591470816359224 0.00084568019568918959 0 -0.03839867892322444 -0.00024018656876041854 0 -0.032306855263356471 0.00040250372651931326 0 -0.032230124859157466 0.00039077052078950692 0 -0.03291291379397835 -6.7544248658565434e-05 0 -0.038007490207917244 -0.0016189318170316868 0 -0.037123696452042956 -0.0009910442785766914 0 -0.0375493834229082 -0.00031912576709253112 0 -0.0384173506533508 0.00071299045357608895 0 -0.038639943325679119 0.0010487914281292587 0 -0.03871590394982901 0.00039828450648197626 0 -0.03591470816359224 0.00084568019568918959 0 -0.035030672951958615 -0.00045369409688857083 0 -0.032306855263356471 0.00040250372651931326 0 -0.033181776666470077 7.2558589101565597e-07 0 -0.03291291379397835 -6.7544248658565434e-05 0 -0.033181776666470077 7.2558589101565597e-07 0 -0.03291291379397835 -6.7544248658565434e-05 0 -0.035444082452129301 -1.4310318815585109e-06 0 -0.035030672951958615 -0.00045369409688857083 0 -0.035446903794867549 -6.1554912499191028e-08 0 -0.037123696452042956 -0.0009910442785766914 0 -0.035450934935996603 -2.1882732871447271e-06 0 -0.037051328105669024 0.00011532580973284105 0 -0.035450934935996603 -2.1882732871447271e-06 0 -0.037051328105669024 0.00011532580973284105 0 -0.037831265759493311 1.8461719643226206e-06 0 -0.037051328105669024 0.00011532580973284105 0 -0.038002844102545855 0.00044233127570714962 0 -0.037831265759493311 1.8461719643226206e-06 0 -0.037051328105669024 0.00011532580973284105 0 -0.038002844102545855 0.00044233127570714962 0 -0.0375493834229082 -0.00031912576709253112 0 -0.038002844102545855 0.00044233127570714962 0 -0.038474051962486898 0.00039509043346435714 0 -0.03871590394982901 0.00039828450648197626 0 -0.037903270995728038 0.00063491846866287863 0 -0.03839867892322444 -0.00024018656876041854 0 -0.038474051962486898 0.00039509043346435714 0 -0.038673643004036355 0.00040438127438522113 0 -0.038562818055738635 0.00044754449263354878 0 -0.038002844102545855 0.00044233127570714962 0 -0.038474051962486898 0.00039509043346435714 0 -0.038562818055738635 0.00044754449263354878 0 -0.038474051962486898 0.00039509043346435714 0 -0.038632603154317602 0.00038842063217059576 0 -0.03871590394982901 0.00039828450648197626 0 -0.038474051962486898 0.00039509043346435714 0 -0.038632603154317602 0.00038842063217059576 0 -0.038673643004036355 0.00040438127438522113 0 -0.038632603154317602 0.00038842063217059576 0 -0.03871590394982901 0.00039828450648197626 0 -0.038620412324933295 0.00048461655074737939 0 -0.037123696452042956 -0.0009910442785766914 0 -0.037051328105669024 0.00011532580973284105 0 -0.0375493834229082 -0.00031912576709253112 0 -0.0384173506533508 0.00071299045357608895 0 -0.03871590394982901 0.00039828450648197626 0 -0.038620412324933295 0.00048461655074737939 0 -0.0384173506533508 0.00071299045357608895 0 -0.038620412324933295 0.00048461655074737939 0 -0.038630432283753388 0.00059857328940346964 0 -0.038620412324933295 0.00048461655074737939 0 -0.038630432283753388 0.00059857328940346964 0 -0.03877850807874484 0.0004339496006080817 0 -0.038307995076744643 0.00078951210868181563 0 -0.038147142162972117 0.00089307918952836335 0 -0.038630432283753388 0.00059857328940346964 0 -0.038307995076744643 0.00078951210868181563 0 -0.037934867516854688 0.0010477722497559011 0 -0.038147142162972117 0.00089307918952836335 0 -0.038147142162972117 0.00089307918952836335 0 -0.0384173506533508 0.00071299045357608895 0 -0.038630432283753388 0.00059857328940346964 0 -0.038307995076744643 0.00078951210868181563 0 -0.038630432283753388 0.00059857328940346964 0 -0.038873700572263581 0.00060492926023217721 0 -0.038119445361473867 0.00053812949275622269 0 -0.038873700572263581 0.00060492926023217721 0 -0.03981344260931427 0.00058237394267485556 0 -0.038958616412934473 0.00097158640772412137 0 -0.039529117795002927 0.00061601162690919445 0 -0.038873700572263581 0.00060492926023217721 0 -0.039361126731475238 0.00061712493789459568 0 -0.03981344260931427 0.00058237394267485556 0 -0.038630432283753388 0.00059857328940346964 0 -0.038873700572263581 0.00060492926023217721 0 -0.039008664931694477 0.00050071325516088977 0 -0.038873700572263581 0.00060492926023217721 0 -0.039361126731475238 0.00061712493789459568 0 -0.039008664931694477 0.00050071325516088977 0 -0.038632603154317602 0.00038842063217059576 0 -0.03877850807874484 0.0004339496006080817 0 -0.038673643004036355 0.00040438127438522113 0 -0.038632603154317602 0.00038842063217059576 0 -0.038620412324933295 0.00048461655074737939 0 -0.03877850807874484 0.0004339496006080817 0 -0.038630432283753388 0.00059857328940346964 0 -0.03877850807874484 0.0004339496006080817 0 -0.039008664931694477 0.00050071325516088977 0 -0.039279349463390935 0.00056487519153939627 0 -0.039032482352120708 0.00047906804207455822 0 -0.039700497096923165 0.00073551859148860072 0 -0.039008664931694477 0.00050071325516088977 0 -0.039279349463390935 0.00056487519153939627 0 -0.039032482352120708 0.00047906804207455822 0 -0.03877850807874484 0.0004339496006080817 0 -0.039008664931694477 0.00050071325516088977 0 -0.039032482352120708 0.00047906804207455822 0 -0.039361126731475238 0.00061712493789459568 0 -0.039008664931694477 0.00050071325516088977 0 -0.039279349463390935 0.00056487519153939627 0 -0.03877850807874484 0.0004339496006080817 0 -0.039032482352120708 0.00047906804207455822 0 -0.038673643004036355 0.00040438127438522113 0 -0.039032482352120708 0.00047906804207455822 0 -0.038673643004036355 0.00040438127438522113 0 -0.038562818055738635 0.00044754449263354878 0 -0.040481603188729919 0.00038215352398958782 0 -0.039700497096923165 0.00073551859148860072 0 -0.041831547021579235 0.0001639164868984168 0 -0.039700497096923165 0.00073551859148860072 0 -0.038562818055738635 0.00044754449263354878 0 -0.038248247347670607 0.00047257369549176911 0 -0.040481603188729919 0.00038215352398958782 0 -0.041004225639992072 0.00017389644866193268 0 -0.041831547021579235 0.0001639164868984168 0 -0.039032482352120708 0.00047906804207455822 0 -0.039700497096923165 0.00073551859148860072 0 -0.038562818055738635 0.00044754449263354878 0 -0.039781543399088508 0.00064741298174407578 0 -0.040017548701999056 0.00033617905615119723 0 -0.039361126731475238 0.00061712493789459568 0 -0.039279349463390935 0.00056487519153939627 0 -0.039700497096923165 0.00073551859148860072 0 -0.040481603188729919 0.00038215352398958782 0 -0.040413660404887558 0.00031362561268597134 0 -0.03981344260931427 0.00058237394267485556 0 -0.040481603188729919 0.00038215352398958782 0 -0.039700497096923165 0.00073551859148860072 0 -0.03981344260931427 0.00058237394267485556 0 -0.040481603188729919 0.00038215352398958782 0 -0.040413660404887558 0.00031362561268597134 0 -0.041004225639992072 0.00017389644866193268 0 -0.039361126731475238 0.00061712493789459568 0 -0.039700497096923165 0.00073551859148860072 0 -0.03981344260931427 0.00058237394267485556 0 -0.040413660404887558 0.00031362561268597134 0 -0.03981344260931427 0.00058237394267485556 0 -0.039916461519594555 0.00038041486695615962 0 -0.039312102176545759 0.00071087812148498361 0 -0.03981344260931427 0.00058237394267485556 0 -0.039461956820718326 0.00037126132311841376 0 -0.03981344260931427 0.00058237394267485556 0 -0.039461956820718326 0.00037126132311841376 0 -0.039916461519594555 0.00038041486695615962 0 -0.041405461970433849 0.00017879122162259569 0 -0.040864259591297629 9.1788330308712195e-05 0 -0.041245106502607785 0.00010838655522344895 0 -0.041247835352464055 -0.00013929714757243388 0 -0.040864259591297629 9.1788330308712195e-05 0 -0.041245106502607785 0.00010838655522344895 0 -0.039461956820718326 0.00037126132311841376 0 -0.039916461519594555 0.00038041486695615962 0 -0.040864259591297629 9.1788330308712195e-05 0 -0.040054891320081477 0.00057976187417929247 0 -0.040840840230244715 -1.465638671076306e-05 0 -0.040413660404887558 0.00031362561268597134 0 -0.039916461519594555 0.00038041486695615962 0 -0.040864259591297629 9.1788330308712195e-05 0 -0.041705117312467663 0.00018538637995158436 0 -0.041004225639992072 0.00017389644866193268 0 -0.041831547021579235 0.0001639164868984168 0 -0.041705117312467663 0.00018538637995158436 0 -0.040864259591297629 9.1788330308712195e-05 0 -0.041004225639992072 0.00017389644866193268 0 -0.040413660404887558 0.00031362561268597134 0 -0.040864259591297629 9.1788330308712195e-05 0 -0.041004225639992072 0.00017389644866193268 0 -0.041833372898776353 0.00029897969085305358 0 -0.041705117312467663 0.00018538637995158436 0 -0.041831547021579235 0.0001639164868984168 0 -0.041833372898776353 0.00029897969085305358 0 -0.040218695742372974 -5.1234879715113814e-07 0 -0.041831547021579235 0.0001639164868984168 0 -0.04021344417490718 1.7571783289720158e-07 0 -0.040017548701999056 0.00033617905615119723 0 -0.038002844102545855 0.00044233127570714962 0 -0.040209559207246344 -7.3121572064302098e-07 0 -0.037831265759493311 1.8461719643226206e-06 0 -0.038002844102545855 0.00044233127570714962 0 -0.040209559207246344 -7.3121572064302098e-07 0 -0.038248247347670607 0.00047257369549176911 0 -0.038002844102545855 0.00044233127570714962 0 -0.038562818055738635 0.00044754449263354878 0 -0.038248247347670607 0.00047257369549176911 0 -0.012900353511681766 0.00074975547547013284 0 -0.013553454327388612 0.0012069671569812919 0 -0.012592785278800757 0.00095994442488681248 0 -0.014562527223629902 0.0004189443157820396 0 -0.014095124870938378 0.00042445332856079889 0 -0.013553454327388612 0.0012069671569812919 0 -0.014562527223629902 0.0004189443157820396 0 -0.015775010374119821 0.00024034972652096069 0 -0.013553454327388612 0.0012069671569812919 0 -0.013416115476236773 0.00055476322943441537 0 -0.013672441817350799 0.0012225162772859252 0 -0.014562527223629902 0.0004189443157820396 0 -0.014095124870938378 0.00042445332856079889 0 -0.015002720648475281 -0.00013850641873916559 0 -0.014562527223629902 0.0004189443157820396 0 -0.015775010374119821 0.00024034972652096069 0 -0.015002720648475281 -0.00013850641873916559 0 -0.015775010374119821 0.00024034972652096069 0 -0.015178726646767376 1.8134275896176915e-06 0 -0.018374007605307652 -3.1422609959741184e-06 0 -0.015341543697437546 0.00026282102228082383 0 -0.013733415601714323 0.00085657407024161941 0 -0.015775010374119821 0.00024034972652096069 0 -0.013660147873294871 0.0016844280215078131 0 -0.013553454327388612 0.0012069671569812919 0 -0.015775010374119821 0.00024034972652096069 0 -0.015178726646767376 1.8134275896176915e-06 0 -0.013731778064026335 1.4388344898538723e-05 0 -0.013553454327388612 0.0012069671569812919 0 -0.012431963209760604 0.0012541694989770355 0 -0.0129296520837424 0.001643738132881954 0 -0.013660147873294871 0.0016844280215078131 0 -0.013553454327388612 0.0012069671569812919 0 -0.0129296520837424 0.001643738132881954 0 -0.013553454327388612 0.0012069671569812919 0 -0.012431963209760604 0.0012541694989770355 0 -0.012592785278800757 0.00095994442488681248 0 -0.012431963209760604 0.0012541694989770355 0 -0.012454641104563837 0.0010355255230213806 0 -0.012592785278800757 0.00095994442488681248 0 -0.012431963209760604 0.0012541694989770355 0 -0.012454641104563837 0.0010355255230213806 0 -0.012500219001501053 0.00095832299860341356 0 -0.012454641104563837 0.0010355255230213806 0 -0.012499354511793292 0.00094542615436418308 0 -0.012500219001501053 0.00095832299860341356 0 -0.012454641104563837 0.0010355255230213806 0 -0.012500076082720668 0.00091526235468063829 0 -0.012499354511793292 0.00094542615436418308 0 -0.012454641104563837 0.0010355255230213806 0 -0.012500076082720668 0.00091526235468063829 0 -0.012530294081016616 0.00082463625033349234 0 -0.012500076082720668 0.00091526235468063829 0 -0.012530294081016616 0.00082463625033349234 0 -0.012539450894506638 0.00091493467054676347 0 -0.012900353511681766 0.00074975547547013284 0 -0.012592785278800757 0.00095994442488681248 0 -0.012530294081016616 0.00082463625033349234 0 -0.012454641104563837 0.0010355255230213806 0 -0.012592785278800757 0.00095994442488681248 0 -0.012530294081016616 0.00082463625033349234 0 -0.012900353511681766 0.00074975547547013284 0 -0.012530294081016616 0.00082463625033349234 0 -0.012635900365144314 0.00044587790435666612 0 -0.013416115476236773 0.00055476322943441537 0 -0.014205592438373184 -0.00014319911888551035 0 -0.012530294081016616 0.00082463625033349234 0 -0.012516250931063063 0.00090341859789411423 0 -0.012539450894506638 0.00091493467054676347 0 -0.014095124870938378 0.00042445332856079889 0 -0.013391223457178221 -0.00068360434938512574 0 -0.014286804979464557 -0.00072096030970603283 0 -0.012731802598626859 0.0011366151115669585 0 -0.014205592438373184 -0.00014319911888551035 0 -0.013391223457178221 -0.00068360434938512574 0 -0.013682626017034375 -0.0020015579517348786 0 -0.014286804979464557 -0.00072096030970603283 0 -0.014205592438373184 -0.00014319911888551035 0 -0.020065176307479091 -0.00019111932351728765 0 -0.012516250931063063 0.00090341859789411423 0 -0.012539450894506638 0.00091493467054676347 0 -0.012553428343485214 0.00094272828598005517 0 -0.012500076082720668 0.00091526235468063829 0 -0.012539450894506638 0.00091493467054676347 0 -0.01254582961912541 0.00091741731893718072 0 -0.012539450894506638 0.00091493467054676347 0 -0.012553428343485214 0.00094272828598005517 0 -0.012579578025108439 0.00096692213628918908 0 -0.012516250931063063 0.00090341859789411423 0 -0.012553428343485214 0.00094272828598005517 0 -0.012574674569252122 0.00098491103775993297 0 -0.020700719179220773 0.00065559408117819005 0 -0.01980668401985286 0.0014022966686775059 0 -0.012553428343485214 0.00094272828598005517 0 -0.012574674569252122 0.00098491103775993297 0 -0.012579578025108439 0.00096692213628918908 0 -0.014205592438373184 -0.00014319911888551035 0 -0.020700719179220773 0.00065559408117819005 0 -0.017902974823238396 -0.0008214181133088498 0 -0.019089242386302038 0.0010512328137446242 0 -0.017559968882690829 0.00057191506308314135 0 -0.025239550101678453 0.00055369651073878677 0 -0.025488895026793006 0.00063813757247552607 0 -0.025390624178613156 0.0003859554997181829 0 -0.020700719179220773 0.00065559408117819005 0 -0.020065176307479091 -0.00019111932351728765 0 -0.022045625666664046 -0.00014115250413292295 0 -0.021124787505952015 -0.00026728483975386796 0 -0.021746314452878047 0.00015083126672661303 0 -0.020065176307479091 -0.00019111932351728765 0 -0.017863082998637824 -0.0009178283142517702 0 -0.013682626017034375 -0.0020015579517348786 0 -0.015405143782910035 -0.0015691748762517253 0 -0.014286804979464557 -0.00072096030970603283 0 -0.015405143782910035 -0.0015691748762517253 0 -0.014286804979464557 -0.00072096030970603283 0 -0.015002720648475281 -0.00013850641873916559 0 -0.014095124870938378 0.00042445332856079889 0 -0.014286804979464557 -0.00072096030970603283 0 -0.015002720648475281 -0.00013850641873916559 0 -0.015775010374119821 0.00024034972652096069 0 -0.015002720648475281 -0.00013850641873916559 0 -0.018374007605307652 -3.1422609959741184e-06 0 -0.015405143782910035 -0.0015691748762517253 0 -0.015002720648475281 -0.00013850641873916559 0 -0.018374007605307652 -3.1422609959741184e-06 0 -0.017863082998637824 -0.0009178283142517702 0 -0.018379323545624191 -3.3288877980680008e-07 0 -0.021124787505952015 -0.00026728483975386796 0 -0.020945998391108025 1.2244826023136505e-06 0 -0.021746314452878047 0.00015083126672661303 0 -0.021124787505952015 -0.00026728483975386796 0 -0.018383480015087286 -2.6186772213037488e-06 0 -0.020945998391108025 1.2244826023136505e-06 0 -0.022372261549771857 0.0002361280052758946 0 -0.021746314452878047 0.00015083126672661303 0 -0.023513817765294803 4.5339234638314492e-07 0 -0.020945998391108025 1.2244826023136505e-06 0 -0.021746314452878047 0.00015083126672661303 0 -0.023513817765294803 4.5339234638314492e-07 0 -0.022045625666664046 -0.00014115250413292295 0 -0.022372261549771857 0.0002361280052758946 0 -0.021746314452878047 0.00015083126672661303 0 -0.022372261549771857 0.0002361280052758946 0 -0.023513817765294803 4.5339234638314492e-07 0 -0.023839204065852632 0.00015170677787722773 0 -0.024457752615679937 0.00022300638203941867 0 -0.024506846257477684 0.00024185339441745 0 -0.02566476617516688 0.00024259214432259028 0 -0.025864885045977434 -0.00022368269268925706 0 -0.025560619163555971 -8.5463261415127709e-05 0 -0.023513817765294803 4.5339234638314492e-07 0 -0.023839204065852632 0.00015170677787722773 0 -0.026080935867463899 4.7711830709919801e-07 0 -0.025864885045977434 -0.00022368269268925706 0 -0.025635609154660646 -0.00046829791839557401 0 -0.025560619163555971 -8.5463261415127709e-05 0 -0.032456446488276502 -0.0016680215601919161 0 -0.031969957063814156 -0.0015859722259467016 0 -0.032122942256438622 -0.0005826092980977019 0 -0.025864885045977434 -0.00022368269268925706 0 -0.026061549962057704 -0.0007871031939208974 0 -0.025635609154660646 -0.00046829791839557401 0 -0.024506846257477684 0.00024185339441745 0 -0.028547663653952282 -0.0010261376153472171 0 -0.028547663653952282 -0.0010261376153472171 0 -0.02887995404402089 -0.00055978794386456611 0 -0.028645406981542904 -1.7255731930116129e-06 0 -0.025606039389299291 -0.00031316542676653147 0 -0.026080935867463899 4.7711830709919801e-07 0 -0.023839204065852632 0.00015170677787722773 0 -0.025606039389299291 -0.00031316542676653147 0 -0.026080935867463899 4.7711830709919801e-07 0 -0.030939527700134143 -0.001769164036091611 0 -0.029690546468028552 -0.00037870553551569685 0 -0.029555424647304169 -0.0015680620031360598 0 -0.030939527700134143 -0.001769164036091611 0 -0.029690546468028552 -0.00037870553551569685 0 -0.031034884427622044 -0.00069869971049854661 0 -0.032456446488276502 -0.0016680215601919161 0 -0.032122942256438622 -0.0005826092980977019 0 -0.031034884427622044 -0.00069869971049854661 0 -0.032456446488276502 -0.0016680215601919161 0 -0.030939527700134143 -0.001769164036091611 0 -0.031034884427622044 -0.00069869971049854661 0 -0.032122942256438622 -0.0005826092980977019 0 -0.031034884427622044 -0.00069869971049854661 0 -0.03054509120270019 0.00093196627669852087 0 -0.025635609154660646 -0.00046829791839557401 0 -0.02528514929884013 -0.000166980549358107 0 -0.025560619163555971 -8.5463261415127709e-05 0 -0.02887995404402089 -0.00055978794386456611 0 -0.027835277476302895 0.00036615637254002191 0 -0.029690546468028552 -0.00037870553551569685 0 -0.031034884427622044 -0.00069869971049854661 0 -0.03054509120270019 0.00093196627669852087 0 -0.029690546468028552 -0.00037870553551569685 0 -0.03054509120270019 0.00093196627669852087 0 -0.029071125505657484 0.0010174952289539259 0 -0.027835277476302895 0.00036615637254002191 0 -0.027453906121628041 0.0012871044574747834 0 -0.03054509120270019 0.00093196627669852087 0 -0.028790656730722952 0.0019677687226100906 0 -0.029071125505657484 0.0010174952289539259 0 -0.025361253151168973 0.00014165360195906248 0 -0.02512158462212688 0.00033134849378215733 0 -0.024984727378419749 9.1656096990550294e-05 0 -0.02528514929884013 -0.000166980549358107 0 -0.025361253151168973 0.00014165360195906248 0 -0.024984727378419749 9.1656096990550294e-05 0 -0.02528514929884013 -0.000166980549358107 0 -0.025361253151168973 0.00014165360195906248 0 -0.025560619163555971 -8.5463261415127709e-05 0 -0.02566476617516688 0.00024259214432259028 0 -0.025361253151168973 0.00014165360195906248 0 -0.025560619163555971 -8.5463261415127709e-05 0 -0.02566476617516688 0.00024259214432259028 0 -0.025361253151168973 0.00014165360195906248 0 -0.025390624178613156 0.0003859554997181829 0 -0.020065176307479091 -0.00019111932351728765 0 -0.024457752615679937 0.00022300638203941867 0 -0.025488895026793006 0.00063813757247552607 0 -0.02566476617516688 0.00024259214432259028 0 -0.025390624178613156 0.0003859554997181829 0 -0.025239550101678453 0.00055369651073878677 0 -0.025390624178613156 0.0003859554997181829 0 -0.02512158462212688 0.00033134849378215733 0 -0.026574163665528287 0.0013004993995936599 0 -0.027000969031043532 0.0019178024272958406 0 -0.027637979428688592 0.0017618136584068016 0 -0.025361253151168973 0.00014165360195906248 0 -0.025390624178613156 0.0003859554997181829 0 -0.02512158462212688 0.00033134849378215733 0 -0.020700719179220773 0.00065559408117819005 0 -0.026123107709795704 0.0014582903915580511 0 -0.027000969031043532 0.0019178024272958406 0 -0.027637979428688592 0.0017618136584068016 0 -0.027461229037353829 0.0019876116461594691 0 -0.027461229037353829 0.0019876116461594691 0 -0.027710098729642169 0.0018986799653672552 0 -0.027364474678705591 0.0023240410517568386 0 -0.027637979428688592 0.0017618136584068016 0 -0.027461229037353829 0.0019876116461594691 0 -0.027710098729642169 0.0018986799653672552 0 -0.027000969031043532 0.0019178024272958406 0 -0.027461229037353829 0.0019876116461594691 0 -0.027364474678705591 0.0023240410517568386 0 -0.026123107709795704 0.0014582903915580511 0 -0.027453906121628041 0.0012871044574747834 0 -0.01980668401985286 0.0014022966686775059 0 -0.020592473693932814 0.0015968747676671474 0 -0.012620580403538256 0.0010439926426439525 0 -0.012770794037155284 0.0012104363796465191 0 -0.012671094946051108 0.0010223274359721036 0 -0.027710098729642169 0.0018986799653672552 0 -0.027663579308770593 0.0017255260858577677 0 -0.027459728669331215 0.0019361441927768167 0 -0.027637979428688592 0.0017618136584068016 0 -0.027710098729642169 0.0018986799653672552 0 -0.027459728669331215 0.0019361441927768167 0 -0.027663579308770593 0.0017255260858577677 0 -0.027430688041583502 0.0015284188341391136 0 -0.027459728669331215 0.0019361441927768167 0 -0.027663579308770593 0.0017255260858577677 0 -0.027783785956160399 0.0014281231112229585 0 -0.027430688041583502 0.0015284188341391136 0 -0.027710098729642169 0.0018986799653672552 0 -0.027663579308770593 0.0017255260858577677 0 -0.028041552605773075 0.0016987320306463465 0 -0.027663579308770593 0.0017255260858577677 0 -0.027783785956160399 0.0014281231112229585 0 -0.028041552605773075 0.0016987320306463465 0 -0.027783785956160399 0.0014281231112229585 0 -0.028147586540758277 0.0013525718345492603 0 -0.027785703570394657 0.00089780159696552209 0 -0.027783785956160399 0.0014281231112229585 0 -0.028041552605773075 0.0016987320306463465 0 -0.028147586540758277 0.0013525718345492603 0 -0.027783785956160399 0.0014281231112229585 0 -0.027579764509025901 0.0012519922187953295 0 -0.027430688041583502 0.0015284188341391136 0 -0.027453906121628041 0.0012871044574747834 0 -0.027756630190434509 0.0015829810265080542 0 -0.027710098729642169 0.0018986799653672552 0 -0.028651203713489254 0.0017709805185264309 0 -0.028041552605773075 0.0016987320306463465 0 -0.028651203713489254 0.0017709805185264309 0 -0.028041552605773075 0.0016987320306463465 0 -0.028346267995560025 0.0015869936904195831 0 -0.027801085697964432 0.0019478182227548589 0 -0.027453906121628041 0.0012871044574747834 0 -0.028346267995560025 0.0015869936904195831 0 -0.028147586540758277 0.0013525718345492603 0 -0.028415676730296931 0.0014025600393555854 0 -0.028041552605773075 0.0016987320306463465 0 -0.028346267995560025 0.0015869936904195831 0 -0.028147586540758277 0.0013525718345492603 0 -0.028346267995560025 0.0015869936904195831 0 -0.028415676730296931 0.0014025600393555854 0 -0.028597971174358593 0.0016510700944832001 0 -0.028415676730296931 0.0014025600393555854 0 -0.028597971174358593 0.0016510700944832001 0 -0.028563807373781749 0.0011462201354823719 0 -0.028147586540758277 0.0013525718345492603 0 -0.028415676730296931 0.0014025600393555854 0 -0.028563807373781749 0.0011462201354823719 0 -0.028597971174358593 0.0016510700944832001 0 -0.029071125505657484 0.0010174952289539259 0 -0.028563807373781749 0.0011462201354823719 0 -0.028790656730722952 0.0019677687226100906 0 -0.028597971174358593 0.0016510700944832001 0 -0.029071125505657484 0.0010174952289539259 0 -0.028651203713489254 0.0017709805185264309 0 -0.028346267995560025 0.0015869936904195831 0 -0.028597971174358593 0.0016510700944832001 0 -0.029071125505657484 0.0010174952289539259 0 -0.028563807373781749 0.0011462201354823719 0 -0.028319790218344573 0.00069434178943877326 0 -0.029690546468028552 -0.00037870553551569685 0 -0.029071125505657484 0.0010174952289539259 0 -0.028319790218344573 0.00069434178943877326 0 -0.028147586540758277 0.0013525718345492603 0 -0.028563807373781749 0.0011462201354823719 0 -0.028319790218344573 0.00069434178943877326 0 -0.028319790218344573 0.00069434178943877326 0 -0.027785703570394657 0.00089780159696552209 0 -0.028089897074552721 0.00033248534196053762 0 -0.027785703570394657 0.00089780159696552209 0 -0.028089897074552721 0.00033248534196053762 0 -0.027459853269109793 0.00069084919386373832 0 -0.028147586540758277 0.0013525718345492603 0 -0.028319790218344573 0.00069434178943877326 0 -0.027785703570394657 0.00089780159696552209 0 -0.027783785956160399 0.0014281231112229585 0 -0.027579764509025901 0.0012519922187953295 0 -0.027785703570394657 0.00089780159696552209 0 -0.027579764509025901 0.0012519922187953295 0 -0.027785703570394657 0.00089780159696552209 0 -0.02735357414479787 0.0011087452756018646 0 -0.027785703570394657 0.00089780159696552209 0 -0.027459853269109793 0.00069084919386373832 0 -0.02735357414479787 0.0011087452756018646 0 -0.028089897074552721 0.00033248534196053762 0 -0.0272653471991505 0.00027413804796604248 0 -0.027459853269109793 0.00069084919386373832 0 -0.029690546468028552 -0.00037870553551569685 0 -0.028319790218344573 0.00069434178943877326 0 -0.028033283790836267 -0.00097810611088267984 0 -0.028305266484356675 0.00066327441528280808 0 -0.028024104525776621 -0.00052483313612998689 0 -0.029690546468028552 -0.00037870553551569685 0 -0.029555424647304169 -0.0015680620031360598 0 -0.028033283790836267 -0.00097810611088267984 0 -0.028589172006944226 -0.0019848696962539714 0 -0.029555424647304169 -0.0015680620031360598 0 -0.028033283790836267 -0.00097810611088267984 0 -0.026722446576207769 0.00092824159704258053 0 -0.0272653471991505 0.00027413804796604248 0 -0.026915572043043366 0.0010048665343610041 0 -0.026681926724541612 0.0011195874830456194 0 -0.026722446576207769 0.00092824159704258053 0 -0.026649793935026127 0.0010625344642315679 0 -0.026844248798969673 0.00082903873000467079 0 -0.026733135783049148 0.00080365920800499157 0 -0.026734316032771623 0.0011216992159502107 0 -0.026722446576207769 0.00092824159704258053 0 -0.026747093326150155 0.0010548626816141687 0 -0.0272653471991505 0.00027413804796604248 0 -0.027459853269109793 0.00069084919386373832 0 -0.026915572043043366 0.0010048665343610041 0 -0.027459853269109793 0.00069084919386373832 0 -0.02735357414479787 0.0011087452756018646 0 -0.026915572043043366 0.0010048665343610041 0 -0.02735357414479787 0.0011087452756018646 0 -0.026915572043043366 0.0010048665343610041 0 -0.027006829216142239 0.0013536630338604164 0 -0.02683559925090355 0.0011778614968501202 0 -0.026915572043043366 0.0010048665343610041 0 -0.026656862728608486 0.0011155664019080877 0 -0.02683559925090355 0.0011778614968501202 0 -0.026915572043043366 0.0010048665343610041 0 -0.027006829216142239 0.0013536630338604164 0 -0.026722446576207769 0.00092824159704258053 0 -0.026915572043043366 0.0010048665343610041 0 -0.026675680321325793 0.0010056546891889333 0 -0.026915572043043366 0.0010048665343610041 0 -0.026656862728608486 0.0011155664019080877 0 -0.026675680321325793 0.0010056546891889333 0 -0.017751951567770603 0.0019052366781505941 0 -0.023759268597523961 0.0010343372867054983 0 -0.026724545563150869 0.001329739702066558 0 -0.026645579958689485 0.00165722815624199 0 -0.02640298953725435 0.0011236295639033638 0 -0.026656862728608486 0.0011155664019080877 0 -0.026724545563150869 0.001329739702066558 0 -0.02640298953725435 0.0011236295639033638 0 -0.02683559925090355 0.0011778614968501202 0 -0.026656862728608486 0.0011155664019080877 0 -0.026724545563150869 0.001329739702066558 0 -0.026724545563150869 0.001329739702066558 0 -0.026645579958689485 0.00165722815624199 0 -0.027006829216142239 0.0013536630338604164 0 -0.02683559925090355 0.0011778614968501202 0 -0.026724545563150869 0.001329739702066558 0 -0.027006829216142239 0.0013536630338604164 0 -0.026645579958689485 0.00165722815624199 0 -0.027006829216142239 0.0013536630338604164 0 -0.027459728669331215 0.0019361441927768167 0 -0.027006829216142239 0.0013536630338604164 0 -0.027430688041583502 0.0015284188341391136 0 -0.027459728669331215 0.0019361441927768167 0 -0.027579764509025901 0.0012519922187953295 0 -0.02735357414479787 0.0011087452756018646 0 -0.027430688041583502 0.0015284188341391136 0 -0.02735357414479787 0.0011087452756018646 0 -0.027006829216142239 0.0013536630338604164 0 -0.027430688041583502 0.0015284188341391136 0 -0.017751951567770603 0.0019052366781505941 0 -0.020592473693932814 0.0015968747676671474 0 -0.013269964735650766 0.0014194618337137991 0 -0.012770794037155284 0.0012104363796465191 0 -0.013013538035093612 0.0010964197002796461 0 -0.012770794037155284 0.0012104363796465191 0 -0.013013538035093612 0.0010964197002796461 0 -0.012773570871078324 0.0010577971516457295 0 -0.012770794037155284 0.0012104363796465191 0 -0.012773570871078324 0.0010577971516457295 0 -0.012671094946051108 0.0010223274359721036 0 -0.012744200430183287 0.0010590104869735723 0 -0.012688241301600438 0.00097983007521491644 0 -0.012739319282779224 0.00098043842694044408 0 -0.012744200430183287 0.0010590104869735723 0 -0.012739319282779224 0.00098043842694044408 0 -0.012773961654604328 0.0010358390384179244 0 -0.017751951567770603 0.0019052366781505941 0 -0.01255250724397375 0.00058830591200391814 0 -0.012739319282779224 0.00098043842694044408 0 -0.012688420562868416 0.00094492804567236676 0 -0.012707617281965743 0.000918555671235498 0 -0.012688241301600438 0.00097983007521491644 0 -0.012739319282779224 0.00098043842694044408 0 -0.012688420562868416 0.00094492804567236676 0 -0.012707617281965743 0.000918555671235498 0 -0.012632263917150421 0.0009014918427960758 0 -0.012659539849164477 0.00084477795161584537 0 -0.012688420562868416 0.00094492804567236676 0 -0.012707617281965743 0.000918555671235498 0 -0.012632263917150421 0.0009014918427960758 0 -0.012688420562868416 0.00094492804567236676 0 -0.012632263917150421 0.0009014918427960758 0 -0.012700973220483483 0.00094132997260471592 0 -0.012632263917150421 0.0009014918427960758 0 -0.01259634762092356 0.00090820307818173377 0 -0.012556897240460758 0.0008724529580679221 0 -0.012632263917150421 0.0009014918427960758 0 -0.012700973220483483 0.00094132997260471592 0 -0.01259634762092356 0.00090820307818173377 0 -0.013013538035093612 0.0010964197002796461 0 -0.012700973220483483 0.00094132997260471592 0 -0.012773570871078324 0.0010577971516457295 0 -0.01255250724397375 0.00058830591200391814 0 -0.012839551024298899 0.0011116891847933077 0 -0.012688241301600438 0.00097983007521491644 0 -0.012688420562868416 0.00094492804567236676 0 -0.012700973220483483 0.00094132997260471592 0 -0.012700973220483483 0.00094132997260471592 0 -0.012773570871078324 0.0010577971516457295 0 -0.012671094946051108 0.0010223274359721036 0 -0.012700973220483483 0.00094132997260471592 0 -0.012671094946051108 0.0010223274359721036 0 -0.012609359246188225 0.00095711194972215939 0 -0.012620580403538256 0.0010439926426439525 0 -0.012671094946051108 0.0010223274359721036 0 -0.012611873226999205 0.00099438831981333632 0 -0.012671094946051108 0.0010223274359721036 0 -0.012609359246188225 0.00095711194972215939 0 -0.012611873226999205 0.00099438831981333632 0 -0.012574674569252122 0.00098491103775993297 0 -0.012620580403538256 0.0010439926426439525 0 -0.012579578025108439 0.00096692213628918908 0 -0.012620580403538256 0.0010439926426439525 0 -0.012611873226999205 0.00099438831981333632 0 -0.012579578025108439 0.00096692213628918908 0 -0.012609359246188225 0.00095711194972215939 0 -0.012611873226999205 0.00099438831981333632 0 -0.012579578025108439 0.00096692213628918908 0 -0.012609359246188225 0.00095711194972215939 0 -0.012579578025108439 0.00096692213628918908 0 -0.01254582961912541 0.00091741731893718072 0 -0.012539450894506638 0.00091493467054676347 0 -0.012579578025108439 0.00096692213628918908 0 -0.01254582961912541 0.00091741731893718072 0 -0.012609359246188225 0.00095711194972215939 0 -0.01254582961912541 0.00091741731893718072 0 -0.01259634762092356 0.00090820307818173377 0 -0.012700973220483483 0.00094132997260471592 0 -0.012609359246188225 0.00095711194972215939 0 -0.01259634762092356 0.00090820307818173377 0 -0.01259634762092356 0.00090820307818173377 0 -0.012537026049606931 0.00089279314680208645 0 -0.012556897240460758 0.0008724529580679221 0 -0.01254582961912541 0.00091741731893718072 0 -0.01259634762092356 0.00090820307818173377 0 -0.012537026049606931 0.00089279314680208645 0 -0.012537026049606931 0.00089279314680208645 0 -0.012496159077538089 0.00083888281077848298 0 -0.012556897240460758 0.0008724529580679221 0 -0.01254582961912541 0.00091741731893718072 0 -0.012537026049606931 0.00089279314680208645 0 -0.012499354511793292 0.00094542615436418308 0 -0.012500076082720668 0.00091526235468063829 0 -0.01254582961912541 0.00091741731893718072 0 -0.012499354511793292 0.00094542615436418308 0 -0.012499354511793292 0.00094542615436418308 0 -0.012512145766859769 0.00089614272675135327 0 -0.012500219001501053 0.00095832299860341356 0 -0.012537026049606931 0.00089279314680208645 0 -0.012499354511793292 0.00094542615436418308 0 -0.012512145766859769 0.00089614272675135327 0 -0.012537026049606931 0.00089279314680208645 0 -0.012512145766859769 0.00089614272675135327 0 -0.012496159077538089 0.00083888281077848298 0 -0.012512145766859769 0.00089614272675135327 0 -0.012496159077538089 0.00083888281077848298 0 -0.012497640906817674 0.00088541072350261383 0 -0.012496159077538089 0.00083888281077848298 0 -0.012549250936008992 0.00083744248165013642 0 -0.012376359434176146 0.00076229275423303445 0 -0.011911537712323205 0.00034545538415819174 0 -0.012017033015966665 0.00071243243605233263 0 -0.012376359434176146 0.00076229275423303445 0 -0.012523271500262162 -0.00019586116558066675 0 -0.012376651539490975 0.00094832526905348812 0 -0.012549250936008992 0.00083744248165013642 0 -0.012643566932562654 0.00079984898564915824 0 -0.012376359434176146 0.00076229275423303445 0 -0.012632263917150421 0.0009014918427960758 0 -0.012549250936008992 0.00083744248165013642 0 -0.012659539849164477 0.00084477795161584537 0 -0.012549250936008992 0.00083744248165013642 0 -0.012659539849164477 0.00084477795161584537 0 -0.012643566932562654 0.00079984898564915824 0 -0.012632263917150421 0.0009014918427960758 0 -0.012549250936008992 0.00083744248165013642 0 -0.012556897240460758 0.0008724529580679221 0 -0.012496159077538089 0.00083888281077848298 0 -0.012549250936008992 0.00083744248165013642 0 -0.012556897240460758 0.0008724529580679221 0 -0.013073508415049472 -0.0044671555287598254 0 -0.013397113687371691 -0.0031068045130853332 0 -0.012784417638591143 0.00078512876560622572 0 -0.012851588079412305 0.00082040231350578125 0 -0.012771771685898397 0.00088103019565897772 0 -0.012946022742130216 -0.0026352428003235786 0 -0.012381451822952083 -0.0021369205958989019 0 -0.012457925094924069 -0.0030331102541116405 0 -0.012977286238128844 -0.00088536599458582965 0 -0.013397113687371691 -0.0031068045130853332 0 -0.012659539849164477 0.00084477795161584537 0 -0.012784417638591143 0.00078512876560622572 0 -0.012771771685898397 0.00088103019565897772 0 -0.012659539849164477 0.00084477795161584537 0 -0.012784417638591143 0.00078512876560622572 0 -0.012689757119013731 0.00071187382607362012 0 -0.01253636971624969 0.0010481595786488971 0 -0.012523271500262162 -0.00019586116558066675 0 -0.012977286238128844 -0.00088536599458582965 0 -0.012523271500262162 -0.00019586116558066675 0 -0.013442090105739485 -0.0022321439967481855 0 -0.01292053663921925 -0.0018929105109045678 0 -0.0131574027017064 -0.0012953166077509951 0 -0.012523271500262162 -0.00019586116558066675 0 -0.012498939228795662 -0.00039499911040702553 0 -0.012946022742130216 -0.0026352428003235786 0 -0.013442090105739485 -0.0022321439967481855 0 -0.01292053663921925 -0.0018929105109045678 0 -0.012946022742130216 -0.0026352428003235786 0 -0.012381451822952083 -0.0021369205958989019 0 -0.01292053663921925 -0.0018929105109045678 0 -0.013897534909550849 -0.006441118687859607 0 -0.01302391690429355 -0.0064079190964604973 0 -0.012849896772205839 -0.0047218885151463158 0 -0.013897534909550849 -0.006441118687859607 0 -0.01302391690429355 -0.0064079190964604973 0 -0.013758992289190959 -0.0064184366155522164 0 -0.01302391690429355 -0.0064079190964604973 0 -0.014306372611646847 -0.0063878019763573511 0 -0.013758992289190959 -0.0064184366155522164 0 -0.01302391690429355 -0.0064079190964604973 0 -0.011417674339230794 -0.0071451477225677107 0 -0.011123092677878761 -0.0032167265875350337 0 -0.013282372560639952 -0.0068907419241277766 0 -0.013468673914297914 -0.0080021987359282093 0 -0.01302391690429355 -0.0064079190964604973 0 -0.014493129321005445 -0.0067703893349175077 0 -0.014306372611646847 -0.0063878019763573511 0 -0.013468673914297914 -0.0080021987359282093 0 -0.016602902175654355 -0.0058653069048566894 0 -0.014493129321005445 -0.0067703893349175077 0 -0.014306372611646847 -0.0063878019763573511 0 -0.016503992032841211 -0.0058200304025881775 0 -0.014306372611646847 -0.0063878019763573511 0 -0.014269075623067472 -0.0059347489885994229 0 -0.016503992032841211 -0.0058200304025881775 0 -0.013758992289190959 -0.0064184366155522164 0 -0.014269075623067472 -0.0059347489885994229 0 -0.013170026355679395 -0.0058094179234293979 0 -0.013897534909550849 -0.006441118687859607 0 -0.013758992289190959 -0.0064184366155522164 0 -0.013170026355679395 -0.0058094179234293979 0 -0.014306372611646847 -0.0063878019763573511 0 -0.013758992289190959 -0.0064184366155522164 0 -0.014269075623067472 -0.0059347489885994229 0 -0.014269075623067472 -0.0059347489885994229 0 -0.014664322934448614 -0.0041390123097270887 0 -0.013170026355679395 -0.0058094179234293979 0 -0.016339511362975474 -0.0032938425613388356 0 -0.014251169179087591 -0.0020026169569377344 0 -0.014440525645024764 -0.0047757454660527126 0 -0.015540280830839404 -0.0040192245102853704 0 -0.013397113687371691 -0.0031068045130853332 0 -0.014269075623067472 -0.0059347489885994229 0 -0.016503992032841211 -0.0058200304025881775 0 -0.014664322934448614 -0.0041390123097270887 0 -0.016503992032841211 -0.0058200304025881775 0 -0.014664322934448614 -0.0041390123097270887 0 -0.017555230652204625 -0.0041605194897649167 0 -0.015540280830839404 -0.0040192245102853704 0 -0.018022482556705445 -0.0019566118021029032 0 -0.014664322934448614 -0.0041390123097270887 0 -0.018209929220299521 -0.0019546397592811187 0 -0.017555230652204625 -0.0041605194897649167 0 -0.016339511362975474 -0.0032938425613388356 0 -0.016070405326966609 -0.0014894507794778844 0 -0.018209929220299521 -0.0019546397592811187 0 -0.016339511362975474 -0.0032938425613388356 0 -0.014251169179087591 -0.0020026169569377344 0 -0.016070405326966609 -0.0014894507794778844 0 -0.012857222702159117 0.00096381932561227953 0 -0.012771771685898397 0.00088103019565897772 0 -0.012774665995536496 0.00095133867574679308 0 -0.012857222702159117 0.00096381932561227953 0 -0.012774665995536496 0.00095133867574679308 0 -0.01280322387499379 0.0010114021955250972 0 -0.013468193893279544 -0.00031773630543811897 0 -0.013397113687371691 -0.0031068045130853332 0 -0.012857222702159117 0.00096381932561227953 0 -0.012851588079412305 0.00082040231350578125 0 -0.012771771685898397 0.00088103019565897772 0 -0.012707617281965743 0.000918555671235498 0 -0.012659539849164477 0.00084477795161584537 0 -0.012771771685898397 0.00088103019565897772 0 -0.012707617281965743 0.000918555671235498 0 -0.012771771685898397 0.00088103019565897772 0 -0.012774665995536496 0.00095133867574679308 0 -0.012739319282779224 0.00098043842694044408 0 -0.012707617281965743 0.000918555671235498 0 -0.012774665995536496 0.00095133867574679308 0 -0.012739319282779224 0.00098043842694044408 0 -0.012774665995536496 0.00095133867574679308 0 -0.01280322387499379 0.0010114021955250972 0 -0.012739319282779224 0.00098043842694044408 0 -0.01280322387499379 0.0010114021955250972 0 -0.012773961654604328 0.0010358390384179244 0 -0.01280322387499379 0.0010114021955250972 0 -0.012834287376738446 0.0010390761517731001 0 -0.012802309388218185 0.0010799909371587617 0 -0.01280322387499379 0.0010114021955250972 0 -0.012773961654604328 0.0010358390384179244 0 -0.012802309388218185 0.0010799909371587617 0 -0.012857222702159117 0.00096381932561227953 0 -0.012834287376738446 0.0010390761517731001 0 -0.012874993537093482 0.0011006530009697515 0 -0.014251169179087591 -0.0020026169569377344 0 -0.014067268406565869 0.00091211484707716341 0 -0.015042118955938646 -0.00049090679927692572 0 -0.013468193893279544 -0.00031773630543811897 0 -0.014330451580378429 0.001230889701255043 0 -0.012857222702159117 0.00096381932561227953 0 -0.01280322387499379 0.0010114021955250972 0 -0.012834287376738446 0.0010390761517731001 0 -0.014067268406565869 0.00091211484707716341 0 -0.01495291989651232 0.00051118430121142595 0 -0.015042118955938646 -0.00049090679927692572 0 -0.012834287376738446 0.0010390761517731001 0 -0.012874993537093482 0.0011006530009697515 0 -0.012802309388218185 0.0010799909371587617 0 -0.015601551435028381 0.0017233051237004146 0 -0.01661796450454921 0.0020209473582547574 0 -0.016182588830714648 0.0016422877335174467 0 -0.015617833708893313 0.0015250811791101063 0 -0.015601551435028381 0.0017233051237004146 0 -0.016182588830714648 0.0016422877335174467 0 -0.014330451580378429 0.001230889701255043 0 -0.014365928754653331 0.0014110024696841938 0 -0.015617833708893313 0.0015250811791101063 0 -0.015606502659051421 0.0016634820110203333 0 -0.015141133070915273 0.0012349646699150152 0 -0.015617833708893313 0.0015250811791101063 0 -0.015055444453401715 0.0013950648216813108 0 -0.015141133070915273 0.0012349646699150152 0 -0.014067268406565869 0.00091211484707716341 0 -0.015141133070915273 0.0012349646699150152 0 -0.01495291989651232 0.00051118430121142595 0 -0.014330451580378429 0.001230889701255043 0 -0.015127514734851195 0.0013541753354295485 0 -0.014441005480442451 0.0013177421571429384 0 -0.014330451580378429 0.001230889701255043 0 -0.017698271827188857 0.0023514848622061451 0 -0.01661796450454921 0.0020209473582547574 0 -0.01694791988195472 0.0012170448664134894 0 -0.015617833708893313 0.0015250811791101063 0 -0.016182588830714648 0.0016422877335174467 0 -0.01694791988195472 0.0012170448664134894 0 -0.017751951567770603 0.0019052366781505941 0 -0.014365928754653331 0.0014110024696841938 0 -0.012744200430183287 0.0010590104869735723 0 -0.012773961654604328 0.0010358390384179244 0 -0.012802309388218185 0.0010799909371587617 0 -0.01661796450454921 0.0020209473582547574 0 -0.016182588830714648 0.0016422877335174467 0 -0.01694791988195472 0.0012170448664134894 0 -0.026656862728608486 0.0011155664019080877 0 -0.026647749954614459 0.0010284664058327871 0 -0.026675680321325793 0.0010056546891889333 0 -0.026244708474204931 0.0010462524141886529 0 -0.023759268597523961 0.0010343372867054983 0 -0.023759268597523961 0.0010343372867054983 0 -0.027731175017615694 0.0013436310011702909 0 -0.026691265157124285 0.0010498933187627899 0 -0.026787758925213196 0.0010841331223660443 0 -0.026822407146596141 0.001119143623354071 0 -0.026647749954614459 0.0010284664058327871 0 -0.026675680321325793 0.0010056546891889333 0 -0.026822407146596141 0.001119143623354071 0 -0.023759268597523961 0.0010343372867054983 0 -0.020579462308029577 0.0012514247956184794 0 -0.015617833708893313 0.0015250811791101063 0 -0.01694791988195472 0.0012170448664134894 0 -0.015055444453401715 0.0013950648216813108 0 -0.026691265157124285 0.0010498933187627899 0 -0.026787758925213196 0.0010841331223660443 0 -0.026851373129806087 0.001056728256567568 0 -0.026853739571140338 0.0011024727114081676 0 -0.026787758925213196 0.0010841331223660443 0 -0.026851373129806087 0.001056728256567568 0 -0.026853739571140338 0.0011024727114081676 0 -0.026787758925213196 0.0010841331223660443 0 -0.026847994092021796 0.001120264848262321 0 -0.026853739571140338 0.0011024727114081676 0 -0.026847994092021796 0.001120264848262321 0 -0.026902883984892077 0.001142514619008431 0 -0.026795761692638295 0.0011459930367336215 0 -0.026934533423389667 0.0012367622530470729 0 -0.026822407146596141 0.001119143623354071 0 -0.026787758925213196 0.0010841331223660443 0 -0.026847994092021796 0.001120264848262321 0 -0.026822407146596141 0.001119143623354071 0 -0.026847994092021796 0.001120264848262321 0 -0.026897513736423059 0.0011640145703259923 0 -0.026822407146596141 0.001119143623354071 0 -0.026847994092021796 0.001120264848262321 0 -0.026897513736423059 0.0011640145703259923 0 -0.026902883984892077 0.001142514619008431 0 -0.026934533423389667 0.0012367622530470729 0 -0.026897513736423059 0.0011640145703259923 0 -0.026822407146596141 0.001119143623354071 0 -0.026795761692638295 0.0011459930367336215 0 -0.026822407146596141 0.001119143623354071 0 -0.026747093326150155 0.0010548626816141687 0 -0.026675680321325793 0.0010056546891889333 0 -0.026822407146596141 0.001119143623354071 0 -0.026747093326150155 0.0010548626816141687 0 -0.026722446576207769 0.00092824159704258053 0 -0.026675680321325793 0.0010056546891889333 0 -0.026747093326150155 0.0010548626816141687 0 -0.027063663102979762 0.001245550890736778 0 -0.026986219855631894 0.001185040507875158 0 -0.026992904346999601 0.0011452883103074676 0 -0.027037376531665828 0.001286196795839543 0 -0.027063663102979762 0.001245550890736778 0 -0.026975358543497068 0.0012106178516491444 0 -0.027063663102979762 0.001245550890736778 0 -0.026986219855631894 0.001185040507875158 0 -0.026975358543497068 0.0012106178516491444 0 -0.026934533423389667 0.0012367622530470729 0 -0.026897513736423059 0.0011640145703259923 0 -0.026975358543497068 0.0012106178516491444 0 -0.026897513736423059 0.0011640145703259923 0 -0.026975358543497068 0.0012106178516491444 0 -0.026902883984892077 0.001142514619008431 0 -0.026986219855631894 0.001185040507875158 0 -0.026975358543497068 0.0012106178516491444 0 -0.026902883984892077 0.001142514619008431 0 -0.026920747318315588 0.0011245395047560665 0 -0.026851373129806087 0.001056728256567568 0 -0.026992904346999601 0.0011452883103074676 0 -0.015055444453401715 0.0013950648216813108 0 -0.017765232804137922 0.0017201387371549219 0 -0.015141133070915273 0.0012349646699150152 0 -0.026986219855631894 0.001185040507875158 0 -0.026902883984892077 0.001142514619008431 0 -0.026920747318315588 0.0011245395047560665 0 -0.020579462308029577 0.0012514247956184794 0 -0.02248512239514731 0.0014286269940396172 0 -0.026853739571140338 0.0011024727114081676 0 -0.026902883984892077 0.001142514619008431 0 -0.026920747318315588 0.0011245395047560665 0 -0.026853739571140338 0.0011024727114081676 0 -0.026920747318315588 0.0011245395047560665 0 -0.026851373129806087 0.001056728256567568 0 -0.026986219855631894 0.001185040507875158 0 -0.026920747318315588 0.0011245395047560665 0 -0.026992904346999601 0.0011452883103074676 0 -0.017765232804137922 0.0017201387371549219 0 -0.016489336513374052 0.00039649962860965123 0 -0.015141133070915273 0.0012349646699150152 0 -0.017765232804137922 0.0017201387371549219 0 -0.016489336513374052 0.00039649962860965123 0 -0.018209929220299521 -0.0019546397592811187 0 -0.015141133070915273 0.0012349646699150152 0 -0.015547010324874485 0.00038356400181142956 0 -0.01495291989651232 0.00051118430121142595 0 -0.016489336513374052 0.00039649962860965123 0 -0.015141133070915273 0.0012349646699150152 0 -0.015547010324874485 0.00038356400181142956 0 -0.016489336513374052 0.00039649962860965123 0 -0.015547010324874485 0.00038356400181142956 0 -0.015042118955938646 -0.00049090679927692572 0 -0.015547010324874485 0.00038356400181142956 0 -0.01495291989651232 0.00051118430121142595 0 -0.015042118955938646 -0.00049090679927692572 0 -0.014251169179087591 -0.0020026169569377344 0 -0.016070405326966609 -0.0014894507794778844 0 -0.015042118955938646 -0.00049090679927692572 0 -0.016489336513374052 0.00039649962860965123 0 -0.016070405326966609 -0.0014894507794778844 0 -0.015042118955938646 -0.00049090679927692572 0 -0.016489336513374052 0.00039649962860965123 0 -0.016070405326966609 -0.0014894507794778844 0 -0.018209929220299521 -0.0019546397592811187 0 -0.017765232804137922 0.0017201387371549219 0 -0.018209929220299521 -0.0019546397592811187 0 -0.020456382713364519 -0.00038771554376245359 0 -0.020456382713364519 -0.00038771554376245359 0 -0.02372381087729742 -0.00094856902403071775 0 -0.021507663784241144 -0.0028199592328864531 0 -0.018209929220299521 -0.0019546397592811187 0 -0.020456382713364519 -0.00038771554376245359 0 -0.021507663784241144 -0.0028199592328864531 0 -0.020456382713364519 -0.00038771554376245359 0 -0.021582932980734625 0.0018850515592585882 0 -0.02372381087729742 -0.00094856902403071775 0 -0.017765232804137922 0.0017201387371549219 0 -0.020456382713364519 -0.00038771554376245359 0 -0.021582932980734625 0.0018850515592585882 0 -0.02248512239514731 0.0014286269940396172 0 -0.024258729565179816 0.0014677318131492843 0 -0.026992904346999601 0.0011452883103074676 0 -0.026944513399092183 0.0011780832077646912 0 -0.027071188123724582 0.0012394228589125945 0 -0.026944513399092183 0.0011780832077646912 0 -0.027071188123724582 0.0012394228589125945 0 -0.027028131731198588 0.0012024685083458066 0 -0.027063663102979762 0.001245550890736778 0 -0.026992904346999601 0.0011452883103074676 0 -0.027071188123724582 0.0012394228589125945 0 -0.028053218980315594 0.0014317501417531687 0 -0.027028131731198588 0.0012024685083458066 0 -0.027446408593074425 0.0010162546283499654 0 -0.026944513399092183 0.0011780832077646912 0 -0.027028131731198588 0.0012024685083458066 0 -0.026339952065164405 0.00099596052232279195 0 -0.024258729565179816 0.0014677318131492843 0 -0.026204372392278224 0.001097425050907469 0 -0.027028131731198588 0.0012024685083458066 0 -0.026339952065164405 0.00099596052232279195 0 -0.027446408593074425 0.0010162546283499654 0 -0.026339952065164405 0.00099596052232279195 0 -0.02372381087729742 -0.00094856902403071775 0 -0.026856593502261869 -0.0013166183625087505 0 -0.021582932980734625 0.0018850515592585882 0 -0.026339952065164405 0.00099596052232279195 0 -0.02372381087729742 -0.00094856902403071775 0 -0.02372381087729742 -0.00094856902403071775 0 -0.024455952956275163 -0.0035025748106142863 0 -0.026856593502261869 -0.0013166183625087505 0 -0.024325323063944242 -0.0031778311967354598 0 -0.026637757955891905 -0.0014198572659659047 0 -0.025225688150587532 -0.003112802223603064 0 -0.024118058644213847 -0.0028659356779837828 0 -0.026856593502261869 -0.0013166183625087505 0 -0.025225688150587532 -0.003112802223603064 0 -0.026856593502261869 -0.0013166183625087505 0 -0.026312261958543255 -0.0026423112055487218 0 -0.025225688150587532 -0.003112802223603064 0 -0.024128008920594773 -0.0042976197169044879 0 -0.024118058644213847 -0.0028659356779837828 0 -0.025225688150587532 -0.003112802223603064 0 -0.025239490366509573 -0.0040286278793413548 0 -0.026312261958543255 -0.0026423112055487218 0 -0.023673719560232939 -0.0051291467592670574 0 -0.020329834348024593 -0.0045269998026499928 0 -0.025736629499502287 -0.0039463109388868664 0 -0.02194136101344921 -0.0051547698526516108 0 -0.025373437854592423 -0.0039996733438964352 0 -0.025239490366509573 -0.0040286278793413548 0 -0.023610626489013485 -0.0056561212910568896 0 -0.025736629499502287 -0.0039463109388868664 0 -0.025239490366509573 -0.0040286278793413548 0 -0.023610626489013485 -0.0056561212910568896 0 -0.024128008920594773 -0.0042976197169044879 0 -0.025225688150587532 -0.003112802223603064 0 -0.025239490366509573 -0.0040286278793413548 0 -0.024128008920594773 -0.0042976197169044879 0 -0.023673719560232939 -0.0051291467592670574 0 -0.025319656829852141 -0.0048530380383346094 0 -0.025736629499502287 -0.0039463109388868664 0 -0.024128008920594773 -0.0042976197169044879 0 -0.024118058644213847 -0.0028659356779837828 0 -0.02148100555330159 -0.0051245559652582416 0 -0.024325323063944242 -0.0031778311967354598 0 -0.021456199358538194 -0.0055294169077962901 0 -0.023610626489013485 -0.0056561212910568896 0 -0.024128008920594773 -0.0042976197169044879 0 -0.02148100555330159 -0.0051245559652582416 0 -0.02372381087729742 -0.00094856902403071775 0 -0.024455952956275163 -0.0035025748106142863 0 -0.021507663784241144 -0.0028199592328864531 0 -0.024455952956275163 -0.0035025748106142863 0 -0.021507663784241144 -0.0028199592328864531 0 -0.021513223744720377 -0.0058195428862821488 0 -0.021507663784241144 -0.0028199592328864531 0 -0.019710628479520775 -0.0041909099164561181 0 -0.021513223744720377 -0.0058195428862821488 0 -0.018209929220299521 -0.0019546397592811187 0 -0.021507663784241144 -0.0028199592328864531 0 -0.019710628479520775 -0.0041909099164561181 0 -0.018209929220299521 -0.0019546397592811187 0 -0.019710628479520775 -0.0041909099164561181 0 -0.017555230652204625 -0.0041605194897649167 0 -0.016503992032841211 -0.0058200304025881775 0 -0.017555230652204625 -0.0041605194897649167 0 -0.018760057889103277 -0.0056213423963808185 0 -0.019710628479520775 -0.0041909099164561181 0 -0.017555230652204625 -0.0041605194897649167 0 -0.018760057889103277 -0.0056213423963808185 0 -0.019710628479520775 -0.0041909099164561181 0 -0.018760057889103277 -0.0056213423963808185 0 -0.021513223744720377 -0.0058195428862821488 0 -0.015011117471503235 -0.0064647429728771338 0 -0.016388601460449802 -0.0084450894012619727 0 -0.018694138110163121 -0.0071873419597020885 0 -0.021456199358538194 -0.0055294169077962901 0 -0.018439354335343758 -0.0082566893682710606 0 -0.02148100555330159 -0.0051245559652582416 0 -0.019892677978537388 -0.0078745378395640095 0 -0.018215322735427694 -0.0084618151406532505 0 -0.023610626489013485 -0.0056561212910568896 0 -0.02148100555330159 -0.0051245559652582416 0 -0.019892677978537388 -0.0078745378395640095 0 -0.02194136101344921 -0.0051547698526516108 0 -0.017440874847275415 -0.0073332316266013853 0 -0.015749869565484919 -0.009856396015383434 0 -0.019892677978537388 -0.0078745378395640095 0 -0.018215322735427694 -0.0084618151406532505 0 -0.018760057889103277 -0.0056213423963808185 0 -0.021513223744720377 -0.0058195428862821488 0 -0.018215322735427694 -0.0084618151406532505 0 -0.016503992032841211 -0.0058200304025881775 0 -0.018760057889103277 -0.0056213423963808185 0 -0.018215322735427694 -0.0084618151406532505 0 -0.013468673914297914 -0.0080021987359282093 0 -0.017440874847275415 -0.0073332316266013853 0 -0.015749869565484919 -0.009856396015383434 0 -0.016503992032841211 -0.0058200304025881775 0 -0.018215322735427694 -0.0084618151406532505 0 -0.011391138980395883 -0.0086042312333466583 0 -0.015011117471503235 -0.0064647429728771338 0 -0.013724577125553713 -0.0088006408136645491 0 -0.011391138980395883 -0.0086042312333466583 0 -0.013724577125553713 -0.0088006408136645491 0 -0.012852467706337157 -0.0098501463004412072 0 -0.013724577125553713 -0.0088006408136645491 0 -0.014600110092413675 -0.010383142126587587 0 -0.012852467706337157 -0.0098501463004412072 0 -0.018480678737967542 -0.0092665519531811708 0 -0.015032737417252912 -0.010334671776879072 0 -0.016388601460449802 -0.0084450894012619727 0 -0.020463153520803086 -0.0092969319350594808 0 -0.014600110092413675 -0.010383142126587587 0 -0.015011117471503235 -0.0064647429728771338 0 -0.013724577125553713 -0.0088006408136645491 0 -0.016388601460449802 -0.0084450894012619727 0 -0.013724577125553713 -0.0088006408136645491 0 -0.016388601460449802 -0.0084450894012619727 0 -0.014600110092413675 -0.010383142126587587 0 -0.016388601460449802 -0.0084450894012619727 0 -0.020463153520803086 -0.0092969319350594808 0 -0.018694138110163121 -0.0071873419597020885 0 -0.017092120233330524 -0.0091657617336716145 0 -0.018376243913241972 -0.010095157852417228 0 -0.019681199493342752 -0.0079326963086645552 0 -0.018480678737967542 -0.0092665519531811708 0 -0.024198633280023168 -0.0072667522784196073 0 -0.02204384364660859 -0.0068145903862610758 0 -0.024679368915499666 -0.0058602624386700176 0 -0.026256729620964259 -0.0071321957626318665 0 -0.020463153520803086 -0.0092969319350594808 0 -0.02204384364660859 -0.0068145903862610758 0 -0.026256729620964259 -0.0071321957626318665 0 -0.023673719560232939 -0.0051291467592670574 0 -0.02204384364660859 -0.0068145903862610758 0 -0.024679368915499666 -0.0058602624386700176 0 -0.023673719560232939 -0.0051291467592670574 0 -0.024679368915499666 -0.0058602624386700176 0 -0.025319656829852141 -0.0048530380383346094 0 -0.023673719560232939 -0.0051291467592670574 0 -0.020329834348024593 -0.0045269998026499928 0 -0.02204384364660859 -0.0068145903862610758 0 -0.020329834348024593 -0.0045269998026499928 0 -0.015011117471503235 -0.0064647429728771338 0 -0.018694138110163121 -0.0071873419597020885 0 -0.020329834348024593 -0.0045269998026499928 0 -0.02204384364660859 -0.0068145903862610758 0 -0.018694138110163121 -0.0071873419597020885 0 -0.020463153520803086 -0.0092969319350594808 0 -0.02204384364660859 -0.0068145903862610758 0 -0.018694138110163121 -0.0071873419597020885 0 -0.017691600489250735 -0.012815735549268834 0 -0.016629039051451595 -0.011076137057891266 0 -0.015746766095560333 -0.012468277091938046 0 -0.01178581469841187 -0.0071574916566677161 0 -0.012712883800706532 -0.0080492641182042263 0 -0.014009504988427743 -0.0061933349105396324 0 -0.015117965500532472 -0.010217613219563691 0 -0.016248211221043151 -0.0085658510407418797 0 -0.017691600489250735 -0.012815735549268834 0 -0.018376243913241972 -0.010095157852417228 0 -0.016629039051451595 -0.011076137057891266 0 -0.017691600489250735 -0.012815735549268834 0 -0.018376243913241972 -0.010095157852417228 0 -0.019593681367604778 -0.011113681903467844 0 -0.017092120233330524 -0.0091657617336716145 0 -0.016629039051451595 -0.011076137057891266 0 -0.014600110092413675 -0.010383142126587587 0 -0.017092120233330524 -0.0091657617336716145 0 -0.018376243913241972 -0.010095157852417228 0 -0.016629039051451595 -0.011076137057891266 0 -0.016629039051451595 -0.011076137057891266 0 -0.014600110092413675 -0.010383142126587587 0 -0.015746766095560333 -0.012468277091938046 0 -0.014600110092413675 -0.010383142126587587 0 -0.013166096662599457 -0.010756665267735875 0 -0.013984787206540969 -0.01291314825938404 0 -0.012852467706337157 -0.0098501463004412072 0 -0.013166096662599457 -0.010756665267735875 0 -0.011572839250827074 -0.010723754795267401 0 -0.014600110092413675 -0.010383142126587587 0 -0.012852467706337157 -0.0098501463004412072 0 -0.013166096662599457 -0.010756665267735875 0 -0.011261228635271904 -0.011127016179143287 0 -0.011339190334458906 -0.010638850659306044 0 -0.008111980803465672 -0.00890371782579648 0 -0.01067823295491328 -0.0097521099045005458 0 -0.011572839250827074 -0.010723754795267401 0 -0.008111980803465672 -0.00890371782579648 0 -0.010543275248611195 -0.0082793537368154729 0 -0.01067823295491328 -0.0097521099045005458 0 -0.013166096662599457 -0.010756665267735875 0 -0.013984787206540969 -0.01291314825938404 0 -0.011572839250827074 -0.010723754795267401 0 -0.014600110092413675 -0.010383142126587587 0 -0.013984787206540969 -0.01291314825938404 0 -0.015746766095560333 -0.012468277091938046 0 -0.011261228635271904 -0.011127016179143287 0 -0.010131253827305136 -0.0087971454051237827 0 -0.013984787206540969 -0.01291314825938404 0 -0.015746766095560333 -0.012468277091938046 0 -0.015758670669647607 -0.014508372141955401 0 -0.008111980803465672 -0.00890371782579648 0 -0.0055839475830279546 -0.0063984100592943197 0 -0.0087099042186326078 -0.0065210706402542796 0 -0.008111980803465672 -0.00890371782579648 0 -0.0087099042186326078 -0.0065210706402542796 0 -0.010543275248611195 -0.0082793537368154729 0 -0.0087099042186326078 -0.0065210706402542796 0 -0.010313816025660354 -0.0064880040777273336 0 -0.010543275248611195 -0.0082793537368154729 0 -0.0075556404780621807 -0.0046306588285716811 0 -0.0085197949907194603 -0.0033066950670528187 0 -0.0098628500875890032 -0.0047243504050068453 0 -0.0087099042186326078 -0.0065210706402542796 0 -0.0075556404780621807 -0.0046306588285716811 0 -0.0098628500875890032 -0.0047243504050068453 0 -0.0087099042186326078 -0.0065210706402542796 0 -0.0098628500875890032 -0.0047243504050068453 0 -0.010313816025660354 -0.0064880040777273336 0 -0.0063922204890995322 -0.0045660225733708069 0 -0.0047903881579027452 -0.0050689532303151265 0 -0.0072855545430602891 -0.0023989756896858959 0 -0.0055839475830279546 -0.0063984100592943197 0 -0.0087099042186326078 -0.0065210706402542796 0 -0.0075556404780621807 -0.0046306588285716811 0 -0.0059381952125503778 -0.0061437570526060598 0 -0.0075556404780621807 -0.0046306588285716811 0 -0.0063922204890995322 -0.0045660225733708069 0 -0.010131253827305136 -0.0087971454051237827 0 -0.0068416377303434995 -0.0050324371200264097 0 -0.003391373985400392 -0.0054009842075081332 0 -0.0040352821067220282 -0.0060281862812503707 0 -0.0045939884880998386 -0.0046214688240603045 0 -0.0063784297706034887 -0.0066615887057802662 0 -0.0062768450695285952 -0.0065869508743771552 0 -0.010939996367106587 -0.0092818004108145488 0 -0.010907062844590684 -0.0084897781885353851 0 -0.011477294975714834 -0.0087453148803708029 0 -0.011479752601204613 -0.0098132194803165328 0 -0.010939996367106587 -0.0092818004108145488 0 -0.011477294975714834 -0.0087453148803708029 0 -0.010131253827305136 -0.0087971454051237827 0 -0.0062768450695285952 -0.0065869508743771552 0 -0.0059381952125503778 -0.0061437570526060598 0 -0.0063922204890995322 -0.0045660225733708069 0 -0.0047903881579027452 -0.0050689532303151265 0 -0.010180534494020028 -0.0085593070585212004 0 -0.010939996367106587 -0.0092818004108145488 0 -0.010907062844590684 -0.0084897781885353851 0 -0.017691600489250735 -0.012815735549268834 0 -0.015746766095560333 -0.012468277091938046 0 -0.015758670669647607 -0.014508372141955401 0 -0.015117965500532472 -0.010217613219563691 0 -0.010131253827305136 -0.0087971454051237827 0 -0.01178581469841187 -0.0071574916566677161 0 -0.010180534494020028 -0.0085593070585212004 0 -0.010907062844590684 -0.0084897781885353851 0 -0.01178581469841187 -0.0071574916566677161 0 -0.010907062844590684 -0.0084897781885353851 0 -0.011696098384524267 -0.0081145471782180061 0 -0.010907062844590684 -0.0084897781885353851 0 -0.011477294975714834 -0.0087453148803708029 0 -0.011696098384524267 -0.0081145471782180061 0 -0.01178581469841187 -0.0071574916566677161 0 -0.012712883800706532 -0.0080492641182042263 0 -0.011696098384524267 -0.0081145471782180061 0 -0.011477294975714834 -0.0087453148803708029 0 -0.012712883800706532 -0.0080492641182042263 0 -0.011696098384524267 -0.0081145471782180061 0 -0.011479752601204613 -0.0098132194803165328 0 -0.011477294975714834 -0.0087453148803708029 0 -0.012712883800706532 -0.0080492641182042263 0 -0.0063784297706034887 -0.0066615887057802662 0 -0.011609534818093707 -0.0072954056314985284 0 -0.0082325928730383451 -0.0079584019492824863 0 -0.0089034520712663202 -0.0086059054475013368 0 -0.010367297345242301 -0.0068204237292006607 0 -0.0082325928730383451 -0.0079584019492824863 0 -0.0095665192638016167 -0.0059845082088818861 0 -0.010367297345242301 -0.0068204237292006607 0 -0.0036215563461397555 -0.0039645026598226522 0 -0.0059731836831251554 -0.0051987323948297914 0 -0.0016707510904524913 -0.0038878613516628402 0 -0.0013005637977275232 -0.0035315214277631124 0 -0.0017344199014948038 -0.0028857988708534369 0 -0.0063784297706034887 -0.0066615887057802662 0 -0.0036215563461397555 -0.0039645026598226522 0 -0.0036215563461397555 -0.0039645026598226522 0 -0.0015826265993549664 -0.0032960725097029697 0 -0.0012674978552385584 -0.0035022459645650903 0 -0.0017344199014948038 -0.0028857988708534369 0 -0.0011654589096110018 -0.0029431981127283095 0 -0.0012674978552385584 -0.0035022459645650903 0 -0.0011654589096110018 -0.0029431981127283095 0 -0.00059211187867026338 -0.0028400386173792471 0 -0.0036215563461397555 -0.0039645026598226522 0 -0.00075429922828266561 -0.0024540956958748437 0 -0.0016707510904524913 -0.0038878613516628402 0 -0.0023680321237871471 -0.0026618173902783803 0 -0.0017344199014948038 -0.0028857988708534369 0 -0.0045939884880998386 -0.0046214688240603045 0 -0.0048444294817442946 -0.0030357968268175401 0 -0.005070221264451823 -0.0040229270438501561 0 -0.0040352821067220282 -0.0060281862812503707 0 -0.0045939884880998386 -0.0046214688240603045 0 -0.0059870385514008834 -0.0039526319874188592 0 -0.0063784297706034887 -0.0066615887057802662 0 -0.0025742211705908542 -0.0025660661035461973 0 -0.003391373985400392 -0.0054009842075081332 0 -0.0045939884880998386 -0.0046214688240603045 0 -0.0048444294817442946 -0.0030357968268175401 0 -0.0023680321237871471 -0.0026618173902783803 0 -0.0017344199014948038 -0.0028857988708534369 0 -0.0016109967585500509 -0.0022659459219460929 0 -0.0016109967585500509 -0.0022659459219460929 0 -0.0010800160694790437 -0.0025433550032194678 0 -0.00082895609604391961 -0.0018397367654224104 0 -0.0011654589096110018 -0.0029431981127283095 0 -0.0010800160694790437 -0.0025433550032194678 0 -0.00059211187867026338 -0.0028400386173792471 0 -0.0017344199014948038 -0.0028857988708534369 0 -0.0011654589096110018 -0.0029431981127283095 0 -0.0010800160694790437 -0.0025433550032194678 0 -0.0017344199014948038 -0.0028857988708534369 0 -0.0016109967585500509 -0.0022659459219460929 0 -0.0010800160694790437 -0.0025433550032194678 0 -0.0010707718621180873 -0.00259936605038265 0 -0.00045797247475901911 -0.0014240720585423797 0 -0.00045797247475901911 -0.0014240720585423797 0 0.003504389850497358 -0.00028590510035679902 0 -0.0016109967585500509 -0.0022659459219460929 0 -0.00082895609604391961 -0.0018397367654224104 0 -0.0020451866364508062 -0.0014047006551811936 0 0.0010979214032897455 0.00042442315703540009 0 0.0025418782196735133 -5.423059750636867e-05 0 0.0015929036857799945 -0.00055376769115590273 0 -0.0023680321237871471 -0.0026618173902783803 0 -0.0016109967585500509 -0.0022659459219460929 0 -0.0020451866364508062 -0.0014047006551811936 0 -0.0025742211705908542 -0.0025660661035461973 0 0.003504389850497358 -0.00028590510035679902 0 0.003504389850497358 -0.00028590510035679902 0 0.0062988012390247962 -0.00053933174626486814 0 0.0025418782196735133 -5.423059750636867e-05 0 0.0015929036857799945 -0.00055376769115590273 0 0.00229101360294845 -0.0012154146615144296 0 0.010120651943481917 0.00041802437473774731 0 0.010276593588190873 0.00022455223415255652 0 0.010038961157852211 0.00014152917344901307 0 0.0010979214032897455 0.00042442315703540009 0 0.0015929036857799945 -0.00055376769115590273 0 0.00066615865691470658 -0.00084583090151711963 0 0.0018370326327745664 0.00012002649611193455 0 -0.0034083484759573211 -0.00058433882400562285 0 -0.0071110242526938325 0.00085719716919955495 0 -0.0074757749898270174 -0.00047844337976036237 0 -0.0085330081951428133 0.00019713929193102589 0 0.00063759548860306244 -0.00062897131839589101 0 -0.00016643754869733333 -0.00034899051307084826 0 0.00013529181976105887 -0.00086063364008143845 0 0.010120651943481917 0.00041802437473774731 0 0.010453727664597342 0.0002277936927047341 0 0.010276593588190873 0.00022455223415255652 0 0.003504389850497358 -0.00028590510035679902 0 0.0018370326327745664 0.00012002649611193455 0 0.00043795607453583988 -0.0013850821736653125 0 0.00063759548860306244 -0.00062897131839589101 0 0.00013529181976105887 -0.00086063364008143845 0 -0.0074757749898270174 -0.00047844337976036237 0 -0.0081795553308972729 -0.0016989500396383868 0 -0.0085330081951428133 0.00019713929193102589 0 -0.0059289731117436392 -0.0010872256934763051 0 -0.0074757749898270174 -0.00047844337976036237 0 -0.0081795553308972729 -0.0016989500396383868 0 -0.0071110242526938325 0.00085719716919955495 0 -0.0059289731117436392 -0.0010872256934763051 0 -0.0074757749898270174 -0.00047844337976036237 0 -0.0059289731117436392 -0.0010872256934763051 0 -0.0062141248762473244 -0.002429555379808076 0 -0.0081795553308972729 -0.0016989500396383868 0 -0.0063459405137482276 -0.0030806700380359791 0 -0.0089370495377966326 -0.0010002435937027851 0 -0.0087053612823615317 -0.0019627105432249142 0 -0.0099149723376822686 -0.00130868090696365 0 -0.0096231218116870614 -0.00031836676441317506 0 -0.0087053612823615317 -0.0019627105432249142 0 -0.0072855545430602891 -0.0023989756896858959 0 -0.0096231218116870614 -0.00031836676441317506 0 -0.0062141248762473244 -0.002429555379808076 0 -0.0059870385514008834 -0.0039526319874188592 0 -0.0081795553308972729 -0.0016989500396383868 0 -0.0087053612823615317 -0.0019627105432249142 0 -0.009674517033092269 -0.0024456058429887058 0 -0.0099149723376822686 -0.00130868090696365 0 -0.0025742211705908542 -0.0025660661035461973 0 -0.0034083484759573211 -0.00058433882400562285 0 -0.0047992951637161919 -0.0029683619808205997 0 -0.0059289731117436392 -0.0010872256934763051 0 -0.0062141248762473244 -0.002429555379808076 0 -0.0047992951637161919 -0.0029683619808205997 0 -0.0062141248762473244 -0.002429555379808076 0 -0.0059870385514008834 -0.0039526319874188592 0 -0.0025742211705908542 -0.0025660661035461973 0 -0.0042665232012633735 -0.0040301157059365591 0 -0.0075556404780621807 -0.0046306588285716811 0 -0.0063922204890995322 -0.0045660225733708069 0 -0.0072855545430602891 -0.0023989756896858959 0 -0.0062768450695285952 -0.0065869508743771552 0 -0.0063459405137482276 -0.0030806700380359791 0 -0.0047992951637161919 -0.0029683619808205997 0 -0.005070221264451823 -0.0040229270438501561 0 -0.0059870385514008834 -0.0039526319874188592 0 -0.0045939884880998386 -0.0046214688240603045 0 -0.005070221264451823 -0.0040229270438501561 0 -0.0059870385514008834 -0.0039526319874188592 0 -0.0085197949907194603 -0.0033066950670528187 0 -0.009674517033092269 -0.0024456058429887058 0 -0.0098628500875890032 -0.0047243504050068453 0 -0.0075556404780621807 -0.0046306588285716811 0 -0.0072855545430602891 -0.0023989756896858959 0 -0.0085197949907194603 -0.0033066950670528187 0 -0.0087053612823615317 -0.0019627105432249142 0 -0.0085197949907194603 -0.0033066950670528187 0 -0.009674517033092269 -0.0024456058429887058 0 -0.0087053612823615317 -0.0019627105432249142 0 -0.0072855545430602891 -0.0023989756896858959 0 -0.0085197949907194603 -0.0033066950670528187 0 -0.010746115849983983 -0.0034135143209630316 0 -0.009674517033092269 -0.0024456058429887058 0 -0.0098628500875890032 -0.0047243504050068453 0 -0.010746115849983983 -0.0034135143209630316 0 -0.01189096988103344 -0.0027003283130555109 0 -0.010688501173837722 -0.0016077973512127986 0 -0.010746115849983983 -0.0034135143209630316 0 -0.009674517033092269 -0.0024456058429887058 0 -0.010688501173837722 -0.0016077973512127986 0 -0.011394363971287466 -0.00046262187316625103 0 -0.010843624122847048 -0.00018954282774250316 0 -0.01189096988103344 -0.0027003283130555109 0 -0.010688501173837722 -0.0016077973512127986 0 -0.010724853251099438 -9.4952656216716174e-05 0 -0.011021920798625953 0.0020017930897117992 0 -0.010724853251099438 -9.4952656216716174e-05 0 -0.010099703220457848 0.0011031552693461619 0 -0.010688501173837722 -0.0016077973512127986 0 -0.010532124746323137 -0.00051391967703216335 0 -0.010724853251099438 -9.4952656216716174e-05 0 -0.009674517033092269 -0.0024456058429887058 0 -0.0099149723376822686 -0.00130868090696365 0 -0.010688501173837722 -0.0016077973512127986 0 -0.0099149723376822686 -0.00130868090696365 0 -0.010688501173837722 -0.0016077973512127986 0 -0.010532124746323137 -0.00051391967703216335 0 -0.0099149723376822686 -0.00130868090696365 0 -0.010532124746323137 -0.00051391967703216335 0 -0.0096231218116870614 -0.00031836676441317506 0 -0.0081795553308972729 -0.0016989500396383868 0 -0.01044291588932098 0.00073153574076339806 0 -0.0085330081951428133 0.00019713929193102589 0 -0.0096231218116870614 -0.00031836676441317506 0 -0.010613113053585916 0.00046214916207635637 0 -0.01044291588932098 0.00073153574076339806 0 -0.010532124746323137 -0.00051391967703216335 0 -0.0096231218116870614 -0.00031836676441317506 0 -0.010613113053585916 0.00046214916207635637 0 -0.0089370495377966326 -0.0010002435937027851 0 -0.010375039004870402 0.00065240382161704043 0 -0.010532124746323137 -0.00051391967703216335 0 -0.010724853251099438 -9.4952656216716174e-05 0 -0.010743731433780773 -0.00086019543165478712 0 -0.010724853251099438 -9.4952656216716174e-05 0 -0.010743731433780773 -0.00086019543165478712 0 -0.010112773937721265 -0.00062611004214376659 0 -0.010360136422316027 -0.00080577600049011263 0 -0.011426492930454 0.00038155044335632537 0 -0.010613113053585916 0.00046214916207635637 0 -0.01044291588932098 0.00073153574076339806 0 -0.011173763770354892 0.0019824304885898286 0 -0.010743731433780773 -0.00086019543165478712 0 -0.0097320282568869269 -0.0017019406129611186 0 -0.009953890981362911 -0.0030269346310817886 0 -0.011426492930454 0.00038155044335632537 0 -0.0016204614101221354 -0.0015240661304580841 0 -0.010743731433780773 -0.00086019543165478712 0 -0.010027131963453718 -0.0010490123697717722 0 -0.010112773937721265 -0.00062611004214376659 0 -0.010743731433780773 -0.00086019543165478712 0 -0.010027131963453718 -0.0010490123697717722 0 -0.0097320282568869269 -0.0017019406129611186 0 -0.01044291588932098 0.00073153574076339806 0 -0.0085330081951428133 0.00019713929193102589 0 -0.0093940994833059174 0.0015682568048635361 0 -0.0071110242526938325 0.00085719716919955495 0 -0.0085330081951428133 0.00019713929193102589 0 -0.0093940994833059174 0.0015682568048635361 0 0.0018370326327745664 0.00012002649611193455 0 -0.0048423005276726728 0.0013609027927169641 0 -0.0078093328385257042 -0.001125696634432656 0 -0.0066488284856814055 -0.0016882245676839919 0 -0.0068975762491085392 -0.00060158364515418739 0 -0.0078093328385257042 -0.001125696634432656 0 -0.0066488284856814055 -0.0016882245676839919 0 -0.0084421407318203117 -0.0019327667483345159 0 -0.0084421407318203117 -0.0019327667483345159 0 -0.0097320282568869269 -0.0017019406129611186 0 -0.0091936504400106107 -0.00094171250908646909 0 -0.0084421407318203117 -0.0019327667483345159 0 -0.0097320282568869269 -0.0017019406129611186 0 -0.009953890981362911 -0.0030269346310817886 0 -0.010027131963453718 -0.0010490123697717722 0 -0.0091936504400106107 -0.00094171250908646909 0 -0.010112773937721265 -0.00062611004214376659 0 -0.010027131963453718 -0.0010490123697717722 0 -0.0097320282568869269 -0.0017019406129611186 0 -0.0091936504400106107 -0.00094171250908646909 0 -0.0078093328385257042 -0.001125696634432656 0 -0.0084421407318203117 -0.0019327667483345159 0 -0.0091936504400106107 -0.00094171250908646909 0 -0.0091936504400106107 -0.00094171250908646909 0 -0.0094892400163305458 -8.4961818356230683e-05 0 -0.0082577996762175435 -0.00031726115128297632 0 -0.0078093328385257042 -0.001125696634432656 0 -0.0091936504400106107 -0.00094171250908646909 0 -0.0082577996762175435 -0.00031726115128297632 0 -0.0091936504400106107 -0.00094171250908646909 0 -0.010112773937721265 -0.00062611004214376659 0 -0.0094892400163305458 -8.4961818356230683e-05 0 -0.010724853251099438 -9.4952656216716174e-05 0 -0.010112773937721265 -0.00062611004214376659 0 -0.0094892400163305458 -8.4961818356230683e-05 0 -0.010724853251099438 -9.4952656216716174e-05 0 -0.0094892400163305458 -8.4961818356230683e-05 0 -0.010099703220457848 0.0011031552693461619 0 -0.0094892400163305458 -8.4961818356230683e-05 0 -0.0082577996762175435 -0.00031726115128297632 0 -0.0088509814733461634 0.00065010066389632195 0 -0.0082577996762175435 -0.00031726115128297632 0 -0.0073893316765327142 0.00034944133502975077 0 -0.0088509814733461634 0.00065010066389632195 0 -0.0078093328385257042 -0.001125696634432656 0 -0.0082577996762175435 -0.00031726115128297632 0 -0.0068975762491085392 -0.00060158364515418739 0 -0.0082577996762175435 -0.00031726115128297632 0 -0.0068975762491085392 -0.00060158364515418739 0 -0.0073893316765327142 0.00034944133502975077 0 -0.0068975762491085392 -0.00060158364515418739 0 -0.0073893316765327142 0.00034944133502975077 0 -0.0057584866103822492 -5.5512380133863304e-05 0 -0.0073893316765327142 0.00034944133502975077 0 -0.0077483458238313029 0.0014502767475078554 0 -0.0060952057483640932 0.00078526803861469401 0 -0.0073893316765327142 0.00034944133502975077 0 -0.0077483458238313029 0.0014502767475078554 0 -0.0088509814733461634 0.00065010066389632195 0 -0.0077483458238313029 0.0014502767475078554 0 -0.0093992747207123136 0.001346999184848701 0 -0.010540038724479648 0.0020684634128082784 0 -0.0077483458238313029 0.0014502767475078554 0 -0.0088509814733461634 0.00065010066389632195 0 -0.0093992747207123136 0.001346999184848701 0 -0.0088509814733461634 0.00065010066389632195 0 -0.0093992747207123136 0.001346999184848701 0 -0.010099703220457848 0.0011031552693461619 0 -0.0094892400163305458 -8.4961818356230683e-05 0 -0.0088509814733461634 0.00065010066389632195 0 -0.010099703220457848 0.0011031552693461619 0 -0.0093992747207123136 0.001346999184848701 0 -0.010099703220457848 0.0011031552693461619 0 -0.010540038724479648 0.0020684634128082784 0 -0.011021920798625953 0.0020017930897117992 0 -0.010099703220457848 0.0011031552693461619 0 -0.010540038724479648 0.0020684634128082784 0 -0.011021920798625953 0.0020017930897117992 0 -0.010540038724479648 0.0020684634128082784 0 -0.011353528465116872 0.0014616430360520965 0 -0.010540038724479648 0.0020684634128082784 0 -0.011486326540584848 0.0015277219293275011 0 -0.011353528465116872 0.0014616430360520965 0 -0.010540038724479648 0.0020684634128082784 0 -0.011486326540584848 0.0015277219293275011 0 -0.011822147867017187 0.0019090478999443693 0 -0.0077483458238313029 0.0014502767475078554 0 -0.010540038724479648 0.0020684634128082784 0 -0.0065451694544635172 0.0027982752402698273 0 -0.010380022997023747 0.002163794811166055 0 -0.0090575186620310572 0.0022449762506308313 0 -0.011486326540584848 0.0015277219293275011 0 -0.011574388663168454 0.0013698792242976834 0 -0.011353528465116872 0.0014616430360520965 0 -0.011486326540584848 0.0015277219293275011 0 -0.011574388663168454 0.0013698792242976834 0 -0.01190256971103482 0.0014201983060174439 0 -0.011574388663168454 0.0013698792242976834 0 -0.011739228227215086 0.0012514314040696908 0 -0.01190256971103482 0.0014201983060174439 0 -0.011739228227215086 0.0012514314040696908 0 -0.011528030013570284 0.0011702019116008285 0 -0.011974473233025548 0.0010642592141050138 0 -0.011574388663168454 0.0013698792242976834 0 -0.011739228227215086 0.0012514314040696908 0 -0.011528030013570284 0.0011702019116008285 0 -0.012860231543102512 -0.00028061646711541094 0 -0.01150971515084021 0.00083720586120235654 0 -0.012166423045666893 -0.00022463025597582772 0 -0.01212430981225021 0.00047992813214563012 0 -0.011506528565867348 0.0013467669281378549 0 -0.012860231543102512 -0.00028061646711541094 0 -0.011353528465116872 0.0014616430360520965 0 -0.01150971515084021 0.00083720586120235654 0 -0.011574388663168454 0.0013698792242976834 0 -0.011528030013570284 0.0011702019116008285 0 -0.011353528465116872 0.0014616430360520965 0 -0.011394363971287466 -0.00046262187316625103 0 -0.011539382196775366 -0.0030545213989650634 0 -0.011021920798625953 0.0020017930897117992 0 -0.011353528465116872 0.0014616430360520965 0 -0.01150971515084021 0.00083720586120235654 0 -0.011021920798625953 0.0020017930897117992 0 -0.01150971515084021 0.00083720586120235654 0 -0.010868261158729761 0.00043285448384460429 0 -0.010746115849983983 -0.0034135143209630316 0 -0.01189096988103344 -0.0027003283130555109 0 -0.012133891658871068 -0.0064715986439635321 0 -0.010746115849983983 -0.0034135143209630316 0 -0.0098628500875890032 -0.0047243504050068453 0 -0.012133891658871068 -0.0064715986439635321 0 -0.0098628500875890032 -0.0047243504050068453 0 -0.010313816025660354 -0.0064880040777273336 0 -0.012133891658871068 -0.0064715986439635321 0 -0.010313816025660354 -0.0064880040777273336 0 -0.010543275248611195 -0.0082793537368154729 0 -0.012133891658871068 -0.0064715986439635321 0 -0.010868261158729761 0.00043285448384460429 0 -0.012166423045666893 -0.00022463025597582772 0 -0.012077184434864503 -0.0020029498123356852 0 -0.01150971515084021 0.00083720586120235654 0 -0.010868261158729761 0.00043285448384460429 0 -0.012166423045666893 -0.00022463025597582772 0 -0.012368884449597784 -0.00049622826425504149 0 -0.012963438970651621 -0.0023987162554238413 0 -0.012166423045666893 -0.00022463025597582772 0 -0.012077184434864503 -0.0020029498123356852 0 -0.013845815470336302 -0.0036964784457702215 0 -0.010868261158729761 0.00043285448384460429 0 -0.012077184434864503 -0.0020029498123356852 0 -0.011123092677878761 -0.0032167265875350337 0 -0.012077184434864503 -0.0020029498123356852 0 -0.011123092677878761 -0.0032167265875350337 0 -0.012287501436255737 -0.0033424961896981568 0 -0.012077184434864503 -0.0020029498123356852 0 -0.012287501436255737 -0.0033424961896981568 0 -0.013845815470336302 -0.0036964784457702215 0 -0.011539382196775366 -0.0030545213989650634 0 -0.011038858290782556 -0.0068373667144906612 0 -0.010543275248611195 -0.0082793537368154729 0 -0.01149290898138215 -0.010755357394386614 0 -0.01067823295491328 -0.0097521099045005458 0 -0.010543275248611195 -0.0082793537368154729 0 -0.012133891658871068 -0.0064715986439635321 0 -0.01149290898138215 -0.010755357394386614 0 -0.01149290898138215 -0.010755357394386614 0 -0.01067823295491328 -0.0097521099045005458 0 -0.011572839250827074 -0.010723754795267401 0 -0.011391138980395883 -0.0086042312333466583 0 -0.01149290898138215 -0.010755357394386614 0 -0.011572839250827074 -0.010723754795267401 0 -0.013468673914297914 -0.0080021987359282093 0 -0.011038858290782556 -0.0068373667144906612 0 -0.011391138980395883 -0.0086042312333466583 0 -0.012852467706337157 -0.0098501463004412072 0 -0.011572839250827074 -0.010723754795267401 0 -0.013897534909550849 -0.006441118687859607 0 -0.012849896772205839 -0.0047218885151463158 0 -0.013845815470336302 -0.0036964784457702215 0 -0.01302391690429355 -0.0064079190964604973 0 -0.011123092677878761 -0.0032167265875350337 0 -0.012849896772205839 -0.0047218885151463158 0 -0.012287501436255737 -0.0033424961896981568 0 -0.012849896772205839 -0.0047218885151463158 0 -0.013845815470336302 -0.0036964784457702215 0 -0.011123092677878761 -0.0032167265875350337 0 -0.012287501436255737 -0.0033424961896981568 0 -0.012849896772205839 -0.0047218885151463158 0 -0.013073508415049472 -0.0044671555287598254 0 -0.012963438970651621 -0.0023987162554238413 0 -0.01292053663921925 -0.0018929105109045678 0 -0.012285171052611798 -0.0012063176462730675 0 -0.0131574027017064 -0.0012953166077509951 0 -0.012381451822952083 -0.0021369205958989019 0 -0.01292053663921925 -0.0018929105109045678 0 -0.012285171052611798 -0.0012063176462730675 0 -0.011911537712323205 0.00034545538415819174 0 -0.011755847771252773 0.00081680163304549908 0 -0.012017033015966665 0.00071243243605233263 0 -0.011755847771252773 0.00081680163304549908 0 -0.011974473233025548 0.0010642592141050138 0 -0.012017033015966665 0.00071243243605233263 0 -0.011528030013570284 0.0011702019116008285 0 -0.011755847771252773 0.00081680163304549908 0 -0.011974473233025548 0.0010642592141050138 0 -0.01212430981225021 0.00047992813214563012 0 -0.012498939228795662 -0.00039499911040702553 0 -0.012860231543102512 -0.00028061646711541094 0 -0.012166423045666893 -0.00022463025597582772 0 -0.012285171052611798 -0.0012063176462730675 0 -0.012860231543102512 -0.00028061646711541094 0 -0.012285171052611798 -0.0012063176462730675 0 -0.0131574027017064 -0.0012953166077509951 0 -0.012393337751877854 0.00095351244926582539 0 -0.011974473233025548 0.0010642592141050138 0 -0.01235436193248827 0.0011848850016979728 0 -0.012393337751877854 0.00095351244926582539 0 -0.011974473233025548 0.0010642592141050138 0 -0.012376359434176146 0.00076229275423303445 0 -0.011974473233025548 0.0010642592141050138 0 -0.012017033015966665 0.00071243243605233263 0 -0.012376359434176146 0.00076229275423303445 0 -0.012393337751877854 0.00095351244926582539 0 -0.012376359434176146 0.00076229275423303445 0 -0.012497640906817674 0.00088541072350261383 0 -0.012496159077538089 0.00083888281077848298 0 -0.012376359434176146 0.00076229275423303445 0 -0.012497640906817674 0.00088541072350261383 0 -0.012512145766859769 0.00089614272675135327 0 -0.012497640906817674 0.00088541072350261383 0 -0.012500219001501053 0.00095832299860341356 0 -0.01224370765033961 0.0013697523730309361 0 -0.012170542839808446 0.0013919863888970242 0 -0.012497640906817674 0.00088541072350261383 0 -0.012528324619490151 0.00095857293855490576 0 -0.012500219001501053 0.00095832299860341356 0 -0.011983898800813185 0.0017769118416922005 0 -0.01190827569557028 0.0017400038998232057 0 -0.011781388372884701 0.0018426858240110761 0 -0.012393337751877854 0.00095351244926582539 0 -0.012528324619490151 0.00095857293855490576 0 -0.01235436193248827 0.0011848850016979728 0 -0.012393337751877854 0.00095351244926582539 0 -0.012497640906817674 0.00088541072350261383 0 -0.012528324619490151 0.00095857293855490576 0 -0.01224370765033961 0.0013697523730309361 0 -0.012203033536486236 0.0013621363998943803 0 -0.012032243290804136 0.0015759124037811017 0 -0.012078568124270264 0.0015043870693586124 0 -0.012103420378692314 0.001537258765773474 0 -0.011983898800813185 0.0017769118416922005 0 -0.012032243290804136 0.0015759124037811017 0 -0.012103420378692314 0.001537258765773474 0 -0.012032243290804136 0.0015759124037811017 0 -0.01190827569557028 0.0017400038998232057 0 -0.011974600515800234 0.0014211010832996258 0 -0.011983898800813185 0.0017769118416922005 0 -0.012032243290804136 0.0015759124037811017 0 -0.01190827569557028 0.0017400038998232057 0 -0.01190827569557028 0.0017400038998232057 0 -0.011974600515800234 0.0014211010832996258 0 -0.011760499579571227 0.0016384226125991793 0 -0.012032243290804136 0.0015759124037811017 0 -0.011974600515800234 0.0014211010832996258 0 -0.01205613023676012 0.0014244100650988411 0 -0.011974600515800234 0.0014211010832996258 0 -0.01205613023676012 0.0014244100650988411 0 -0.012018771538668012 0.001287517494425821 0 -0.012032243290804136 0.0015759124037811017 0 -0.01205613023676012 0.0014244100650988411 0 -0.012078568124270264 0.0015043870693586124 0 -0.01205613023676012 0.0014244100650988411 0 -0.012078568124270264 0.0015043870693586124 0 -0.01206941676850481 0.0014733959494104753 0 -0.012041201053627113 0.0014970808137847599 0 -0.012078568124270264 0.0015043870693586124 0 -0.012103420378692314 0.001537258765773474 0 -0.012041201053627113 0.0014970808137847599 0 -0.012078568124270264 0.0015043870693586124 0 -0.01206941676850481 0.0014733959494104753 0 -0.012041201053627113 0.0014970808137847599 0 -0.012103420378692314 0.001537258765773474 0 -0.01190256971103482 0.0014201983060174439 0 -0.011974473233025548 0.0010642592141050138 0 -0.01235436193248827 0.0011848850016979728 0 -0.01190256971103482 0.0014201983060174439 0 -0.012203033536486236 0.0013621363998943803 0 -0.01193255512124026 0.0014355235190806829 0 -0.011739228227215086 0.0012514314040696908 0 -0.011974473233025548 0.0010642592141050138 0 -0.01190256971103482 0.0014201983060174439 0 -0.012041201053627113 0.0014970808137847599 0 -0.011904708447713476 0.0015695851769862235 0 -0.012011118305249162 0.001581680071083273 0 -0.012041201053627113 0.0014970808137847599 0 -0.01190256971103482 0.0014201983060174439 0 -0.011904708447713476 0.0015695851769862235 0 -0.011486326540584848 0.0015277219293275011 0 -0.01190256971103482 0.0014201983060174439 0 -0.011904708447713476 0.0015695851769862235 0 -0.0065451694544635172 0.0027982752402698273 0 -0.0035986156215302013 0.0023083765640637866 0 -0.0055646686004727662 0.001853643381878883 0 -0.011486326540584848 0.0015277219293275011 0 -0.011904708447713476 0.0015695851769862235 0 -0.011822147867017187 0.0019090478999443693 0 -0.011822147867017187 0.0019090478999443693 0 -0.012011118305249162 0.001581680071083273 0 -0.012060033141747709 0.0015245829095077638 0 -0.0090575186620310572 0.0022449762506308313 0 -0.008290923256080808 0.0020201585468566175 0 -0.011904708447713476 0.0015695851769862235 0 -0.011822147867017187 0.0019090478999443693 0 -0.012011118305249162 0.001581680071083273 0 -0.01206941676850481 0.0014733959494104753 0 -0.012011118305249162 0.001581680071083273 0 -0.012060033141747709 0.0015245829095077638 0 -0.012041201053627113 0.0014970808137847599 0 -0.01206941676850481 0.0014733959494104753 0 -0.012011118305249162 0.001581680071083273 0 -0.01206941676850481 0.0014733959494104753 0 -0.012060033141747709 0.0015245829095077638 0 -0.012052646722896201 0.0013771141311182723 0 -0.0035986156215302013 0.0023083765640637866 0 -0.0042355098193760966 0.0016881634942751142 0 -0.0055646686004727662 0.001853643381878883 0 -0.0035986156215302013 0.0023083765640637866 0 -0.0042355098193760966 0.0016881634942751142 0 -0.0011936123465817144 0.0020099487157871818 0 -0.0042355098193760966 0.0016881634942751142 0 -0.0049590233741620736 0.00071851919942970456 0 -0.0038607852048089886 0.00054078102647957564 0 -0.0042355098193760966 0.0016881634942751142 0 -0.0038607852048089886 0.00054078102647957564 0 -0.0027850183621027148 0.00058600394828404935 0 -0.0077483458238313029 0.0014502767475078554 0 -0.0065451694544635172 0.0027982752402698273 0 -0.0055646686004727662 0.001853643381878883 0 -0.0077483458238313029 0.0014502767475078554 0 -0.0055646686004727662 0.001853643381878883 0 -0.0060952057483640932 0.00078526803861469401 0 -0.0055646686004727662 0.001853643381878883 0 -0.0049590233741620736 0.00071851919942970456 0 -0.0060952057483640932 0.00078526803861469401 0 -0.0042355098193760966 0.0016881634942751142 0 -0.0055646686004727662 0.001853643381878883 0 -0.0049590233741620736 0.00071851919942970456 0 -0.0073893316765327142 0.00034944133502975077 0 -0.0060952057483640932 0.00078526803861469401 0 -0.0057584866103822492 -5.5512380133863304e-05 0 -0.0049590233741620736 0.00071851919942970456 0 -0.0060952057483640932 0.00078526803861469401 0 -0.0057584866103822492 -5.5512380133863304e-05 0 -0.0068975762491085392 -0.00060158364515418739 0 -0.0057584866103822492 -5.5512380133863304e-05 0 -0.0052490809392873048 -0.00096029543786011167 0 -0.0057584866103822492 -5.5512380133863304e-05 0 -0.0043724831966313717 -0.00014194529828766094 0 -0.0052490809392873048 -0.00096029543786011167 0 -0.0049590233741620736 0.00071851919942970456 0 -0.0057584866103822492 -5.5512380133863304e-05 0 -0.0043724831966313717 -0.00014194529828766094 0 -0.0049590233741620736 0.00071851919942970456 0 -0.0038607852048089886 0.00054078102647957564 0 -0.0043724831966313717 -0.00014194529828766094 0 -0.0038607852048089886 0.00054078102647957564 0 -0.0031358455197716493 -0.00015808571342258428 0 -0.0043724831966313717 -0.00014194529828766094 0 -0.0038607852048089886 0.00054078102647957564 0 -0.0031358455197716493 -0.00015808571342258428 0 -0.0027850183621027148 0.00058600394828404935 0 -0.0031358455197716493 -0.00015808571342258428 0 -0.0043724831966313717 -0.00014194529828766094 0 -0.0036127246028341276 -0.00098001816577995447 0 -0.0043724831966313717 -0.00014194529828766094 0 -0.0036127246028341276 -0.00098001816577995447 0 -0.0052490809392873048 -0.00096029543786011167 0 -0.0031358455197716493 -0.00015808571342258428 0 -0.0036127246028341276 -0.00098001816577995447 0 -0.0023113768386100624 -0.00082814993157210974 0 -0.0036127246028341276 -0.00098001816577995447 0 -0.0023113768386100624 -0.00082814993157210974 0 -0.0026706208181435402 -0.001704636744430352 0 -0.0036127246028341276 -0.00098001816577995447 0 -0.0044216896015079931 -0.0022207070644577167 0 -0.0026706208181435402 -0.001704636744430352 0 -0.0066488284856814055 -0.0016882245676839919 0 -0.0052490809392873048 -0.00096029543786011167 0 -0.0044216896015079931 -0.0022207070644577167 0 -0.0036127246028341276 -0.00098001816577995447 0 -0.0052490809392873048 -0.00096029543786011167 0 -0.0044216896015079931 -0.0022207070644577167 0 -0.0066488284856814055 -0.0016882245676839919 0 -0.0068975762491085392 -0.00060158364515418739 0 -0.0052490809392873048 -0.00096029543786011167 0 -0.0013285039712670416 -0.00088071635436165517 0 -0.00084694713797555548 -0.0010355747153578229 0 -0.0010717552074821961 -0.001832986480801642 0 -0.0013285039712670416 -0.00088071635436165517 0 -0.0011592960881537371 -0.00047902738755802775 0 -0.00084694713797555548 -0.0010355747153578229 0 -0.0013285039712670416 -0.00088071635436165517 0 -0.0023113768386100624 -0.00082814993157210974 0 -0.0010717552074821961 -0.001832986480801642 0 -0.0023113768386100624 -0.00082814993157210974 0 -0.0010717552074821961 -0.001832986480801642 0 -0.0026706208181435402 -0.001704636744430352 0 -0.0013285039712670416 -0.00088071635436165517 0 -0.0023113768386100624 -0.00082814993157210974 0 -0.0020912416089461537 -0.0002270514911075036 0 -0.0031358455197716493 -0.00015808571342258428 0 -0.0023113768386100624 -0.00082814993157210974 0 -0.0020912416089461537 -0.0002270514911075036 0 -0.0031358455197716493 -0.00015808571342258428 0 -0.0020912416089461537 -0.0002270514911075036 0 -0.0027850183621027148 0.00058600394828404935 0 -0.0020912416089461537 -0.0002270514911075036 0 -0.0018051354305881121 0.00029477922796625373 0 -0.0015070670214890533 -0.00018563055624060815 0 -0.0020912416089461537 -0.0002270514911075036 0 -0.0018051354305881121 0.00029477922796625373 0 -0.0027850183621027148 0.00058600394828404935 0 -0.0018051354305881121 0.00029477922796625373 0 -0.0015070670214890533 -0.00018563055624060815 0 -0.0011977900157957391 0.00013648645667474452 0 -0.0013285039712670416 -0.00088071635436165517 0 -0.0020912416089461537 -0.0002270514911075036 0 -0.0015070670214890533 -0.00018563055624060815 0 -0.0013285039712670416 -0.00088071635436165517 0 -0.0015070670214890533 -0.00018563055624060815 0 -0.0011592960881537371 -0.00047902738755802775 0 -0.0011592960881537371 -0.00047902738755802775 0 -0.0011977900157957391 0.00013648645667474452 0 -0.00096548100827993286 -0.00027974708369205665 0 -0.0015070670214890533 -0.00018563055624060815 0 -0.0011592960881537371 -0.00047902738755802775 0 -0.0011977900157957391 0.00013648645667474452 0 -0.0043597353487583078 0.0010467210634475057 0 -0.0068111241026466256 3.6332774612423057e-05 0 -0.0011998906242399248 -0.00021932570054752689 0 -0.0010117956517508473 -0.00030390744863725437 0 -0.00091585339774571657 -0.0003002383160409924 0 -0.0018051354305881121 0.00029477922796625373 0 -0.0011977900157957391 0.00013648645667474452 0 -0.0016634809501883674 0.0010855778733018079 0 -0.0043597353487583078 0.0010467210634475057 0 -0.00064569994420917863 3.5263585375264183e-05 0 -0.0011977900157957391 0.00013648645667474452 0 -0.0016634809501883674 0.0010855778733018079 0 -0.0010534110833049996 0.00042266511314637028 0 -0.008290923256080808 0.0020201585468566175 0 -0.0043597353487583078 0.0010467210634475057 0 -0.0028853684524333188 0.0018140964589958999 0 -0.0043597353487583078 0.0010467210634475057 0 -0.0042355098193760966 0.0016881634942751142 0 -0.0016634809501883674 0.0010855778733018079 0 -0.0027850183621027148 0.00058600394828404935 0 -0.0018051354305881121 0.00029477922796625373 0 -0.0016634809501883674 0.0010855778733018079 0 -0.0027850183621027148 0.00058600394828404935 0 -0.012060033141747709 0.0015245829095077638 0 -0.012008761197570942 0.0011987202679103301 0 -0.012052646722896201 0.0013771141311182723 0 -0.012008761197570942 0.0011987202679103301 0 -0.012052646722896201 0.0013771141311182723 0 -0.012018771538668012 0.001287517494425821 0 -0.01205613023676012 0.0014244100650988411 0 -0.012052646722896201 0.0013771141311182723 0 -0.012018771538668012 0.001287517494425821 0 -0.01205613023676012 0.0014244100650988411 0 -0.01206941676850481 0.0014733959494104753 0 -0.012052646722896201 0.0013771141311182723 0 -0.012008761197570942 0.0011987202679103301 0 -0.011940388984700762 0.0011386022684048874 0 -0.011775261594039745 0.00066262741253370625 0 -0.012008761197570942 0.0011987202679103301 0 -0.012018771538668012 0.001287517494425821 0 -0.011940388984700762 0.0011386022684048874 0 -0.011974600515800234 0.0014211010832996258 0 -0.012018771538668012 0.001287517494425821 0 -0.011940388984700762 0.0011386022684048874 0 -0.011974600515800234 0.0014211010832996258 0 -0.011940388984700762 0.0011386022684048874 0 -0.011783270695483487 0.0011747973887379409 0 -0.011783270695483487 0.0011747973887379409 0 -0.011262746886481217 0.00081782292084577686 0 -0.011775261594039745 0.00066262741253370625 0 -0.011940388984700762 0.0011386022684048874 0 -0.011783270695483487 0.0011747973887379409 0 -0.011775261594039745 0.00066262741253370625 0 -0.011262746886481217 0.00081782292084577686 0 -0.011775261594039745 0.00066262741253370625 0 -0.010260631330468633 -0.00039778667973728275 0 -0.0068111241026466256 3.6332774612423057e-05 0 -0.0058614898261284453 -0.00048783390356251649 0 -0.011262746886481217 0.00081782292084577686 0 -0.010566390000233659 0.00068932734045188716 0 -0.011074470796617606 0.0013118141595098772 0 -0.011783270695483487 0.0011747973887379409 0 -0.011262746886481217 0.00081782292084577686 0 -0.011513255233978573 0.0012968505584869865 0 -0.0012807195142667978 -0.00036676562992770105 0 -0.00091585339774571657 -0.0003002383160409924 0 -0.0017767873424603465 -0.00089722938272072256 0 -0.0012807195142667978 -0.00036676562992770105 0 -0.0010030283081857981 -0.00018612735711998339 0 -0.00091585339774571657 -0.0003002383160409924 0 -0.0010030283081857981 -0.00018612735711998339 0 -0.0011577053989477353 -0.00016113880488390626 0 -0.0010160881809581142 -9.2628714775087e-05 0 -0.0012807195142667978 -0.00036676562992770105 0 -0.0010030283081857981 -0.00018612735711998339 0 -0.0011577053989477353 -0.00016113880488390626 0 -0.0012807195142667978 -0.00036676562992770105 0 -0.0011577053989477353 -0.00016113880488390626 0 -0.0014283560353123368 -2.6150820537433056e-05 0 -0.0011876841300419271 -6.7692259362647504e-05 0 -0.00064569994420917863 3.5263585375264183e-05 0 -0.0010030283081857981 -0.00018612735711998339 0 -0.0010117956517508473 -0.00030390744863725437 0 -0.00091585339774571657 -0.0003002383160409924 0 -0.0010030283081857981 -0.00018612735711998339 0 -0.00097361937229803561 1.3687946489211193e-06 0 -0.0010160881809581142 -9.2628714775087e-05 0 -0.0010030283081857981 -0.00018612735711998339 0 -0.0010534110833049996 0.00042266511314637028 0 -0.00097361937229803561 1.3687946489211193e-06 0 -0.0011977900157957391 0.00013648645667474452 0 -0.0010534110833049996 0.00042266511314637028 0 -0.00097361937229803561 1.3687946489211193e-06 0 -0.00096548100827993286 -0.00027974708369205665 0 -0.0010160881809581142 -9.2628714775087e-05 0 -0.00090550580119125128 -0.00042125951424385133 0 -0.0011977900157957391 0.00013648645667474452 0 -0.00097361937229803561 1.3687946489211193e-06 0 -0.00096548100827993286 -0.00027974708369205665 0 -0.00097361937229803561 1.3687946489211193e-06 0 -0.00096548100827993286 -0.00027974708369205665 0 -0.0010160881809581142 -9.2628714775087e-05 0 -0.0010160881809581142 -9.2628714775087e-05 0 -0.0010371000408967211 -6.8178322420192985e-05 0 -0.0014283560353123368 -2.6150820537433056e-05 0 -0.0010160881809581142 -9.2628714775087e-05 0 -0.00090550580119125128 -0.00042125951424385133 0 -0.0010371000408967211 -6.8178322420192985e-05 0 -0.0011577053989477353 -0.00016113880488390626 0 -0.0010160881809581142 -9.2628714775087e-05 0 -0.0014283560353123368 -2.6150820537433056e-05 0 -0.00090550580119125128 -0.00042125951424385133 0 -0.0010371000408967211 -6.8178322420192985e-05 0 -0.00079616217099488362 -0.00080907092824221893 0 -0.00096548100827993286 -0.00027974708369205665 0 -0.00090550580119125128 -0.00042125951424385133 0 -0.00084694713797555548 -0.0010355747153578229 0 -0.0011592960881537371 -0.00047902738755802775 0 -0.00096548100827993286 -0.00027974708369205665 0 -0.00084694713797555548 -0.0010355747153578229 0 -0.00090550580119125128 -0.00042125951424385133 0 -0.00084694713797555548 -0.0010355747153578229 0 -0.00079616217099488362 -0.00080907092824221893 0 -0.00098977870627282752 8.5467693624240138e-07 0 -0.0017450345466917872 0.00014369182698521825 0 -0.00054966934320184241 -0.00010128072909857288 0 -0.0010371000408967211 -6.8178322420192985e-05 0 -0.00054966934320184241 -0.00010128072909857288 0 -0.00079616217099488362 -0.00080907092824221893 0 -0.0010371000408967211 -6.8178322420192985e-05 0 -0.0017450345466917872 0.00014369182698521825 0 -0.00054966934320184241 -0.00010128072909857288 0 -0.0017450345466917872 0.00014369182698521825 0 -0.0027576332229615435 2.075250806065813e-05 0 -0.0014283560353123368 -2.6150820537433056e-05 0 -0.0010371000408967211 -6.8178322420192985e-05 0 -0.0017450345466917872 0.00014369182698521825 0 -0.0014283560353123368 -2.6150820537433056e-05 0 -0.0032851841723295005 9.74837928202207e-07 0 -0.0017450345466917872 0.00014369182698521825 0 -0.0027576332229615435 2.075250806065813e-05 0 -0.00098977870627282752 8.5467693624240138e-07 0 -0.0032851841723295005 9.74837928202207e-07 0 -0.0017450345466917872 0.00014369182698521825 0 -0.0032851841723295005 9.74837928202207e-07 0 -0.0027576332229615435 2.075250806065813e-05 0 -0.0055728875464964162 -2.987875692221617e-06 0 -0.0027576332229615435 2.075250806065813e-05 0 -0.0017767873424603465 -0.00089722938272072256 0 -0.0055728875464964162 -2.987875692221617e-06 0 -0.0027576332229615435 2.075250806065813e-05 0 -0.0014283560353123368 -2.6150820537433056e-05 0 -0.0017767873424603465 -0.00089722938272072256 0 -0.0012807195142667978 -0.00036676562992770105 0 -0.0014283560353123368 -2.6150820537433056e-05 0 -0.0017767873424603465 -0.00089722938272072256 0 -0.011262746886481217 0.00081782292084577686 0 -0.010260631330468633 -0.00039778667973728275 0 -0.010566390000233659 0.00068932734045188716 0 -0.010260631330468633 -0.00039778667973728275 0 -0.010566390000233659 0.00068932734045188716 0 -0.007962084038579972 0.00027641108516639602 0 -0.010566390000233659 0.00068932734045188716 0 -0.007962084038579972 0.00027641108516639602 0 -0.010252579697644797 0.0013675153571636866 0 -0.0058614898261284453 -0.00048783390356251649 0 -0.0055778404548151254 -3.1248977870299817e-07 0 -0.0055840236428543692 -2.1550442885554434e-06 0 -0.007962084038579972 0.00027641108516639602 0 -0.0087770158110445588 1.583998547929777e-06 0 -0.010260631330468633 -0.00039778667973728275 0 -0.0055840236428543692 -2.1550442885554434e-06 0 -0.007962084038579972 0.00027641108516639602 0 -0.0083176435554246919 0.00023400177139336245 0 -0.0096331772483309874 0.00093799688811713308 0 -0.007962084038579972 0.00027641108516639602 0 -0.0088566519248778324 2.3590349637949889e-05 0 -0.0087770158110445588 1.583998547929777e-06 0 -0.010417637274398218 0.0019690893991282108 0 -0.011382412428793936 0.0020742654153823406 0 -0.012078455035112633 0.0021281872609109909 0 -0.0088566519248778324 2.3590349637949889e-05 0 -0.0087770158110445588 1.583998547929777e-06 0 -0.011136726648472992 4.3457550581757731e-05 0 -0.0096331772483309874 0.00093799688811713308 0 -0.01161305913996491 0.0011469685139804625 0 -0.011534053786105038 0.0020296514754296383 0 -0.011382412428793936 0.0020742654153823406 0 -0.011042482290541947 0.0018522388114036467 0 -0.010417637274398218 0.0019690893991282108 0 -0.011382412428793936 0.0020742654153823406 0 -0.011042482290541947 0.0018522388114036467 0 -0.011042482290541947 0.0018522388114036467 0 -0.010252579697644797 0.0013675153571636866 0 -0.011074470796617606 0.0013118141595098772 0 -0.007962084038579972 0.00027641108516639602 0 -0.010417637274398218 0.0019690893991282108 0 -0.010252579697644797 0.0013675153571636866 0 -0.010417637274398218 0.0019690893991282108 0 -0.011042482290541947 0.0018522388114036467 0 -0.010252579697644797 0.0013675153571636866 0 -0.010566390000233659 0.00068932734045188716 0 -0.010252579697644797 0.0013675153571636866 0 -0.011074470796617606 0.0013118141595098772 0 -0.011074470796617606 0.0013118141595098772 0 -0.011513255233978573 0.0012968505584869865 0 -0.011448600917169687 0.0016156217245009582 0 -0.011262746886481217 0.00081782292084577686 0 -0.011074470796617606 0.0013118141595098772 0 -0.011513255233978573 0.0012968505584869865 0 -0.011513255233978573 0.0012968505584869865 0 -0.011448600917169687 0.0016156217245009582 0 -0.011760499579571227 0.0016384226125991793 0 -0.011042482290541947 0.0018522388114036467 0 -0.011074470796617606 0.0013118141595098772 0 -0.011448600917169687 0.0016156217245009582 0 -0.011783270695483487 0.0011747973887379409 0 -0.011513255233978573 0.0012968505584869865 0 -0.011760499579571227 0.0016384226125991793 0 -0.011974600515800234 0.0014211010832996258 0 -0.011783270695483487 0.0011747973887379409 0 -0.011760499579571227 0.0016384226125991793 0 -0.011760499579571227 0.0016384226125991793 0 -0.011623777596770345 0.0019019393738931433 0 -0.011826361017619809 0.0019111971888567804 0 -0.01190827569557028 0.0017400038998232057 0 -0.011760499579571227 0.0016384226125991793 0 -0.011826361017619809 0.0019111971888567804 0 -0.011042482290541947 0.0018522388114036467 0 -0.011448600917169687 0.0016156217245009582 0 -0.011623777596770345 0.0019019393738931433 0 -0.011534053786105038 0.0020296514754296383 0 -0.011042482290541947 0.0018522388114036467 0 -0.011623777596770345 0.0019019393738931433 0 -0.011448600917169687 0.0016156217245009582 0 -0.011760499579571227 0.0016384226125991793 0 -0.011623777596770345 0.0019019393738931433 0 -0.011534053786105038 0.0020296514754296383 0 -0.011623777596770345 0.0019019393738931433 0 -0.011873660351532336 0.0020159895074952309 0 -0.011623777596770345 0.0019019393738931433 0 -0.011873660351532336 0.0020159895074952309 0 -0.011826361017619809 0.0019111971888567804 0 -0.011873660351532336 0.0020159895074952309 0 -0.011826361017619809 0.0019111971888567804 0 -0.012019521372435737 0.0018819251350815206 0 -0.011873660351532336 0.0020159895074952309 0 -0.012019521372435737 0.0018819251350815206 0 -0.012334233755149889 0.0019125526115946947 0 -0.01190827569557028 0.0017400038998232057 0 -0.011826361017619809 0.0019111971888567804 0 -0.011781388372884701 0.0018426858240110761 0 -0.011826361017619809 0.0019111971888567804 0 -0.011781388372884701 0.0018426858240110761 0 -0.012019521372435737 0.0018819251350815206 0 -0.012419022852156247 0.0012497313326021542 0 -0.012170542839808446 0.0013919863888970242 0 -0.012431963209760604 0.0012541694989770355 0 -0.011781388372884701 0.0018426858240110761 0 -0.012019521372435737 0.0018819251350815206 0 -0.012431963209760604 0.0012541694989770355 0 -0.012019521372435737 0.0018819251350815206 0 -0.012334233755149889 0.0019125526115946947 0 -0.012431963209760604 0.0012541694989770355 0 -0.0129296520837424 0.001643738132881954 0 -0.012334233755149889 0.0019125526115946947 0 -0.012334233755149889 0.0019125526115946947 0 -0.012573599901592165 0.0019412416705458621 0 -0.011960607739696549 0.0020773582377682058 0 -0.0129296520837424 0.001643738132881954 0 -0.012334233755149889 0.0019125526115946947 0 -0.012573599901592165 0.0019412416705458621 0 -0.013660147873294871 0.0016844280215078131 0 -0.0129296520837424 0.001643738132881954 0 -0.012573599901592165 0.0019412416705458621 0 -0.013660147873294871 0.0016844280215078131 0 -0.012573599901592165 0.0019412416705458621 0 -0.012078455035112633 0.0021281872609109909 0 -0.013731778064026335 1.4388344898538723e-05 0 -0.011978434703666288 -6.9442915831360322e-07 0 -0.011136726648472992 4.3457550581757731e-05 0 -0.013733415601714323 0.00085657407024161941 0 -0.01161305913996491 0.0011469685139804625 0 -0.015178726646767376 1.8134275896176915e-06 0 -0.013731778064026335 1.4388344898538723e-05 0 -0.011978434703666288 -6.9442915831360322e-07 0 -0.0087770158110445588 1.583998547929777e-06 0 -0.011978434703666288 -6.9442915831360322e-07 0 -0.011136726648472992 4.3457550581757731e-05 0 -0.011382412428793936 0.0020742654153823406 0 -0.012078455035112633 0.0021281872609109909 0 -0.011960607739696549 0.0020773582377682058 0 -0.011534053786105038 0.0020296514754296383 0 -0.011873660351532336 0.0020159895074952309 0 -0.011960607739696549 0.0020773582377682058 0 -0.011534053786105038 0.0020296514754296383 0 -0.011382412428793936 0.0020742654153823406 0 -0.011960607739696549 0.0020773582377682058 0 -0.011873660351532336 0.0020159895074952309 0 -0.012334233755149889 0.0019125526115946947 0 -0.011960607739696549 0.0020773582377682058 0 -0.012573599901592165 0.0019412416705458621 0 -0.012078455035112633 0.0021281872609109909 0 -0.011960607739696549 0.0020773582377682058 0 -0.040363786463569244 -0.0010749905510293797 0 -0.039840463814119771 1.2302292640974552e-05 0 -0.03926415738096134 -0.0011280807194898185 0 -0.040533551667146311 -0.00080314935117343535 0 -0.041495043509472446 0.00012174569617909199 0 -0.040688552437430477 -0.00049270464314900416 0 -0.041545718400328072 0.00043552762393423241 0 -0.041651869958873051 -0.00064418091974708378 0 -0.041418603287876381 -0.00020754989157382664 0 -0.039840463814119771 1.2302292640974552e-05 0 -0.041310189711697608 0.00062608794635938972 0 -0.040363786463569244 -0.0010749905510293797 0 -0.041418603287876381 -0.00020754989157382664 0 -0.039840463814119771 1.2302292640974552e-05 0 -0.039840463814119771 1.2302292640974552e-05 0 -0.038585452667957383 -0.0005745899391651465 0 -0.038243172649497219 0.00059957978427959975 0 -0.038585452667957383 -0.0005745899391651465 0 -0.038243172649497219 0.00059957978427959975 0 -0.037572557324889268 -0.00069606219275330779 0 -0.038585452667957383 -0.0005745899391651465 0 -0.037869796804530891 -0.0016062275514054831 0 -0.037572557324889268 -0.00069606219275330779 0 -0.039840463814119771 1.2302292640974552e-05 0 -0.038585452667957383 -0.0005745899391651465 0 -0.03926415738096134 -0.0011280807194898185 0 -0.03926415738096134 -0.0011280807194898185 0 -0.037869796804530891 -0.0016062275514054831 0 -0.03972857284377846 -0.0018315786615464194 0 -0.038585452667957383 -0.0005745899391651465 0 -0.03926415738096134 -0.0011280807194898185 0 -0.037869796804530891 -0.0016062275514054831 0 -0.037869796804530891 -0.0016062275514054831 0 -0.03722845191760514 -0.0016199762045944828 0 -0.037102427450605276 -0.0016600513041171658 0 -0.037852890699707022 -0.0016156103145751059 0 -0.03823552740737346 -0.0019148630341192013 0 -0.037869796804530891 -0.0016062275514054831 0 -0.03722845191760514 -0.0016199762045944828 0 -0.036862189359302293 -0.0016804625137932657 0 -0.037869796804530891 -0.0016062275514054831 0 -0.039735487117020643 -0.0023593472925041424 0 -0.03972857284377846 -0.0018315786615464194 0 -0.039735487117020643 -0.0023593472925041424 0 -0.040495716635027233 -0.0021180649094103845 0 -0.03972857284377846 -0.0018315786615464194 0 -0.040495716635027233 -0.0021180649094103845 0 -0.03972857284377846 -0.0018315786615464194 0 -0.040767738780336932 -0.0013855239518011161 0 -0.040363786463569244 -0.0010749905510293797 0 -0.03926415738096134 -0.0011280807194898185 0 -0.03972857284377846 -0.0018315786615464194 0 -0.040688552437430477 -0.00049270464314900416 0 -0.03972857284377846 -0.0018315786615464194 0 -0.040767738780336932 -0.0013855239518011161 0 -0.040533551667146311 -0.00080314935117343535 0 -0.039792765682085784 -0.0017788399013094047 0 -0.040688552437430477 -0.00049270464314900416 0 -0.040767738780336932 -0.0013855239518011161 0 -0.041651869958873051 -0.00064418091974708378 0 -0.040767738780336932 -0.0013855239518011161 0 -0.041786543956651268 -0.0016817362763992677 0 -0.041651869958873051 -0.00064418091974708378 0 -0.040495716635027233 -0.0021180649094103845 0 -0.040767738780336932 -0.0013855239518011161 0 -0.041131042769823691 -0.0021074844640329837 0 -0.040767738780336932 -0.0013855239518011161 0 -0.041131042769823691 -0.0021074844640329837 0 -0.041786543956651268 -0.0016817362763992677 0 -0.042548320398829928 -0.0018504642386574237 0 -0.042483705158730685 -0.00098902633534246327 0 -0.043104479514357918 -0.0013296704788092592 0 -0.041786543956651268 -0.0016817362763992677 0 -0.042548320398829928 -0.0018504642386574237 0 -0.042483705158730685 -0.00098902633534246327 0 -0.041786543956651268 -0.0016817362763992677 0 -0.042548320398829928 -0.0018504642386574237 0 -0.042086191357650751 -0.0021294511789038202 0 -0.041786543956651268 -0.0016817362763992677 0 -0.042483705158730685 -0.00098902633534246327 0 -0.041651869958873051 -0.00064418091974708378 0 -0.039589900205373958 0.004745284562809933 0 -0.042479522855786996 0.0047659490896510039 0 -0.040784854467568972 0.0061265410568641047 0 -0.042548320398829928 -0.0018504642386574237 0 -0.043104479514357918 -0.0013296704788092592 0 -0.042949861964447257 -0.0021243171326042073 0 -0.042479522855786996 0.0047659490896510039 0 -0.040784854467568972 0.0061265410568641047 0 -0.041995618679799722 0.0067398847694437975 0 -0.042744188196002425 0.0017825913672553529 0 -0.042847296992403548 0.0020282495188790363 0 -0.042744188196002425 0.0017825913672553529 0 -0.043028741658170507 0.00115042699054934 0 -0.042479522855786996 0.0047659490896510039 0 -0.041037255601309691 0.0031176203044774192 0 -0.042842485547718127 0.002632626947858359 0 -0.042483705158730685 -0.00098902633534246327 0 -0.043104479514357918 -0.0013296704788092592 0 -0.043212242352542819 -0.00030962979721039071 0 -0.039589900205373958 0.004745284562809933 0 -0.042479522855786996 0.0047659490896510039 0 -0.041037255601309691 0.0031176203044774192 0 -0.041037255601309691 0.0031176203044774192 0 -0.042842485547718127 0.002632626947858359 0 -0.041177079472771404 0.0011523021293771191 0 -0.042842485547718127 0.002632626947858359 0 -0.043181221374600488 0.00083031507868888265 0 -0.041177079472771404 0.0011523021293771191 0 -0.043028741658170507 0.00115042699054934 0 -0.043154547671339895 0.0008484276977628499 0 -0.041545718400328072 0.00043552762393423241 0 -0.041651869958873051 -0.00064418091974708378 0 -0.04250363636101874 1.4578128737447425e-05 0 -0.042483705158730685 -0.00098902633534246327 0 -0.041651869958873051 -0.00064418091974708378 0 -0.04250363636101874 1.4578128737447425e-05 0 -0.042483705158730685 -0.00098902633534246327 0 -0.043212242352542819 -0.00030962979721039071 0 -0.04250363636101874 1.4578128737447425e-05 0 -0.043181221374600488 0.00083031507868888265 0 -0.04250363636101874 1.4578128737447425e-05 0 -0.042587185321404299 0.00067218196647026124 0 -0.043212242352542819 -0.00030962979721039071 0 -0.043181221374600488 0.00083031507868888265 0 -0.04250363636101874 1.4578128737447425e-05 0 -0.041545718400328072 0.00043552762393423241 0 -0.04250363636101874 1.4578128737447425e-05 0 -0.042587185321404299 0.00067218196647026124 0 -0.041495043509472446 0.00012174569617909199 0 -0.042522436198397635 0.00096709377573970655 0 -0.041545718400328072 0.00043552762393423241 0 -0.042427017236001487 0.0010830363185018864 0 -0.042587185321404299 0.00067218196647026124 0 -0.042427017236001487 0.0010830363185018864 0 -0.042587185321404299 0.00067218196647026124 0 -0.043057654568254805 0.00088278506703253108 0 -0.043181221374600488 0.00083031507868888265 0 -0.042587185321404299 0.00067218196647026124 0 -0.043057654568254805 0.00088278506703253108 0 -0.042427017236001487 0.0010830363185018864 0 -0.04335130776143048 0.0011575560934658205 0 -0.043353080566120125 0.0016182296603508494 0 -0.042427017236001487 0.0010830363185018864 0 -0.043057654568254805 0.00088278506703253108 0 -0.04335130776143048 0.0011575560934658205 0 -0.042621444575415335 0.00085543730456044372 0 -0.043127305072396559 0.0020055064048418109 0 -0.041819128464288459 0.0014252822414830414 0 -0.042522436198397635 0.00096709377573970655 0 -0.043251947378400997 0.0015928668198674563 0 -0.043053036583055468 0.00024338241725195306 0 -0.042360407761411957 0.0019995987292381525 0 -0.043241679468783462 0.00072766796694003519 0 -0.041746936140958875 0.001615398373993388 0 -0.043064477800524754 0.0007828780557002879 0 -0.043181221374600488 0.00083031507868888265 0 -0.041177079472771404 0.0011523021293771191 0 -0.043241679468783462 0.00072766796694003519 0 -0.043181221374600488 0.00083031507868888265 0 -0.043057654568254805 0.00088278506703253108 0 -0.043241679468783462 0.00072766796694003519 0 -0.043057654568254805 0.00088278506703253108 0 -0.04335130776143048 0.0011575560934658205 0 -0.043241679468783462 0.00072766796694003519 0 -0.04335130776143048 0.0011575560934658205 0 -0.043241679468783462 0.00072766796694003519 0 -0.043344503023086435 0.00081976214272492197 0 -0.04335130776143048 0.0011575560934658205 0 -0.043344503023086435 0.00081976214272492197 0 -0.043579422864802209 0.0011869722042223843 0 -0.043053036583055468 0.00024338241725195306 0 -0.043344503023086435 0.00081976214272492197 0 -0.043579422864802209 0.0011869722042223843 0 -0.043053036583055468 0.00024338241725195306 0 -0.043241679468783462 0.00072766796694003519 0 -0.043344503023086435 0.00081976214272492197 0 -0.043053036583055468 0.00024338241725195306 0 -0.043887432798401446 0.0013576918263322791 0 -0.043579422864802209 0.0011869722042223843 0 -0.043887432798401446 0.0013576918263322791 0 -0.043579422864802209 0.0011869722042223843 0 -0.043941836436748517 0.0016264358423604642 0 -0.04335130776143048 0.0011575560934658205 0 -0.043579422864802209 0.0011869722042223843 0 -0.04363204832870686 0.0015398849278227234 0 -0.043579422864802209 0.0011869722042223843 0 -0.043941836436748517 0.0016264358423604642 0 -0.04363204832870686 0.0015398849278227234 0 -0.044410733154936662 0.0019900170625520323 0 -0.043941836436748517 0.0016264358423604642 0 -0.043985626587082681 0.0017883743531067395 0 -0.043941836436748517 0.0016264358423604642 0 -0.04363204832870686 0.0015398849278227234 0 -0.043985626587082681 0.0017883743531067395 0 -0.044410733154936662 0.0019900170625520323 0 -0.043941836436748517 0.0016264358423604642 0 -0.044255698661488423 0.0017918324920585722 0 -0.043887432798401446 0.0013576918263322791 0 -0.043941836436748517 0.0016264358423604642 0 -0.044255698661488423 0.0017918324920585722 0 -0.044494060143193223 0.0017477942706819157 0 -0.043887432798401446 0.0013576918263322791 0 -0.044255698661488423 0.0017918324920585722 0 -0.042621444575415335 0.00085543730456044372 0 -0.043127305072396559 0.0020055064048418109 0 -0.043353080566120125 0.0016182296603508494 0 -0.043127305072396559 0.0020055064048418109 0 -0.043353080566120125 0.0016182296603508494 0 -0.043663355502647654 0.0018214876360515364 0 -0.043353080566120125 0.0016182296603508494 0 -0.04363204832870686 0.0015398849278227234 0 -0.043663355502647654 0.0018214876360515364 0 -0.04335130776143048 0.0011575560934658205 0 -0.043353080566120125 0.0016182296603508494 0 -0.04363204832870686 0.0015398849278227234 0 -0.04363204832870686 0.0015398849278227234 0 -0.043663355502647654 0.0018214876360515364 0 -0.043985626587082681 0.0017883743531067395 0 -0.044135184796369117 0.0018797196768189247 0 -0.043663355502647654 0.0018214876360515364 0 -0.043985626587082681 0.0017883743531067395 0 -0.044022003144684123 0.0018398025793950996 0 -0.043663355502647654 0.0018214876360515364 0 -0.043727621077566323 0.0018456038100938615 0 -0.043127305072396559 0.0020055064048418109 0 -0.043663355502647654 0.0018214876360515364 0 -0.043727621077566323 0.0018456038100938615 0 -0.044119382341974885 0.0018044333232535546 0 -0.044022003144684123 0.0018398025793950996 0 -0.043727621077566323 0.0018456038100938615 0 -0.043127305072396559 0.0020055064048418109 0 -0.043727621077566323 0.0018456038100938615 0 -0.044181747113208478 0.0019370132936532228 0 -0.044119382341974885 0.0018044333232535546 0 -0.043727621077566323 0.0018456038100938615 0 -0.044181747113208478 0.0019370132936532228 0 -0.044194172883741625 0.0018367177500307837 0 -0.044119382341974885 0.0018044333232535546 0 -0.044181747113208478 0.0019370132936532228 0 -0.044175012158693065 0.0018379567882047417 0 -0.044194172883741625 0.0018367177500307837 0 -0.044181747113208478 0.0019370132936532228 0 -0.04098919383701876 0.0031850140700745559 0 -0.040556249911697893 0.0019989654350943131 0 -0.041819128464288459 0.0014252822414830414 0 -0.04098919383701876 0.0031850140700745559 0 -0.040556249911697893 0.0019989654350943131 0 -0.039896154863614114 0.0025880626007345944 0 -0.043026462204528028 0.0020617841707658963 0 -0.04284784564108652 0.0026225402387427071 0 -0.043127305072396559 0.0020055064048418109 0 -0.04098919383701876 0.0031850140700745559 0 -0.041819128464288459 0.0014252822414830414 0 -0.041819128464288459 0.0014252822414830414 0 -0.040381456119937868 0.0011156431963700421 0 -0.041310189711697608 0.00062608794635938972 0 -0.042621444575415335 0.00085543730456044372 0 -0.041819128464288459 0.0014252822414830414 0 -0.041310189711697608 0.00062608794635938972 0 -0.040556249911697893 0.0019989654350943131 0 -0.041819128464288459 0.0014252822414830414 0 -0.040381456119937868 0.0011156431963700421 0 -0.040556249911697893 0.0019989654350943131 0 -0.040381456119937868 0.0011156431963700421 0 -0.039810817801941421 0.0017691615816547649 0 -0.039840463814119771 1.2302292640974552e-05 0 -0.040381456119937868 0.0011156431963700421 0 -0.041310189711697608 0.00062608794635938972 0 -0.041418603287876381 -0.00020754989157382664 0 -0.042621444575415335 0.00085543730456044372 0 -0.041310189711697608 0.00062608794635938972 0 -0.039840463814119771 1.2302292640974552e-05 0 -0.038243172649497219 0.00059957978427959975 0 -0.039296081576034425 0.0011052948563375145 0 -0.039840463814119771 1.2302292640974552e-05 0 -0.040381456119937868 0.0011156431963700421 0 -0.039296081576034425 0.0011052948563375145 0 -0.040381456119937868 0.0011156431963700421 0 -0.039296081576034425 0.0011052948563375145 0 -0.039810817801941421 0.0017691615816547649 0 -0.039296081576034425 0.0011052948563375145 0 -0.039810817801941421 0.0017691615816547649 0 -0.038807292876660529 0.0020819114512105972 0 -0.036716888462580692 -0.00012940581125189528 0 -0.036815395468128648 0.0010762394095784479 0 -0.038243172649497219 0.00059957978427959975 0 -0.039296081576034425 0.0011052948563375145 0 -0.038807292876660529 0.0020819114512105972 0 -0.039810817801941421 0.0017691615816547649 0 -0.038807292876660529 0.0020819114512105972 0 -0.039896154863614114 0.0025880626007345944 0 -0.040556249911697893 0.0019989654350943131 0 -0.039810817801941421 0.0017691615816547649 0 -0.039896154863614114 0.0025880626007345944 0 -0.039338928168452976 0.0038729358246104967 0 -0.04098919383701876 0.0031850140700745559 0 -0.039896154863614114 0.0025880626007345944 0 -0.039338928168452976 0.0038729358246104967 0 -0.038807292876660529 0.0020819114512105972 0 -0.039896154863614114 0.0025880626007345944 0 -0.040274947351189132 0.0017295675676627955 0 -0.04284784564108652 0.0026225402387427071 0 -0.035955889453760964 0.00075910962500101058 0 -0.035546344759183418 0.00075559311194312647 0 -0.035317385602433207 0.00018692097644617357 0 -0.040274947351189132 0.0017295675676627955 0 -0.036815395468128648 0.0010762394095784479 0 -0.035955889453760964 0.00075910962500101058 0 -0.035581281852640104 -8.8130824049563325e-05 0 -0.035317385602433207 0.00018692097644617357 0 -0.035546344759183418 0.00075559311194312647 0 -0.035196096200476659 0.00060089045795952065 0 -0.035317385602433207 0.00018692097644617357 0 -0.035375843965870069 0.00087958692641179181 0 -0.035546344759183418 0.00075559311194312647 0 -0.035196096200476659 0.00060089045795952065 0 -0.034996538082360813 0.00098800308865755341 0 -0.035196096200476659 0.00060089045795952065 0 -0.034612155994553986 0.00063855034890140288 0 -0.035196096200476659 0.00060089045795952065 0 -0.034612155994553986 0.00063855034890140288 0 -0.034469070650137781 8.6256171970676383e-05 0 -0.035196096200476659 0.00060089045795952065 0 -0.035317385602433207 0.00018692097644617357 0 -0.034469070650137781 8.6256171970676383e-05 0 -0.035317385602433207 0.00018692097644617357 0 -0.034469070650137781 8.6256171970676383e-05 0 -0.03442395213247746 -0.0011206590032634082 0 -0.035242387962714103 0.00012104338337255312 0 -0.034522938873146607 -0.00069497156297696156 0 -0.035581281852640104 -8.8130824049563325e-05 0 -0.035317385602433207 0.00018692097644617357 0 -0.034622010159052724 -0.00027466917278215074 0 -0.033398109437982208 -0.00015373516629332146 0 -0.034469070650137781 8.6256171970676383e-05 0 -0.03442395213247746 -0.0011206590032634082 0 -0.033398109437982208 -0.00015373516629332146 0 -0.032498123117027794 -0.0012454107252000209 0 -0.03442395213247746 -0.0011206590032634082 0 -0.033398109437982208 -0.00015373516629332146 0 -0.034469070650137781 8.6256171970676383e-05 0 -0.033695725057012446 0.00072728034853030657 0 -0.034612155994553986 0.00063855034890140288 0 -0.034469070650137781 8.6256171970676383e-05 0 -0.033695725057012446 0.00072728034853030657 0 -0.03425524834273462 0.0012576634129054043 0 -0.034612155994553986 0.00063855034890140288 0 -0.033695725057012446 0.00072728034853030657 0 -0.033398109437982208 -0.00015373516629332146 0 -0.033695725057012446 0.00072728034853030657 0 -0.031922762272915704 0.0007872881119626666 0 -0.033264299317593386 0.0016166225105407397 0 -0.033695725057012446 0.00072728034853030657 0 -0.031922762272915704 0.0007872881119626666 0 -0.031827019023884032 0.00077697164813201247 0 -0.030505250815485538 -0.00011429237867721476 0 -0.031922762272915704 0.0007872881119626666 0 -0.032498123117027794 -0.0012454107252000209 0 -0.030465680220221437 -0.00029830267905195981 0 -0.033398109437982208 -0.00015373516629332146 0 -0.031922762272915704 0.0007872881119626666 0 -0.032498123117027794 -0.0012454107252000209 0 -0.032498123117027794 -0.0012454107252000209 0 -0.031367780249820912 -0.0022561888786561653 0 -0.030465680220221437 -0.00029830267905195981 0 -0.032498123117027794 -0.0012454107252000209 0 -0.031367780249820912 -0.0022561888786561653 0 -0.033347104794246157 -0.002392697269003164 0 -0.031367780249820912 -0.0022561888786561653 0 -0.033347104794246157 -0.002392697269003164 0 -0.032259443681031806 -0.0037234706444858072 0 -0.035089734546556353 -0.00085256992952647377 0 -0.034010349803382314 -0.00081160967217351501 0 -0.034622010159052724 -0.00027466917278215074 0 -0.035089734546556353 -0.00085256992952647377 0 -0.034010349803382314 -0.00081160967217351501 0 -0.034184813771226411 -0.0013324689426240318 0 -0.035089734546556353 -0.00085256992952647377 0 -0.035581281852640104 -8.8130824049563325e-05 0 -0.034622010159052724 -0.00027466917278215074 0 -0.032498123117027794 -0.0012454107252000209 0 -0.033347104794246157 -0.002392697269003164 0 -0.03442395213247746 -0.0011206590032634082 0 -0.03368829695508474 -0.0016028110532379544 0 -0.034522938873146607 -0.00069497156297696156 0 -0.02984528008059506 0.0014757706121167327 0 -0.028053218980315594 0.0014317501417531687 0 -0.02882018333592919 0.00063768674191056602 0 -0.027446408593074425 0.0010162546283499654 0 -0.02882018333592919 0.00063768674191056602 0 -0.027971008369279699 0.00017103201778812237 0 -0.026339952065164405 0.00099596052232279195 0 -0.027446408593074425 0.0010162546283499654 0 -0.027971008369279699 0.00017103201778812237 0 -0.028053218980315594 0.0014317501417531687 0 -0.027446408593074425 0.0010162546283499654 0 -0.02882018333592919 0.00063768674191056602 0 -0.02984528008059506 0.0014757706121167327 0 -0.031922762272915704 0.0007872881119626666 0 -0.030493206960369404 4.7353291619872719e-05 0 -0.02882018333592919 0.00063768674191056602 0 -0.030493206960369404 4.7353291619872719e-05 0 -0.029324859682583963 -0.00071048217076406241 0 -0.02984528008059506 0.0014757706121167327 0 -0.02882018333592919 0.00063768674191056602 0 -0.030493206960369404 4.7353291619872719e-05 0 -0.031367780249820912 -0.0022561888786561653 0 -0.030465680220221437 -0.00029830267905195981 0 -0.030078214024160273 -0.0016826318357814989 0 -0.031367780249820912 -0.0022561888786561653 0 -0.030078214024160273 -0.0016826318357814989 0 -0.030024823163504546 -0.0030795806143856775 0 -0.030078214024160273 -0.0016826318357814989 0 -0.029120713241208199 -0.0024291415760372016 0 -0.028813232894666932 -0.0014399350273922623 0 -0.030078214024160273 -0.0016826318357814989 0 -0.029120713241208199 -0.0024291415760372016 0 -0.030024823163504546 -0.0030795806143856775 0 -0.030465680220221437 -0.00029830267905195981 0 -0.030078214024160273 -0.0016826318357814989 0 -0.028813232894666932 -0.0014399350273922623 0 -0.030505250815485538 -0.00011429237867721476 0 -0.029063841614978176 -0.0010992462770159752 0 -0.02882018333592919 0.00063768674191056602 0 -0.029324859682583963 -0.00071048217076406241 0 -0.027971008369279699 0.00017103201778812237 0 -0.029324859682583963 -0.00071048217076406241 0 -0.028255100506614717 -0.00094351595856482628 0 -0.027971008369279699 0.00017103201778812237 0 -0.029120713241208199 -0.0024291415760372016 0 -0.028813232894666932 -0.0014399350273922623 0 -0.027001929172604178 -0.0026454256417848851 0 -0.029324859682583963 -0.00071048217076406241 0 -0.028255100506614717 -0.00094351595856482628 0 -0.027933571232973992 -0.0021504971833836393 0 -0.029063841614978176 -0.0010992462770159752 0 -0.02740935646832884 -0.0024155161193089502 0 -0.028255100506614717 -0.00094351595856482628 0 -0.026856593502261869 -0.0013166183625087505 0 -0.027933571232973992 -0.0021504971833836393 0 -0.026856593502261869 -0.0013166183625087505 0 -0.026312261958543255 -0.0026423112055487218 0 -0.027933571232973992 -0.0021504971833836393 0 -0.026339952065164405 0.00099596052232279195 0 -0.026856593502261869 -0.0013166183625087505 0 -0.027971008369279699 0.00017103201778812237 0 -0.028255100506614717 -0.00094351595856482628 0 -0.026856593502261869 -0.0013166183625087505 0 -0.027971008369279699 0.00017103201778812237 0 -0.025319656829852141 -0.0048530380383346094 0 -0.026441041949885342 -0.0044256208547967428 0 -0.026107957861760154 -0.0052873784176521461 0 -0.025319656829852141 -0.0048530380383346094 0 -0.026441041949885342 -0.0044256208547967428 0 -0.025736629499502287 -0.0039463109388868664 0 -0.026441041949885342 -0.0044256208547967428 0 -0.027460691546278126 -0.0055368736342155519 0 -0.026107957861760154 -0.0052873784176521461 0 -0.026441041949885342 -0.0044256208547967428 0 -0.025736629499502287 -0.0039463109388868664 0 -0.0271225911578023 -0.0038204850335409927 0 -0.025736629499502287 -0.0039463109388868664 0 -0.027001929172604178 -0.0026454256417848851 0 -0.0271225911578023 -0.0038204850335409927 0 -0.025239490366509573 -0.0040286278793413548 0 -0.026312261958543255 -0.0026423112055487218 0 -0.027933571232973992 -0.0021504971833836393 0 -0.025410815981376043 -0.0039574912762633608 0 -0.02740935646832884 -0.0024155161193089502 0 -0.025239490366509573 -0.0040286278793413548 0 -0.025736629499502287 -0.0039463109388868664 0 -0.027001929172604178 -0.0026454256417848851 0 -0.029120713241208199 -0.0024291415760372016 0 -0.027001929172604178 -0.0026454256417848851 0 -0.028231103818675787 -0.0033002894725783567 0 -0.027001929172604178 -0.0026454256417848851 0 -0.028231103818675787 -0.0033002894725783567 0 -0.0271225911578023 -0.0038204850335409927 0 -0.028231103818675787 -0.0033002894725783567 0 -0.028100270015853249 -0.0041506184480444167 0 -0.0271225911578023 -0.0038204850335409927 0 -0.028100270015853249 -0.0041506184480444167 0 -0.0271225911578023 -0.0038204850335409927 0 -0.027460691546278126 -0.0055368736342155519 0 -0.026441041949885342 -0.0044256208547967428 0 -0.0271225911578023 -0.0038204850335409927 0 -0.027460691546278126 -0.0055368736342155519 0 -0.028100270015853249 -0.0041506184480444167 0 -0.028572960105753206 -0.0048808584382873769 0 -0.027460691546278126 -0.0055368736342155519 0 -0.028572960105753206 -0.0048808584382873769 0 -0.029306631473047438 -0.0038288482586560381 0 -0.029719707295405809 -0.0055612232985940528 0 -0.029539887358917809 -0.0040700151738967162 0 -0.028356270105758814 -0.0048000750818530348 0 -0.028100270015853249 -0.0041506184480444167 0 -0.028572960105753206 -0.0048808584382873769 0 -0.029306631473047438 -0.0038288482586560381 0 -0.028231103818675787 -0.0033002894725783567 0 -0.028100270015853249 -0.0041506184480444167 0 -0.029306631473047438 -0.0038288482586560381 0 -0.029120920434711865 -0.0024709679545398848 0 -0.029539887358917809 -0.0040700151738967162 0 -0.029120713241208199 -0.0024291415760372016 0 -0.028231103818675787 -0.0033002894725783567 0 -0.029306631473047438 -0.0038288482586560381 0 -0.029120713241208199 -0.0024291415760372016 0 -0.029558329140726192 -0.0040016977342834962 0 -0.030024823163504546 -0.0030795806143856775 0 -0.029558329140726192 -0.0040016977342834962 0 -0.030024823163504546 -0.0030795806143856775 0 -0.030478087934425632 -0.0039050973483103655 0 -0.031367780249820912 -0.0022561888786561653 0 -0.030024823163504546 -0.0030795806143856775 0 -0.030937243802888245 -0.00343723129231643 0 -0.030478087934425632 -0.0039050973483103655 0 -0.030937243802888245 -0.00343723129231643 0 -0.031088080474652117 -0.0041866391634277902 0 -0.030024823163504546 -0.0030795806143856775 0 -0.030478087934425632 -0.0039050973483103655 0 -0.030937243802888245 -0.00343723129231643 0 -0.030478087934425632 -0.0039050973483103655 0 -0.030631034420551984 -0.0047778451195399927 0 -0.031088080474652117 -0.0041866391634277902 0 -0.029558329140726192 -0.0040016977342834962 0 -0.030631034420551984 -0.0047778451195399927 0 -0.029888448200243004 -0.0054315778757540517 0 -0.030631034420551984 -0.0047778451195399927 0 -0.030012129290435008 -0.0053086999360198251 0 -0.031138426518942192 -0.0050553014080292075 0 -0.029558329140726192 -0.0040016977342834962 0 -0.030478087934425632 -0.0039050973483103655 0 -0.030631034420551984 -0.0047778451195399927 0 -0.030475892119950859 -0.0045461669389973694 0 -0.028356270105758814 -0.0048000750818530348 0 -0.030012129290435008 -0.0053086999360198251 0 -0.030193548193863717 -0.0061812368067144362 0 -0.031138426518942192 -0.0050553014080292075 0 -0.028401472998553379 -0.0032289169498766162 0 -0.032460050460174347 -0.0034550502818617391 0 -0.032651999829938695 -0.0023180901399908168 0 -0.033033776452393943 -0.0018510033784855735 0 -0.033053513839737633 -0.0022195668223360743 0 -0.028356270105758814 -0.0048000750818530348 0 -0.028401472998553379 -0.0032289169498766162 0 -0.032651999829938695 -0.0023180901399908168 0 -0.032988128568878512 -0.0025241317665355687 0 -0.032742437598067275 -0.0026858706232448341 0 -0.028401472998553379 -0.0032289169498766162 0 -0.028884764581172714 -0.0026747937498349914 0 -0.024836134284554692 -0.0017564427116584802 0 -0.024208291189964089 -0.0025221606637186771 0 -0.024982734803876108 -0.002505686448450378 0 -0.032651999829938695 -0.0023180901399908168 0 -0.033053513839737633 -0.0022195668223360743 0 -0.032988128568878512 -0.0025241317665355687 0 -0.024705953760372726 -0.0027069411456090006 0 -0.023988673523204804 -0.0042594494191148637 0 -0.022978383358548383 -0.0041965127400386271 0 -0.028401472998553379 -0.0032289169498766162 0 -0.018210564511907668 -0.0022473729857736199 0 -0.024705953760372726 -0.0027069411456090006 0 -0.024935812731749489 -0.0038723499743081413 0 -0.023988673523204804 -0.0042594494191148637 0 -0.024935812731749489 -0.0038723499743081413 0 -0.023988673523204804 -0.0042594494191148637 0 -0.023839798844799344 -0.0052445940486326378 0 -0.023988673523204804 -0.0042594494191148637 0 -0.022830880591668292 -0.0044230571965907734 0 -0.023839798844799344 -0.0052445940486326378 0 -0.019912802147602597 -0.0063840060605292988 0 -0.018210564511907668 -0.0022473729857736199 0 -0.028356270105758814 -0.0048000750818530348 0 -0.024120370198511525 -0.0056195523532850331 0 -0.029719707295405809 -0.0055612232985940528 0 -0.028267428738360245 -0.0064976596892078143 0 -0.027694099304561536 -0.0074025806519034494 0 -0.028572960105753206 -0.0048808584382873769 0 -0.029719707295405809 -0.0055612232985940528 0 -0.028267428738360245 -0.0064976596892078143 0 -0.027036768752037314 -0.0054976157459558942 0 -0.027170565728597343 -0.0066585008557168866 0 -0.025539863664781809 -0.0061773776780423206 0 -0.028572960105753206 -0.0048808584382873769 0 -0.028267428738360245 -0.0064976596892078143 0 -0.027036768752037314 -0.0054976157459558942 0 -0.028311727357074313 -0.0050109774856421383 0 -0.027498042748218248 -0.0054267213043007112 0 -0.028267428738360245 -0.0064976596892078143 0 -0.027036768752037314 -0.0054976157459558942 0 -0.027170565728597343 -0.0066585008557168866 0 -0.027170565728597343 -0.0066585008557168866 0 -0.027636704414519753 -0.0074486303979064876 0 -0.02744812724843201 -0.0077333282435046386 0 -0.027052235809229726 -0.0059696109752952302 0 -0.024120370198511525 -0.0056195523532850331 0 -0.019912802147602597 -0.0063840060605292988 0 -0.024198633280023168 -0.0072667522784196073 0 -0.027170565728597343 -0.0066585008557168866 0 -0.02744812724843201 -0.0077333282435046386 0 -0.025539863664781809 -0.0061773776780423206 0 -0.028267428738360245 -0.0064976596892078143 0 -0.027170565728597343 -0.0066585008557168866 0 -0.027636704414519753 -0.0074486303979064876 0 -0.023988673523204804 -0.0042594494191148637 0 -0.022978383358548383 -0.0041965127400386271 0 -0.022830880591668292 -0.0044230571965907734 0 -0.024120370198511525 -0.0056195523532850331 0 -0.019912802147602597 -0.0063840060605292988 0 -0.021550732464444694 -0.00946918345150876 0 -0.01988436879625868 -0.0095237189658554135 0 -0.019681199493342752 -0.0079326963086645552 0 -0.018376243913241972 -0.010095157852417228 0 -0.01988436879625868 -0.0095237189658554135 0 -0.019681199493342752 -0.0079326963086645552 0 -0.027460691546278126 -0.0055368736342155519 0 -0.025818359444665043 -0.0065760829259506656 0 -0.026107957861760154 -0.0052873784176521461 0 -0.027498042748218248 -0.0054267213043007112 0 -0.024198633280023168 -0.0072667522784196073 0 -0.024679368915499666 -0.0058602624386700176 0 -0.025319656829852141 -0.0048530380383346094 0 -0.026107957861760154 -0.0052873784176521461 0 -0.024679368915499666 -0.0058602624386700176 0 -0.025818359444665043 -0.0065760829259506656 0 -0.026107957861760154 -0.0052873784176521461 0 -0.024730840094108624 -0.0066526265727728682 0 -0.024198633280023168 -0.0072667522784196073 0 -0.034624721240526637 -0.0016134049948630072 0 -0.034184813771226411 -0.0013324689426240318 0 -0.03377047547590202 -0.0019650175920070331 0 -0.035089734546556353 -0.00085256992952647377 0 -0.034624721240526637 -0.0016134049948630072 0 -0.034184813771226411 -0.0013324689426240318 0 -0.036716888462580692 -0.00012940581125189528 0 -0.036091430991689002 -0.0011534059212710581 0 -0.034010349803382314 -0.00081160967217351501 0 -0.034184813771226411 -0.0013324689426240318 0 -0.033484302730025145 -0.0013537161587907367 0 -0.03368829695508474 -0.0016028110532379544 0 -0.032820647239147946 -0.0025574407271529999 0 -0.030937243802888245 -0.00343723129231643 0 -0.032259443681031806 -0.0037234706444858072 0 -0.031088080474652117 -0.0041866391634277902 0 -0.031367780249820912 -0.0022561888786561653 0 -0.030937243802888245 -0.00343723129231643 0 -0.032259443681031806 -0.0037234706444858072 0 -0.033484302730025145 -0.0013537161587907367 0 -0.033033776452393943 -0.0018510033784855735 0 -0.033329715488133765 -0.0020545748020152068 0 -0.032820647239147946 -0.0025574407271529999 0 -0.032460050460174347 -0.0034550502818617391 0 -0.032259443681031806 -0.0037234706444858072 0 -0.031088080474652117 -0.0041866391634277902 0 -0.031138426518942192 -0.0050553014080292075 0 -0.030631034420551984 -0.0047778451195399927 0 -0.031088080474652117 -0.0041866391634277902 0 -0.031138426518942192 -0.0050553014080292075 0 -0.034184813771226411 -0.0013324689426240318 0 -0.033484302730025145 -0.0013537161587907367 0 -0.03377047547590202 -0.0019650175920070331 0 -0.033484302730025145 -0.0013537161587907367 0 -0.03377047547590202 -0.0019650175920070331 0 -0.033329715488133765 -0.0020545748020152068 0 -0.03377047547590202 -0.0019650175920070331 0 -0.033329715488133765 -0.0020545748020152068 0 -0.033296334077658911 -0.0023634942703987128 0 -0.033033776452393943 -0.0018510033784855735 0 -0.033329715488133765 -0.0020545748020152068 0 -0.033053513839737633 -0.0022195668223360743 0 -0.033329715488133765 -0.0020545748020152068 0 -0.033053513839737633 -0.0022195668223360743 0 -0.033296334077658911 -0.0023634942703987128 0 -0.033296334077658911 -0.0023634942703987128 0 -0.032988128568878512 -0.0025241317665355687 0 -0.033206525521477716 -0.0027312089505766397 0 -0.033053513839737633 -0.0022195668223360743 0 -0.033296334077658911 -0.0023634942703987128 0 -0.032988128568878512 -0.0025241317665355687 0 -0.03377047547590202 -0.0019650175920070331 0 -0.033296334077658911 -0.0023634942703987128 0 -0.033597338045859598 -0.0025944502779013663 0 -0.033296334077658911 -0.0023634942703987128 0 -0.033597338045859598 -0.0025944502779013663 0 -0.033206525521477716 -0.0027312089505766397 0 -0.03377047547590202 -0.0019650175920070331 0 -0.034201836294894018 -0.0022922427913486527 0 -0.033597338045859598 -0.0025944502779013663 0 -0.034624721240526637 -0.0016134049948630072 0 -0.03377047547590202 -0.0019650175920070331 0 -0.034201836294894018 -0.0022922427913486527 0 -0.037869796804530891 -0.0016062275514054831 0 -0.037572557324889268 -0.00069606219275330779 0 -0.037027185354226638 -0.0015887050005318492 0 -0.036091430991689002 -0.0011534059212710581 0 -0.035624702260442218 -0.0019409077182213727 0 -0.037027185354226638 -0.0015887050005318492 0 -0.037102427450605276 -0.0016600513041171658 0 -0.036643172630023431 -0.0016422478612376638 0 -0.037869796804530891 -0.0016062275514054831 0 -0.037027185354226638 -0.0015887050005318492 0 -0.037102427450605276 -0.0016600513041171658 0 -0.037102427450605276 -0.0016600513041171658 0 -0.036643172630023431 -0.0016422478612376638 0 -0.036951993126445426 -0.0016120068343973236 0 -0.036643172630023431 -0.0016422478612376638 0 -0.036951993126445426 -0.0016120068343973236 0 -0.03667479870577342 -0.0016032957305569732 0 -0.036643172630023431 -0.0016422478612376638 0 -0.036466808961292285 -0.0016456477831778833 0 -0.03667479870577342 -0.0016032957305569732 0 -0.035153171768065636 -0.0022256707494753554 0 -0.035422450076165984 -0.002819133709248663 0 -0.033821342642492598 -0.0028692953303521744 0 -0.033380223645831764 -0.0029663631305165781 0 -0.033550142292139103 -0.0034125327765433988 0 -0.036643172630023431 -0.0016422478612376638 0 -0.036381695158402956 -0.0016657419844442797 0 -0.036181868293135459 -0.0016942095155120663 0 -0.036643172630023431 -0.0016422478612376638 0 -0.036466808961292285 -0.0016456477831778833 0 -0.036381695158402956 -0.0016657419844442797 0 -0.034201836294894018 -0.0022922427913486527 0 -0.033821342642492598 -0.0028692953303521744 0 -0.033597338045859598 -0.0025944502779013663 0 -0.035624702260442218 -0.0019409077182213727 0 -0.035153171768065636 -0.0022256707494753554 0 -0.033597338045859598 -0.0025944502779013663 0 -0.033206525521477716 -0.0027312089505766397 0 -0.033380223645831764 -0.0029663631305165781 0 -0.033821342642492598 -0.0028692953303521744 0 -0.033597338045859598 -0.0025944502779013663 0 -0.033380223645831764 -0.0029663631305165781 0 -0.032988128568878512 -0.0025241317665355687 0 -0.033206525521477716 -0.0027312089505766397 0 -0.032969132746119914 -0.0027954098087830796 0 -0.033206525521477716 -0.0027312089505766397 0 -0.032969132746119914 -0.0027954098087830796 0 -0.033098820664205462 -0.0029943527768737824 0 -0.032138344813937673 -0.0025517182518855334 0 -0.03110458827179903 -0.0017447888514783901 0 -0.031469817458873152 -0.0031336065789766602 0 -0.032969132746119914 -0.0027954098087830796 0 -0.033098820664205462 -0.0029943527768737824 0 -0.032813014518021329 -0.0030135760638752228 0 -0.033206525521477716 -0.0027312089505766397 0 -0.033098820664205462 -0.0029943527768737824 0 -0.033380223645831764 -0.0029663631305165781 0 -0.033098820664205462 -0.0029943527768737824 0 -0.033165980636180176 -0.0032103406148934394 0 -0.033045000938085767 -0.0031902238501469176 0 -0.033098820664205462 -0.0029943527768737824 0 -0.033045000938085767 -0.0031902238501469176 0 -0.032813014518021329 -0.0030135760638752228 0 -0.033113796742492402 -0.0034641237340029955 0 -0.025984676697610919 -0.0021363201985645022 0 -0.033098820664205462 -0.0029943527768737824 0 -0.033380223645831764 -0.0029663631305165781 0 -0.033165980636180176 -0.0032103406148934394 0 -0.033380223645831764 -0.0029663631305165781 0 -0.033165980636180176 -0.0032103406148934394 0 -0.033550142292139103 -0.0034125327765433988 0 -0.033165980636180176 -0.0032103406148934394 0 -0.033098745546627534 -0.0034044450133578481 0 -0.033550142292139103 -0.0034125327765433988 0 -0.033098745546627534 -0.0034044450133578481 0 -0.032812872306019536 -0.0040596523656267957 0 -0.033550142292139103 -0.0034125327765433988 0 -0.033098745546627534 -0.0034044450133578481 0 -0.032274697521707245 -0.0035249570760405992 0 -0.032812872306019536 -0.0040596523656267957 0 -0.032138344813937673 -0.0025517182518855334 0 -0.032274697521707245 -0.0035249570760405992 0 -0.031469817458873152 -0.0031336065789766602 0 -0.032864310278007229 -0.0031783062354484378 0 -0.033113796742492402 -0.0034641237340029955 0 -0.033165980636180176 -0.0032103406148934394 0 -0.033098745546627534 -0.0034044450133578481 0 -0.033045000938085767 -0.0031902238501469176 0 -0.033098745546627534 -0.0034044450133578481 0 -0.032138344813937673 -0.0025517182518855334 0 -0.032274697521707245 -0.0035249570760405992 0 -0.032274697521707245 -0.0035249570760405992 0 -0.031809852142805545 -0.0042951686944304986 0 -0.031469817458873152 -0.0031336065789766602 0 -0.016338976436976443 -0.0033599753243844905 0 -0.024233950673210707 -0.0039912992174509108 0 -0.031809852142805545 -0.0042951686944304986 0 -0.032812872306019536 -0.0040596523656267957 0 -0.033111800753968905 -0.0050083553227495753 0 -0.032274697521707245 -0.0035249570760405992 0 -0.031809852142805545 -0.0042951686944304986 0 -0.032812872306019536 -0.0040596523656267957 0 -0.032812872306019536 -0.0040596523656267957 0 -0.033550142292139103 -0.0034125327765433988 0 -0.033111800753968905 -0.0050083553227495753 0 -0.035422450076165984 -0.002819133709248663 0 -0.030565070509874885 -0.00187972691063351 0 -0.036055446766079642 -0.0017452677846166765 0 -0.036039997690441611 -0.0017389224054287131 0 -0.036240320461676696 -0.0016985421861285151 0 -0.036055446766079642 -0.0017452677846166765 0 -0.036181868293135459 -0.0016942095155120663 0 -0.035968887538963379 -0.0017595833346149585 0 -0.036055446766079642 -0.0017452677846166765 0 -0.036181868293135459 -0.0016942095155120663 0 -0.036240320461676696 -0.0016985421861285151 0 -0.036039997690441611 -0.0017389224054287131 0 -0.036371562709022885 -0.0016377508713887024 0 -0.036240320461676696 -0.0016985421861285151 0 -0.036371562709022885 -0.0016377508713887024 0 -0.036466808961292285 -0.0016456477831778833 0 -0.03667479870577342 -0.0016032957305569732 0 -0.036371562709022885 -0.0016377508713887024 0 -0.036466808961292285 -0.0016456477831778833 0 -0.036240320461676696 -0.0016985421861285151 0 -0.036466808961292285 -0.0016456477831778833 0 -0.036381695158402956 -0.0016657419844442797 0 -0.036240320461676696 -0.0016985421861285151 0 -0.036381695158402956 -0.0016657419844442797 0 -0.036181868293135459 -0.0016942095155120663 0 -0.036240320461676696 -0.0016985421861285151 0 -0.011609534818093707 -0.0072954056314985284 0 -0.011764041193993064 -0.0046686917903375298 0 -0.011196565186609234 -0.0050601493905963963 0 -0.010973801113906511 -0.0038986298470272212 0 -0.010737166768653453 -0.0055245197488079743 0 -0.0095665192638016167 -0.0059845082088818861 0 -0.010973801113906511 -0.0038986298470272212 0 -0.010737166768653453 -0.0055245197488079743 0 -0.01178581469841187 -0.0071574916566677161 0 -0.014009504988427743 -0.0061933349105396324 0 -0.013493802216801583 -0.0056979290771416793 0 -0.011196565186609234 -0.0050601493905963963 0 -0.011942614824997162 -0.0049597601914072413 0 -0.010737166768653453 -0.0055245197488079743 0 -0.011196565186609234 -0.0050601493905963963 0 -0.010973801113906511 -0.0038986298470272212 0 -0.011502243287415644 -0.0044655938248669685 0 -0.015399851585172588 -0.0042476552948208139 0 -0.014009504988427743 -0.0061933349105396324 0 -0.013493802216801583 -0.0056979290771416793 0 -0.021550732464444694 -0.00946918345150876 0 -0.01988436879625868 -0.0095237189658554135 0 -0.019593681367604778 -0.011113681903467844 0 -0.018376243913241972 -0.010095157852417228 0 -0.01988436879625868 -0.0095237189658554135 0 -0.019593681367604778 -0.011113681903467844 0 -0.019912802147602597 -0.0063840060605292988 0 -0.016248211221043151 -0.0085658510407418797 0 -0.012250322492869246 -0.0031104110136692081 0 -0.012009662838317193 -0.0040140635365350924 0 -0.013719508934242284 -0.0027935138219975461 0 -0.010973801113906511 -0.0038986298470272212 0 -0.012250322492869246 -0.0031104110136692081 0 -0.012009662838317193 -0.0040140635365350924 0 -0.012439111501743393 -0.0017516613898904262 0 -0.010973801113906511 -0.0038986298470272212 0 -0.012250322492869246 -0.0031104110136692081 0 -0.019912802147602597 -0.0063840060605292988 0 -0.011764041193993064 -0.0046686917903375298 0 -0.012439111501743393 -0.0017516613898904262 0 -0.012250322492869246 -0.0031104110136692081 0 -0.013719508934242284 -0.0027935138219975461 0 -0.012009662838317193 -0.0040140635365350924 0 -0.011942614824997162 -0.0049597601914072413 0 -0.013719508934242284 -0.0027935138219975461 0 -0.0077569811143493291 -0.0036885935005516847 0 -0.018210564511907668 -0.0022473729857736199 0 -0.012009662838317193 -0.0040140635365350924 0 -0.011502243287415644 -0.0044655938248669685 0 -0.011942614824997162 -0.0049597601914072413 0 -0.010973801113906511 -0.0038986298470272212 0 -0.012009662838317193 -0.0040140635365350924 0 -0.011502243287415644 -0.0044655938248669685 0 -0.011196565186609234 -0.0050601493905963963 0 -0.011502243287415644 -0.0044655938248669685 0 -0.011942614824997162 -0.0049597601914072413 0 -0.01251709035613731 -0.0027918782989475505 0 -0.014478789283960262 -0.0024632758866280705 0 -0.014282213387829494 -0.00055729010255777195 0 -0.01251709035613731 -0.0027918782989475505 0 -0.014478789283960262 -0.0024632758866280705 0 -0.014804065686682615 -0.0042763704347234845 0 -0.014478789283960262 -0.0024632758866280705 0 -0.014282213387829494 -0.00055729010255777195 0 -0.016364081513329756 -0.0022551788578271757 0 -0.028884764581172714 -0.0026747937498349914 0 -0.025984676697610919 -0.0021363201985645022 0 -0.032969132746119914 -0.0027954098087830796 0 -0.032742437598067275 -0.0026858706232448341 0 -0.032813014518021329 -0.0030135760638752228 0 -0.024208291189964089 -0.0025221606637186771 0 -0.024982734803876108 -0.002505686448450378 0 -0.025145706649952304 -0.0032557998236451367 0 -0.018210564511907668 -0.0022473729857736199 0 -0.025984676697610919 -0.0021363201985645022 0 -0.032988128568878512 -0.0025241317665355687 0 -0.032969132746119914 -0.0027954098087830796 0 -0.032742437598067275 -0.0026858706232448341 0 -0.025984676697610919 -0.0021363201985645022 0 -0.024233950673210707 -0.0039912992174509108 0 -0.014478789283960262 -0.0024632758866280705 0 -0.016364081513329756 -0.0022551788578271757 0 -0.014804065686682615 -0.0042763704347234845 0 -0.017057634074810171 -0.0057255018546067118 0 -0.016702441074436202 -0.0040035195158723783 0 -0.014804065686682615 -0.0042763704347234845 0 -0.016364081513329756 -0.0022551788578271757 0 -0.016702441074436202 -0.0040035195158723783 0 -0.014804065686682615 -0.0042763704347234845 0 -0.016338976436976443 -0.0033599753243844905 0 -0.0065850340368723463 -0.0032919493930283414 0 -0.0011888254538598318 -0.0027835021415824591 0 -0.0012712069467301851 -0.0029512573284585725 0 -0.0012040286726735228 -0.0027614055982086816 0 -0.0012712069467301851 -0.0029512573284585725 0 -0.0013586529920368113 -0.0028363379307218229 0 -0.0012040286726735228 -0.0027614055982086816 0 -0.0077569811143493291 -0.0036885935005516847 0 -0.0065850340368723463 -0.0032919493930283414 0 -0.0014901858989039515 -0.0031162352660248863 0 -0.0012712069467301851 -0.0029512573284585725 0 -0.0013586529920368113 -0.0028363379307218229 0 -0.0014901858989039515 -0.0031162352660248863 0 -0.0013586529920368113 -0.0028363379307218229 0 -0.0015832608123083831 -0.0029520363302917999 0 -0.0017303895904858023 -0.0027680121034264703 0 -0.0015832608123083831 -0.0029520363302917999 0 -0.0015327591301642518 -0.0027847287820727058 0 -0.0013586529920368113 -0.0028363379307218229 0 -0.0015832608123083831 -0.0029520363302917999 0 -0.0015327591301642518 -0.0027847287820727058 0 -0.011942614824997162 -0.0049597601914072413 0 -0.010367297345242301 -0.0068204237292006607 0 -0.010737166768653453 -0.0055245197488079743 0 -0.0077569811143493291 -0.0036885935005516847 0 -0.0059731836831251554 -0.0051987323948297914 0 -0.0095665192638016167 -0.0059845082088818861 0 -0.010367297345242301 -0.0068204237292006607 0 -0.010737166768653453 -0.0055245197488079743 0 -0.0010800160694790437 -0.0025433550032194678 0 -0.00085595627726207631 -0.0018910384868830053 0 -0.00055558645789525497 -0.0023153487396723655 0 -0.00075429922828266561 -0.0024540956958748437 0 -0.00081963016935221499 -0.0024766513916874102 0 -0.00055558645789525497 -0.0023153487396723655 0 -0.00059211187867026338 -0.0028400386173792471 0 -5.9644900970325439e-05 -0.0021686278204900177 0 -0.00059211187867026338 -0.0028400386173792471 0 4.5977507686173941e-05 -0.0022051576636841507 0 -5.9644900970325439e-05 -0.0021686278204900177 0 -0.0015650288028243697 -0.0026148302474993529 0 -0.0013975771486148072 -0.0025769560244830389 0 -0.0013650416597758535 -0.0024040805780971381 0 -0.0015650288028243697 -0.0026148302474993529 0 -0.0013840085178747226 -0.0026808570389638691 0 -0.0013975771486148072 -0.0025769560244830389 0 -0.0010800160694790437 -0.0025433550032194678 0 -0.00055558645789525497 -0.0023153487396723655 0 -0.00059211187867026338 -0.0028400386173792471 0 -0.0015650288028243697 -0.0026148302474993529 0 -0.0015327591301642518 -0.0027847287820727058 0 -0.0013840085178747226 -0.0026808570389638691 0 -0.0017303895904858023 -0.0027680121034264703 0 -0.0015650288028243697 -0.0026148302474993529 0 -0.0015327591301642518 -0.0027847287820727058 0 -0.0013586529920368113 -0.0028363379307218229 0 -0.0015327591301642518 -0.0027847287820727058 0 -0.0013840085178747226 -0.0026808570389638691 0 -0.0013586529920368113 -0.0028363379307218229 0 -0.0013840085178747226 -0.0026808570389638691 0 -0.0011772240973995831 -0.0026659695321500604 0 -0.0013840085178747226 -0.0026808570389638691 0 -0.0012658499615054765 -0.0025824142270937326 0 -0.0011772240973995831 -0.0026659695321500604 0 -0.0013840085178747226 -0.0026808570389638691 0 -0.0012658499615054765 -0.0025824142270937326 0 -0.0013975771486148072 -0.0025769560244830389 0 -0.0012658499615054765 -0.0025824142270937326 0 -0.0013975771486148072 -0.0025769560244830389 0 -0.0013650416597758535 -0.0024040805780971381 0 -0.00081963016935221499 -0.0024766513916874102 0 -0.0010501088280062555 -0.0024987940621483593 0 -0.0012658499615054765 -0.0025824142270937326 0 -0.0013650416597758535 -0.0024040805780971381 0 -0.0010370675122779905 -0.002543527488884042 0 -0.00058211127626177697 -0.0025226247246026945 0 -0.0010370675122779905 -0.002543527488884042 0 -0.00073597255958888195 -0.002613737180696261 0 -0.0010370675122779905 -0.002543527488884042 0 -0.0011772240973995831 -0.0026659695321500604 0 -0.0011101142212478581 -0.0026226794799330288 0 -0.0010370675122779905 -0.002543527488884042 0 -0.0011101142212478581 -0.0026226794799330288 0 -0.00096926376037399212 -0.0026409362020871564 0 -0.0012658499615054765 -0.0025824142270937326 0 -0.0010370675122779905 -0.002543527488884042 0 -0.0011772240973995831 -0.0026659695321500604 0 -0.0011772240973995831 -0.0026659695321500604 0 -0.0012040286726735228 -0.0027614055982086816 0 -0.0011101142212478581 -0.0026226794799330288 0 -0.0013586529920368113 -0.0028363379307218229 0 -0.0011772240973995831 -0.0026659695321500604 0 -0.0012040286726735228 -0.0027614055982086816 0 -0.0011888254538598318 -0.0027835021415824591 0 -0.0012040286726735228 -0.0027614055982086816 0 -0.0011101142212478581 -0.0026226794799330288 0 -0.0011101142212478581 -0.0026226794799330288 0 -0.0010710478718385984 -0.0026672476345701024 0 -0.0011688529429675469 -0.0026359600416232965 0 -0.0011101142212478581 -0.0026226794799330288 0 -0.0010710478718385984 -0.0026672476345701024 0 -0.00096926376037399212 -0.0026409362020871564 0 -0.0010710478718385984 -0.0026672476345701024 0 -0.00097528753918105671 -0.0028406681573282635 0 -0.001240986601543659 -0.002693499845254597 0 -0.0010710478718385984 -0.0026672476345701024 0 -0.00097528753918105671 -0.0028406681573282635 0 -0.00078050771958505501 -0.0028323037042861515 0 -0.00097528753918105671 -0.0028406681573282635 0 -0.00078050771958505501 -0.0028323037042861515 0 -0.00066458169570669226 -0.0031209692596729718 0 -0.0010710478718385984 -0.0026672476345701024 0 -0.00078050771958505501 -0.0028323037042861515 0 -0.00096926376037399212 -0.0026409362020871564 0 -0.00078050771958505501 -0.0028323037042861515 0 -0.00096926376037399212 -0.0026409362020871564 0 -0.00079382703008268622 -0.0026836759360994505 0 -0.0010370675122779905 -0.002543527488884042 0 -0.00096926376037399212 -0.0026409362020871564 0 -0.00079382703008268622 -0.0026836759360994505 0 -0.0010370675122779905 -0.002543527488884042 0 -0.00073597255958888195 -0.002613737180696261 0 -0.00079382703008268622 -0.0026836759360994505 0 -0.00073597255958888195 -0.002613737180696261 0 -0.0006004043603483046 -0.0026940913118339801 0 -0.00079382703008268622 -0.0026836759360994505 0 -0.00058211127626177697 -0.0025226247246026945 0 -0.00073597255958888195 -0.002613737180696261 0 -0.00052675437329974717 -0.002539413508933496 0 -0.00052675437329974717 -0.002539413508933496 0 -0.0006004043603483046 -0.0026940913118339801 0 -0.00041963667038534612 -0.0026972904592341093 0 -0.00073597255958888195 -0.002613737180696261 0 -0.00052675437329974717 -0.002539413508933496 0 -0.0006004043603483046 -0.0026940913118339801 0 -0.00081963016935221499 -0.0024766513916874102 0 -0.00049829042857572144 -0.0024953253169721977 0 -0.0006004043603483046 -0.0026940913118339801 0 -0.00050006879947344534 -0.0028143102710871965 0 -0.00041963667038534612 -0.0026972904592341093 0 -0.0006004043603483046 -0.0026940913118339801 0 -0.00064675237550463759 -0.0027924616683438238 0 -0.00050006879947344534 -0.0028143102710871965 0 -0.0006004043603483046 -0.0026940913118339801 0 -0.00079382703008268622 -0.0026836759360994505 0 -0.00064675237550463759 -0.0027924616683438238 0 -0.00078050771958505501 -0.0028323037042861515 0 -0.00064675237550463759 -0.0027924616683438238 0 -0.00053811641404448776 -0.0029187299827779741 0 -0.00078050771958505501 -0.0028323037042861515 0 -0.00053811641404448776 -0.0029187299827779741 0 -0.0005101259321391295 -0.003085201412706318 0 -0.00078050771958505501 -0.0028323037042861515 0 -0.00079382703008268622 -0.0026836759360994505 0 -0.00064675237550463759 -0.0027924616683438238 0 -0.00053811641404448776 -0.0029187299827779741 0 -0.00050006879947344534 -0.0028143102710871965 0 -0.00033696547113981298 -0.0029651541855278806 0 -0.00064675237550463759 -0.0027924616683438238 0 -0.00053811641404448776 -0.0029187299827779741 0 -0.00050006879947344534 -0.0028143102710871965 0 -0.00024330354226289916 -0.0026347168525620306 0 -0.00033696547113981298 -0.0029651541855278806 0 -0.00041963667038534612 -0.0026972904592341093 0 -0.00045797247475901911 -0.0014240720585423797 0 0.00027383409468827917 -0.0018112609783178903 0 -0.00050006879947344534 -0.0028143102710871965 0 -0.00033696547113981298 -0.0029651541855278806 0 -0.00041963667038534612 -0.0026972904592341093 0 -0.00024330354226289916 -0.0026347168525620306 0 -0.00052675437329974717 -0.002539413508933496 0 -0.00041963667038534612 -0.0026972904592341093 0 -0.00085595627726207631 -0.0018910384868830053 0 -0.00055558645789525497 -0.0023153487396723655 0 -5.9644900970325439e-05 -0.0021686278204900177 0 -0.00045797247475901911 -0.0014240720585423797 0 -0.00049829042857572144 -0.0024953253169721977 0 -0.031989056719494736 2.0370074706480402e-05 0 -0.028560727076870393 -0.00046174276292154377 0 -0.030478263863224074 -0.0022369450182262336 0 -0.034178218950905372 -0.00079751034525204611 0 -0.034883988396463561 -0.0019742802470333171 0 -0.035809202380622129 -0.001781275477450049 0 -0.034965862766679998 -0.0020733367929308168 0 -0.035691810885742178 -0.0017807775054827695 0 -0.036039997690441611 -0.0017389224054287131 0 -0.035809202380622129 -0.001781275477450049 0 -0.035691810885742178 -0.0017807775054827695 0 -0.036055446766079642 -0.0017452677846166765 0 -0.035809202380622129 -0.001781275477450049 0 -0.035968887538963379 -0.0017595833346149585 0 -0.036055446766079642 -0.0017452677846166765 0 -0.036039997690441611 -0.0017389224054287131 0 -0.035809202380622129 -0.001781275477450049 0 -0.034178218950905372 -0.00079751034525204611 0 -0.030565070509874885 -0.00187972691063351 0 -0.016338976436976443 -0.0033599753243844905 0 -0.008585687055245414 -0.0020201144925974077 0 -0.017660706915734969 -0.0013613367631108337 0 -0.018458641103337073 -0.0018492470756951019 0 -0.017830547718485253 -0.0022274621888362838 0 -0.0011888254538598318 -0.0027835021415824591 0 -0.0011101142212478581 -0.0026226794799330288 0 -0.0011688529429675469 -0.0026359600416232965 0 -0.016338976436976443 -0.0033599753243844905 0 -0.030565070509874885 -0.00187972691063351 0 -0.008585687055245414 -0.0020201144925974077 0 -0.011550193889880074 -0.0027364961269558279 0 -0.017830547718485253 -0.0022274621888362838 0 -0.018209824534749623 -0.0024726451588420626 0 -0.017942515176250194 -0.0031007338020920981 0 -0.018458641103337073 -0.0018492470756951019 0 -0.017830547718485253 -0.0022274621888362838 0 -0.018209824534749623 -0.0024726451588420626 0 -0.031989056719494736 2.0370074706480402e-05 0 -0.02925420740045143 0.0017904504215944864 0 -0.028560727076870393 -0.00046174276292154377 0 -0.030565070509874885 -0.00187972691063351 0 -0.023552145867049339 -0.00098268669578977191 0 -0.028560727076870393 -0.00046174276292154377 0 -0.027939176984119934 -0.0026365262146047105 0 -0.030478263863224074 -0.0022369450182262336 0 -0.027939176984119934 -0.0026365262146047105 0 -0.029710788490134518 -0.0037742806169770034 0 -0.030478263863224074 -0.0022369450182262336 0 -0.023552145867049339 -0.00098268669578977191 0 -0.011550193889880074 -0.0027364961269558279 0 -0.0010710478718385984 -0.0026672476345701024 0 -0.0011688529429675469 -0.0026359600416232965 0 -0.001240986601543659 -0.002693499845254597 0 -0.011550193889880074 -0.0027364961269558279 0 0.0015539606762495167 -0.0032135767039422995 0 -0.0016863267122517191 -0.0019654772106803562 0 -0.001703993832519274 -0.0028777576371425222 0 -0.0011831627544180662 -0.0029236120388246227 0 -0.00097528753918105671 -0.0028406681573282635 0 -0.001240986601543659 -0.002693499845254597 0 -0.0011831627544180662 -0.0029236120388246227 0 -0.029710788490134518 -0.0037742806169770034 0 -0.031636490059399273 -0.0043620844938102345 0 -0.028759512029952677 -0.0058124658388479401 0 -0.011550193889880074 -0.0027364961269558279 0 -0.015553710894729813 -0.0042201945871311545 0 -0.027939176984119934 -0.0026365262146047105 0 -0.029710788490134518 -0.0037742806169770034 0 -0.028759512029952677 -0.0058124658388479401 0 -0.029710788490134518 -0.0037742806169770034 0 -0.031636490059399273 -0.0043620844938102345 0 -0.030478263863224074 -0.0022369450182262336 0 -0.031989056719494736 2.0370074706480402e-05 0 -0.030478263863224074 -0.0022369450182262336 0 -0.034965862766679998 -0.0020733367929308168 0 -0.031636490059399273 -0.0043620844938102345 0 -0.030478263863224074 -0.0022369450182262336 0 -0.034965862766679998 -0.0020733367929308168 0 -0.031636490059399273 -0.0043620844938102345 0 -0.033923675112345709 -0.0047632872691704192 0 -0.034965862766679998 -0.0020733367929308168 0 -0.033923675112345709 -0.0047632872691704192 0 -0.035438137107464324 -0.003603082562685384 0 -0.035844036424830465 -0.0053773218361350614 0 -0.033923675112345709 -0.0047632872691704192 0 -0.035438137107464324 -0.003603082562685384 0 -0.034965862766679998 -0.0020733367929308168 0 -0.035438137107464324 -0.003603082562685384 0 -0.036264562856774679 -0.0036442845725551832 0 -0.035844036424830465 -0.0053773218361350614 0 -0.028216870990789539 -0.0050616594553321145 0 -0.033705865819430927 -0.0069135976877871081 0 -0.036264562856774679 -0.0036442845725551832 0 -0.037139608262404554 -0.0039956243148017616 0 -0.035844036424830465 -0.0053773218361350614 0 -0.036264562856774679 -0.0036442845725551832 0 -0.036787455770489877 -0.0030289400280071412 0 -0.037139608262404554 -0.0039956243148017616 0 -0.035438137107464324 -0.003603082562685384 0 -0.036264562856774679 -0.0036442845725551832 0 -0.035982932202987407 -0.0023769636085125396 0 -0.036264562856774679 -0.0036442845725551832 0 -0.036787455770489877 -0.0030289400280071412 0 -0.035982932202987407 -0.0023769636085125396 0 -0.036787455770489877 -0.0030289400280071412 0 -0.035982932202987407 -0.0023769636085125396 0 -0.036773703311823509 -0.0024250274973531666 0 -0.035438137107464324 -0.003603082562685384 0 -0.035982932202987407 -0.0023769636085125396 0 -0.034965862766679998 -0.0020733367929308168 0 -0.0233083547111692 -0.0034451575155192158 0 -0.025390914160670196 -0.0025839077028939569 0 -0.022737621873168721 -0.0049594130597947041 0 -0.020305975293801893 0.00088229105647555427 0 -0.01004737097227454 -0.0056509659759746145 0 -0.0233083547111692 -0.0034451575155192158 0 -0.02339138644819275 -0.0024608865957570056 0 -0.025390914160670196 -0.0025839077028939569 0 -0.0026905544011868281 -0.0044945782348085042 0 -0.0030180881311467366 -0.0042446937142865864 0 -0.0025429862176846061 -0.0040060104134795136 0 -0.028216870990789539 -0.0050616594553321145 0 -0.022290078512343322 -0.0035189079280431622 0 -0.0233083547111692 -0.0034451575155192158 0 -0.021611773649346251 -0.0037634117912359608 0 -0.02339138644819275 -0.0024608865957570056 0 -0.0233083547111692 -0.0034451575155192158 0 -0.021611773649346251 -0.0037634117912359608 0 -0.022737621873168721 -0.0049594130597947041 0 -0.036787455770489877 -0.0030289400280071412 0 -0.037139608262404554 -0.0039956243148017616 0 -0.037633564462158695 -0.0026282336939685053 0 -0.028216870990789539 -0.0050616594553321145 0 -0.03266417126376614 -0.0017016329004755856 0 -0.022315614175493603 -0.0033613878675612524 0 -0.022885185353177628 -0.0018756344097826643 0 -0.02339138644819275 -0.0024608865957570056 0 -0.03722719970031825 -0.0019162032639897719 0 -0.03266417126376614 -0.0017016329004755856 0 -0.036787455770489877 -0.0030289400280071412 0 -0.036773703311823509 -0.0024250274973531666 0 -0.037250242965528264 -0.002695421094106316 0 -0.036773703311823509 -0.0024250274973531666 0 -0.037250242965528264 -0.002695421094106316 0 -0.037386992565842318 -0.0023293341150941371 0 -0.03266417126376614 -0.0017016329004755856 0 -0.035525796706060729 0.00097044993761433152 0 -0.03325753352123384 0.00047014906764613815 0 -0.033840143781761547 0.0017190761576649043 0 -0.034682276263701232 0.0011127268382991392 0 -0.035525796706060729 0.00097044993761433152 0 -0.032627712721832604 0.0032699534342089756 0 -0.03266417126376614 -0.0017016329004755856 0 -0.032627712721832604 0.0032699534342089756 0 -0.022885185353177628 -0.0018756344097826643 0 -0.02339138644819275 -0.0024608865957570056 0 -0.023654758990953512 -0.0014176337522194527 0 -0.02339138644819275 -0.0024608865957570056 0 -0.023654758990953512 -0.0014176337522194527 0 -0.025390914160670196 -0.0025839077028939569 0 -0.03295652045277566 0.00736346594085287 0 -0.033188767335705555 0.0071986259173421269 0 -0.033315529616448084 0.0073094590745928899 0 -0.036519998555850794 0.0065947389515140474 0 -0.036481547884263187 0.0066257772557905261 0 -0.036464953484265934 0.0065509923874937448 0 -0.032627712721832604 0.0032699534342089756 0 -0.020305975293801893 0.00088229105647555427 0 -0.036519998555850794 0.0065947389515140474 0 -0.036448149156216289 0.0064908953551835319 0 -0.036575256604018669 0.0062727593061352059 0 -0.036481547884263187 0.0066257772557905261 0 -0.036321692897896288 0.0064854365656312135 0 -0.036107221788662505 0.0065499631283585978 0 -0.032627712721832604 0.0032699534342089756 0 -0.035349581226728433 0.0076824046986752811 0 -0.035525796706060729 0.00097044993761433152 0 -0.036798724648115351 0.0025247009109254171 0 -0.036358754599345913 0.0064091209035914681 0 -0.036321692897896288 0.0064854365656312135 0 -0.036243802526444435 0.0063345169839725771 0 -0.036358754599345913 0.0064091209035914681 0 -0.036448149156216289 0.0064908953551835319 0 -0.036575256604018669 0.0062727593061352059 0 -0.036358754599345913 0.0064091209035914681 0 -0.036321692897896288 0.0064854365656312135 0 -0.036448149156216289 0.0064908953551835319 0 -0.036321692897896288 0.0064854365656312135 0 -0.036448149156216289 0.0064908953551835319 0 -0.036464953484265934 0.0065509923874937448 0 -0.036481547884263187 0.0066257772557905261 0 -0.036321692897896288 0.0064854365656312135 0 -0.036464953484265934 0.0065509923874937448 0 -0.036519998555850794 0.0065947389515140474 0 -0.036448149156216289 0.0064908953551835319 0 -0.036464953484265934 0.0065509923874937448 0 -0.036598657207563556 -0.0018819798049175113 0 -0.036563770260289258 -0.0017503151441822552 0 -0.036410073952701065 -0.0018060857996490922 0 -0.036773703311823509 -0.0024250274973531666 0 -0.037386992565842318 -0.0023293341150941371 0 -0.036410073952701065 -0.0018060857996490922 0 -0.036598657207563556 -0.0018819798049175113 0 -0.036563770260289258 -0.0017503151441822552 0 -0.036688122425018024 -0.0016897581361535029 0 -0.035525796706060729 0.00097044993761433152 0 -0.037281434424963115 -0.002681983417852606 0 -0.036563770260289258 -0.0017503151441822552 0 -0.036410073952701065 -0.0018060857996490922 0 -0.036489604073306696 -0.0016519768604890952 0 -0.036601415611720298 -0.0016554592353422784 0 -0.036563770260289258 -0.0017503151441822552 0 -0.036489604073306696 -0.0016519768604890952 0 -0.036601415611720298 -0.0016554592353422784 0 -0.036563770260289258 -0.0017503151441822552 0 -0.036688122425018024 -0.0016897581361535029 0 -0.036575256604018669 0.0062727593061352059 0 -0.036250089319970584 0.0049062851117125357 0 -0.036061154559583801 0.0056638664230951015 0 -0.036798724648115351 0.0025247009109254171 0 -0.036283977923848784 0.0018512012359244284 0 -0.036601415611720298 -0.0016554592353422784 0 -0.036688122425018024 -0.0016897581361535029 0 -0.036658910954335398 -0.0016052836861791086 0 -0.036575256604018669 0.0062727593061352059 0 -0.036243802526444435 0.0063345169839725771 0 -0.036061154559583801 0.0056638664230951015 0 -0.036358754599345913 0.0064091209035914681 0 -0.036575256604018669 0.0062727593061352059 0 -0.036243802526444435 0.0063345169839725771 0 -0.035982932202987407 -0.0023769636085125396 0 -0.034965862766679998 -0.0020733367929308168 0 -0.035691810885742178 -0.0017807775054827695 0 -0.035982932202987407 -0.0023769636085125396 0 -0.035691810885742178 -0.0017807775054827695 0 -0.036410073952701065 -0.0018060857996490922 0 -0.035982932202987407 -0.0023769636085125396 0 -0.036773703311823509 -0.0024250274973531666 0 -0.036410073952701065 -0.0018060857996490922 0 -0.036410073952701065 -0.0018060857996490922 0 -0.036489604073306696 -0.0016519768604890952 0 -0.036249734619060101 -0.0016170721709988492 0 -0.035691810885742178 -0.0017807775054827695 0 -0.036410073952701065 -0.0018060857996490922 0 -0.036249734619060101 -0.0016170721709988492 0 -0.036039997690441611 -0.0017389224054287131 0 -0.035691810885742178 -0.0017807775054827695 0 -0.036249734619060101 -0.0016170721709988492 0 -0.036039997690441611 -0.0017389224054287131 0 -0.036371562709022885 -0.0016377508713887024 0 -0.036249734619060101 -0.0016170721709988492 0 -0.036371562709022885 -0.0016377508713887024 0 -0.036249734619060101 -0.0016170721709988492 0 -0.036544818042373375 -0.0015763820026251231 0 -0.036371562709022885 -0.0016377508713887024 0 -0.036544818042373375 -0.0015763820026251231 0 -0.03667479870577342 -0.0016032957305569732 0 -0.036544818042373375 -0.0015763820026251231 0 -0.036534354575118486 -0.0015606702704356883 0 -0.036666481262928957 -0.0015274027133603905 0 -0.036544818042373375 -0.0015763820026251231 0 -0.036666481262928957 -0.0015274027133603905 0 -0.036779245978378644 -0.0015478430048598811 0 -0.036249734619060101 -0.0016170721709988492 0 -0.036544818042373375 -0.0015763820026251231 0 -0.036534354575118486 -0.0015606702704356883 0 -0.036489604073306696 -0.0016519768604890952 0 -0.036249734619060101 -0.0016170721709988492 0 -0.036534354575118486 -0.0015606702704356883 0 -0.036489604073306696 -0.0016519768604890952 0 -0.036534354575118486 -0.0015606702704356883 0 -0.036593485718540285 -0.0015833612713572263 0 -0.036601415611720298 -0.0016554592353422784 0 -0.036489604073306696 -0.0016519768604890952 0 -0.036593485718540285 -0.0015833612713572263 0 -0.036601415611720298 -0.0016554592353422784 0 -0.036593485718540285 -0.0015833612713572263 0 -0.036658910954335398 -0.0016052836861791086 0 -0.036593485718540285 -0.0015833612713572263 0 -0.036658910954335398 -0.0016052836861791086 0 -0.036671279027384811 -0.0015575209788605325 0 -0.036688122425018024 -0.0016897581361535029 0 -0.036658910954335398 -0.0016052836861791086 0 -0.036730255227787681 -0.0015590541656923926 0 -0.036658910954335398 -0.0016052836861791086 0 -0.036671279027384811 -0.0015575209788605325 0 -0.036730255227787681 -0.0015590541656923926 0 -0.036671279027384811 -0.0015575209788605325 0 -0.036699250432851362 -0.0015339559558353601 0 -0.036730255227787681 -0.0015590541656923926 0 -0.036671279027384811 -0.0015575209788605325 0 -0.036699250432851362 -0.0015339559558353601 0 -0.036666481262928957 -0.0015274027133603905 0 -0.036593485718540285 -0.0015833612713572263 0 -0.036671279027384811 -0.0015575209788605325 0 -0.036666481262928957 -0.0015274027133603905 0 -0.036534354575118486 -0.0015606702704356883 0 -0.036593485718540285 -0.0015833612713572263 0 -0.036666481262928957 -0.0015274027133603905 0 -0.036666481262928957 -0.0015274027133603905 0 -0.036711361873226635 -0.0015393690935924687 0 -0.036779245978378644 -0.0015478430048598811 0 -0.036699250432851362 -0.0015339559558353601 0 -0.036666481262928957 -0.0015274027133603905 0 -0.036711361873226635 -0.0015393690935924687 0 -0.036711361873226635 -0.0015393690935924687 0 -0.036814404134787593 -0.0015768637213705041 0 -0.036779245978378644 -0.0015478430048598811 0 -0.036699250432851362 -0.0015339559558353601 0 -0.036711361873226635 -0.0015393690935924687 0 -0.036745092960031908 -0.0015244748388729534 0 -0.039027516232502758 -0.002330978919920396 0 -0.038723289588974669 -0.0010735035268226848 0 -0.041131042769823691 -0.0021074844640329837 0 -0.041053552087506572 -0.0026834430444767636 0 -0.041702939423988325 -0.0025508383420270843 0 -0.040495716635027233 -0.0021180649094103845 0 -0.041131042769823691 -0.0021074844640329837 0 -0.041053552087506572 -0.0026834430444767636 0 -0.03823552740737346 -0.0019148630341192013 0 -0.039027516232502758 -0.002330978919920396 0 -0.039735487117020643 -0.0023593472925041424 0 -0.040495716635027233 -0.0021180649094103845 0 -0.041053552087506572 -0.0026834430444767636 0 -0.036862189359302293 -0.0016804625137932657 0 -0.036711361873226635 -0.0015393690935924687 0 -0.036814404134787593 -0.0015768637213705041 0 -0.036862189359302293 -0.0016804625137932657 0 -0.036814404134787593 -0.0015768637213705041 0 -0.0369535577393314 -0.0015768273249730685 0 -0.03722845191760514 -0.0016199762045944828 0 -0.036862189359302293 -0.0016804625137932657 0 -0.0369535577393314 -0.0015768273249730685 0 -0.0369535577393314 -0.0015768273249730685 0 -0.036951993126445426 -0.0016120068343973236 0 -0.036779245978378644 -0.0015478430048598811 0 -0.036814404134787593 -0.0015768637213705041 0 -0.0369535577393314 -0.0015768273249730685 0 -0.036779245978378644 -0.0015478430048598811 0 -0.03722845191760514 -0.0016199762045944828 0 -0.037102427450605276 -0.0016600513041171658 0 -0.036951993126445426 -0.0016120068343973236 0 -0.03722845191760514 -0.0016199762045944828 0 -0.0369535577393314 -0.0015768273249730685 0 -0.036951993126445426 -0.0016120068343973236 0 -0.036951993126445426 -0.0016120068343973236 0 -0.03667479870577342 -0.0016032957305569732 0 -0.036779245978378644 -0.0015478430048598811 0 -0.036544818042373375 -0.0015763820026251231 0 -0.03667479870577342 -0.0016032957305569732 0 -0.036779245978378644 -0.0015478430048598811 0 -0.042949861964447257 -0.0021243171326042073 0 -0.04243423031780072 -0.0027469478212678025 0 -0.042876555705087471 -0.00275416326943053 0 -0.042847296992403548 0.0020282495188790363 0 -0.038711777313625836 0.0038474436311846248 0 -0.038374595234223687 0.0071436174051326112 0 -0.038711777313625836 0.0038474436311846248 0 -0.04061749520049452 0.0074961541176335527 0 -0.041995618679799722 0.0067398847694437975 0 -0.041704301167788227 0.0082684342671715955 0 -0.035720184359483209 0.0060197320448921237 0 -0.035622036326423703 0.0060993691920288844 0 -0.035535874343900584 0.0061368689044396891 0 -0.04061749520049452 0.0074961541176335527 0 -0.040784854467568972 0.0061265410568641047 0 -0.041995618679799722 0.0067398847694437975 0 -0.042548320398829928 -0.0018504642386574237 0 -0.042949861964447257 -0.0021243171326042073 0 -0.042283971749771276 -0.0024177836853155553 0 -0.042548320398829928 -0.0018504642386574237 0 -0.042086191357650751 -0.0021294511789038202 0 -0.042283971749771276 -0.0024177836853155553 0 -0.041786543956651268 -0.0016817362763992677 0 -0.042086191357650751 -0.0021294511789038202 0 -0.041702939423988325 -0.0025508383420270843 0 -0.042086191357650751 -0.0021294511789038202 0 -0.041702939423988325 -0.0025508383420270843 0 -0.042283971749771276 -0.0024177836853155553 0 -0.041131042769823691 -0.0021074844640329837 0 -0.041786543956651268 -0.0016817362763992677 0 -0.041702939423988325 -0.0025508383420270843 0 -0.041053552087506572 -0.0026834430444767636 0 -0.041702939423988325 -0.0025508383420270843 0 -0.041916919842381058 -0.0029365930007605656 0 -0.041702939423988325 -0.0025508383420270843 0 -0.042042953253757544 -0.0026878766661791805 0 -0.042283971749771276 -0.0024177836853155553 0 -0.041702939423988325 -0.0025508383420270843 0 -0.041937904630613768 -0.0028882104195195176 0 -0.041916919842381058 -0.0029365930007605656 0 -0.041702939423988325 -0.0025508383420270843 0 -0.042042953253757544 -0.0026878766661791805 0 -0.041937904630613768 -0.0028882104195195176 0 -0.042042953253757544 -0.0026878766661791805 0 -0.041937904630613768 -0.0028882104195195176 0 -0.042100572498907224 -0.0028332065896842021 0 -0.042949861964447257 -0.0021243171326042073 0 -0.042283971749771276 -0.0024177836853155553 0 -0.04243423031780072 -0.0027469478212678025 0 -0.042042953253757544 -0.0026878766661791805 0 -0.042283971749771276 -0.0024177836853155553 0 -0.042196324856535579 -0.0027076485062531353 0 -0.042283971749771276 -0.0024177836853155553 0 -0.042196324856535579 -0.0027076485062531353 0 -0.04243423031780072 -0.0027469478212678025 0 -0.042196324856535579 -0.0027076485062531353 0 -0.042247478088996371 -0.0028234721097337716 0 -0.04243423031780072 -0.0027469478212678025 0 -0.042042953253757544 -0.0026878766661791805 0 -0.042196324856535579 -0.0027076485062531353 0 -0.042100572498907224 -0.0028332065896842021 0 -0.042196324856535579 -0.0027076485062531353 0 -0.042100572498907224 -0.0028332065896842021 0 -0.042247478088996371 -0.0028234721097337716 0 -0.04243423031780072 -0.0027469478212678025 0 -0.042391891318725852 -0.0028950784879300169 0 -0.042521819524520998 -0.0029236448813342191 0 -0.038723289588974669 -0.0010735035268226848 0 -0.038276794570565133 0.0027697044977450561 0 -0.042188543882672257 -0.0029676233004374813 0 -0.041924979059886271 -0.0029006668900327516 0 -0.042413027122081066 -0.0031940914801260292 0 -0.03564861679741959 0.0034083398237685042 0 -0.035386038214898552 0.004493046974412369 0 -0.034376473977488053 0.0044853799773971834 0 -0.042391891318725852 -0.0028950784879300169 0 -0.042357647370888013 -0.0029817535130972563 0 -0.042521819524520998 -0.0029236448813342191 0 -0.042391891318725852 -0.0028950784879300169 0 -0.042357647370888013 -0.0029817535130972563 0 -0.042271207169240869 -0.0029302529749484427 0 -0.042247478088996371 -0.0028234721097337716 0 -0.04243423031780072 -0.0027469478212678025 0 -0.042391891318725852 -0.0028950784879300169 0 -0.042247478088996371 -0.0028234721097337716 0 -0.042391891318725852 -0.0028950784879300169 0 -0.042271207169240869 -0.0029302529749484427 0 -0.042247478088996371 -0.0028234721097337716 0 -0.042189564912583438 -0.002903496150452916 0 -0.042271207169240869 -0.0029302529749484427 0 -0.042100572498907224 -0.0028332065896842021 0 -0.042247478088996371 -0.0028234721097337716 0 -0.042189564912583438 -0.002903496150452916 0 -0.04211018747450878 -0.0029032065399663093 0 -0.042188543882672257 -0.0029676233004374813 0 -0.04204302703267538 -0.0028966864392350527 0 -0.042100572498907224 -0.0028332065896842021 0 -0.04211018747450878 -0.0029032065399663093 0 -0.04204302703267538 -0.0028966864392350527 0 -0.042100572498907224 -0.0028332065896842021 0 -0.042189564912583438 -0.002903496150452916 0 -0.04211018747450878 -0.0029032065399663093 0 -0.042189564912583438 -0.002903496150452916 0 -0.04211018747450878 -0.0029032065399663093 0 -0.042188543882672257 -0.0029676233004374813 0 -0.042357647370888013 -0.0029817535130972563 0 -0.042271207169240869 -0.0029302529749484427 0 -0.042188543882672257 -0.0029676233004374813 0 -0.042189564912583438 -0.002903496150452916 0 -0.042271207169240869 -0.0029302529749484427 0 -0.042188543882672257 -0.0029676233004374813 0 -0.042357647370888013 -0.0029817535130972563 0 -0.042413027122081066 -0.0031940914801260292 0 -0.042521819524520998 -0.0029236448813342191 0 -0.042357647370888013 -0.0029817535130972563 0 -0.042188543882672257 -0.0029676233004374813 0 -0.042413027122081066 -0.0031940914801260292 0 -0.038723289588974669 -0.0010735035268226848 0 -0.036283977923848784 0.0018512012359244284 0 -0.036699250432851362 -0.0015339559558353601 0 -0.036745092960031908 -0.0015244748388729534 0 -0.036730255227787681 -0.0015590541656923926 0 -0.03564861679741959 0.0034083398237685042 0 -0.036250089319970584 0.0049062851117125357 0 -0.035386038214898552 0.004493046974412369 0 -0.042188543882672257 -0.0029676233004374813 0 -0.041924979059886271 -0.0029006668900327516 0 -0.04204302703267538 -0.0028966864392350527 0 -0.038819801181774742 -0.0011608825746922203 0 -0.038723289588974669 -0.0010735035268226848 0 -0.041937904630613768 -0.0028882104195195176 0 -0.041924979059886271 -0.0029006668900327516 0 -0.04204302703267538 -0.0028966864392350527 0 -0.041937904630613768 -0.0028882104195195176 0 -0.042100572498907224 -0.0028332065896842021 0 -0.04204302703267538 -0.0028966864392350527 0 -0.036250089319970584 0.0049062851117125357 0 -0.035386038214898552 0.004493046974412369 0 -0.035347439806560063 0.005435716830574277 0 -0.036250089319970584 0.0049062851117125357 0 -0.035347439806560063 0.005435716830574277 0 -0.036061154559583801 0.0056638664230951015 0 -0.035952598557774273 0.0061972470115297827 0 -0.035761415732065011 0.006371493544880885 0 -0.035988926203405262 0.0064459771132253261 0 -0.036098588951329648 0.0063898721894784108 0 -0.035952598557774273 0.0061972470115297827 0 -0.035988926203405262 0.0064459771132253261 0 -0.035553375447008352 0.0059595589775945741 0 -0.038276794570565133 0.0027697044977450561 0 -0.035386038214898552 0.004493046974412369 0 -0.035347439806560063 0.005435716830574277 0 -0.034376473977488053 0.0044853799773971834 0 -0.035761415732065011 0.006371493544880885 0 -0.035408421525160265 0.0063977284930286336 0 -0.035796444019100343 0.006696354190806616 0 -0.035761415732065011 0.006371493544880885 0 -0.035560737346227188 0.0062514761986191877 0 -0.035408421525160265 0.0063977284930286336 0 -0.035761415732065011 0.006371493544880885 0 -0.035560737346227188 0.0062514761986191877 0 -0.035772069752841293 0.0061777355987383898 0 -0.035952598557774273 0.0061972470115297827 0 -0.035761415732065011 0.006371493544880885 0 -0.035772069752841293 0.0061777355987383898 0 -0.04243423031780072 -0.0027469478212678025 0 -0.042876555705087471 -0.00275416326943053 0 -0.042521819524520998 -0.0029236448813342191 0 -0.042413027122081066 -0.0031940914801260292 0 -0.042876555705087471 -0.00275416326943053 0 -0.042521819524520998 -0.0029236448813342191 0 -0.035560737346227188 0.0062514761986191877 0 -0.035772069752841293 0.0061777355987383898 0 -0.035639676361657914 0.00583062717687775 0 -0.035507010609688174 0.0070190474255334336 0 -0.038711777313625836 0.0038474436311846248 0 -0.038276794570565133 0.0027697044977450561 0 -0.038711777313625836 0.0038474436311846248 0 -0.035952598557774273 0.0061972470115297827 0 -0.035772069752841293 0.0061777355987383898 0 -0.035639676361657914 0.00583062717687775 0 -0.035560737346227188 0.0062514761986191877 0 -0.035622036326423703 0.0060993691920288844 0 -0.035436123070332247 0.006212392809521787 0 -0.035130792867521653 0.0063336647739609415 0 -0.035535874343900584 0.0061368689044396891 0 -0.035436123070332247 0.006212392809521787 0 -0.035622036326423703 0.0060993691920288844 0 -0.035535874343900584 0.0061368689044396891 0 -0.035436123070332247 0.006212392809521787 0 -0.035130792867521653 0.0063336647739609415 0 -0.035436123070332247 0.006212392809521787 0 -0.035408421525160265 0.0063977284930286336 0 -0.035560737346227188 0.0062514761986191877 0 -0.035436123070332247 0.006212392809521787 0 -0.035408421525160265 0.0063977284930286336 0 -0.034655791656407343 0.0067690290074666334 0 -0.035130792867521653 0.0063336647739609415 0 -0.035408421525160265 0.0063977284930286336 0 -0.034663900110512562 0.0068254399486610438 0 -0.034639329216746111 0.0068933130969434453 0 -0.034655791656407343 0.0067690290074666334 0 -0.034160445281454691 0.0071843073639062628 0 -0.033871013497320225 0.0074187105463889959 0 -0.034655791656407343 0.0067690290074666334 0 -0.035408421525160265 0.0063977284930286336 0 -0.035796444019100343 0.006696354190806616 0 -0.035761415732065011 0.006371493544880885 0 -0.035796444019100343 0.006696354190806616 0 -0.035988926203405262 0.0064459771132253261 0 -0.033871013497320225 0.0074187105463889959 0 -0.033781856867555207 0.0073715569946822953 0 -0.033653890159410213 0.0073850463854063277 0 -0.034160445281454691 0.0071843073639062628 0 -0.033871013497320225 0.0074187105463889959 0 -0.033920412776556011 0.0073227573195511503 0 -0.033871013497320225 0.0074187105463889959 0 -0.033781856867555207 0.0073715569946822953 0 -0.033920412776556011 0.0073227573195511503 0 -0.036321692897896288 0.0064854365656312135 0 -0.036243802526444435 0.0063345169839725771 0 -0.036124633947264721 0.0064272138044894648 0 -0.036236424107424878 0.0063290134590658379 0 -0.035553375447008352 0.0059595589775945741 0 -0.036243802526444435 0.0063345169839725771 0 -0.035347439806560063 0.005435716830574277 0 -0.036061154559583801 0.0056638664230951015 0 -0.036243802526444435 0.0063345169839725771 0 -0.036098588951329648 0.0063898721894784108 0 -0.036124633947264721 0.0064272138044894648 0 -0.036124633947264721 0.0064272138044894648 0 -0.035988926203405262 0.0064459771132253261 0 -0.036107221788662505 0.0065499631283585978 0 -0.035796444019100343 0.006696354190806616 0 -0.035988926203405262 0.0064459771132253261 0 -0.036107221788662505 0.0065499631283585978 0 -0.036098588951329648 0.0063898721894784108 0 -0.036124633947264721 0.0064272138044894648 0 -0.035988926203405262 0.0064459771132253261 0 -0.033459114216313146 0.0075173722203689701 0 -0.033486104227354985 0.0073846475598082079 0 -0.033653890159410213 0.0073850463854063277 0 -0.034639329216746111 0.0068933130969434453 0 -0.035349581226728433 0.0076824046986752811 0 -0.033871013497320225 0.0074187105463889959 0 -0.033459114216313146 0.0075173722203689701 0 -0.033653890159410213 0.0073850463854063277 0 -0.036321692897896288 0.0064854365656312135 0 -0.036124633947264721 0.0064272138044894648 0 -0.036107221788662505 0.0065499631283585978 0 -0.03295652045277566 0.00736346594085287 0 -0.033459114216313146 0.0075173722203689701 0 -0.033315529616448084 0.0073094590745928899 0 -0.033315529616448084 0.0073094590745928899 0 -0.033486104227354985 0.0073846475598082079 0 -0.033472255105141104 0.0073649718277654591 0 -0.033459114216313146 0.0075173722203689701 0 -0.033315529616448084 0.0073094590745928899 0 -0.033486104227354985 0.0073846475598082079 0 -0.020305975293801893 0.00088229105647555427 0 -0.030783930464859471 0.0078951266224367312 0 -0.033486104227354985 0.0073846475598082079 0 -0.033472255105141104 0.0073649718277654591 0 -0.033653890159410213 0.0073850463854063277 0 -0.0026905544011868281 -0.0044945782348085042 0 -0.0021791856258979296 -0.0041752801824592803 0 -0.0025429862176846061 -0.0040060104134795136 0 -0.020305975293801893 0.00088229105647555427 0 -0.017377333202057935 0.0017919756724854472 0 -0.033241252147884211 0.0072689384432870468 0 -0.033315529616448084 0.0073094590745928899 0 -0.033472255105141104 0.0073649718277654591 0 -0.033781856867555207 0.0073715569946822953 0 -0.033920412776556011 0.0073227573195511503 0 -0.033651096760525107 0.0074724763139464067 0 -0.033682739066473739 0.0074514372061184435 0 -0.033920412776556011 0.0073227573195511503 0 -0.033651096760525107 0.0074724763139464067 0 -0.033781856867555207 0.0073715569946822953 0 -0.033653890159410213 0.0073850463854063277 0 -0.033651096760525107 0.0074724763139464067 0 -0.033472255105141104 0.0073649718277654591 0 -0.033651096760525107 0.0074724763139464067 0 -0.033441547649623628 0.0076053485787540972 0 -0.033472255105141104 0.0073649718277654591 0 -0.033653890159410213 0.0073850463854063277 0 -0.033651096760525107 0.0074724763139464067 0 -0.033651096760525107 0.0074724763139464067 0 -0.033441547649623628 0.0076053485787540972 0 -0.033316855397059128 0.0077186723056290344 0 -0.017377333202057935 0.0017919756724854472 0 -0.017548329028121798 0.0018478297941663458 0 -0.0021791856258979296 -0.0041752801824592803 0 -0.0017444913871391707 -0.0038118232046566399 0 -0.0018642181610614163 -0.0036125288657199656 0 -0.0017444913871391707 -0.0038118232046566399 0 -0.0018642181610614163 -0.0036125288657199656 0 -0.0015807476621414133 -0.0034478723287011369 0 -0.033441547649623628 0.0076053485787540972 0 -0.033205018122485844 0.0078143195760218467 0 -0.033316855397059128 0.0077186723056290344 0 -0.017548329028121798 0.0018478297941663458 0 -0.018122317505814136 0.0023910259587370288 0 -0.0017444913871391707 -0.0038118232046566399 0 -0.0015807476621414133 -0.0034478723287011369 0 -0.0014717893312668677 -0.0034747803893544903 0 -0.0021791856258979296 -0.0041752801824592803 0 -0.0021835095759168291 -0.0036437205525482225 0 -0.0025429862176846061 -0.0040060104134795136 0 -0.0021791856258979296 -0.0041752801824592803 0 -0.0018642181610614163 -0.0036125288657199656 0 -0.0021835095759168291 -0.0036437205525482225 0 -0.0021835095759168291 -0.0036437205525482225 0 -0.002413128831685118 -0.0035341348377017864 0 -0.0025429862176846061 -0.0040060104134795136 0 -0.0021835095759168291 -0.0036437205525482225 0 -0.0019983778949308451 -0.0033657196004083234 0 -0.002413128831685118 -0.0035341348377017864 0 -0.0019983778949308451 -0.0033657196004083234 0 -0.0023632557446473779 -0.0031669226138271722 0 -0.002413128831685118 -0.0035341348377017864 0 -0.0018642181610614163 -0.0036125288657199656 0 -0.0019983778949308451 -0.0033657196004083234 0 -0.0016740489331718434 -0.0033604839026595014 0 -0.0018642181610614163 -0.0036125288657199656 0 -0.0021835095759168291 -0.0036437205525482225 0 -0.0019983778949308451 -0.0033657196004083234 0 -0.0019983778949308451 -0.0033657196004083234 0 -0.0016374513290948315 -0.003173985182378557 0 -0.0019636339695150141 -0.0031398507204187043 0 -0.0019983778949308451 -0.0033657196004083234 0 -0.0016374513290948315 -0.003173985182378557 0 -0.0016740489331718434 -0.0033604839026595014 0 -0.0019983778949308451 -0.0033657196004083234 0 -0.0019636339695150141 -0.0031398507204187043 0 -0.0023632557446473779 -0.0031669226138271722 0 -0.0015807476621414133 -0.0034478723287011369 0 -0.0014400192996476132 -0.0033341350167886206 0 -0.0014322859520134025 -0.0032722483805395722 0 -0.0015807476621414133 -0.0034478723287011369 0 -0.0014400192996476132 -0.0033341350167886206 0 -0.0014717893312668677 -0.0034747803893544903 0 -0.0015807476621414133 -0.0034478723287011369 0 -0.0016740489331718434 -0.0033604839026595014 0 -0.0014322859520134025 -0.0032722483805395722 0 -0.0018642181610614163 -0.0036125288657199656 0 -0.0015807476621414133 -0.0034478723287011369 0 -0.0016740489331718434 -0.0033604839026595014 0 -0.0016374513290948315 -0.003173985182378557 0 -0.0016740489331718434 -0.0033604839026595014 0 -0.0014322859520134025 -0.0032722483805395722 0 -0.0016374513290948315 -0.003173985182378557 0 -0.0014322859520134025 -0.0032722483805395722 0 -0.0013619101982837235 -0.003110394488787607 0 -0.0014322859520134025 -0.0032722483805395722 0 -0.0012040509569012298 -0.0032353597763277223 0 -0.0013414927093075332 -0.0032211048275006759 0 -0.0014400192996476132 -0.0033341350167886206 0 -0.0014322859520134025 -0.0032722483805395722 0 -0.0013414927093075332 -0.0032211048275006759 0 -0.0014322859520134025 -0.0032722483805395722 0 -0.0012040509569012298 -0.0032353597763277223 0 -0.0013619101982837235 -0.003110394488787607 0 -0.0012040509569012298 -0.0032353597763277223 0 -0.0010383650210386384 -0.0029686660820915029 0 -0.0013619101982837235 -0.003110394488787607 0 -0.0010383650210386384 -0.0029686660820915029 0 -0.0012168527904292865 -0.0028297522399857236 0 -0.00096488226022223571 -0.0027414047690368691 0 -0.0010383650210386384 -0.0029686660820915029 0 -0.0012168527904292865 -0.0028297522399857236 0 -0.0013619101982837235 -0.003110394488787607 0 -0.0012168527904292865 -0.0028297522399857236 0 -0.0014799331427449332 -0.0029788029672263242 0 -0.0014574255797669866 -0.0027348021327552596 0 -0.0012168527904292865 -0.0028297522399857236 0 -0.0014799331427449332 -0.0029788029672263242 0 -0.0013619101982837235 -0.003110394488787607 0 -0.0016374513290948315 -0.003173985182378557 0 -0.0014799331427449332 -0.0029788029672263242 0 -0.0013619101982837235 -0.003110394488787607 0 -0.0016374513290948315 -0.003173985182378557 0 -0.0019636339695150141 -0.0031398507204187043 0 -0.0017394904262639551 -0.002965220586203758 0 -0.0016374513290948315 -0.003173985182378557 0 -0.0014799331427449332 -0.0029788029672263242 0 -0.0017394904262639551 -0.002965220586203758 0 -0.0019636339695150141 -0.0031398507204187043 0 -0.0017394904262639551 -0.002965220586203758 0 -0.0020591507854977906 -0.0030185907339070205 0 -0.0017394904262639551 -0.002965220586203758 0 -0.0014574255797669866 -0.0027348021327552596 0 -0.0018053651949825271 -0.0027413505321079645 0 -0.0017394904262639551 -0.002965220586203758 0 -0.0018053651949825271 -0.0027413505321079645 0 -0.0020591507854977906 -0.0030185907339070205 0 -0.0014799331427449332 -0.0029788029672263242 0 -0.0017394904262639551 -0.002965220586203758 0 -0.0014574255797669866 -0.0027348021327552596 0 -0.0014574255797669866 -0.0027348021327552596 0 -0.0015121958504072726 -0.0025045090628033223 0 -0.0018053651949825271 -0.0027413505321079645 0 -0.0015121958504072726 -0.0025045090628033223 0 -0.0017536085852914772 -0.0025053128983947865 0 -0.0018053651949825271 -0.0027413505321079645 0 -0.0015121958504072726 -0.0025045090628033223 0 -0.0010638306164689835 -0.0024494523493739585 0 -0.0013135103671698342 -0.0022605499495987496 0 -0.0014574255797669866 -0.0027348021327552596 0 -0.0015121958504072726 -0.0025045090628033223 0 -0.0010638306164689835 -0.0024494523493739585 0 0.035709845047574622 -0.0015719952819239177 0 0.037703679292681626 -0.001038719711240663 0 0.03837547746264465 -0.0031386347556542783 0 0.016035633522983848 -0.0018968117311462442 0 0.024897382359918986 -0.0018590750706219228 0 0.039326280036665315 -0.0018894803175597348 0 0.024897382359918986 -0.0018590750706219228 0 -0.0010638306164689835 -0.0024494523493739585 0 -0.00096488226022223571 -0.0027414047690368691 0 -0.00075087120310000184 -0.0026383753789567649 0 -0.0012168527904292865 -0.0028297522399857236 0 -0.0010638306164689835 -0.0024494523493739585 0 -0.00096488226022223571 -0.0027414047690368691 0 -0.0012168527904292865 -0.0028297522399857236 0 -0.0014574255797669866 -0.0027348021327552596 0 -0.0010638306164689835 -0.0024494523493739585 0 -0.002190936134408226 -0.0027406125473519098 0 -0.0022108834267611441 -0.0025407457395658544 0 -0.0024386219114359885 -0.0029061681899248903 0 -0.0020334845701850944 -0.0020557816739898748 0 -0.0016871628343007447 -0.0018954773081877262 0 -0.0020823993223562493 -0.0026415996826459126 0 -0.001943123869953206 -0.0022366988120765398 0 -0.0022679433625682251 -0.0027656050942427451 0 -0.002190936134408226 -0.0027406125473519098 0 -0.0022108834267611441 -0.0025407457395658544 0 -0.0019927722044422182 -0.0026248818051619327 0 -0.0020334845701850944 -0.0020557816739898748 0 -0.0020823993223562493 -0.0026415996826459126 0 -0.0024987023005135028 -0.0021961003464811206 0 -0.0020334845701850944 -0.0020557816739898748 0 -0.0024987023005135028 -0.0021961003464811206 0 -0.002329452145273277 -0.0018447179905059048 0 -0.0020334845701850944 -0.0020557816739898748 0 -0.0017308799845800824 -0.0018464580052235209 0 -0.002329452145273277 -0.0018447179905059048 0 -0.0045205777420617276 -0.001311026653077148 0 0.0055323948713256535 -0.001428476853745209 0 -0.0017308799845800824 -0.0018464580052235209 0 -0.002329452145273277 -0.0018447179905059048 0 -0.0024714032696498511 -0.0013206166357791682 0 -0.0017308799845800824 -0.0018464580052235209 0 -0.0016871628343007447 -0.0018954773081877262 0 -0.0016607584112657738 -0.0020077167289716687 0 -0.001943123869953206 -0.0022366988120765398 0 -0.0017611296618170037 -0.0021402875387360656 0 -0.0020334845701850944 -0.0020557816739898748 0 -0.0017308799845800824 -0.0018464580052235209 0 -0.0016871628343007447 -0.0018954773081877262 0 -0.0022108834267611441 -0.0025407457395658544 0 -0.001844708764989184 -0.0024002791826683678 0 -0.0019927722044422182 -0.0026248818051619327 0 -0.0022108834267611441 -0.0025407457395658544 0 -0.001844708764989184 -0.0024002791826683678 0 -0.0017271094821366378 -0.0021365454538216553 0 -0.001844708764989184 -0.0024002791826683678 0 -0.0017536085852914772 -0.0025053128983947865 0 -0.0019927722044422182 -0.0026248818051619327 0 -0.001844708764989184 -0.0024002791826683678 0 -0.0017536085852914772 -0.0025053128983947865 0 -0.001608083970533187 -0.0022989224853362435 0 -0.0015121958504072726 -0.0025045090628033223 0 -0.0017536085852914772 -0.0025053128983947865 0 -0.001608083970533187 -0.0022989224853362435 0 -0.0017536085852914772 -0.0025053128983947865 0 -0.0018053651949825271 -0.0027413505321079645 0 -0.0019927722044422182 -0.0026248818051619327 0 -0.0018053651949825271 -0.0027413505321079645 0 -0.0019927722044422182 -0.0026248818051619327 0 -0.0021111332923190985 -0.0028686659632173096 0 -0.002190936134408226 -0.0027406125473519098 0 -0.0019927722044422182 -0.0026248818051619327 0 -0.0021111332923190985 -0.0028686659632173096 0 -0.0018053651949825271 -0.0027413505321079645 0 -0.0021111332923190985 -0.0028686659632173096 0 -0.0020591507854977906 -0.0030185907339070205 0 -0.0020591507854977906 -0.0030185907339070205 0 -0.0022540886726073804 -0.0031003972292432702 0 -0.0023632557446473779 -0.0031669226138271722 0 -0.0021111332923190985 -0.0028686659632173096 0 -0.0020591507854977906 -0.0030185907339070205 0 -0.0022540886726073804 -0.0031003972292432702 0 -0.0022540886726073804 -0.0031003972292432702 0 -0.0024386219114359885 -0.0029061681899248903 0 -0.0024433400276544447 -0.0031822638855593653 0 -0.002190936134408226 -0.0027406125473519098 0 -0.0021111332923190985 -0.0028686659632173096 0 -0.0024386219114359885 -0.0029061681899248903 0 -0.0021111332923190985 -0.0028686659632173096 0 -0.0022540886726073804 -0.0031003972292432702 0 -0.0024386219114359885 -0.0029061681899248903 0 -0.0020823993223562493 -0.0026415996826459126 0 -0.0027236271459148615 -0.0026213435067832039 0 -0.0024987023005135028 -0.0021961003464811206 0 -0.0020823993223562493 -0.0026415996826459126 0 -0.0027236271459148615 -0.0026213435067832039 0 -0.0026187917669156747 -0.0029403202303901125 0 -0.0022679433625682251 -0.0027656050942427451 0 -0.0025643299659484924 -0.0032079559470183567 0 -0.0024386219114359885 -0.0029061681899248903 0 -0.0026014171158175938 -0.0032323149242469542 0 -0.0024433400276544447 -0.0031822638855593653 0 -0.0020823993223562493 -0.0026415996826459126 0 -0.0026014171158175938 -0.0032323149242469542 0 -0.0026187917669156747 -0.0029403202303901125 0 -0.0025840737236029238 -0.0033014526771661329 0 -0.0025621480185534719 -0.0033968359044840618 0 -0.0029779774457145852 -0.0034791483669268319 0 -0.0026014171158175938 -0.0032323149242469542 0 -0.0025840737236029238 -0.0033014526771661329 0 -0.0027957858666210673 -0.0032804835361252222 0 -0.0080181784496632033 -0.0041015777162391335 0 -0.010068266570456928 -0.0027695971261346435 0 -0.0025840737236029238 -0.0033014526771661329 0 -0.0025681705550088373 -0.0033314330148255331 0 -0.0024433400276544447 -0.0031822638855593653 0 -0.0026014171158175938 -0.0032323149242469542 0 -0.0025840737236029238 -0.0033014526771661329 0 -0.0024433400276544447 -0.0031822638855593653 0 -0.0025681705550088373 -0.0033314330148255331 0 -0.0024433400276544447 -0.0031822638855593653 0 -0.0023183313421792232 -0.003218187240382689 0 -0.010068266570456928 -0.0027695971261346435 0 -0.0013901334463223591 -0.0031203366271562805 0 -0.0022540886726073804 -0.0031003972292432702 0 -0.0024433400276544447 -0.0031822638855593653 0 -0.0023183313421792232 -0.003218187240382689 0 -0.00329158048662463 -0.0030128979328758023 0 -0.0039138040674199194 -0.0035178541508968137 0 -0.0034159431298272027 -0.0035659598812741826 0 -0.0042055673131579947 -0.002986544582782173 0 -0.00329158048662463 -0.0030128979328758023 0 -0.0039138040674199194 -0.0035178541508968137 0 -0.030252130714388731 -0.0077840859205603819 0 -0.029788943273913949 -0.0083960241445688814 0 -0.030523196164099986 -0.0083787293741240058 0 -0.030252130714388731 -0.0077840859205603819 0 -0.030523196164099986 -0.0083787293741240058 0 -0.030684468193136461 -0.0081256925006618266 0 -0.010068266570456928 -0.0027695971261346435 0 -0.016752844491736908 -0.0059708304297623714 0 -0.0019636339695150141 -0.0031398507204187043 0 -0.0020591507854977906 -0.0030185907339070205 0 -0.0023632557446473779 -0.0031669226138271722 0 -0.0013901334463223591 -0.0031203366271562805 0 -0.002971757676260249 -0.0031661942058516029 0 -0.0022540886726073804 -0.0031003972292432702 0 -0.0023183313421792232 -0.003218187240382689 0 -0.0023632557446473779 -0.0031669226138271722 0 -0.00329158048662463 -0.0030128979328758023 0 -0.0023632557446473779 -0.0031669226138271722 0 -0.0029105663451406134 -0.0036989598918100897 0 -0.00329158048662463 -0.0030128979328758023 0 -0.0029105663451406134 -0.0036989598918100897 0 -0.0034159431298272027 -0.0035659598812741826 0 -0.0023632557446473779 -0.0031669226138271722 0 -0.002413128831685118 -0.0035341348377017864 0 -0.0029105663451406134 -0.0036989598918100897 0 -0.002413128831685118 -0.0035341348377017864 0 -0.0029105663451406134 -0.0036989598918100897 0 -0.0025429862176846061 -0.0040060104134795136 0 -0.021611773649346251 -0.0037634117912359608 0 -0.022737621873168721 -0.0049594130597947041 0 -0.019913410115971201 -0.0073872070624997465 0 -0.0029105663451406134 -0.0036989598918100897 0 -0.0030180881311467366 -0.0042446937142865864 0 -0.0036394159170237898 -0.0039347365452640044 0 -0.01004737097227454 -0.0056509659759746145 0 -0.020880307295005202 -0.0077634689147084834 0 -0.0029105663451406134 -0.0036989598918100897 0 -0.0030180881311467366 -0.0042446937142865864 0 -0.0025429862176846061 -0.0040060104134795136 0 -0.030523196164099986 -0.0083787293741240058 0 -0.030632132077231724 -0.0087076152909592152 0 -0.030176570145341034 -0.0086448898859047413 0 -0.032919965749549265 -0.0076965487574736898 0 -0.020880307295005202 -0.0077634689147084834 0 -0.029788943273913949 -0.0083960241445688814 0 -0.030523196164099986 -0.0083787293741240058 0 -0.029212442715113619 -0.0094179308652874594 0 -0.016752844491736908 -0.0059708304297623714 0 -0.020880307295005202 -0.0077634689147084834 0 -0.0039138040674199194 -0.0035178541508968137 0 -0.0034159431298272027 -0.0035659598812741826 0 -0.0036394159170237898 -0.0039347365452640044 0 -0.0029105663451406134 -0.0036989598918100897 0 -0.0034159431298272027 -0.0035659598812741826 0 -0.0036394159170237898 -0.0039347365452640044 0 -0.029967802526608918 -0.0089943653011696854 0 -0.030176570145341034 -0.0086448898859047413 0 -0.030257070864113188 -0.0088575771655754355 0 -0.028216870990789539 -0.0050616594553321145 0 -0.020880307295005202 -0.0077634689147084834 0 -0.033923675112345709 -0.0047632872691704192 0 -0.033821144310626598 -0.0069729698051410076 0 -0.035844036424830465 -0.0053773218361350614 0 -0.030632132077231724 -0.0087076152909592152 0 -0.030176570145341034 -0.0086448898859047413 0 -0.030257070864113188 -0.0088575771655754355 0 -0.032079092425343639 -0.0078607926493717683 0 -0.033705865819430927 -0.0069135976877871081 0 -0.031636490059399273 -0.0043620844938102345 0 -0.033923675112345709 -0.0047632872691704192 0 -0.03157069462046206 -0.0062894725641459174 0 -0.033923675112345709 -0.0047632872691704192 0 -0.033821144310626598 -0.0069729698051410076 0 -0.03157069462046206 -0.0062894725641459174 0 -0.032079092425343639 -0.0078607926493717683 0 -0.031367079162808044 -0.0081820655986397546 0 -0.033821144310626598 -0.0069729698051410076 0 -0.031162697637614839 -0.0082143283290996988 0 -0.03157069462046206 -0.0062894725641459174 0 -0.030523196164099986 -0.0083787293741240058 0 -0.030632132077231724 -0.0087076152909592152 0 -0.030916531219061943 -0.0082762139693535255 0 -0.030632132077231724 -0.0087076152909592152 0 -0.031162697637614839 -0.0082143283290996988 0 -0.030916531219061943 -0.0082762139693535255 0 -0.030406900892888705 -0.0074344654345811501 0 -0.031162697637614839 -0.0082143283290996988 0 -0.0307283359767574 -0.0084592678214372961 0 -0.030406900892888705 -0.0074344654345811501 0 -0.029596562906101687 -0.0081812220887945829 0 -0.0307283359767574 -0.0084592678214372961 0 -0.030406900892888705 -0.0074344654345811501 0 -0.031162697637614839 -0.0082143283290996988 0 -0.03157069462046206 -0.0062894725641459174 0 -0.030406900892888705 -0.0074344654345811501 0 -0.03157069462046206 -0.0062894725641459174 0 -0.028759512029952677 -0.0058124658388479401 0 -0.031636490059399273 -0.0043620844938102345 0 -0.03157069462046206 -0.0062894725641459174 0 -0.028759512029952677 -0.0058124658388479401 0 -0.001703993832519274 -0.0028777576371425222 0 -0.0011831627544180662 -0.0029236120388246227 0 -0.0013411961743965801 -0.0032008322184356674 0 -0.0011831627544180662 -0.0029236120388246227 0 -0.0013411961743965801 -0.0032008322184356674 0 -0.00090039083519642053 -0.0031489299462035599 0 -0.0013411961743965801 -0.0032008322184356674 0 -0.001101597882116078 -0.0034867427105205618 0 -0.0019649173245077176 -0.0036292801173056404 0 -0.0013411961743965801 -0.0032008322184356674 0 -0.001101597882116078 -0.0034867427105205618 0 -0.00090039083519642053 -0.0031489299462035599 0 -0.030406900892888705 -0.0074344654345811501 0 -0.028759512029952677 -0.0058124658388479401 0 -0.029596562906101687 -0.0081812220887945829 0 -0.015553710894729813 -0.0042201945871311545 0 -0.016502711017874372 -0.0061353308897873285 0 -0.001703993832519274 -0.0028777576371425222 0 -0.0013411961743965801 -0.0032008322184356674 0 -0.0019649173245077176 -0.0036292801173056404 0 -0.016502711017874372 -0.0061353308897873285 0 -0.010151184473908696 -0.0064869301147445482 0 -0.029596562906101687 -0.0081812220887945829 0 -0.029973960372862565 -0.0092190853984583203 0 -0.030068718447790039 -0.0087794358279951901 0 -0.0019649173245077176 -0.0036292801173056404 0 -0.00091263003556224585 -0.004201930887320896 0 -0.0016152837206277557 -0.0045317153963838003 0 -0.001101597882116078 -0.0034867427105205618 0 -0.0019649173245077176 -0.0036292801173056404 0 -0.00091263003556224585 -0.004201930887320896 0 -0.00091263003556224585 -0.004201930887320896 0 -0.0016152837206277557 -0.0045317153963838003 0 -0.00090894993741955869 -0.0051254095164417705 0 -0.00091263003556224585 -0.004201930887320896 0 -0.00036686320284065474 -0.0048075672577066429 0 -0.00090894993741955869 -0.0051254095164417705 0 -0.0016152837206277557 -0.0045317153963838003 0 -0.00090894993741955869 -0.0051254095164417705 0 -0.0015419498431986853 -0.005329684322812449 0 -0.0019649173245077176 -0.0036292801173056404 0 -0.0016152837206277557 -0.0045317153963838003 0 -0.0023537911282603412 -0.0048689485913248117 0 -0.010151184473908696 -0.0064869301147445482 0 -0.00027300271318114272 -0.00557302708759629 0 -0.0016152837206277557 -0.0045317153963838003 0 -0.0023537911282603412 -0.0048689485913248117 0 -0.0015419498431986853 -0.005329684322812449 0 -0.0034493396660184501 -0.0032563961720894446 0 -0.0029779774457145852 -0.0034791483669268319 0 -0.0029557476203674357 -0.003069525650481326 0 -0.010151184473908696 -0.0064869301147445482 0 -0.023576512891672691 -0.0076350082773203095 0 -0.029973960372862565 -0.0092190853984583203 0 -0.030380379195958061 -0.0087622477778653667 0 -0.030068718447790039 -0.0087794358279951901 0 -0.0027402585508700984 -0.0031275322962522954 0 -0.0027957858666210673 -0.0032804835361252222 0 -0.0029557476203674357 -0.003069525650481326 0 -0.010068266570456928 -0.0027695971261346435 0 -0.023576512891672691 -0.0076350082773203095 0 -0.0025840737236029238 -0.0033014526771661329 0 -0.0027957858666210673 -0.0032804835361252222 0 -0.0029779774457145852 -0.0034791483669268319 0 -0.0027957858666210673 -0.0032804835361252222 0 -0.0029779774457145852 -0.0034791483669268319 0 -0.0029557476203674357 -0.003069525650481326 0 -0.0026014171158175938 -0.0032323149242469542 0 -0.0027402585508700984 -0.0031275322962522954 0 -0.0027957858666210673 -0.0032804835361252222 0 -0.030252130714388731 -0.0077840859205603819 0 -0.031073071857826023 -0.0079221092652945208 0 -0.030684468193136461 -0.0081256925006618266 0 -0.030926374092151758 -0.0084341996474734393 0 -0.030916531219061943 -0.0082762139693535255 0 -0.0307283359767574 -0.0084592678214372961 0 -0.023576512891672691 -0.0076350082773203095 0 -0.030964506287144516 -0.0066394233215605744 0 -0.030926374092151758 -0.0084341996474734393 0 -0.030684468193136461 -0.0081256925006618266 0 -0.030916531219061943 -0.0082762139693535255 0 -0.030523196164099986 -0.0083787293741240058 0 -0.030684468193136461 -0.0081256925006618266 0 -0.030916531219061943 -0.0082762139693535255 0 -0.031162697637614839 -0.0082143283290996988 0 -0.030916531219061943 -0.0082762139693535255 0 -0.0307283359767574 -0.0084592678214372961 0 -0.030926374092151758 -0.0084341996474734393 0 -0.0307283359767574 -0.0084592678214372961 0 -0.030068718447790039 -0.0087794358279951901 0 -0.023576512891672691 -0.0076350082773203095 0 -0.032730586329761877 -0.0088949556487358823 0 -0.029596562906101687 -0.0081812220887945829 0 -0.0307283359767574 -0.0084592678214372961 0 -0.030068718447790039 -0.0087794358279951901 0 0.00021078546878856955 -0.0021364707183036545 0 0.0010285089916941847 -0.0031306739407920641 0 0.0013061559816318975 -0.0017063212647988829 0 0.00066615865691470658 -0.00084583090151711963 0 0.00021078546878856955 -0.0021364707183036545 0 0.0013061559816318975 -0.0017063212647988829 0 0.00027383409468827917 -0.0018112609783178903 0 -7.6217547939345676e-05 -0.0027348869489443074 0 -0.00033696547113981298 -0.0029651541855278806 0 -0.00033249605568355992 -0.0032492295523055023 0 -0.0005101259321391295 -0.003085201412706318 0 -0.00053811641404448776 -0.0029187299827779741 0 -0.00033696547113981298 -0.0029651541855278806 0 -0.0005101259321391295 -0.003085201412706318 0 -0.00033249605568355992 -0.0032492295523055023 0 -0.0004293839243819181 -0.0033400219216840965 0 -0.00023002950564604704 -0.0034433401466526905 0 -0.00033249605568355992 -0.0032492295523055023 0 -0.0005101259321391295 -0.003085201412706318 0 -0.0004293839243819181 -0.0033400219216840965 0 -0.0005101259321391295 -0.003085201412706318 0 -0.0004293839243819181 -0.0033400219216840965 0 -0.00066458169570669226 -0.0031209692596729718 0 -0.0004293839243819181 -0.0033400219216840965 0 -0.00066458169570669226 -0.0031209692596729718 0 -0.00043906403357753395 -0.003466780236561719 0 -0.00078050771958505501 -0.0028323037042861515 0 -0.0005101259321391295 -0.003085201412706318 0 -0.00066458169570669226 -0.0031209692596729718 0 -0.00097528753918105671 -0.0028406681573282635 0 -0.00066458169570669226 -0.0031209692596729718 0 -0.00090039083519642053 -0.0031489299462035599 0 -0.00097528753918105671 -0.0028406681573282635 0 -0.0011831627544180662 -0.0029236120388246227 0 -0.00090039083519642053 -0.0031489299462035599 0 -0.00066458169570669226 -0.0031209692596729718 0 -0.00090039083519642053 -0.0031489299462035599 0 -0.00043906403357753395 -0.003466780236561719 0 -0.001101597882116078 -0.0034867427105205618 0 -0.00090039083519642053 -0.0031489299462035599 0 -0.00043906403357753395 -0.003466780236561719 0 -0.00091263003556224585 -0.004201930887320896 0 -0.00043906403357753395 -0.003466780236561719 0 -0.00014765620775101276 -0.0043069202249369463 0 -0.00043906403357753395 -0.003466780236561719 0 -0.00014765620775101276 -0.0043069202249369463 0 0.00063048024172177866 -0.0042515309715290724 0 -0.001101597882116078 -0.0034867427105205618 0 -0.00091263003556224585 -0.004201930887320896 0 -0.00043906403357753395 -0.003466780236561719 0 -0.00091263003556224585 -0.004201930887320896 0 -0.00036686320284065474 -0.0048075672577066429 0 -0.00014765620775101276 -0.0043069202249369463 0 -0.00036686320284065474 -0.0048075672577066429 0 0.00045129085266866622 -0.0049628081903919019 0 -0.00014765620775101276 -0.0043069202249369463 0 -0.00036686320284065474 -0.0048075672577066429 0 0.00045129085266866622 -0.0049628081903919019 0 -0.00022544439866603323 -0.0055347153511952369 0 0.00045129085266866622 -0.0049628081903919019 0 -0.00014765620775101276 -0.0043069202249369463 0 0.00063048024172177866 -0.0042515309715290724 0 0.00045129085266866622 -0.0049628081903919019 0 0.00063048024172177866 -0.0042515309715290724 0 0.0014571837494060768 -0.0052153771624564114 0 8.5914629853599809e-05 -0.0040043818900065689 0 0.00098016603421319519 -0.0039924225022749844 0 -0.00049239405607123549 -0.0035605068677306132 0 -0.00031953111252602611 -0.0036473676415368721 0 -0.00041580565606833111 -0.0039029051793121926 0 -0.00049239405607123549 -0.0035605068677306132 0 -0.00041780229652988539 -0.0034616902584670901 0 -0.00031953111252602611 -0.0036473676415368721 0 -0.0004293839243819181 -0.0033400219216840965 0 -0.00043906403357753395 -0.003466780236561719 0 -0.00041780229652988539 -0.0034616902584670901 0 -0.00031820495193880279 -0.003519129711938053 0 8.5914629853599809e-05 -0.0040043818900065689 0 -0.00043906403357753395 -0.003466780236561719 0 -0.00049239405607123549 -0.0035605068677306132 0 -0.00041780229652988539 -0.0034616902584670901 0 -0.0004293839243819181 -0.0033400219216840965 0 -0.00041780229652988539 -0.0034616902584670901 0 -0.00023002950564604704 -0.0034433401466526905 0 -7.6217547939345676e-05 -0.0027348869489443074 0 -0.00022821916951392708 -0.0033878632096681501 0 -0.00041780229652988539 -0.0034616902584670901 0 -0.00023002950564604704 -0.0034433401466526905 0 -0.00031953111252602611 -0.0036473676415368721 0 -0.00031953111252602611 -0.0036473676415368721 0 2.8840513220788416e-05 -0.0037369721257720094 0 -0.00041580565606833111 -0.0039029051793121926 0 0.002153193478956567 -0.0011400460815051213 0 0.0018593619059497195 -0.0020010264269846585 0 0.00093504087104103882 -0.0020798568118096015 0 0.0011601173789666539 -0.0023009329065613242 0 0.00098016603421319519 -0.0039924225022749844 0 0.002153193478956567 -0.0011400460815051213 0 0.0024655280449698181 -0.0017721271221974803 0 0.0018593619059497195 -0.0020010264269846585 0 -0.00023002950564604704 -0.0034433401466526905 0 -0.00031953111252602611 -0.0036473676415368721 0 2.8840513220788416e-05 -0.0037369721257720094 0 0.002153193478956567 -0.0011400460815051213 0 0.0029279675242500362 -0.0012031902754808612 0 0.003405316761393403 -0.00021021664811025274 0 0.0024655280449698181 -0.0017721271221974803 0 0.0030900345428829866 -0.0017026114436620398 0 0.0029112717925937671 -0.0022788193381442848 0 0.002153193478956567 -0.0011400460815051213 0 0.0024655280449698181 -0.0017721271221974803 0 0.0029279675242500362 -0.0012031902754808612 0 0.0024655280449698181 -0.0017721271221974803 0 0.0030900345428829866 -0.0017026114436620398 0 0.0029279675242500362 -0.0012031902754808612 0 0.0029279675242500362 -0.0012031902754808612 0 0.003405316761393403 -0.00021021664811025274 0 0.0035250556211566622 -0.0011911968379833403 0 0.0030900345428829866 -0.0017026114436620398 0 0.0029279675242500362 -0.0012031902754808612 0 0.0035250556211566622 -0.0011911968379833403 0 -0.00023002950564604704 -0.0034433401466526905 0 2.8840513220788416e-05 -0.0037369721257720094 0 0.0010285089916941847 -0.0031306739407920641 0 0.0011601173789666539 -0.0023009329065613242 0 0.0017027583398956667 -0.0019180467530196532 0 0.00021078546878856955 -0.0021364707183036545 0 -0.00023002950564604704 -0.0034433401466526905 0 0.0010285089916941847 -0.0031306739407920641 0 0.0020238682509814529 -0.0036763184027445092 0 0.0053961230892943402 -0.0034656744509627756 0 0.0023456617613809893 -0.0036925024326550865 0 0.0029997967795441518 -0.0029820297398597639 0 0.0036614865171782801 -0.0036867146150116833 0 0.0023456617613809893 -0.0036925024326550865 0 0.0032857118178161409 -0.0044499480920795502 0 0.0042147213611805796 -0.0036017389941231832 0 0.0032857118178161409 -0.0044499480920795502 0 0.0040557767294582114 -0.0043492565773682983 0 0.0042147213611805796 -0.0036017389941231832 0 0.0023456617613809893 -0.0036925024326550865 0 0.0024487095629539429 -0.0044825015323113173 0 0.0032857118178161409 -0.0044499480920795502 0 0.0023456617613809893 -0.0036925024326550865 0 0.0029997967795441518 -0.0029820297398597639 0 0.0020830691701544308 -0.0030432443864662931 0 0.0030900345428829866 -0.0017026114436620398 0 0.0029112717925937671 -0.0022788193381442848 0 0.0039826789371507571 -0.002203893904418944 0 0.0029997967795441518 -0.0029820297398597639 0 0.0029112717925937671 -0.0022788193381442848 0 0.0039826789371507571 -0.002203893904418944 0 0.0024655280449698181 -0.0017721271221974803 0 0.0029112717925937671 -0.0022788193381442848 0 0.0022100592691995133 -0.0024000579008876806 0 0.0029997967795441518 -0.0029820297398597639 0 0.0020830691701544308 -0.0030432443864662931 0 0.0022100592691995133 -0.0024000579008876806 0 0.0029997967795441518 -0.0029820297398597639 0 0.0029112717925937671 -0.0022788193381442848 0 0.0022100592691995133 -0.0024000579008876806 0 0.0024399244894737263 -0.0065145010462959313 0 0.0020924599373453303 -0.0060920327733958481 0 0.002135262897033894 -0.0052400198828927358 0 0.0020690083101704269 -0.0049689424781850424 0 0.00098016603421319519 -0.0039924225022749844 0 0.0020830691701544308 -0.0030432443864662931 0 0.0017334786075363254 -0.0026087556967715982 0 0.0015910101097548206 -0.0035335106767155401 0 0.0017334786075363254 -0.0026087556967715982 0 0.0015910101097548206 -0.0035335106767155401 0 0.00093504087104103882 -0.0020798568118096015 0 0.0020830691701544308 -0.0030432443864662931 0 0.0017334786075363254 -0.0026087556967715982 0 0.0022100592691995133 -0.0024000579008876806 0 0.0024655280449698181 -0.0017721271221974803 0 0.0018593619059497195 -0.0020010264269846585 0 0.0022100592691995133 -0.0024000579008876806 0 0.0017334786075363254 -0.0026087556967715982 0 0.0018593619059497195 -0.0020010264269846585 0 0.0022100592691995133 -0.0024000579008876806 0 0.0017334786075363254 -0.0026087556967715982 0 0.0018593619059497195 -0.0020010264269846585 0 0.00093504087104103882 -0.0020798568118096015 0 0.0023456617613809893 -0.0036925024326550865 0 0.0020830691701544308 -0.0030432443864662931 0 0.0015910101097548206 -0.0035335106767155401 0 0.0023456617613809893 -0.0036925024326550865 0 0.0015910101097548206 -0.0035335106767155401 0 0.0024487095629539429 -0.0044825015323113173 0 0.0024399244894737263 -0.0065145010462959313 0 0.0024293916380252545 -0.0062244592141884681 0 0.0023335254072929827 -0.0059691779280995512 0 0.0024399244894737263 -0.0065145010462959313 0 0.0024017879615565378 -0.0067545848550500439 0 0.0024293916380252545 -0.0062244592141884681 0 0.0024017879615565378 -0.0067545848550500439 0 0.0020924599373453303 -0.0060920327733958481 0 0.0011197352983930169 -0.0057109537447741134 0 0.0024399244894737263 -0.0065145010462959313 0 0.0024017879615565378 -0.0067545848550500439 0 0.0020924599373453303 -0.0060920327733958481 0 0.0020924599373453303 -0.0060920327733958481 0 0.002135262897033894 -0.0052400198828927358 0 0.0011197352983930169 -0.0057109537447741134 0 0.00098016603421319519 -0.0039924225022749844 0 0.00099366233415658736 -0.005411594896461874 0 0.00045129085266866622 -0.0049628081903919019 0 0.0014571837494060768 -0.0052153771624564114 0 0.0011197352983930169 -0.0057109537447741134 0 0.0011197352983930169 -0.0057109537447741134 0 -0.00022544439866603323 -0.0055347153511952369 0 -0.00071141047498857158 -0.0060476364177223284 0 0.00045129085266866622 -0.0049628081903919019 0 0.0011197352983930169 -0.0057109537447741134 0 -0.00022544439866603323 -0.0055347153511952369 0 -0.00022544439866603323 -0.0055347153511952369 0 -0.00059526381874584538 -0.005877562512398112 0 -0.00090894993741955869 -0.0051254095164417705 0 -0.00036686320284065474 -0.0048075672577066429 0 -0.00022544439866603323 -0.0055347153511952369 0 -0.00090894993741955869 -0.0051254095164417705 0 0.00025767362862401681 -0.0061259531891775833 0 0.0012097655302531318 -0.0058669654640615149 0 0.0028048747356867942 -0.0072616816761690824 0 0.0012097655302531318 -0.0058669654640615149 0 0.0024017879615565378 -0.0067545848550500439 0 0.0011197352983930169 -0.0057109537447741134 0 -0.00071141047498857158 -0.0060476364177223284 0 0.0024017879615565378 -0.0067545848550500439 0 0.0050610566497593761 -0.0082502324729391771 0 0.0036567132879742198 -0.0063188067531862293 0 0.0050610566497593761 -0.0082502324729391771 0 0.0049146134229071632 -0.006572737287218835 0 0.0036567132879742198 -0.0063188067531862293 0 0.0049146134229071632 -0.006572737287218835 0 0.0043560809989980119 -0.0056581277487795885 0 0.0057283897019988882 -0.0057622897797467883 0 0.0043560809989980119 -0.0056581277487795885 0 0.0047789281922565032 -0.0049698765755268404 0 0.0057283897019988882 -0.0057622897797467883 0 0.0049146134229071632 -0.006572737287218835 0 0.0036567132879742198 -0.0063188067531862293 0 0.0043560809989980119 -0.0056581277487795885 0 0.0036567132879742198 -0.0063188067531862293 0 0.0043560809989980119 -0.0056581277487795885 0 0.003316113387011886 -0.0053949008270819535 0 0.0043560809989980119 -0.0056581277487795885 0 0.0040396270742889106 -0.0048200992704531299 0 0.003316113387011886 -0.0053949008270819535 0 0.0047789281922565032 -0.0049698765755268404 0 0.0048436769330346841 -0.0042314404761081264 0 0.0056463039316381001 -0.0049490140527200868 0 0.0047789281922565032 -0.0049698765755268404 0 0.0048436769330346841 -0.0042314404761081264 0 0.0040396270742889106 -0.0048200992704531299 0 0.0048436769330346841 -0.0042314404761081264 0 0.0040396270742889106 -0.0048200992704531299 0 0.0039655304521200082 -0.0041130569823174552 0 0.0043560809989980119 -0.0056581277487795885 0 0.0047789281922565032 -0.0049698765755268404 0 0.0040396270742889106 -0.0048200992704531299 0 0.0040396270742889106 -0.0048200992704531299 0 0.0034127727965935035 -0.0045759015370472438 0 0.003316113387011886 -0.0053949008270819535 0 0.0039655304521200082 -0.0041130569823174552 0 0.0034127727965935035 -0.0045759015370472438 0 0.0032328658372210188 -0.0039778882691996528 0 0.0040396270742889106 -0.0048200992704531299 0 0.0039655304521200082 -0.0041130569823174552 0 0.0034127727965935035 -0.0045759015370472438 0 0.0034127727965935035 -0.0045759015370472438 0 0.0028159434030841099 -0.0044102500884919916 0 0.0028675265564952718 -0.0050070022440411206 0 0.0034127727965935035 -0.0045759015370472438 0 0.0028159434030841099 -0.0044102500884919916 0 0.0032328658372210188 -0.0039778882691996528 0 0.0028675265564952718 -0.0050070022440411206 0 0.0027235646084227496 -0.0055207733075349104 0 0.003316113387011886 -0.0053949008270819535 0 0.0034127727965935035 -0.0045759015370472438 0 0.0028675265564952718 -0.0050070022440411206 0 0.003316113387011886 -0.0053949008270819535 0 0.0027235646084227496 -0.0055207733075349104 0 0.003316113387011886 -0.0053949008270819535 0 0.0026848483582955838 -0.0059991967374400492 0 0.0024017879615565378 -0.0067545848550500439 0 0.0036567132879742198 -0.0063188067531862293 0 0.0026848483582955838 -0.0059991967374400492 0 0.0036567132879742198 -0.0063188067531862293 0 0.003316113387011886 -0.0053949008270819535 0 0.0026848483582955838 -0.0059991967374400492 0 0.0024017879615565378 -0.0067545848550500439 0 0.0026848483582955838 -0.0059991967374400492 0 0.0024293916380252545 -0.0062244592141884681 0 0.0020690083101704269 -0.0049689424781850424 0 0.0023064523084530748 -0.0056353905382821997 0 0.0015910101097548206 -0.0035335106767155401 0 0.0023139836652540506 -0.0056232315208688119 0 0.0024487095629539429 -0.0044825015323113173 0 0.0024399244894737263 -0.0065145010462959313 0 0.0023335254072929827 -0.0059691779280995512 0 0.0023139836652540506 -0.0056232315208688119 0 0.0026848483582955838 -0.0059991967374400492 0 0.0024293916380252545 -0.0062244592141884681 0 0.0024082889183904173 -0.0058035884370731114 0 0.0024293916380252545 -0.0062244592141884681 0 0.0023335254072929827 -0.0059691779280995512 0 0.0024082889183904173 -0.0058035884370731114 0 0.0023335254072929827 -0.0059691779280995512 0 0.0021006221085346994 -0.0056644468772482325 0 0.0024082889183904173 -0.0058035884370731114 0 0.0023335254072929827 -0.0059691779280995512 0 0.0021006221085346994 -0.0056644468772482325 0 0.0023139836652540506 -0.0056232315208688119 0 0.0021006221085346994 -0.0056644468772482325 0 0.0023843552632410053 -0.0058904638665659556 0 0.0023139836652540506 -0.0056232315208688119 0 0.0027235646084227496 -0.0055207733075349104 0 0.0026848483582955838 -0.0059991967374400492 0 0.0024082889183904173 -0.0058035884370731114 0 0.0021006221085346994 -0.0056644468772482325 0 0.0024082889183904173 -0.0058035884370731114 0 0.0024433867340267032 -0.005318499311301364 0 0.0027235646084227496 -0.0055207733075349104 0 0.0024082889183904173 -0.0058035884370731114 0 0.0024433867340267032 -0.005318499311301364 0 0.0021006221085346994 -0.0056644468772482325 0 0.0021063368358034645 -0.0050395871875456811 0 0.0014167705263017905 -0.0043358819611895062 0 0.0028675265564952718 -0.0050070022440411206 0 0.0024433867340267032 -0.005318499311301364 0 0.0023361541896456208 -0.0046878859271347719 0 0.0028675265564952718 -0.0050070022440411206 0 0.0027235646084227496 -0.0055207733075349104 0 0.0024433867340267032 -0.005318499311301364 0 0.0024433867340267032 -0.005318499311301364 0 0.0023361541896456208 -0.0046878859271347719 0 0.0021063368358034645 -0.0050395871875456811 0 0.0019140495131412779 -0.0052883787874534105 0 0.0089945188241447403 -0.0040973032953070584 0 0.0028159434030841099 -0.0044102500884919916 0 0.0028675265564952718 -0.0050070022440411206 0 0.0023361541896456208 -0.0046878859271347719 0 0.0028159434030841099 -0.0044102500884919916 0 0.0023361541896456208 -0.0046878859271347719 0 0.0022069096726429673 -0.0037448427428399263 0 0.0023361541896456208 -0.0046878859271347719 0 0.0014167705263017905 -0.0043358819611895062 0 0.0022069096726429673 -0.0037448427428399263 0 0.0023361541896456208 -0.0046878859271347719 0 0.0021063368358034645 -0.0050395871875456811 0 0.0014167705263017905 -0.0043358819611895062 0 0.0021006221085346994 -0.0056644468772482325 0 0.0024433867340267032 -0.005318499311301364 0 0.0021063368358034645 -0.0050395871875456811 0 0.0021006221085346994 -0.0056644468772482325 0 0.0024741401478231731 -0.0063010238880447994 0 0.0023843552632410053 -0.0058904638665659556 0 0.0024741401478231731 -0.0063010238880447994 0 0.0027417184802374477 -0.0060095968512789083 0 0.0023843552632410053 -0.0058904638665659556 0 0.012608085365859951 -0.0016683799730585194 0 0.012216236197659535 -0.0019132066924559446 0 0.012269668372799325 -0.0015886748008132306 0 0.0021006221085346994 -0.0056644468772482325 0 0.0024741401478231731 -0.0063010238880447994 0 0.0025123507663818755 -0.0072299945116086018 0 0.0089945188241447403 -0.0040973032953070584 0 0.0022860567572696062 -0.0073117889189189432 0 0.0038109994909993265 -0.0065254030976174809 0 0.0044007582902744046 -0.0060437923618670165 0 0.0042814005802985873 -0.0057965988168095541 0 0.0029988868490266525 -0.0062999272948930747 0 0.0025123507663818755 -0.0072299945116086018 0 0.0042814005802985873 -0.0057965988168095541 0 0.0024741401478231731 -0.0063010238880447994 0 0.0029988868490266525 -0.0062999272948930747 0 0.0025123507663818755 -0.0072299945116086018 0 0.0089945188241447403 -0.0040973032953070584 0 0.0082550401178083186 -0.0040053598825210571 0 0.0024741401478231731 -0.0063010238880447994 0 0.0027417184802374477 -0.0060095968512789083 0 0.0029988868490266525 -0.0062999272948930747 0 0.0027417184802374477 -0.0060095968512789083 0 0.0029988868490266525 -0.0062999272948930747 0 0.0033167715838757876 -0.0059379106548753773 0 0.0029988868490266525 -0.0062999272948930747 0 0.0033167715838757876 -0.0059379106548753773 0 0.0042814005802985873 -0.0057965988168095541 0 0.0036030626972938561 -0.0056090880165574775 0 0.0033167715838757876 -0.0059379106548753773 0 0.0042814005802985873 -0.0057965988168095541 0 0.0036030626972938561 -0.0056090880165574775 0 0.0034474380069921201 -0.0051798263502833494 0 0.0039823886594202535 -0.0054080380583195935 0 0.0030462199578323336 -0.0056012656527364112 0 0.0029131886245462408 -0.0050598257794214679 0 0.0034474380069921201 -0.0051798263502833494 0 0.0036030626972938561 -0.0056090880165574775 0 0.0030462199578323336 -0.0056012656527364112 0 0.0034474380069921201 -0.0051798263502833494 0 0.0036030626972938561 -0.0056090880165574775 0 0.0033167715838757876 -0.0059379106548753773 0 0.0030462199578323336 -0.0056012656527364112 0 0.0027417184802374477 -0.0060095968512789083 0 0.0033167715838757876 -0.0059379106548753773 0 0.0030462199578323336 -0.0056012656527364112 0 0.0027417184802374477 -0.0060095968512789083 0 0.0023139836652540506 -0.0056232315208688119 0 0.0030462199578323336 -0.0056012656527364112 0 0.0027417184802374477 -0.0060095968512789083 0 0.0023843552632410053 -0.0058904638665659556 0 0.0023139836652540506 -0.0056232315208688119 0 0.0023139836652540506 -0.0056232315208688119 0 0.0030462199578323336 -0.0056012656527364112 0 0.0029131886245462408 -0.0050598257794214679 0 0.0023139836652540506 -0.0056232315208688119 0 0.0024487095629539429 -0.0044825015323113173 0 0.0029131886245462408 -0.0050598257794214679 0 0.0024487095629539429 -0.0044825015323113173 0 0.0029131886245462408 -0.0050598257794214679 0 0.0032857118178161409 -0.0044499480920795502 0 0.0032857118178161409 -0.0044499480920795502 0 0.0037187548221882197 -0.0047420958090686584 0 0.0034474380069921201 -0.0051798263502833494 0 0.0032857118178161409 -0.0044499480920795502 0 0.0037187548221882197 -0.0047420958090686584 0 0.0040557767294582114 -0.0043492565773682983 0 0.0034474380069921201 -0.0051798263502833494 0 0.0039823886594202535 -0.0054080380583195935 0 0.0040948828513413032 -0.0049955800414452911 0 0.0037187548221882197 -0.0047420958090686584 0 0.0034474380069921201 -0.0051798263502833494 0 0.0040948828513413032 -0.0049955800414452911 0 0.0029131886245462408 -0.0050598257794214679 0 0.0032857118178161409 -0.0044499480920795502 0 0.0034474380069921201 -0.0051798263502833494 0 -0.0011096293908187851 -0.0030500327880730745 0 -0.0017198678592816573 -0.0032981963588747418 0 -1.5348826632288319e-05 -0.0046654814255089275 0 -0.00011454936728996182 -0.0039908115437280204 0 0.00015522073219534217 -0.0041325949909268205 0 -0.0027236271459148615 -0.0026213435067832039 0 -0.003258830333202214 -0.002775234936648946 0 -0.0030689421756610433 -0.0022833108606934225 0 -0.0027236271459148615 -0.0026213435067832039 0 -0.0026187917669156747 -0.0029403202303901125 0 -0.0029557476203674357 -0.003069525650481326 0 -0.0026014171158175938 -0.0032323149242469542 0 -0.0027402585508700984 -0.0031275322962522954 0 -0.0026187917669156747 -0.0029403202303901125 0 -0.0027402585508700984 -0.0031275322962522954 0 -0.0026187917669156747 -0.0029403202303901125 0 -0.0029557476203674357 -0.003069525650481326 0 -0.010151184473908696 -0.0064869301147445482 0 -0.0011096293908187851 -0.0030500327880730745 0 -0.0034493396660184501 -0.0032563961720894446 0 -0.0029557476203674357 -0.003069525650481326 0 -0.003258830333202214 -0.002775234936648946 0 -0.0027236271459148615 -0.0026213435067832039 0 -0.0029557476203674357 -0.003069525650481326 0 -0.003258830333202214 -0.002775234936648946 0 -1.5348826632288319e-05 -0.0046654814255089275 0 -0.00050161637520413336 -0.0049563662803142313 0 -0.00050176999040980647 -0.0043952059810404981 0 -0.00018279204120487876 -0.0051473116800350447 0 -1.5348826632288319e-05 -0.0046654814255089275 0 -0.00050161637520413336 -0.0049563662803142313 0 -0.00084047944597697398 -0.0047628095800122073 0 -0.00050161637520413336 -0.0049563662803142313 0 -0.00050176999040980647 -0.0043952059810404981 0 0.0012097655302531318 -0.0058669654640615149 0 -0.00027300271318114272 -0.00557302708759629 0 -0.00059526381874584538 -0.005877562512398112 0 -0.00090894993741955869 -0.0051254095164417705 0 -0.0015419498431986853 -0.005329684322812449 0 0.0050610566497593761 -0.0082502324729391771 0 0.0049146134229071632 -0.006572737287218835 0 0.0063038213193491403 -0.0069158043413658906 0 0.0012097655302531318 -0.0058669654640615149 0 0.0029472202077879851 -0.0056864665382045862 0 -1.5348826632288319e-05 -0.0046654814255089275 0 -0.00050176999040980647 -0.0043952059810404981 0 -0.00011454936728996182 -0.0039908115437280204 0 0.0063038213193491403 -0.0069158043413658906 0 0.007476187331714383 -0.005729361684071118 0 0.0057283897019988882 -0.0057622897797467883 0 0.007476187331714383 -0.005729361684071118 0 0.0057283897019988882 -0.0057622897797467883 0 0.0068010513921985894 -0.0048214204828411532 0 0.0029472202077879851 -0.0056864665382045862 0 0.0037973436477667919 -0.0048274181165586542 0 0.0049146134229071632 -0.006572737287218835 0 0.0063038213193491403 -0.0069158043413658906 0 0.0057283897019988882 -0.0057622897797467883 0 0.0047789281922565032 -0.0049698765755268404 0 0.0057283897019988882 -0.0057622897797467883 0 0.0056463039316381001 -0.0049490140527200868 0 0.0057283897019988882 -0.0057622897797467883 0 0.0056463039316381001 -0.0049490140527200868 0 0.0068010513921985894 -0.0048214204828411532 0 0.0056463039316381001 -0.0049490140527200868 0 0.0060188404692908155 -0.0040019934788370565 0 0.0068010513921985894 -0.0048214204828411532 0 0.0048436769330346841 -0.0042314404761081264 0 0.0056463039316381001 -0.0049490140527200868 0 0.0060188404692908155 -0.0040019934788370565 0 0.007476187331714383 -0.005729361684071118 0 0.0068010513921985894 -0.0048214204828411532 0 0.0086286304143927389 -0.0045784957580468589 0 0.0068010513921985894 -0.0048214204828411532 0 0.0086286304143927389 -0.0045784957580468589 0 0.0072280912314503622 -0.0034936773725248349 0 0.0060188404692908155 -0.0040019934788370565 0 0.0068010513921985894 -0.0048214204828411532 0 0.0072280912314503622 -0.0034936773725248349 0 0.0037973436477667919 -0.0048274181165586542 0 0.0031943532129476079 -0.0036058226240523231 0 -0.00011454936728996182 -0.0039908115437280204 0 0.00032240949734060041 -0.0035639170910422594 0 0.00015522073219534217 -0.0041325949909268205 0 -0.0028914199889735984 -0.0017481869003020201 0 -0.0030689421756610433 -0.0022833108606934225 0 -0.0024987023005135028 -0.0021961003464811206 0 0.0031943532129476079 -0.0036058226240523231 0 -0.0017198678592816573 -0.0032981963588747418 0 -0.0027236271459148615 -0.0026213435067832039 0 -0.0030689421756610433 -0.0022833108606934225 0 -0.0024987023005135028 -0.0021961003464811206 0 -0.0028914199889735984 -0.0017481869003020201 0 -0.002329452145273277 -0.0018447179905059048 0 -0.0024714032696498511 -0.0013206166357791682 0 -0.0028914199889735984 -0.0017481869003020201 0 -0.0024987023005135028 -0.0021961003464811206 0 -0.002329452145273277 -0.0018447179905059048 0 0.0031943532129476079 -0.0036058226240523231 0 0.0055323948713256535 -0.001428476853745209 0 0.0074734702843401021 -0.0038487950689871714 0 0.0093425193743563711 -0.0019725941561337377 0 0.0080747403748680883 -0.0012222125876623577 0 0.017699141378299841 -0.0040621625067115827 0 0.017971990897523025 -0.0029478473568854066 0 0.017054950191289976 -0.0036663872572802259 0 0.0055323948713256535 -0.001428476853745209 0 0.01616634457633024 -0.0022822878107054637 0 0.017971990897523025 -0.0029478473568854066 0 0.017054950191289976 -0.0036663872572802259 0 0.017597262377577024 -0.0017525097676193847 0 0.017971990897523025 -0.0029478473568854066 0 0.017597262377577024 -0.0017525097676193847 0 0.019082629551534919 -0.0027330716357475394 0 0.01616634457633024 -0.0022822878107054637 0 0.020887403780255311 -0.0017745053937081535 0 0.025185004398608626 -0.00093846903508640019 0 0.025378838480894332 -0.00060690820980629709 0 0.025156522971334649 -0.00058892723477382575 0 0.01616634457633024 -0.0022822878107054637 0 0.015802337979378855 -0.0013599425922913493 0 0.025185004398608626 -0.00093846903508640019 0 0.024960941297228301 -0.00075322927431183823 0 0.025156522971334649 -0.00058892723477382575 0 0.0086286304143927389 -0.0045784957580468589 0 0.0089858426251039295 -0.0030841463626069495 0 0.0072280912314503622 -0.0034936773725248349 0 0.0089858426251039295 -0.0030841463626069495 0 0.0072280912314503622 -0.0034936773725248349 0 0.0071184634344047251 -0.002049249997371742 0 0.0031943532129476079 -0.0036058226240523231 0 0.01616634457633024 -0.0022822878107054637 0 0.0060188404692908155 -0.0040019934788370565 0 0.0058902147073280108 -0.0024156777261520844 0 0.0052220805220711307 -0.0033601748394661859 0 0.0060188404692908155 -0.0040019934788370565 0 0.0072280912314503622 -0.0034936773725248349 0 0.0058902147073280108 -0.0024156777261520844 0 0.0048436769330346841 -0.0042314404761081264 0 0.0060188404692908155 -0.0040019934788370565 0 0.0052220805220711307 -0.0033601748394661859 0 0.0058902147073280108 -0.0024156777261520844 0 0.0054570972632157193 -0.0016383456029262888 0 0.0054458847071689369 -0.0013716560849807622 0 0.0058902147073280108 -0.0024156777261520844 0 0.0071184634344047251 -0.002049249997371742 0 0.0054458847071689369 -0.0013716560849807622 0 0.0072280912314503622 -0.0034936773725248349 0 0.0058902147073280108 -0.0024156777261520844 0 0.0071184634344047251 -0.002049249997371742 0 0.024960941297228301 -0.00075322927431183823 0 0.024966684833876818 -0.00050532467313816514 0 0.025156522971334649 -0.00058892723477382575 0 0.024960941297228301 -0.00075322927431183823 0 0.024966684833876818 -0.00050532467313816514 0 0.024792889036504267 -0.00053794478009253749 0 0.015802337979378855 -0.0013599425922913493 0 0.017270672696326508 -0.00076774127135648693 0 0.024960941297228301 -0.00075322927431183823 0 0.024792889036504267 -0.00053794478009253749 0 0.024704012647721381 -0.00059399490621173806 0 0.024966684833876818 -0.00050532467313816514 0 0.024792889036504267 -0.00053794478009253749 0 0.024872435859433013 -0.00047128814675453983 0 0.024792889036504267 -0.00053794478009253749 0 0.024804001956002217 -0.00045256730358950555 0 0.02473124059353483 -0.00059825381695509025 0 0.022158974500063315 0.0011395568872501493 0 0.017270672696326508 -0.00076774127135648693 0 0.024792889036504267 -0.00053794478009253749 0 0.024804001956002217 -0.00045256730358950555 0 0.024872435859433013 -0.00047128814675453983 0 0.024966684833876818 -0.00050532467313816514 0 0.024872435859433013 -0.00047128814675453983 0 0.024931990725254066 -0.00038980613744929346 0 0.024804001956002217 -0.00045256730358950555 0 0.024872435859433013 -0.00047128814675453983 0 0.024931990725254066 -0.00038980613744929346 0 0.024931990725254066 -0.00038980613744929346 0 0.024860720438006943 -0.00033558959882191438 0 0.024991487785571524 -0.00025463308797685728 0 0.024804001956002217 -0.00045256730358950555 0 0.024860720438006943 -0.00033558959882191438 0 0.024715400881473965 -0.00041573622899242728 0 0.024804001956002217 -0.00045256730358950555 0 0.024931990725254066 -0.00038980613744929346 0 0.024860720438006943 -0.00033558959882191438 0 0.024966684833876818 -0.00050532467313816514 0 0.025111361343506652 -0.00032798519747857281 0 0.025156522971334649 -0.00058892723477382575 0 0.024966684833876818 -0.00050532467313816514 0 0.024931990725254066 -0.00038980613744929346 0 0.025111361343506652 -0.00032798519747857281 0 0.024931990725254066 -0.00038980613744929346 0 0.025111361343506652 -0.00032798519747857281 0 0.024991487785571524 -0.00025463308797685728 0 0.025111361343506652 -0.00032798519747857281 0 0.025312899821249939 -0.00036334895047876345 0 0.025156522971334649 -0.00058892723477382575 0 0.025312899821249939 -0.00036334895047876345 0 0.025378838480894332 -0.00060690820980629709 0 0.025579496837305274 -0.00022671422039697431 0 0.017597262377577024 -0.0017525097676193847 0 0.018148078036342122 0.00012247292104002782 0 0.019276370338260695 -0.00064411472312880184 0 0.020887403780255311 -0.0017745053937081535 0 0.031146896597311371 0.0023753966447821536 0 0.025312899821249939 -0.00036334895047876345 0 0.025378838480894332 -0.00060690820980629709 0 0.025156522971334649 -0.00058892723477382575 0 0.018864733977987408 0.0013228751132020144 0 0.023836843466451221 0.0018575970141887458 0 0.022768998417232154 0.0013676819728275843 0 0.022631999524141171 0.0014178658053921275 0 0.022737284596552585 0.001198548222395391 0 0.022543266388297793 0.0016325873805419432 0 0.022768998417232154 0.0013676819728275843 0 0.022631999524141171 0.0014178658053921275 0 0.0089945188241447403 -0.0040973032953070584 0 0.018864733977987408 0.0013228751132020144 0 0.012608085365859951 -0.0016683799730585194 0 0.012438400789447206 -0.0011312602001433397 0 0.012269668372799325 -0.0015886748008132306 0 0.022543266388297793 0.0016325873805419432 0 0.022432174765870439 0.0015879629790174702 0 0.022631999524141171 0.0014178658053921275 0 0.022432174765870439 0.0015879629790174702 0 0.022631999524141171 0.0014178658053921275 0 0.022009795338323437 0.0013709379248955285 0 0.0089945188241447403 -0.0040973032953070584 0 0.01070561465358926 -0.0008141266650937923 0 0.0028159434030841099 -0.0044102500884919916 0 0.0022069096726429673 -0.0037448427428399263 0 0.0032328658372210188 -0.0039778882691996528 0 0.022631999524141171 0.0014178658053921275 0 0.022737284596552585 0.001198548222395391 0 0.022009795338323437 0.0013709379248955285 0 0.0022069096726429673 -0.0037448427428399263 0 0.0032328658372210188 -0.0039778882691996528 0 0.0035319516107650169 -0.0034194790552733163 0 0.01070561465358926 -0.0008141266650937923 0 0.014013364945867404 7.3633809373084062e-05 0 0.01070561465358926 -0.0008141266650937923 0 0.003593911249214213 -0.002741299461160317 0 0.0022069096726429673 -0.0037448427428399263 0 0.0036296232594590547 -0.0026147384922376041 0 0.0035319516107650169 -0.0034194790552733163 0 0.0069046113439415729 -0.0013067443536138371 0 0.0057923038757383086 -0.0017331099147393832 0 0.0058453824706409573 -0.0016316922551546465 0 0.0039655304521200082 -0.0041130569823174552 0 0.0032328658372210188 -0.0039778882691996528 0 0.0035319516107650169 -0.0034194790552733163 0 0.0039655304521200082 -0.0041130569823174552 0 0.0035319516107650169 -0.0034194790552733163 0 0.0042446890498321161 -0.003376917809012398 0 0.0036296232594590547 -0.0026147384922376041 0 0.0035319516107650169 -0.0034194790552733163 0 0.0038913634308353254 -0.0030808809769875558 0 0.0035319516107650169 -0.0034194790552733163 0 0.0038913634308353254 -0.0030808809769875558 0 0.0042446890498321161 -0.003376917809012398 0 0.0036296232594590547 -0.0026147384922376041 0 0.0038913634308353254 -0.0030808809769875558 0 0.0041400096159437613 -0.0028889952529121154 0 0.0041400096159437613 -0.0028889952529121154 0 0.0042446890498321161 -0.003376917809012398 0 0.0048351346279292533 -0.0025749630818637753 0 0.0038913634308353254 -0.0030808809769875558 0 0.0041400096159437613 -0.0028889952529121154 0 0.0042446890498321161 -0.003376917809012398 0 0.0048436769330346841 -0.0042314404761081264 0 0.0039655304521200082 -0.0041130569823174552 0 0.0042446890498321161 -0.003376917809012398 0 0.0048436769330346841 -0.0042314404761081264 0 0.0042446890498321161 -0.003376917809012398 0 0.0052220805220711307 -0.0033601748394661859 0 0.0058902147073280108 -0.0024156777261520844 0 0.0052220805220711307 -0.0033601748394661859 0 0.0048351346279292533 -0.0025749630818637753 0 0.0042446890498321161 -0.003376917809012398 0 0.0052220805220711307 -0.0033601748394661859 0 0.0048351346279292533 -0.0025749630818637753 0 0.0036296232594590547 -0.0026147384922376041 0 0.0048351346279292533 -0.0025749630818637753 0 0.0054570972632157193 -0.0016383456029262888 0 0.0057923038757383086 -0.0017331099147393832 0 0.0054570972632157193 -0.0016383456029262888 0 0.0054458847071689369 -0.0013716560849807622 0 0.0057923038757383086 -0.0017331099147393832 0 0.0058453824706409573 -0.0016316922551546465 0 0.0054570972632157193 -0.0016383456029262888 0 0.003593911249214213 -0.002741299461160317 0 0.0058139979646081299 -0.0014161983832510852 0 0.014013364945867404 7.3633809373084062e-05 0 0.017270672696326508 -0.00076774127135648693 0 0.0058902147073280108 -0.0024156777261520844 0 0.0048351346279292533 -0.0025749630818637753 0 0.0054570972632157193 -0.0016383456029262888 0 0.0036296232594590547 -0.0026147384922376041 0 0.0041400096159437613 -0.0028889952529121154 0 0.0048351346279292533 -0.0025749630818637753 0 0.022009795338323437 0.0013709379248955285 0 0.021353354156775899 0.00085168480442716899 0 0.021996183814091165 0.00053761936862846188 0 0.017270672696326508 -0.00076774127135648693 0 0.024181405450641236 -0.00022614911805293625 0 0.024804001956002217 -0.00045256730358950555 0 0.02473124059353483 -0.00059825381695509025 0 0.024715400881473965 -0.00041573622899242728 0 0.024715400881473965 -0.00041573622899242728 0 0.024518889490520626 -0.00051611098225959361 0 0.024600414659504771 -0.0002785042807503867 0 0.02473124059353483 -0.00059825381695509025 0 0.024715400881473965 -0.00041573622899242728 0 0.024518889490520626 -0.00051611098225959361 0 0.024860720438006943 -0.00033558959882191438 0 0.024715400881473965 -0.00041573622899242728 0 0.024789004353617923 -0.00027826404777428086 0 0.024518889490520626 -0.00051611098225959361 0 0.024177924553898451 -0.00038862985221671547 0 0.024600414659504771 -0.0002785042807503867 0 0.024181405450641236 -0.00022614911805293625 0 0.02327046123430801 2.185329802223994e-06 0 0.021996183814091165 0.00053761936862846188 0 0.022512867753784263 0.00076345358457672024 0 0.022710303905747745 0.00018389161339798547 0 0.022009795338323437 0.0013709379248955285 0 0.021996183814091165 0.00053761936862846188 0 0.022512867753784263 0.00076345358457672024 0 0.022737284596552585 0.001198548222395391 0 0.022512867753784263 0.00076345358457672024 0 0.02317936944003586 0.00066534848846247171 0 0.022737284596552585 0.001198548222395391 0 0.022009795338323437 0.0013709379248955285 0 0.022512867753784263 0.00076345358457672024 0 0.022512867753784263 0.00076345358457672024 0 0.022710303905747745 0.00018389161339798547 0 0.02317936944003586 0.00066534848846247171 0 0.022710303905747745 0.00018389161339798547 0 0.02317936944003586 0.00066534848846247171 0 0.023638289642240184 0.00028190192504696035 0 0.02317936944003586 0.00066534848846247171 0 0.023638289642240184 0.00028190192504696035 0 0.023857741901165914 0.00072086678598695252 0 0.023353429032314108 0.0015970290418505745 0 0.022737284596552585 0.001198548222395391 0 0.02317936944003586 0.00066534848846247171 0 0.023353429032314108 0.0015970290418505745 0 0.02317936944003586 0.00066534848846247171 0 0.023857741901165914 0.00072086678598695252 0 0.023939780084774237 1.4119822622940883e-05 0 0.024083174586886368 0.00013400706887415129 0 0.023924979944660009 -1.8157158026278036e-05 0 0.023939780084774237 1.4119822622940883e-05 0 0.023883390521862953 -5.9421184860224732e-06 0 0.023924979944660009 -1.8157158026278036e-05 0 0.023939780084774237 1.4119822622940883e-05 0 0.023706368542189094 -7.7796437594630452e-05 0 0.023883390521862953 -5.9421184860224732e-06 0 0.022710303905747745 0.00018389161339798547 0 0.023638289642240184 0.00028190192504696035 0 0.023706368542189094 -7.7796437594630452e-05 0 0.023939780084774237 1.4119822622940883e-05 0 0.023706368542189094 -7.7796437594630452e-05 0 0.024104355858094745 -9.6884033528838386e-05 0 0.02327046123430801 2.185329802223994e-06 0 0.02372594117106459 -0.00013201466157254641 0 0.023638289642240184 0.00028190192504696035 0 0.023706368542189094 -7.7796437594630452e-05 0 0.023872602707470662 5.7205038061940845e-05 0 0.024177924553898451 -0.00038862985221671547 0 0.023706368542189094 -7.7796437594630452e-05 0 0.024104355858094745 -9.6884033528838386e-05 0 0.024177924553898451 -0.00038862985221671547 0 0.024104355858094745 -9.6884033528838386e-05 0 0.024380708215623235 -0.00012976711909954612 0 0.023939780084774237 1.4119822622940883e-05 0 0.024104355858094745 -9.6884033528838386e-05 0 0.024270296618610056 6.0351195214724199e-05 0 0.023939780084774237 1.4119822622940883e-05 0 0.024270296618610056 6.0351195214724199e-05 0 0.024083174586886368 0.00013400706887415129 0 0.024104355858094745 -9.6884033528838386e-05 0 0.024270296618610056 6.0351195214724199e-05 0 0.024380708215623235 -0.00012976711909954612 0 0.024270296618610056 6.0351195214724199e-05 0 0.024486031585062663 1.5636944425539364e-05 0 0.024466823163282265 0.00016103406455520962 0 0.024486031585062663 1.5636944425539364e-05 0 0.024645035845988771 6.7764297597726366e-05 0 0.024466823163282265 0.00016103406455520962 0 0.024486031585062663 1.5636944425539364e-05 0 0.024624913278932979 -9.4706283680439339e-05 0 0.024645035845988771 6.7764297597726366e-05 0 0.024486031585062663 1.5636944425539364e-05 0 0.024380708215623235 -0.00012976711909954612 0 0.024624913278932979 -9.4706283680439339e-05 0 0.024270296618610056 6.0351195214724199e-05 0 0.024486031585062663 1.5636944425539364e-05 0 0.024380708215623235 -0.00012976711909954612 0 0.024177924553898451 -0.00038862985221671547 0 0.024380708215623235 -0.00012976711909954612 0 0.024600414659504771 -0.0002785042807503867 0 0.024380708215623235 -0.00012976711909954612 0 0.024600414659504771 -0.0002785042807503867 0 0.024624913278932979 -9.4706283680439339e-05 0 0.024600414659504771 -0.0002785042807503867 0 0.024849261735818841 -0.00014778914071414385 0 0.024624913278932979 -9.4706283680439339e-05 0 0.024715400881473965 -0.00041573622899242728 0 0.024600414659504771 -0.0002785042807503867 0 0.024789004353617923 -0.00027826404777428086 0 0.024600414659504771 -0.0002785042807503867 0 0.024789004353617923 -0.00027826404777428086 0 0.024849261735818841 -0.00014778914071414385 0 0.024789004353617923 -0.00027826404777428086 0 0.024849261735818841 -0.00014778914071414385 0 0.024916449785934113 -0.00021866438373662272 0 0.024849261735818841 -0.00014778914071414385 0 0.02482826355288574 -2.8027689127716566e-05 0 0.024624913278932979 -9.4706283680439339e-05 0 0.024849261735818841 -0.00014778914071414385 0 0.02482826355288574 -2.8027689127716566e-05 0 0.024984516572254943 -3.685795630063169e-05 0 0.02482826355288574 -2.8027689127716566e-05 0 0.024984516572254943 -3.685795630063169e-05 0 0.025055505358573055 1.6656419377198067e-05 0 0.02482826355288574 -2.8027689127716566e-05 0 0.024624913278932979 -9.4706283680439339e-05 0 0.024645035845988771 6.7764297597726366e-05 0 0.02482826355288574 -2.8027689127716566e-05 0 0.024888102964190487 9.5237686852600793e-05 0 0.025055505358573055 1.6656419377198067e-05 0 0.02482826355288574 -2.8027689127716566e-05 0 0.024645035845988771 6.7764297597726366e-05 0 0.024888102964190487 9.5237686852600793e-05 0 0.024888102964190487 9.5237686852600793e-05 0 0.024600490661419019 0.0003476155754879113 0 0.025454585841356282 1.8267808571353328e-05 0 0.027506571779636328 -0.00091235289646827359 0 0.028731619767990269 -0.00063259937933382896 0 0.030120260289233577 -0.0022519674141531433 0 0.027506571779636328 -0.00091235289646827359 0 0.028731619767990269 -0.00063259937933382896 0 0.025454585841356282 1.8267808571353328e-05 0 0.026560268381287864 -0.00016162199239694178 0 0.02559680445080344 2.7911764035240837e-05 0 0.024645035845988771 6.7764297597726366e-05 0 0.024888102964190487 9.5237686852600793e-05 0 0.024600490661419019 0.0003476155754879113 0 0.037921358261451321 0.0021176472983481351 0 0.040309475414640125 0.00097965149371382091 0 0.048472229705466087 0.0051453761594884746 0 0.049970044100834048 0.0040790609373609369 0 0.048484862863145073 0.0034631405522799448 0 0.028731619767990269 -0.00063259937933382896 0 0.030120260289233577 -0.0022519674141531433 0 0.03185472707006122 -0.0017021798953065022 0 0.026560268381287864 -0.00016162199239694178 0 0.028507790264296156 -0.00071593479409601192 0 0.024600490661419019 0.0003476155754879113 0 0.024338110705347065 0.00022046377836822071 0 0.024192743667177472 0.00028465073315504666 0 0.024600490661419019 0.0003476155754879113 0 0.024466823163282265 0.00016103406455520962 0 0.024338110705347065 0.00022046377836822071 0 0.024645035845988771 6.7764297597726366e-05 0 0.024600490661419019 0.0003476155754879113 0 0.024466823163282265 0.00016103406455520962 0 0.024270296618610056 6.0351195214724199e-05 0 0.024466823163282265 0.00016103406455520962 0 0.024338110705347065 0.00022046377836822071 0 0.024270296618610056 6.0351195214724199e-05 0 0.024338110705347065 0.00022046377836822071 0 0.024083174586886368 0.00013400706887415129 0 0.024338110705347065 0.00022046377836822071 0 0.024083174586886368 0.00013400706887415129 0 0.024192743667177472 0.00028465073315504666 0 0.040309475414640125 0.00097965149371382091 0 0.039852495104113254 -0.0013327783652053917 0 0.030120260289233577 -0.0022519674141531433 0 0.032263013511972666 -0.0025509467434367281 0 0.03185472707006122 -0.0017021798953065022 0 0.030120260289233577 -0.0022519674141531433 0 0.032263013511972666 -0.0025509467434367281 0 0.032460436789466272 -0.003521521771083128 0 0.032263013511972666 -0.0025509467434367281 0 0.03185472707006122 -0.0017021798953065022 0 0.032853903989319651 -0.0027108971588213041 0 0.032263013511972666 -0.0025509467434367281 0 0.032853903989319651 -0.0027108971588213041 0 0.032423510847129508 -0.0033244024994008429 0 0.024192743667177472 0.00028465073315504666 0 0.024020985909416287 0.00018347907255669585 0 0.02393798157377371 0.00032346548818228842 0 0.028507790264296156 -0.00071593479409601192 0 0.026758589029352936 -0.0015945497546735372 0 0.03185472707006122 -0.0017021798953065022 0 0.032853903989319651 -0.0027108971588213041 0 0.034208549719488113 -0.0026392079475470649 0 0.032853903989319651 -0.0027108971588213041 0 0.034208549719488113 -0.0026392079475470649 0 0.033510624881004356 -0.0032481143900727556 0 0.024083174586886368 0.00013400706887415129 0 0.024192743667177472 0.00028465073315504666 0 0.024020985909416287 0.00018347907255669585 0 0.024083174586886368 0.00013400706887415129 0 0.024020985909416287 0.00018347907255669585 0 0.023924979944660009 -1.8157158026278036e-05 0 0.045124105862193419 0.0071413244876534178 0 0.046797007752812668 0.006179706580786426 0 0.044938688129787852 0.0049774324962613926 0 0.045124105862193419 0.0071413244876534178 0 0.044938688129787852 0.0049774324962613926 0 0.043192220513884903 0.0061794497343877859 0 0.031146896597311371 0.0023753966447821536 0 0.041654064600923531 0.0055497386975322397 0 0.043485040245595831 0.0080679148608838284 0 0.045124105862193419 0.0071413244876534178 0 0.043192220513884903 0.0061794497343877859 0 0.031146896597311371 0.0023753966447821536 0 0.035763804233667817 0.0035699360818900777 0 0.025312899821249939 -0.00036334895047876345 0 0.025579496837305274 -0.00022671422039697431 0 0.025345430280886906 -5.5680805370743981e-05 0 0.025111361343506652 -0.00032798519747857281 0 0.025312899821249939 -0.00036334895047876345 0 0.025345430280886906 -5.5680805370743981e-05 0 0.025345430280886906 -5.5680805370743981e-05 0 0.025087638509087021 -0.00015186807846548125 0 0.025041219114573424 -1.306866900322996e-05 0 0.025111361343506652 -0.00032798519747857281 0 0.025345430280886906 -5.5680805370743981e-05 0 0.025087638509087021 -0.00015186807846548125 0 0.025111361343506652 -0.00032798519747857281 0 0.025087638509087021 -0.00015186807846548125 0 0.024991487785571524 -0.00025463308797685728 0 0.025087638509087021 -0.00015186807846548125 0 0.025009187108765617 -0.00011546632406613006 0 0.025041219114573424 -1.306866900322996e-05 0 0.024860720438006943 -0.00033558959882191438 0 0.024789004353617923 -0.00027826404777428086 0 0.024916449785934113 -0.00021866438373662272 0 0.024860720438006943 -0.00033558959882191438 0 0.024916449785934113 -0.00021866438373662272 0 0.024991487785571524 -0.00025463308797685728 0 0.025087638509087021 -0.00015186807846548125 0 0.024991487785571524 -0.00025463308797685728 0 0.025009187108765617 -0.00011546632406613006 0 0.024916449785934113 -0.00021866438373662272 0 0.024991487785571524 -0.00025463308797685728 0 0.025009187108765617 -0.00011546632406613006 0 0.025009187108765617 -0.00011546632406613006 0 0.024969525924150769 -0.00013464341166609655 0 0.025064009563554378 -5.3256041275886896e-05 0 0.024849261735818841 -0.00014778914071414385 0 0.024969525924150769 -0.00013464341166609655 0 0.025064009563554378 -5.3256041275886896e-05 0 0.024916449785934113 -0.00021866438373662272 0 0.025009187108765617 -0.00011546632406613006 0 0.024969525924150769 -0.00013464341166609655 0 0.024849261735818841 -0.00014778914071414385 0 0.024916449785934113 -0.00021866438373662272 0 0.024969525924150769 -0.00013464341166609655 0 0.024888102964190487 9.5237686852600793e-05 0 0.025454585841356282 1.8267808571353328e-05 0 0.025055505358573055 1.6656419377198067e-05 0 0.024984516572254943 -3.685795630063169e-05 0 0.025064009563554378 -5.3256041275886896e-05 0 0.025189518450030125 2.8650211285260245e-05 0 0.024849261735818841 -0.00014778914071414385 0 0.024984516572254943 -3.685795630063169e-05 0 0.025064009563554378 -5.3256041275886896e-05 0 0.025064009563554378 -5.3256041275886896e-05 0 0.025189518450030125 2.8650211285260245e-05 0 0.025041219114573424 -1.306866900322996e-05 0 0.025009187108765617 -0.00011546632406613006 0 0.025064009563554378 -5.3256041275886896e-05 0 0.025041219114573424 -1.306866900322996e-05 0 0.025189518450030125 2.8650211285260245e-05 0 0.025041219114573424 -1.306866900322996e-05 0 0.02496830091785664 0.00014007577233170163 0 0.025454585841356282 1.8267808571353328e-05 0 0.025189518450030125 2.8650211285260245e-05 0 0.02496830091785664 0.00014007577233170163 0 0.024984516572254943 -3.685795630063169e-05 0 0.025189518450030125 2.8650211285260245e-05 0 0.025055505358573055 1.6656419377198067e-05 0 0.025454585841356282 1.8267808571353328e-05 0 0.025189518450030125 2.8650211285260245e-05 0 0.025055505358573055 1.6656419377198067e-05 0 0.025345430280886906 -5.5680805370743981e-05 0 0.025041219114573424 -1.306866900322996e-05 0 0.02496830091785664 0.00014007577233170163 0 0.035763804233667817 0.0035699360818900777 0 0.035844842169082868 0.0031784629185193183 0 0.046797007752812668 0.006179706580786426 0 0.046875266461496576 0.004487720414992416 0 0.044938688129787852 0.0049774324962613926 0 0.048472229705466087 0.0051453761594884746 0 0.046797007752812668 0.006179706580786426 0 0.046875266461496576 0.004487720414992416 0 0.037921358261451321 0.0021176472983481351 0 0.035844842169082868 0.0031784629185193183 0 0.027506571779636328 -0.00091235289646827359 0 0.025454585841356282 1.8267808571353328e-05 0 0.02496830091785664 0.00014007577233170163 0 0.048472229705466087 0.0051453761594884746 0 0.046875266461496576 0.004487720414992416 0 0.048484862863145073 0.0034631405522799448 0 0.046875266461496576 0.004487720414992416 0 0.046852190699625589 0.0031240427519326 0 0.048484862863145073 0.0034631405522799448 0 0.046875266461496576 0.004487720414992416 0 0.045588391875123646 0.0035676615582096432 0 0.046852190699625589 0.0031240427519326 0 0.046875266461496576 0.004487720414992416 0 0.044938688129787852 0.0049774324962613926 0 0.045588391875123646 0.0035676615582096432 0 0.044938688129787852 0.0049774324962613926 0 0.044072081956460847 0.0029769518109020207 0 0.045588391875123646 0.0035676615582096432 0 0.044938688129787852 0.0049774324962613926 0 0.042855340639818613 0.0042468668877482796 0 0.043192220513884903 0.0061794497343877859 0 0.044938688129787852 0.0049774324962613926 0 0.042855340639818613 0.0042468668877482796 0 0.044072081956460847 0.0029769518109020207 0 0.038327622349241822 0.0040511874661627789 0 0.038351072217887992 0.0035304959215446408 0 0.038739019014732534 0.0039495196707136542 0 0.037931750931855711 0.0039544540946858065 0 0.038327622349241822 0.0040511874661627789 0 0.038351072217887992 0.0035304959215446408 0 0.038327622349241822 0.0040511874661627789 0 0.038739019014732534 0.0039495196707136542 0 0.038438210122240454 0.0043505803390177927 0 0.039646112673906345 0.0040605815040439114 0 0.041654064600923531 0.0055497386975322397 0 0.037931750931855711 0.0039544540946858065 0 0.038351072217887992 0.0035304959215446408 0 0.037616896638288939 0.0033156719572361186 0 0.038351072217887992 0.0035304959215446408 0 0.037616896638288939 0.0033156719572361186 0 0.038094981383300967 0.0029804861609766843 0 0.037616896638288939 0.0033156719572361186 0 0.038094981383300967 0.0029804861609766843 0 0.03776753281429987 0.0026635913374135544 0 0.038351072217887992 0.0035304959215446408 0 0.038094981383300967 0.0029804861609766843 0 0.038536564365840707 0.0029275626198749425 0 0.038094981383300967 0.0029804861609766843 0 0.03776753281429987 0.0026635913374135544 0 0.038246507600346709 0.0024461375420592396 0 0.038094981383300967 0.0029804861609766843 0 0.038536564365840707 0.0029275626198749425 0 0.038246507600346709 0.0024461375420592396 0 0.037306831626697047 0.0025479626489455253 0 0.037616896638288939 0.0033156719572361186 0 0.03776753281429987 0.0026635913374135544 0 0.037306831626697047 0.0025479626489455253 0 0.03776753281429987 0.0026635913374135544 0 0.03777358105391454 0.0022016984068437251 0 0.030653863294060512 0.010075835599219665 0 0.031084641737971 0.0055928000617377792 0 0.027873554552819799 0.0074303979610986339 0 0.039070676057176318 0.0029917712994405946 0 0.039901153899364002 0.0030289417085542923 0 0.03895324756062514 0.0023789615776446285 0 0.034891469994503412 0.0062298566015380804 0 0.035558411002119789 0.0059198838865576493 0 0.038536564365840707 0.0029275626198749425 0 0.038246507600346709 0.0024461375420592396 0 0.03895324756062514 0.0023789615776446285 0 0.038536564365840707 0.0029275626198749425 0 0.039070676057176318 0.0029917712994405946 0 0.03895324756062514 0.0023789615776446285 0 0.038536564365840707 0.0029275626198749425 0 0.038833107713545686 0.0032805457787269373 0 0.039070676057176318 0.0029917712994405946 0 0.038351072217887992 0.0035304959215446408 0 0.038536564365840707 0.0029275626198749425 0 0.038833107713545686 0.0032805457787269373 0 0.039070676057176318 0.0029917712994405946 0 0.039443002138083307 0.003261082991985772 0 0.039901153899364002 0.0030289417085542923 0 0.038833107713545686 0.0032805457787269373 0 0.039198301508198849 0.0033360119577231545 0 0.039258474716925049 0.0037221803435551946 0 0.039198301508198849 0.0033360119577231545 0 0.039468930288231598 0.0034275332980947307 0 0.039258474716925049 0.0037221803435551946 0 0.038839994632627974 0.0023513459346538386 0 0.044080261591492038 0.0026036434667873918 0 0.039198301508198849 0.0033360119577231545 0 0.039070676057176318 0.0029917712994405946 0 0.039443002138083307 0.003261082991985772 0 0.038833107713545686 0.0032805457787269373 0 0.039198301508198849 0.0033360119577231545 0 0.039070676057176318 0.0029917712994405946 0 0.039443002138083307 0.003261082991985772 0 0.039587699804959291 0.003424665798927095 0 0.039901153899364002 0.0030289417085542923 0 0.039443002138083307 0.003261082991985772 0 0.039587699804959291 0.003424665798927095 0 0.03946847633498219 0.0035932419988242365 0 0.039587699804959291 0.003424665798927095 0 0.039446213747964212 0.0036218983435698342 0 0.039809909839090878 0.0037732345417401808 0 0.041296066417488148 0.0039253695558865024 0 0.041692456854972519 0.0037362139381782429 0 0.041155777892051312 0.0033858427188277595 0 0.041692456854972519 0.0037362139381782429 0 0.039198301508198849 0.0033360119577231545 0 0.039443002138083307 0.003261082991985772 0 0.039468930288231598 0.0034275332980947307 0 0.041692456854972519 0.0037362139381782429 0 0.044080261591492038 0.0026036434667873918 0 0.041692456854972519 0.0037362139381782429 0 0.046908288221088348 0.0025927190337895019 0 0.039446213747964212 0.0036218983435698342 0 0.039597485958687333 0.0046047496968672826 0 0.039809909839090878 0.0037732345417401808 0 0.05128248081351524 0.00099281140223023319 0 0.051105924182949312 0.00097329275694266074 0 0.051285979301571138 0.00099553350203107301 0 0.044247615940492521 0.0030610769507116789 0 0.04431370924748123 0.0029807629472082954 0 0.044248405504078617 0.0029072706064469825 0 0.044080261591492038 0.0026036434667873918 0 0.046908288221088348 0.0025927190337895019 0 0.05128248081351524 0.00099281140223023319 0 0.051290055957414669 0.0010529214512865559 0 0.051285979301571138 0.00099553350203107301 0 0.039095671790761781 0.0034930734526493197 0 0.038731741432667777 0.0036062613651291864 0 0.038739019014732534 0.0039495196707136542 0 0.038351072217887992 0.0035304959215446408 0 0.038833107713545686 0.0032805457787269373 0 0.038731741432667777 0.0036062613651291864 0 0.038351072217887992 0.0035304959215446408 0 0.038731741432667777 0.0036062613651291864 0 0.038739019014732534 0.0039495196707136542 0 0.044080261591492038 0.0026036434667873918 0 0.044725732372388013 0.0025600066296270645 0 0.038833107713545686 0.0032805457787269373 0 0.039095671790761781 0.0034930734526493197 0 0.038731741432667777 0.0036062613651291864 0 0.051105924182949312 0.00097329275694266074 0 0.05124074926402547 0.001025086234735149 0 0.051285979301571138 0.00099553350203107301 0 0.051105924182949312 0.00097329275694266074 0 0.05124074926402547 0.001025086234735149 0 0.051110028218936669 0.0012944825396419661 0 0.051290055957414669 0.0010529214512865559 0 0.051404133504643568 0.0009520840427521168 0 0.051341033583680043 0.0007599734983349749 0 0.046908288221088348 0.0025927190337895019 0 0.051969545354156654 0.00074260844377134147 0 0.051290055957414669 0.0010529214512865559 0 0.051285979301571138 0.00099553350203107301 0 0.051404133504643568 0.0009520840427521168 0 0.05124074926402547 0.001025086234735149 0 0.051404133504643568 0.0009520840427521168 0 0.051110028218936669 0.0012944825396419661 0 0.051182988871007667 0.001110779360624338 0 0.052268518064910258 0.00067792870341458174 0 0.05124074926402547 0.001025086234735149 0 0.051285979301571138 0.00099553350203107301 0 0.051404133504643568 0.0009520840427521168 0 0.051421373733388967 0.0022092780958584725 0 0.050934987664408383 0.00170091516895093 0 0.051377708267755784 0.0011031810239825624 0 0.046908288221088348 0.0025927190337895019 0 0.045611628775263029 0.0036313075086431825 0 0.040581210822947404 0.0055165279471979254 0 0.041494785606875029 0.0054330517284363455 0 0.041558508708761328 0.0063970598217560366 0 0.041494785606875029 0.0054330517284363455 0 0.041279029161378725 0.0042679541342024868 0 0.042558384540109372 0.0055399280825526066 0 0.045611628775263029 0.0036313075086431825 0 0.04729480046202645 0.0024241068647168382 0 0.040581210822947404 0.0055165279471979254 0 0.041494785606875029 0.0054330517284363455 0 0.041279029161378725 0.0042679541342024868 0 0.041494785606875029 0.0054330517284363455 0 0.042558384540109372 0.0055399280825526066 0 0.041558508708761328 0.0063970598217560366 0 0.039597485958687333 0.0046047496968672826 0 0.040581210822947404 0.0055165279471979254 0 0.040245195189420012 0.0042274952505773301 0 0.040581210822947404 0.0055165279471979254 0 0.041279029161378725 0.0042679541342024868 0 0.040245195189420012 0.0042274952505773301 0 0.039597485958687333 0.0046047496968672826 0 0.040245195189420012 0.0042274952505773301 0 0.039809909839090878 0.0037732345417401808 0 0.04798380629869399 0.0031175049544369935 0 0.048426060618776107 0.0034298525690837664 0 0.04759687352379275 0.0034557143662425076 0 0.04798380629869399 0.0031175049544369935 0 0.048180432438181223 0.0027763173799463404 0 0.048392694263709519 0.0029744222788891405 0 0.04798380629869399 0.0031175049544369935 0 0.048180432438181223 0.0027763173799463404 0 0.04785442947003557 0.0028997527536168831 0 0.048392694263709519 0.0029744222788891405 0 0.048728167554601583 0.0029513721143808228 0 0.048605445139267629 0.0028193197081748124 0 0.048180432438181223 0.0027763173799463404 0 0.048392694263709519 0.0029744222788891405 0 0.048404841480865816 0.0027908705687915581 0 0.048392694263709519 0.0029744222788891405 0 0.048404841480865816 0.0027908705687915581 0 0.048605445139267629 0.0028193197081748124 0 0.045074630249060894 0.0052556543815457622 0 0.043989158470924314 0.0072856330666600929 0 0.048392694263709519 0.0029744222788891405 0 0.048728167554601583 0.0029513721143808228 0 0.048426060618776107 0.0034298525690837664 0 0.04798380629869399 0.0031175049544369935 0 0.048392694263709519 0.0029744222788891405 0 0.048426060618776107 0.0034298525690837664 0 0.043904499935577684 0.0055141113767991643 0 0.044523094800284241 0.0061453001644494873 0 0.048329872958841974 0.002867684504442729 0 0.041636681172838523 0.0074072209238521839 0 0.043989158470924314 0.0072856330666600929 0 0.044153635199198432 0.0067648969705510842 0 0.0442577701289169 0.0068735046287612392 0 0.043848144942913954 0.0072385784102501462 0 0.048708923101537363 0.0029274999490731426 0 0.048605445139267629 0.0028193197081748124 0 0.048677562367591493 0.0025954450166388813 0 0.045074630249060894 0.0052556543815457622 0 0.045838288305698437 0.0050527446163152944 0 0.045074630249060894 0.0052556543815457622 0 0.041636681172838523 0.0074072209238521839 0 0.041636681172838523 0.0074072209238521839 0 0.04729480046202645 0.0024241068647168382 0 0.033404457325456209 0.01265566588055257 0 0.036073470853483121 0.015154421200776643 0 0.035957796940589828 0.012877684964933767 0 0.033404457325456209 0.01265566588055257 0 0.035957796940589828 0.012877684964933767 0 0.035726048101710511 0.011109497274624167 0 0.035957796940589828 0.012877684964933767 0 0.03741125073349845 0.014007647203249542 0 0.037266423699787318 0.011864819097560873 0 0.037176612099815626 0.0088995021214510212 0 0.041636681172838523 0.0074072209238521839 0 0.036073470853483121 0.015154421200776643 0 0.035957796940589828 0.012877684964933767 0 0.03741125073349845 0.014007647203249542 0 0.035957796940589828 0.012877684964933767 0 0.037266423699787318 0.011864819097560873 0 0.035726048101710511 0.011109497274624167 0 0.043989158470924314 0.0072856330666600929 0 0.042966064793021383 0.0080052551618079847 0 0.043989158470924314 0.0072856330666600929 0 0.048828569222181192 0.0027090179838494505 0 0.048426060618776107 0.0034298525690837664 0 0.047577533723364922 0.0036779768765747662 0 0.04759687352379275 0.0034557143662425076 0 0.03741125073349845 0.014007647203249542 0 0.037266423699787318 0.011864819097560873 0 0.039514792618442027 0.010980831329564933 0 0.048426060618776107 0.0034298525690837664 0 0.0472343749388143 0.0040974645533884326 0 0.047577533723364922 0.0036779768765747662 0 0.046883949993932063 0.0043745502239659383 0 0.0472343749388143 0.0040974645533884326 0 0.047206732208430933 0.0041206176454092096 0 0.037266423699787318 0.011864819097560873 0 0.037714859916350221 0.010326721095689721 0 0.039514792618442027 0.010980831329564933 0 0.037714859916350221 0.010326721095689721 0 0.039514792618442027 0.010980831329564933 0 0.039239186667494701 0.0090238823225036215 0 0.037266423699787318 0.011864819097560873 0 0.037714859916350221 0.010326721095689721 0 0.035726048101710511 0.011109497274624167 0 0.037714859916350221 0.010326721095689721 0 0.035726048101710511 0.011109497274624167 0 0.035925758225848162 0.0091911430408017046 0 0.035726048101710511 0.011109497274624167 0 0.035925758225848162 0.0091911430408017046 0 0.03386086039538494 0.0094335286087761702 0 0.035925758225848162 0.0091911430408017046 0 0.03386086039538494 0.0094335286087761702 0 0.035545429243754763 0.0069786546441645654 0 0.035925758225848162 0.0091911430408017046 0 0.037668300475749268 0.00850155364191163 0 0.035545429243754763 0.0069786546441645654 0 0.037714859916350221 0.010326721095689721 0 0.035925758225848162 0.0091911430408017046 0 0.037668300475749268 0.00850155364191163 0 0.037668300475749268 0.00850155364191163 0 0.039438770549909019 0.0069708450918301986 0 0.039239186667494701 0.0090238823225036215 0 0.037714859916350221 0.010326721095689721 0 0.037668300475749268 0.00850155364191163 0 0.039239186667494701 0.0090238823225036215 0 0.030653863294060512 0.010075835599219665 0 0.031084641737971 0.0055928000617377792 0 0.033172213266187071 0.0071426885758343632 0 0.041279029161378725 0.0042679541342024868 0 0.040245195189420012 0.0042274952505773301 0 0.039901153899364002 0.0030289417085542923 0 0.037176612099815626 0.0088995021214510212 0 0.034891469994503412 0.0062298566015380804 0 0.040245195189420012 0.0042274952505773301 0 0.039901153899364002 0.0030289417085542923 0 0.039809909839090878 0.0037732345417401808 0 0.039587699804959291 0.003424665798927095 0 0.039901153899364002 0.0030289417085542923 0 0.039809909839090878 0.0037732345417401808 0 0.033404457325456209 0.01265566588055257 0 0.030653863294060512 0.010075835599219665 0 0.03386086039538494 0.0094335286087761702 0 0.033404457325456209 0.01265566588055257 0 0.035726048101710511 0.011109497274624167 0 0.03386086039538494 0.0094335286087761702 0 0.03386086039538494 0.0094335286087761702 0 0.033172213266187071 0.0071426885758343632 0 0.035545429243754763 0.0069786546441645654 0 0.030653863294060512 0.010075835599219665 0 0.03386086039538494 0.0094335286087761702 0 0.033172213266187071 0.0071426885758343632 0 0.031084641737971 0.0055928000617377792 0 0.033172213266187071 0.0071426885758343632 0 0.034045192671487423 0.0036513489935602697 0 0.033172213266187071 0.0071426885758343632 0 0.034045192671487423 0.0036513489935602697 0 0.035545429243754763 0.0069786546441645654 0 0.031084641737971 0.0055928000617377792 0 0.034045192671487423 0.0036513489935602697 0 0.031526136513310994 0.003013468754119336 0 0.031084641737971 0.0055928000617377792 0 0.031526136513310994 0.003013468754119336 0 0.028671719118812972 0.0024842242247032466 0 0.037584322175306474 0.0062717529521829941 0 0.038759417497914186 0.0044003784632535769 0 0.039438770549909019 0.0069708450918301986 0 0.037668300475749268 0.00850155364191163 0 0.037584322175306474 0.0062717529521829941 0 0.039438770549909019 0.0069708450918301986 0 0.037668300475749268 0.00850155364191163 0 0.037584322175306474 0.0062717529521829941 0 0.035545429243754763 0.0069786546441645654 0 0.037584322175306474 0.0062717529521829941 0 0.035545429243754763 0.0069786546441645654 0 0.036536678523585962 0.004478667639024202 0 0.034045192671487423 0.0036513489935602697 0 0.036536678523585962 0.004478667639024202 0 0.037208081060014844 0.0014447017169369177 0 0.034045192671487423 0.0036513489935602697 0 0.035545429243754763 0.0069786546441645654 0 0.036536678523585962 0.004478667639024202 0 0.036536678523585962 0.004478667639024202 0 0.038759417497914186 0.0044003784632535769 0 0.037208081060014844 0.0014447017169369177 0 0.037584322175306474 0.0062717529521829941 0 0.036536678523585962 0.004478667639024202 0 0.038759417497914186 0.0044003784632535769 0 0.038759417497914186 0.0044003784632535769 0 0.037208081060014844 0.0014447017169369177 0 0.040076544328681581 0.0024037304138706029 0 0.034045192671487423 0.0036513489935602697 0 0.037208081060014844 0.0014447017169369177 0 0.03481812523319356 0.00093151930602392811 0 0.035709845047574622 -0.0015719952819239177 0 0.037208081060014844 0.0014447017169369177 0 0.03481812523319356 0.00093151930602392811 0 0.037208081060014844 0.0014447017169369177 0 0.038616069732910048 -0.0009872015731078774 0 0.040119271219135978 0.00050977963134607506 0 0.035709845047574622 -0.0015719952819239177 0 0.037208081060014844 0.0014447017169369177 0 0.037703679292681626 -0.001038719711240663 0 0.03698953522581868 0.0017258251945596857 0 0.039326280036665315 -0.0018894803175597348 0 0.016063607295134636 -0.0011339818400767166 0 0.011922799408935904 0.0005551383155383622 0 0.031526136513310994 0.003013468754119336 0 0.032277896267805195 0.00034548853273464017 0 0.028671719118812972 0.0024842242247032466 0 0.034045192671487423 0.0036513489935602697 0 0.03481812523319356 0.00093151930602392811 0 0.032277896267805195 0.00034548853273464017 0 0.034045192671487423 0.0036513489935602697 0 0.031526136513310994 0.003013468754119336 0 0.032277896267805195 0.00034548853273464017 0 0.016035633522983848 -0.0018968117311462442 0 0.016063607295134636 -0.0011339818400767166 0 0.035709845047574622 -0.0015719952819239177 0 0.03481812523319356 0.00093151930602392811 0 0.032277896267805195 0.00034548853273464017 0 -0.0013135103671698342 -0.0022605499495987496 0 -0.001608083970533187 -0.0022989224853362435 0 -0.0015262349971509096 -0.0021239212017177618 0 -0.0015121958504072726 -0.0025045090628033223 0 -0.0013135103671698342 -0.0022605499495987496 0 -0.001608083970533187 -0.0022989224853362435 0 -0.001608083970533187 -0.0022989224853362435 0 -0.0015262349971509096 -0.0021239212017177618 0 -0.0017271094821366378 -0.0021365454538216553 0 -0.0015262349971509096 -0.0021239212017177618 0 -0.0017271094821366378 -0.0021365454538216553 0 -0.0014476453095895888 -0.0021587481870818694 0 -0.001844708764989184 -0.0024002791826683678 0 -0.001608083970533187 -0.0022989224853362435 0 -0.0017271094821366378 -0.0021365454538216553 0 -0.0017271094821366378 -0.0021365454538216553 0 -0.0016607584112657738 -0.0020077167289716687 0 -0.0014954685149820835 -0.0021773162369845365 0 -0.0016871628343007447 -0.0018954773081877262 0 -0.0017271094821366378 -0.0021365454538216553 0 -0.0016607584112657738 -0.0020077167289716687 0 -0.0017308799845800824 -0.0018464580052235209 0 -0.0016607584112657738 -0.0020077167289716687 0 -0.0015171544748417999 -0.0020248589045057733 0 0.0055323948713256535 -0.001428476853745209 0 0.0073908232292567207 -0.0035301092360140135 0 -0.0016607584112657738 -0.0020077167289716687 0 -0.0015171544748417999 -0.0020248589045057733 0 -0.0014954685149820835 -0.0021773162369845365 0 -0.0012258530881854646 -0.0019954574327337533 0 -0.0015171544748417999 -0.0020248589045057733 0 -0.0014954685149820835 -0.0021773162369845365 0 -0.0017308799845800824 -0.0018464580052235209 0 -0.0012258530881854646 -0.0019954574327337533 0 -0.0015171544748417999 -0.0020248589045057733 0 0.017699141378299841 -0.0040621625067115827 0 0.017971990897523025 -0.0029478473568854066 0 0.019082629551534919 -0.0027330716357475394 0 -0.0017271094821366378 -0.0021365454538216553 0 -0.0014954685149820835 -0.0021773162369845365 0 -0.0014476453095895888 -0.0021587481870818694 0 0.0073908232292567207 -0.0035301092360140135 0 0.019601031404159114 0.0010429874167402712 0 0.019082629551534919 -0.0027330716357475394 0 0.020438876915940082 -0.0014060803049582677 0 0.019276370338260695 -0.00064411472312880184 0 0.017597262377577024 -0.0017525097676193847 0 0.019082629551534919 -0.0027330716357475394 0 0.019276370338260695 -0.00064411472312880184 0 0.031146896597311371 0.0023753966447821536 0 0.029583409959086468 0.00021830563256153361 0 0.038212850817662534 0.0018291967049579368 0 0.03777358105391454 0.0022016984068437251 0 0.038246507600346709 0.0024461375420592396 0 0.019601031404159114 0.0010429874167402712 0 0.029583409959086468 0.00021830563256153361 0 0.03776753281429987 0.0026635913374135544 0 0.03777358105391454 0.0022016984068437251 0 0.038246507600346709 0.0024461375420592396 0 0.028671719118812972 0.0024842242247032466 0 0.025065222305949614 0.0047054421679963883 0 0.027873554552819799 0.0074303979610986339 0 0.031084641737971 0.0055928000617377792 0 0.028671719118812972 0.0024842242247032466 0 0.027873554552819799 0.0074303979610986339 0 0.038212850817662534 0.0018291967049579368 0 0.038246507600346709 0.0024461375420592396 0 0.03895324756062514 0.0023789615776446285 0 0.019601031404159114 0.0010429874167402712 0 0.035558411002119789 0.0059198838865576493 0 0.011922799408935904 0.0005551383155383622 0 0.019601031404159114 0.0010429874167402712 0 0.010015645484075649 0.00058452526058399255 0 0.01187601112620461 0.00026129180077210626 0 0.0098264624103656002 0.00061840744514767498 0 0.010015645484075649 0.00058452526058399255 0 0.012664756712641162 6.6826030820896359e-07 0 0.0098244576848302342 9.4981281122864287e-07 0 0.010015645484075649 0.00058452526058399255 0 0.012664756712641162 6.6826030820896359e-07 0 0.01187601112620461 0.00026129180077210626 0 0.01187601112620461 0.00026129180077210626 0 0.010012174248138989 0.00026370704591737604 0 0.01083827004557354 -0.00013331718747651086 0 0.01187601112620461 0.00026129180077210626 0 0.010012174248138989 0.00026370704591737604 0 0.0098264624103656002 0.00061840744514767498 0 0.010012174248138989 0.00026370704591737604 0 0.0098264624103656002 0.00061840744514767498 0 0.0087204556259493343 0.00038881042902695877 0 0.010012174248138989 0.00026370704591737604 0 0.0087204556259493343 0.00038881042902695877 0 0.0094962353802124921 -0.00018644851359922318 0 0.0098264624103656002 0.00061840744514767498 0 0.0080092177779786371 0.00088168225534757756 0 0.0087204556259493343 0.00038881042902695877 0 0.010015645484075649 0.00058452526058399255 0 0.0098264624103656002 0.00061840744514767498 0 0.0090087853890777024 0.00091275435322025415 0 0.010015645484075649 0.00058452526058399255 0 0.0090087853890777024 0.00091275435322025415 0 0.0084261472456070002 0.00094496333589130939 0 0.0090087853890777024 0.00091275435322025415 0 0.0083661347817044294 0.0012099869740799364 0 0.0080092177779786371 0.00088168225534757756 0 0.0098264624103656002 0.00061840744514767498 0 0.0090087853890777024 0.00091275435322025415 0 0.0080092177779786371 0.00088168225534757756 0 0.0083661347817044294 0.0012099869740799364 0 0.0077612929657433433 0.0016613029038515287 0 0.0080092177779786371 0.00088168225534757756 0 0.0090087853890777024 0.00091275435322025415 0 0.0083661347817044294 0.0012099869740799364 0 0.0084261472456070002 0.00094496333589130939 0 0.0083661347817044294 0.0012099869740799364 0 0.0084261472456070002 0.00094496333589130939 0 0.0079744988020095647 0.00064251469550076316 0 0.0084261472456070002 0.00094496333589130939 0 0.0085743365178283862 0.00048166381036965898 0 0.0069751228524767925 0.00054218654604376137 0 0.010015645484075649 0.00058452526058399255 0 0.0084261472456070002 0.00094496333589130939 0 0.0085743365178283862 0.00048166381036965898 0 0.010015645484075649 0.00058452526058399255 0 0.0098244576848302342 9.4981281122864287e-07 0 0.0085743365178283862 0.00048166381036965898 0 0.0098244576848302342 9.4981281122864287e-07 0 0.0085743365178283862 0.00048166381036965898 0 0.0069841171450813668 1.0221039613437598e-06 0 0.0085743365178283862 0.00048166381036965898 0 0.0069841171450813668 1.0221039613437598e-06 0 0.0069751228524767925 0.00054218654604376137 0 0.0069841171450813668 1.0221039613437598e-06 0 0.0069751228524767925 0.00054218654604376137 0 0.0041430618555243466 9.9002646574433149e-07 0 0.0069751228524767925 0.00054218654604376137 0 0.0059282281107144305 -0.00050294435080082921 0 0.0079744988020095647 0.00064251469550076316 0 0.0069751228524767925 0.00054218654604376137 0 0.0041430618555243466 9.9002646574433149e-07 0 0.0059282281107144305 -0.00050294435080082921 0 0.0027637554543680077 -0.0007985451448926272 0 0.0013028782010770042 -1.7735307900404811e-07 0 0.0041430618555243466 9.9002646574433149e-07 0 0.0059282281107144305 -0.00050294435080082921 0 0.0013064702412324963 -3.0438332604506041e-06 0 -0.00045280544132500104 -0.0014338213246416264 0 -0.00054966934320184241 -0.00010128072909857288 0 -0.00079616217099488362 -0.00080907092824221893 0 -0.00045280544132500104 -0.0014338213246416264 0 -0.00054966934320184241 -0.00010128072909857288 0 0.0012969625662821414 -2.4187324685427299e-06 0 -0.00098977870627282752 8.5467693624240138e-07 0 -0.00054966934320184241 -0.00010128072909857288 0 0.0012969625662821414 -2.4187324685427299e-06 0 -0.00084694713797555548 -0.0010355747153578229 0 -0.00072942938948934342 -0.0013619706260466647 0 -0.00049242392727838231 -0.0019710892919862131 0 -0.00084694713797555548 -0.0010355747153578229 0 -0.00072942938948934342 -0.0013619706260466647 0 -0.00079616217099488362 -0.00080907092824221893 0 -0.00072942938948934342 -0.0013619706260466647 0 -0.00079616217099488362 -0.00080907092824221893 0 -0.00073899417964968335 -0.0016113358770181046 0 -0.00045280544132500104 -0.0014338213246416264 0 -0.00079616217099488362 -0.00080907092824221893 0 -0.00073899417964968335 -0.0016113358770181046 0 -0.00073899417964968335 -0.0016113358770181046 0 -0.00012446927042017829 -0.0019287254677369105 0 -0.00049242392727838231 -0.0019710892919862131 0 -0.00072942938948934342 -0.0013619706260466647 0 -0.00073899417964968335 -0.0016113358770181046 0 -0.00049242392727838231 -0.0019710892919862131 0 -0.00081384029736179277 -0.0015988283962946989 0 0.00028953979342216381 -0.00031049432704322938 0 -0.00012446927042017829 -0.0019287254677369105 0 -0.00073899417964968335 -0.0016113358770181046 0 -0.00081384029736179277 -0.0015988283962946989 0 -0.00012446927042017829 -0.0019287254677369105 0 -0.00045280544132500104 -0.0014338213246416264 0 -0.00073899417964968335 -0.0016113358770181046 0 -0.00081384029736179277 -0.0015988283962946989 0 0.0027637554543680077 -0.0007985451448926272 0 0.0035283997419485466 -0.0004393991690375448 0 0.0084261472456070002 0.00094496333589130939 0 0.0069751228524767925 0.00054218654604376137 0 0.0079744988020095647 0.00064251469550076316 0 0.0083661347817044294 0.0012099869740799364 0 0.0079744988020095647 0.00064251469550076316 0 0.0077612929657433433 0.0016613029038515287 0 0.0035283997419485466 -0.0004393991690375448 0 0.0040315178889874705 0.0005753115906508827 0 0.00028953979342216381 -0.00031049432704322938 0 0.0024803601805850214 -0.00090355180783239033 0 -0.00012446927042017829 -0.0019287254677369105 0 0.00028953979342216381 -0.00031049432704322938 0 0.0024803601805850214 -0.00090355180783239033 0 0.005092333392378327 0.0012379522407326188 0 0.0024803601805850214 -0.00090355180783239033 0 0.00072269496749263491 -0.0028891961786355531 0 0.0043372107662961786 -0.0012894078656128878 0 0.0024803601805850214 -0.00090355180783239033 0 0.00072269496749263491 -0.0028891961786355531 0 -0.00012446927042017829 -0.0019287254677369105 0 0.00072269496749263491 -0.0028891961786355531 0 -0.00049242392727838231 -0.0019710892919862131 0 -0.0010717552074821961 -0.001832986480801642 0 0.00072269496749263491 -0.0028891961786355531 0 -0.00012446927042017829 -0.0019287254677369105 0 -0.00049242392727838231 -0.0019710892919862131 0 0.00072269496749263491 -0.0028891961786355531 0 -0.0010717552074821961 -0.001832986480801642 0 -0.0020924875888992385 -0.0024707548739980796 0 -0.0010717552074821961 -0.001832986480801642 0 -0.0020924875888992385 -0.0024707548739980796 0 -0.0026706208181435402 -0.001704636744430352 0 -0.00084694713797555548 -0.0010355747153578229 0 -0.00049242392727838231 -0.0019710892919862131 0 -0.0010717552074821961 -0.001832986480801642 0 -0.0066488284856814055 -0.0016882245676839919 0 -0.0044216896015079931 -0.0022207070644577167 0 -0.0069407333570589685 -0.0037507562749885446 0 -0.0044216896015079931 -0.0022207070644577167 0 -0.0036022467235804459 -0.0039275684460875638 0 -0.0069407333570589685 -0.0037507562749885446 0 -0.0044216896015079931 -0.0022207070644577167 0 -0.0020924875888992385 -0.0024707548739980796 0 -0.0036022467235804459 -0.0039275684460875638 0 -0.0044216896015079931 -0.0022207070644577167 0 -0.0020924875888992385 -0.0024707548739980796 0 -0.0026706208181435402 -0.001704636744430352 0 0.00056877080305835529 -0.0030425017529577265 0 0.00051372138191261413 -0.0036852584268935611 0 0.00072269496749263491 -0.0028891961786355531 0 -0.0020924875888992385 -0.0024707548739980796 0 -0.0036022467235804459 -0.0039275684460875638 0 0.0049517006344247383 -0.0037969250820244558 0 0.0062982274714611245 -0.003018324937539845 0 0.0069465143058253902 -0.0038788445173707766 0 0.00051372138191261413 -0.0036852584268935611 0 0.00018643566370169328 -0.004097374960680804 0 0.0049517006344247383 -0.0037969250820244558 0 0.006012398682760726 -0.0016207911844672088 0 0.0043372107662961786 -0.0012894078656128878 0 0.0049517006344247383 -0.0037969250820244558 0 0.0062982274714611245 -0.003018324937539845 0 0.006012398682760726 -0.0016207911844672088 0 0.00072269496749263491 -0.0028891961786355531 0 0.0049517006344247383 -0.0037969250820244558 0 0.0043372107662961786 -0.0012894078656128878 0 0.0024803601805850214 -0.00090355180783239033 0 0.0043372107662961786 -0.0012894078656128878 0 0.0048280911337066036 0.00014883659409553826 0 0.0043372107662961786 -0.0012894078656128878 0 0.0048280911337066036 0.00014883659409553826 0 0.0057309053924580839 -0.00015696360809967219 0 0.006012398682760726 -0.0016207911844672088 0 0.0043372107662961786 -0.0012894078656128878 0 0.0057309053924580839 -0.00015696360809967219 0 0.006012398682760726 -0.0016207911844672088 0 0.0057309053924580839 -0.00015696360809967219 0 0.0067482480196270275 -0.00043820170975117709 0 0.0057309053924580839 -0.00015696360809967219 0 0.0062911674806314846 0.00035387312403574174 0 0.0056967832839257496 0.00083508174839400627 0 0.0057309053924580839 -0.00015696360809967219 0 0.0062911674806314846 0.00035387312403574174 0 0.0067482480196270275 -0.00043820170975117709 0 0.0062911674806314846 0.00035387312403574174 0 0.0063305492967044609 0.00073074272048668132 0 0.0068354278449079924 0.00035307670823739838 0 0.0062911674806314846 0.00035387312403574174 0 0.0063305492967044609 0.00073074272048668132 0 0.0056967832839257496 0.00083508174839400627 0 0.0063305492967044609 0.00073074272048668132 0 0.006131233800362213 0.00096456935438726571 0 0.0068446521347741178 0.00084457317977010629 0 0.0063305492967044609 0.00073074272048668132 0 0.006131233800362213 0.00096456935438726571 0 0.0056967832839257496 0.00083508174839400627 0 0.0056967832839257496 0.00083508174839400627 0 0.005092333392378327 0.0012379522407326188 0 0.0060990048191495762 0.00088746482415379949 0 0.006131233800362213 0.00096456935438726571 0 0.0056967832839257496 0.00083508174839400627 0 0.0060990048191495762 0.00088746482415379949 0 0.0048280911337066036 0.00014883659409553826 0 0.0057309053924580839 -0.00015696360809967219 0 0.0056967832839257496 0.00083508174839400627 0 0.0048280911337066036 0.00014883659409553826 0 0.0056967832839257496 0.00083508174839400627 0 0.005092333392378327 0.0012379522407326188 0 0.0024803601805850214 -0.00090355180783239033 0 0.0048280911337066036 0.00014883659409553826 0 0.005092333392378327 0.0012379522407326188 0 0.0040315178889874705 0.0005753115906508827 0 0.0048898568582120897 0.0011531164586257917 0 0.0077612929657433433 0.0016613029038515287 0 0.005092333392378327 0.0012379522407326188 0 0.0080092177779786371 0.00088168225534757756 0 0.005092333392378327 0.0012379522407326188 0 0.0080092177779786371 0.00088168225534757756 0 0.0068568474579690794 0.00075239191523792325 0 0.005092333392378327 0.0012379522407326188 0 0.0068568474579690794 0.00075239191523792325 0 0.0060990048191495762 0.00088746482415379949 0 0.0070169274977948748 0.00046675699479412964 0 0.0065806955762281487 0.00034145707101886297 0 0.0060990048191495762 0.00088746482415379949 0 0.0070169274977948748 0.00046675699479412964 0 0.0068568474579690794 0.00075239191523792325 0 0.0060990048191495762 0.00088746482415379949 0 0.0070169274977948748 0.00046675699479412964 0 0.0068568474579690794 0.00075239191523792325 0 0.0087204556259493343 0.00038881042902695877 0 0.0080092177779786371 0.00088168225534757756 0 0.0068568474579690794 0.00075239191523792325 0 0.0087204556259493343 0.00038881042902695877 0 0.0070169274977948748 0.00046675699479412964 0 0.0087204556259493343 0.00038881042902695877 0 0.0081155779541267781 -0.00022099100798178017 0 0.0087204556259493343 0.00038881042902695877 0 0.0081155779541267781 -0.00022099100798178017 0 0.0094962353802124921 -0.00018644851359922318 0 0.0065806955762281487 0.00034145707101886297 0 0.0066926296374136742 -0.00019228729786232806 0 0.0073073330430785885 -4.5295923308784659e-05 0 0.0070169274977948748 0.00046675699479412964 0 0.0065806955762281487 0.00034145707101886297 0 0.0073073330430785885 -4.5295923308784659e-05 0 0.0072061126449123741 0.00037710459939342038 0 0.0074016150378858258 0.00015874143686788025 0 0.012170585337771407 0.0027837355298747819 0 0.012941123646427325 0.001978809825520894 0 0.0065806955762281487 0.00034145707101886297 0 0.0061245991499419734 0.00056631310770566322 0 0.0066926296374136742 -0.00019228729786232806 0 0.0065806955762281487 0.00034145707101886297 0 0.0061245991499419734 0.00056631310770566322 0 0.0060990048191495762 0.00088746482415379949 0 0.017908845583801031 0.0049990279504981399 0 0.01573569578413022 0.0041195605208379062 0 0.017776050857991131 0.0038868391936066854 0 0.012170585337771407 0.0027837355298747819 0 0.01048822068058863 0.0030017394517241891 0 0.017908845583801031 0.0049990279504981399 0 0.017776050857991131 0.0038868391936066854 0 0.018928390663462771 0.0039125112343504232 0 0.006131233800362213 0.00096456935438726571 0 0.0061245991499419734 0.00056631310770566322 0 0.0062680363483255683 0.0009741134454996017 0 0.006131233800362213 0.00096456935438726571 0 0.0061245991499419734 0.00056631310770566322 0 0.0060990048191495762 0.00088746482415379949 0 0.011470301863524998 0.00087949909401498097 0 0.010934204582861084 0.00082944643261094377 0 0.011241915593205871 0.001225207724550047 0 0.01048822068058863 0.0030017394517241891 0 0.010158674389026696 0.0013862222510713973 0 0.011470301863524998 0.00087949909401498097 0 0.010934204582861084 0.00082944643261094377 0 0.011494852301106409 0.00048566703488102397 0 0.011470301863524998 0.00087949909401498097 0 0.011705358600467938 0.00052703281498986127 0 0.011494852301106409 0.00048566703488102397 0 0.01048822068058863 0.0030017394517241891 0 0.013395918688136785 0.0027028058378826083 0 0.010934204582861084 0.00082944643261094377 0 0.011241915593205871 0.001225207724550047 0 0.010935402210035168 0.0015825975754035063 0 0.017908845583801031 0.0049990279504981399 0 0.015699574028244834 0.0064161629762482918 0 0.01573569578413022 0.0041195605208379062 0 0.011241915593205871 0.001225207724550047 0 0.011352869661054036 0.0016090396675939389 0 0.010935402210035168 0.0015825975754035063 0 0.011241915593205871 0.001225207724550047 0 0.01152593620542474 0.0012576344730965631 0 0.011352869661054036 0.0016090396675939389 0 0.011470301863524998 0.00087949909401498097 0 0.011241915593205871 0.001225207724550047 0 0.01152593620542474 0.0012576344730965631 0 0.011470301863524998 0.00087949909401498097 0 0.01152593620542474 0.0012576344730965631 0 0.011877798636925171 0.0010573026185818587 0 0.01152593620542474 0.0012576344730965631 0 0.011820623033370857 0.001559683961497833 0 0.011352869661054036 0.0016090396675939389 0 0.01152593620542474 0.0012576344730965631 0 0.011820623033370857 0.001559683961497833 0 0.011877798636925171 0.0010573026185818587 0 0.011820623033370857 0.001559683961497833 0 0.012326200081877896 0.0015271284897083839 0 0.011877798636925171 0.0010573026185818587 0 0.012326200081877896 0.0015271284897083839 0 0.011877798636925171 0.0010573026185818587 0 0.012453641340462122 0.0010797870118771948 0 0.011877798636925171 0.0010573026185818587 0 0.012453641340462122 0.0010797870118771948 0 0.012047964750793724 0.0008088949807599162 0 0.012326200081877896 0.0015271284897083839 0 0.01300217264345563 0.001489530286437281 0 0.012453641340462122 0.0010797870118771948 0 0.01300217264345563 0.001489530286437281 0 0.012453641340462122 0.0010797870118771948 0 0.012990608541277014 0.001088230704098802 0 0.011988514663166753 0.00055785692001990598 0 0.012549016627268228 0.00062389835925204143 0 0.012687016547692727 0.00015457888737473678 0 0.012453641340462122 0.0010797870118771948 0 0.012990608541277014 0.001088230704098802 0 0.012549016627268228 0.00062389835925204143 0 0.012453641340462122 0.0010797870118771948 0 0.012549016627268228 0.00062389835925204143 0 0.012047964750793724 0.0008088949807599162 0 0.011988514663166753 0.00055785692001990598 0 0.012549016627268228 0.00062389835925204143 0 0.012047964750793724 0.0008088949807599162 0 0.011470301863524998 0.00087949909401498097 0 0.011877798636925171 0.0010573026185818587 0 0.011705358600467938 0.00052703281498986127 0 0.011877798636925171 0.0010573026185818587 0 0.012047964750793724 0.0008088949807599162 0 0.011705358600467938 0.00052703281498986127 0 0.011988514663166753 0.00055785692001990598 0 0.012047964750793724 0.0008088949807599162 0 0.011705358600467938 0.00052703281498986127 0 0.011705358600467938 0.00052703281498986127 0 0.011349233782763054 0.00039493840541685873 0 0.011623729296976521 0.00026625371382999423 0 0.011368607426814194 0.00049397550823486371 0 0.010158674389026696 0.0013862222510713973 0 0.011349233782763054 0.00039493840541685873 0 0.009809924846442249 0.00065274276888022652 0 0.0093236406756167824 0.002298029666862789 0 0.011705358600467938 0.00052703281498986127 0 0.011349233782763054 0.00039493840541685873 0 0.011494852301106409 0.00048566703488102397 0 0.011988514663166753 0.00055785692001990598 0 0.011705358600467938 0.00052703281498986127 0 0.011623729296976521 0.00026625371382999423 0 0.011623729296976521 0.00026625371382999423 0 0.011325483296629333 0.00016185708755165511 0 0.011109319293937509 -0.00011913399913658307 0 0.011988514663166753 0.00055785692001990598 0 0.011623729296976521 0.00026625371382999423 0 0.012687016547692727 0.00015457888737473678 0 0.011595095087079212 0.00018545568862976021 0 0.011990425448393781 5.9845473368466963e-05 0 0.011349233782763054 0.00039493840541685873 0 0.011623729296976521 0.00026625371382999423 0 0.011325483296629333 0.00016185708755165511 0 0.011325483296629333 0.00016185708755165511 0 0.011142340826292172 -4.9014983004736818e-06 0 0.011109319293937509 -0.00011913399913658307 0 0.011325483296629333 0.00016185708755165511 0 0.011170162599278095 -1.435318256451384e-05 0 0.011142340826292172 -4.9014983004736818e-06 0 0.011349233782763054 0.00039493840541685873 0 0.011325483296629333 0.00016185708755165511 0 0.011168990044978157 4.5006903141492841e-05 0 0.011325483296629333 0.00016185708755165511 0 0.011170162599278095 -1.435318256451384e-05 0 0.011168990044978157 4.5006903141492841e-05 0 0.011170162599278095 -1.435318256451384e-05 0 0.011168990044978157 4.5006903141492841e-05 0 0.011063114416506785 -0.00017303456799498923 0 0.011168990044978157 4.5006903141492841e-05 0 0.010904795391027809 -0.00023867581588476089 0 0.011063114416506785 -0.00017303456799498923 0 0.011170162599278095 -1.435318256451384e-05 0 0.011063114416506785 -0.00017303456799498923 0 0.011033490834548442 -0.00018364302906245133 0 0.010760504856703424 5.526127189848885e-05 0 0.009809924846442249 0.00065274276888022652 0 0.010473238373202217 -0.00064024013123540268 0 0.011349233782763054 0.00039493840541685873 0 0.010760504856703424 5.526127189848885e-05 0 0.009809924846442249 0.00065274276888022652 0 0.011349233782763054 0.00039493840541685873 0 0.011168990044978157 4.5006903141492841e-05 0 0.010760504856703424 5.526127189848885e-05 0 0.011168990044978157 4.5006903141492841e-05 0 0.010760504856703424 5.526127189848885e-05 0 0.010904795391027809 -0.00023867581588476089 0 0.010760504856703424 5.526127189848885e-05 0 0.010904795391027809 -0.00023867581588476089 0 0.010473238373202217 -0.00064024013123540268 0 0.0079546491400249008 0.0011372715736268286 0 0.0099845594987968238 -0.0008124392980036133 0 0.0080018896472508032 0.0010466401969938587 0 0.0076621911911029465 -6.7821476281321457e-05 0 0.0081170376655148608 -0.00054644756544329259 0 0.0080018896472508032 0.0010466401969938587 0 0.0081170376655148608 -0.00054644756544329259 0 0.0088451257053857486 -0.00078424939675511736 0 0.009809924846442249 0.00065274276888022652 0 0.0080018896472508032 0.0010466401969938587 0 0.010473238373202217 -0.00064024013123540268 0 0.0069426032330677295 0.0039137712364061879 0 0.0080018896472508032 0.0010466401969938587 0 0.0093236406756167824 0.002298029666862789 0 0.009809924846442249 0.00065274276888022652 0 0.0080018896472508032 0.0010466401969938587 0 0.0093236406756167824 0.002298029666862789 0 0.006131233800362213 0.00096456935438726571 0 0.0062680363483255683 0.0009741134454996017 0 0.0068446521347741178 0.00084457317977010629 0 0.0069426032330677295 0.0039137712364061879 0 0.0080018896472508032 0.0010466401969938587 0 0.0068446521347741178 0.00084457317977010629 0 0.01048822068058863 0.0030017394517241891 0 0.0060722071967227566 0.00066455162512143778 0 0.0080018896472508032 0.0010466401969938587 0 0.0068446521347741178 0.00084457317977010629 0 0.0073280154018107958 0.00052897383931017992 0 0.0063305492967044609 0.00073074272048668132 0 0.0068446521347741178 0.00084457317977010629 0 0.0068354278449079924 0.00035307670823739838 0 0.0080018896472508032 0.0010466401969938587 0 0.0073280154018107958 0.00052897383931017992 0 0.0076621911911029465 -6.7821476281321457e-05 0 0.0068354278449079924 0.00035307670823739838 0 0.0073280154018107958 0.00052897383931017992 0 0.0076621911911029465 -6.7821476281321457e-05 0 0.0068446521347741178 0.00084457317977010629 0 0.0068354278449079924 0.00035307670823739838 0 0.0073280154018107958 0.00052897383931017992 0 0.0062911674806314846 0.00035387312403574174 0 0.0068354278449079924 0.00035307670823739838 0 0.0067482480196270275 -0.00043820170975117709 0 0.0068354278449079924 0.00035307670823739838 0 0.0076621911911029465 -6.7821476281321457e-05 0 0.0067482480196270275 -0.00043820170975117709 0 0.0076621911911029465 -6.7821476281321457e-05 0 0.0067482480196270275 -0.00043820170975117709 0 0.0075956109329178194 -0.00091752178402425798 0 0.0075956109329178194 -0.00091752178402425798 0 0.0069319767768961154 -0.0014343378143059087 0 0.0079436900856393478 -0.0018137781582091364 0 0.006012398682760726 -0.0016207911844672088 0 0.0067482480196270275 -0.00043820170975117709 0 0.0069319767768961154 -0.0014343378143059087 0 0.0067482480196270275 -0.00043820170975117709 0 0.0075956109329178194 -0.00091752178402425798 0 0.0069319767768961154 -0.0014343378143059087 0 0.0081170376655148608 -0.00054644756544329259 0 0.0082383939709010784 -0.001170328742000496 0 0.0088451257053857486 -0.00078424939675511736 0 0.0075956109329178194 -0.00091752178402425798 0 0.0081170376655148608 -0.00054644756544329259 0 0.0082383939709010784 -0.001170328742000496 0 0.0076621911911029465 -6.7821476281321457e-05 0 0.0075956109329178194 -0.00091752178402425798 0 0.0081170376655148608 -0.00054644756544329259 0 0.0075956109329178194 -0.00091752178402425798 0 0.0082383939709010784 -0.001170328742000496 0 0.0079436900856393478 -0.0018137781582091364 0 0.0082383939709010784 -0.001170328742000496 0 0.008609122315340079 -0.001706804081911818 0 0.0088451257053857486 -0.00078424939675511736 0 0.0082383939709010784 -0.001170328742000496 0 0.008609122315340079 -0.001706804081911818 0 0.0079436900856393478 -0.0018137781582091364 0 0.008609122315340079 -0.001706804081911818 0 0.0079436900856393478 -0.0018137781582091364 0 0.0081377499861392359 -0.0022914054751647403 0 0.0075119366373707511 -0.0022413336025794797 0 0.007330646191763315 -0.0030777315657347327 0 0.0079436900856393478 -0.0018137781582091364 0 0.0082133027558922381 -0.0025052957376189024 0 0.0070473530546680705 -0.0024241869214827825 0 0.006012398682760726 -0.0016207911844672088 0 0.0069319767768961154 -0.0014343378143059087 0 0.0070473530546680705 -0.0024241869214827825 0 0.0069319767768961154 -0.0014343378143059087 0 0.0079436900856393478 -0.0018137781582091364 0 0.0070473530546680705 -0.0024241869214827825 0 0.007330646191763315 -0.0030777315657347327 0 0.0073140672004742341 -0.0025849539329601315 0 0.0077602792951977084 -0.0026776427235122523 0 0.0070473530546680705 -0.0024241869214827825 0 0.0073155654558856127 -0.0032628182301543264 0 0.0062982274714611245 -0.003018324937539845 0 0.006012398682760726 -0.0016207911844672088 0 0.0070473530546680705 -0.0024241869214827825 0 0.0062982274714611245 -0.003018324937539845 0 0.0069465143058253902 -0.0038788445173707766 0 0.0073155654558856127 -0.0032628182301543264 0 0.0062982274714611245 -0.003018324937539845 0 0.0070473530546680705 -0.0024241869214827825 0 0.0073155654558856127 -0.0032628182301543264 0 0.0069465143058253902 -0.0038788445173707766 0 0.0073155654558856127 -0.0032628182301543264 0 0.0081902436853068007 -0.0042211276918285431 0 0.0077602792951977084 -0.0026776427235122523 0 0.0073155654558856127 -0.0032628182301543264 0 0.0081902436853068007 -0.0042211276918285431 0 0.007330646191763315 -0.0030777315657347327 0 -0.0016204614101221354 -0.0015240661304580841 0 0.00018643566370169328 -0.004097374960680804 0 -0.0016204614101221354 -0.0015240661304580841 0 -0.0084421407318203117 -0.0019327667483345159 0 -0.0069407333570589685 -0.0037507562749885446 0 -0.009953890981362911 -0.0030269346310817886 0 -0.0066488284856814055 -0.0016882245676839919 0 -0.0084421407318203117 -0.0019327667483345159 0 -0.0069407333570589685 -0.0037507562749885446 0 0.0023693745772701163 0.00018278766562810167 0 0.0018080993635064642 -0.00081719709361271749 0 0.0031651594168471487 -0.0011958846339377596 0 0.00083947702888814983 0.0007151611585137327 0 0.0023693745772701163 0.00018278766562810167 0 0.0018080993635064642 -0.00081719709361271749 0 0.0023693745772701163 0.00018278766562810167 0 0.0039517519816176594 -0.00036113427194399471 0 0.0031651594168471487 -0.0011958846339377596 0 -0.0048423005276726728 0.0013609027927169641 0 -0.0016204614101221354 -0.0015240661304580841 0 -0.01044291588932098 0.00073153574076339806 0 -0.0093940994833059174 0.0015682568048635361 0 -0.011173763770354892 0.0019824304885898286 0 0.0048983057634030425 -0.00261851346534165 0 0.0031651594168471487 -0.0011958846339377596 0 0.0028148959796629376 -0.0023770657903280606 0 0.0048983057634030425 -0.00261851346534165 0 0.0039517519816176594 -0.00036113427194399471 0 0.0031651594168471487 -0.0011958846339377596 0 0.010489115883632976 5.7489096679026158e-05 0 0.01043824821589634 6.1359084198973036e-05 0 0.010485268961573575 6.1002222871874984e-05 0 0.0063999570387563154 -0.00045290383206035052 0 0.0081580761717473076 -0.0010463880440087425 0 0.0018080993635064642 -0.00081719709361271749 0 0.0031651594168471487 -0.0011958846339377596 0 0.0028148959796629376 -0.0023770657903280606 0 0.010962078997459197 -0.00032789900341965311 0 0.010956638093126385 -0.00023954719473666411 0 0.010917995558611841 -0.00012400375420208013 0 0.010962078997459197 -0.00032789900341965311 0 0.010954759620583072 -0.00034129852193854715 0 0.010956638093126385 -0.00023954719473666411 0 0.0081580761717473076 -0.0010463880440087425 0 0.01114521755317175 -5.5216342628541344e-05 0 0.008609122315340079 -0.001706804081911818 0 0.009882330300740691 -0.0024720966448706534 0 0.0088451257053857486 -0.00078424939675511736 0 0.007330646191763315 -0.0030777315657347327 0 0.0081580761717473076 -0.0010463880440087425 0 0.0081580761717473076 -0.0010463880440087425 0 0.0099845594987968238 -0.0008124392980036133 0 0.008609122315340079 -0.001706804081911818 0 0.0081377499861392359 -0.0022914054751647403 0 0.009882330300740691 -0.0024720966448706534 0 0.010904795391027809 -0.00023867581588476089 0 0.010473238373202217 -0.00064024013123540268 0 0.010954759620583072 -0.00034129852193854715 0 0.010962078997459197 -0.00032789900341965311 0 0.010473238373202217 -0.00064024013123540268 0 0.010954759620583072 -0.00034129852193854715 0 0.010954759620583072 -0.00034129852193854715 0 0.011033490834548442 -0.00018364302906245133 0 0.010956638093126385 -0.00023954719473666411 0 0.010904795391027809 -0.00023867581588476089 0 0.010954759620583072 -0.00034129852193854715 0 0.011063114416506785 -0.00017303456799498923 0 0.010954759620583072 -0.00034129852193854715 0 0.011063114416506785 -0.00017303456799498923 0 0.011033490834548442 -0.00018364302906245133 0 0.011033490834548442 -0.00018364302906245133 0 0.010922370914540304 -0.00016792133853911828 0 0.010834120020519528 -0.00018179469659416065 0 0.011033490834548442 -0.00018364302906245133 0 0.010956638093126385 -0.00023954719473666411 0 0.010834120020519528 -0.00018179469659416065 0 0.010922370914540304 -0.00016792133853911828 0 0.010834120020519528 -0.00018179469659416065 0 0.010772655645306972 -0.00020227879046935576 0 0.01062616454594283 -0.00012667196595643576 0 0.010834120020519528 -0.00018179469659416065 0 0.010772655645306972 -0.00020227879046935576 0 0.01062616454594283 -0.00012667196595643576 0 0.010834120020519528 -0.00018179469659416065 0 0.010580210605621634 1.4929747358003057e-05 0 0.01062616454594283 -0.00012667196595643576 0 0.010580210605621634 1.4929747358003057e-05 0 0.010489795668413729 1.4041680422724886e-05 0 0.010834120020519528 -0.00018179469659416065 0 0.010917995558611841 -0.00012400375420208013 0 0.010580210605621634 1.4929747358003057e-05 0 0.010956638093126385 -0.00023954719473666411 0 0.010834120020519528 -0.00018179469659416065 0 0.010917995558611841 -0.00012400375420208013 0 0.010485268961573575 6.1002222871874984e-05 0 0.010580210605621634 1.4929747358003057e-05 0 0.010483846399362142 4.746104856079575e-05 0 0.01114521755317175 -5.5216342628541344e-05 0 0.010420547792367542 2.1576247207024763e-05 0 0.010489115883632976 5.7489096679026158e-05 0 0.010485268961573575 6.1002222871874984e-05 0 0.010483846399362142 4.746104856079575e-05 0 0.010580210605621634 1.4929747358003057e-05 0 0.010398482101073052 6.506869025612451e-05 0 0.010489795668413729 1.4041680422724886e-05 0 0.010580210605621634 1.4929747358003057e-05 0 0.010398482101073052 6.506869025612451e-05 0 0.010483846399362142 4.746104856079575e-05 0 0.010453727664597342 0.0002277936927047341 0 0.010276593588190873 0.00022455223415255652 0 0.010398482101073052 6.506869025612451e-05 0 0.010453727664597342 0.0002277936927047341 0 0.010489115883632976 5.7489096679026158e-05 0 0.010483846399362142 4.746104856079575e-05 0 0.010453727664597342 0.0002277936927047341 0 0.010398482101073052 6.506869025612451e-05 0 0.010483846399362142 4.746104856079575e-05 0 0.0018370326327745664 0.00012002649611193455 0 0.0063999570387563154 -0.00045290383206035052 0 0.0015929036857799945 -0.00055376769115590273 0 0.0013061559816318975 -0.0017063212647988829 0 0.00229101360294845 -0.0012154146615144296 0 0.0013061559816318975 -0.0017063212647988829 0 0.00229101360294845 -0.0012154146615144296 0 0.0020366670033284181 -0.0023896822337997493 0 0.0015929036857799945 -0.00055376769115590273 0 0.00066615865691470658 -0.00084583090151711963 0 0.0013061559816318975 -0.0017063212647988829 0 0.0062988012390247962 -0.00053933174626486814 0 0.0067105712957304118 -0.00062010635522172545 0 0.010398482101073052 6.506869025612451e-05 0 0.010038961157852211 0.00014152917344901307 0 0.0098897764125461963 -0.00034497755638003119 0 0.010276593588190873 0.00022455223415255652 0 0.010398482101073052 6.506869025612451e-05 0 0.010038961157852211 0.00014152917344901307 0 0.011598725794135355 0.0005268785178470744 0 0.0067105712957304118 -0.00062010635522172545 0 0.010398482101073052 6.506869025612451e-05 0 0.010489795668413729 1.4041680422724886e-05 0 0.010375129598828211 7.338032050754816e-05 0 0.010489795668413729 1.4041680422724886e-05 0 0.010375129598828211 7.338032050754816e-05 0 0.010402630172685766 -0.00013616398584312184 0 0.0010285089916941847 -0.0031306739407920641 0 0.0013061559816318975 -0.0017063212647988829 0 0.0020366670033284181 -0.0023896822337997493 0 0.0017027583398956667 -0.0019180467530196532 0 0.0067105712957304118 -0.00062010635522172545 0 0.003405316761393403 -0.00021021664811025274 0 0.0046545277281103241 0.00071015478725298552 0 0.0043111522781130677 -0.0007423970647572266 0 0.0067105712957304118 -0.00062010635522172545 0 0.007282073671316577 -0.00038782570559305795 0 0.003405316761393403 -0.00021021664811025274 0 0.0043111522781130677 -0.0007423970647572266 0 0.0035250556211566622 -0.0011911968379833403 0 0.010375129598828211 7.338032050754816e-05 0 0.010110649036818931 -0.00036947571466202999 0 0.010402630172685766 -0.00013616398584312184 0 0.01062616454594283 -0.00012667196595643576 0 0.010489795668413729 1.4041680422724886e-05 0 0.010402630172685766 -0.00013616398584312184 0 0.01062616454594283 -0.00012667196595643576 0 0.010402630172685766 -0.00013616398584312184 0 0.010772655645306972 -0.00020227879046935576 0 0.010110649036818931 -0.00036947571466202999 0 0.010402630172685766 -0.00013616398584312184 0 0.010279181376890345 -0.00081354646493951371 0 0.010402630172685766 -0.00013616398584312184 0 0.010279181376890345 -0.00081354646493951371 0 0.010738014457988757 -0.00096067215963821528 0 0.010450629870879123 -0.00015483069760570837 0 0.01068333031150533 -0.00053352433271031986 0 0.010110649036818931 -0.00036947571466202999 0 0.010279181376890345 -0.00081354646493951371 0 0.0098408565416549399 -0.001138387972473382 0 0.007282073671316577 -0.00038782570559305795 0 0.0069993753164984624 -0.001558880161709223 0 0.0043111522781130677 -0.0007423970647572266 0 0.0035250556211566622 -0.0011911968379833403 0 0.0039826789371507571 -0.002203893904418944 0 0.0030900345428829866 -0.0017026114436620398 0 0.0035250556211566622 -0.0011911968379833403 0 0.0039826789371507571 -0.002203893904418944 0 0.0029997967795441518 -0.0029820297398597639 0 0.0039826789371507571 -0.002203893904418944 0 0.0036614865171782801 -0.0036867146150116833 0 0.0069993753164984624 -0.001558880161709223 0 0.0053961230892943402 -0.0034656744509627756 0 0.0053961230892943402 -0.0034656744509627756 0 0.0085854742643389596 -0.0026671740924715014 0 0.0098408565416549399 -0.001138387972473382 0 0.0096109605699271905 -0.0019572379589464124 0 0.010358377296602784 -0.0019430957748217386 0 0.0050300298580888145 -0.0041544523256205855 0 0.0042442814000860796 -0.0034366215832722798 0 0.0064408352807435809 -0.0033839474210629922 0 0.0050300298580888145 -0.0041544523256205855 0 0.0064408352807435809 -0.0033839474210629922 0 0.0058132117232105422 -0.0043272118084946081 0 0.0050300298580888145 -0.0041544523256205855 0 0.0040557767294582114 -0.0043492565773682983 0 0.0042442814000860796 -0.0034366215832722798 0 0.004776282484579804 -0.0041316510065893949 0 0.0053961230892943402 -0.0034656744509627756 0 0.0064408352807435809 -0.0033839474210629922 0 0.0088168233769700451 -0.0033693663159820812 0 0.006514888727942098 -0.0049160726966268765 0 0.010445517158147167 -0.0019074090994313066 0 0.0091074167261812125 -0.0036055472349654089 0 0.0085854742643389596 -0.0026671740924715014 0 0.010445517158147167 -0.0019074090994313066 0 0.010358377296602784 -0.0019430957748217386 0 0.010729155071673163 -0.0015108963373937146 0 0.011079494050510339 -0.0019321133230013813 0 0.0064408352807435809 -0.0033839474210629922 0 0.0058132117232105422 -0.0043272118084946081 0 0.006514888727942098 -0.0049160726966268765 0 0.010279181376890345 -0.00081354646493951371 0 0.010738014457988757 -0.00096067215963821528 0 0.010729155071673163 -0.0015108963373937146 0 0.0098408565416549399 -0.001138387972473382 0 0.010358377296602784 -0.0019430957748217386 0 0.010729155071673163 -0.0015108963373937146 0 0.010279181376890345 -0.00081354646493951371 0 0.0098408565416549399 -0.001138387972473382 0 0.010729155071673163 -0.0015108963373937146 0 0.010738014457988757 -0.00096067215963821528 0 0.010729155071673163 -0.0015108963373937146 0 0.011165384405431366 -0.0019317343948757832 0 0.010922370914540304 -0.00016792133853911828 0 0.010772655645306972 -0.00020227879046935576 0 0.010918026308419853 -0.0001616768619673834 0 0.01068333031150533 -0.00053352433271031986 0 0.01143282569142394 -0.0011224291017419036 0 0.010772655645306972 -0.00020227879046935576 0 0.010918026308419853 -0.0001616768619673834 0 0.010973721914134472 -0.00016719180680752226 0 0.010918026308419853 -0.0001616768619673834 0 0.010981570967097188 -0.00013747666776531002 0 0.01096520763443682 -0.0001628018610443901 0 0.011170162599278095 -1.435318256451384e-05 0 0.011033490834548442 -0.00018364302906245133 0 0.011036448651810004 -9.5669061912922036e-05 0 0.011033490834548442 -0.00018364302906245133 0 0.010922370914540304 -0.00016792133853911828 0 0.011036448651810004 -9.5669061912922036e-05 0 0.010922370914540304 -0.00016792133853911828 0 0.010918026308419853 -0.0001616768619673834 0 0.011036448651810004 -9.5669061912922036e-05 0 0.010918026308419853 -0.0001616768619673834 0 0.011036448651810004 -9.5669061912922036e-05 0 0.010981570967097188 -0.00013747666776531002 0 0.011036448651810004 -9.5669061912922036e-05 0 0.010981570967097188 -0.00013747666776531002 0 0.011032787277471366 -0.00011181193192634618 0 0.011036448651810004 -9.5669061912922036e-05 0 0.011142340826292172 -4.9014983004736818e-06 0 0.011032787277471366 -0.00011181193192634618 0 0.011170162599278095 -1.435318256451384e-05 0 0.011036448651810004 -9.5669061912922036e-05 0 0.011142340826292172 -4.9014983004736818e-06 0 0.011990425448393781 5.9845473368466963e-05 0 0.01143282569142394 -0.0011224291017419036 0 0.012687016547692727 0.00015457888737473678 0 0.013222032466046392 0.00016742056774044799 0 0.012843909038441939 0.00045415753897117542 0 0.011032787277471366 -0.00011181193192634618 0 0.011109319293937509 -0.00011913399913658307 0 0.010949576010060439 -0.00019031924503432556 0 0.011142340826292172 -4.9014983004736818e-06 0 0.011032787277471366 -0.00011181193192634618 0 0.011109319293937509 -0.00011913399913658307 0 0.010981570967097188 -0.00013747666776531002 0 0.011032787277471366 -0.00011181193192634618 0 0.01096520763443682 -0.0001628018610443901 0 0.011528814002980609 -0.0023341765287481723 0 0.011488772257588977 -0.0023328088369130359 0 0.011568881879468983 -0.0020368149329712758 0 0.010729155071673163 -0.0015108963373937146 0 0.011079494050510339 -0.0019321133230013813 0 0.011165384405431366 -0.0019317343948757832 0 0.011032787277471366 -0.00011181193192634618 0 0.01096520763443682 -0.0001628018610443901 0 0.010949576010060439 -0.00019031924503432556 0 0.010918026308419853 -0.0001616768619673834 0 0.01096520763443682 -0.0001628018610443901 0 0.010973721914134472 -0.00016719180680752226 0 0.011454920655817763 -0.00091048605852839996 0 0.01143282569142394 -0.0011224291017419036 0 0.010445517158147167 -0.0019074090994313066 0 0.01143282569142394 -0.0011224291017419036 0 0.011528814002980609 -0.0023341765287481723 0 0.011568881879468983 -0.0020368149329712758 0 0.011855991904677387 -0.0021271994311273584 0 0.011488772257588977 -0.0023328088369130359 0 0.011568881879468983 -0.0020368149329712758 0 0.011309550031116805 -0.0018887446500502779 0 0.01143282569142394 -0.0011224291017419036 0 0.012876732662209551 -0.00014698824585631469 0 0.013222032466046392 0.00016742056774044799 0 0.012843909038441939 0.00045415753897117542 0 0.012920967415658289 0.00085182176767718484 0 0.012549016627268228 0.00062389835925204143 0 0.012687016547692727 0.00015457888737473678 0 0.012843909038441939 0.00045415753897117542 0 0.012904061775362867 0.00076894877885284537 0 0.012876732662209551 -0.00014698824585631469 0 0.012549016627268228 0.00062389835925204143 0 0.012843909038441939 0.00045415753897117542 0 0.012920967415658289 0.00085182176767718484 0 0.012990608541277014 0.001088230704098802 0 0.012549016627268228 0.00062389835925204143 0 0.013484753563545657 0.00089845244807892455 0 0.013835656668352132 0.00062308952452938505 0 0.013486227704071603 0.0014395499283074108 0 0.01495954114358722 0.0013537666784644348 0 0.012876732662209551 -0.00014698824585631469 0 0.013280695109077438 0.0014023449809229614 0 0.012990608541277014 0.001088230704098802 0 0.013484753563545657 0.00089845244807892455 0 0.013486227704071603 0.0014395499283074108 0 0.01300217264345563 0.001489530286437281 0 0.012990608541277014 0.001088230704098802 0 0.013486227704071603 0.0014395499283074108 0 0.012876732662209551 -0.00014698824585631469 0 0.013356126298664967 -0.00014380368884174414 0 0.011568881879468983 -0.0020368149329712758 0 0.011309550031116805 -0.0018887446500502779 0 0.011646989939160961 -0.0016628714868292969 0 0.011568881879468983 -0.0020368149329712758 0 0.011646989939160961 -0.0016628714868292969 0 0.011915704363908044 -0.0018133669105193989 0 0.011646989939160961 -0.0016628714868292969 0 0.011915704363908044 -0.0018133669105193989 0 0.012013063624867423 -0.001408750201324401 0 0.011915704363908044 -0.0018133669105193989 0 0.012216236197659535 -0.0019132066924559446 0 0.012269668372799325 -0.0015886748008132306 0 0.011915704363908044 -0.0018133669105193989 0 0.012269668372799325 -0.0015886748008132306 0 0.012013063624867423 -0.001408750201324401 0 0.0082550401178083186 -0.0040053598825210571 0 0.0091074167261812125 -0.0036055472349654089 0 0.011915704363908044 -0.0018133669105193989 0 0.012216236197659535 -0.0019132066924559446 0 0.011855991904677387 -0.0021271994311273584 0 0.0044007582902744046 -0.0060437923618670165 0 0.0051884369875500585 -0.0049488285998041713 0 0.006514888727942098 -0.0049160726966268765 0 0.0044007582902744046 -0.0060437923618670165 0 0.0045133793805164175 -0.0053430379815577874 0 0.0051884369875500585 -0.0049488285998041713 0 0.0044007582902744046 -0.0060437923618670165 0 0.0042814005802985873 -0.0057965988168095541 0 0.0045133793805164175 -0.0053430379815577874 0 0.0036030626972938561 -0.0056090880165574775 0 0.0042814005802985873 -0.0057965988168095541 0 0.0039823886594202535 -0.0054080380583195935 0 0.0045133793805164175 -0.0053430379815577874 0 0.0039823886594202535 -0.0054080380583195935 0 0.0040948828513413032 -0.0049955800414452911 0 0.0042814005802985873 -0.0057965988168095541 0 0.0045133793805164175 -0.0053430379815577874 0 0.0039823886594202535 -0.0054080380583195935 0 0.0050300298580888145 -0.0041544523256205855 0 0.0040557767294582114 -0.0043492565773682983 0 0.0045727302818668837 -0.0047638504828185803 0 0.0045133793805164175 -0.0053430379815577874 0 0.0040948828513413032 -0.0049955800414452911 0 0.0045727302818668837 -0.0047638504828185803 0 0.0045133793805164175 -0.0053430379815577874 0 0.0045727302818668837 -0.0047638504828185803 0 0.0051884369875500585 -0.0049488285998041713 0 0.0040557767294582114 -0.0043492565773682983 0 0.0040948828513413032 -0.0049955800414452911 0 0.0045727302818668837 -0.0047638504828185803 0 0.0037187548221882197 -0.0047420958090686584 0 0.0040557767294582114 -0.0043492565773682983 0 0.0040948828513413032 -0.0049955800414452911 0 0.0050300298580888145 -0.0041544523256205855 0 0.0045727302818668837 -0.0047638504828185803 0 0.0051884369875500585 -0.0049488285998041713 0 0.0050300298580888145 -0.0041544523256205855 0 0.0051884369875500585 -0.0049488285998041713 0 0.0058132117232105422 -0.0043272118084946081 0 0.011568881879468983 -0.0020368149329712758 0 0.011915704363908044 -0.0018133669105193989 0 0.011855991904677387 -0.0021271994311273584 0 0.0051884369875500585 -0.0049488285998041713 0 0.0058132117232105422 -0.0043272118084946081 0 0.006514888727942098 -0.0049160726966268765 0 0.015564162547041212 0.0026554441606747503 0 0.015675681339607134 0.0019080144578513412 0 0.014951288151960338 0.0024224063464258353 0 0.015564162547041212 0.0026554441606747503 0 0.014951288151960338 0.0024224063464258353 0 0.015144696392953768 0.0029445564441816629 0 0.016265119491371532 0.0023544709736835665 0 0.015564162547041212 0.0026554441606747503 0 0.015675681339607134 0.0019080144578513412 0 0.012438400789447206 -0.0011312602001433397 0 0.012269668372799325 -0.0015886748008132306 0 0.012013063624867423 -0.001408750201324401 0 0.018864733977987408 0.0013228751132020144 0 0.013084065773181188 -9.7022601008435626e-05 0 0.013356126298664967 -0.00014380368884174414 0 0.013084065773181188 -9.7022601008435626e-05 0 0.01495954114358722 0.0013537666784644348 0 0.015675681339607134 0.0019080144578513412 0 0.014951288151960338 0.0024224063464258353 0 0.013486227704071603 0.0014395499283074108 0 0.01495954114358722 0.0013537666784644348 0 0.014338210940858857 0.0019250058051059392 0 0.01495954114358722 0.0013537666784644348 0 0.014338210940858857 0.0019250058051059392 0 0.014951288151960338 0.0024224063464258353 0 0.013486227704071603 0.0014395499283074108 0 0.014338210940858857 0.0019250058051059392 0 0.013825153508833199 0.0023301474567776637 0 0.013086582686143424 0.0015164380887304604 0 0.013522478133679117 0.0023359282714423648 0 0.01300217264345563 0.001489530286437281 0 0.013486227704071603 0.0014395499283074108 0 0.013825153508833199 0.0023301474567776637 0 0.013825153508833199 0.0023301474567776637 0 0.014951288151960338 0.0024224063464258353 0 0.014476875935640815 0.0029445827202234389 0 0.013522478133679117 0.0023359282714423648 0 0.013824090863876615 0.0028622018557628087 0 0.013275229037854429 0.0024031763185355507 0 0.013332231488025733 0.0030776900193689315 0 0.012991790647909389 0.0028202710092886762 0 0.014338210940858857 0.0019250058051059392 0 0.013825153508833199 0.0023301474567776637 0 0.014951288151960338 0.0024224063464258353 0 0.015144696392953768 0.0029445564441816629 0 0.014476875935640815 0.0029445827202234389 0 0.015116302236284074 0.0031826995716205883 0 0.014951288151960338 0.0024224063464258353 0 0.015144696392953768 0.0029445564441816629 0 0.014476875935640815 0.0029445827202234389 0 0.015144696392953768 0.0029445564441816629 0 0.015282209046993641 0.0031599298674567975 0 0.015116302236284074 0.0031826995716205883 0 0.015144696392953768 0.0029445564441816629 0 0.015282209046993641 0.0031599298674567975 0 0.015424754147740152 0.0031020868567081957 0 0.013332231488025733 0.0030776900193689315 0 0.013089147613503094 0.0033217858005407477 0 0.012992140657676891 0.0032189885277928675 0 0.016706534317106135 0.004588331234794049 0 0.017465515759780659 0.0041199699269357619 0 0.018931174982252264 0.004053868082424251 0 0.013332231488025733 0.0030776900193689315 0 0.013089147613503094 0.0033217858005407477 0 0.013385322265578157 0.0035218674602580857 0 0.015223697219503927 0.0037857649943327395 0 0.015831719893210923 0.0036223759874543819 0 0.013824090863876615 0.0028622018557628087 0 0.015223697219503927 0.0037857649943327395 0 0.014476875935640815 0.0029445827202234389 0 0.015129589322590299 0.003357697356356716 0 0.015116302236284074 0.0031826995716205883 0 0.013089147613503094 0.0033217858005407477 0 0.013385322265578157 0.0035218674602580857 0 0.012778705099896917 0.0031856035233340566 0 0.016706534317106135 0.004588331234794049 0 0.017065340482816979 0.0040231526273117844 0 0.017465515759780659 0.0041199699269357619 0 0.016706534317106135 0.004588331234794049 0 0.017065340482816979 0.0040231526273117844 0 0.016777132693600046 0.0036582572803192412 0 0.017465515759780659 0.0041199699269357619 0 0.017997067079854819 0.0037843040084183767 0 0.018364154401363585 0.0038390097010752309 0 0.015282209046993641 0.0031599298674567975 0 0.015348643752520336 0.0032720079212408058 0 0.015417110693608245 0.0032461010512822913 0 0.015282209046993641 0.0031599298674567975 0 0.015116302236284074 0.0031826995716205883 0 0.015348643752520336 0.0032720079212408058 0 0.015129589322590299 0.003357697356356716 0 0.015116302236284074 0.0031826995716205883 0 0.015334635598240566 0.0033356780754467035 0 0.015116302236284074 0.0031826995716205883 0 0.015334635598240566 0.0033356780754467035 0 0.015348643752520336 0.0032720079212408058 0 0.015395732934450252 0.0033574334536970109 0 0.015458074276653593 0.0032776720901966537 0 0.015656811356628365 0.0031692617601944426 0 0.015334635598240566 0.0033356780754467035 0 0.015458074276653593 0.0032776720901966537 0 0.015348643752520336 0.0032720079212408058 0 0.015395732934450252 0.0033574334536970109 0 0.015334635598240566 0.0033356780754467035 0 0.015458074276653593 0.0032776720901966537 0 0.015223697219503927 0.0037857649943327395 0 0.015263979010357712 0.0037254169276129943 0 0.015458074276653593 0.0032776720901966537 0 0.015464011564154235 0.0032614999434095776 0 0.015575038853937111 0.0032092433619153142 0 0.015464011564154235 0.0032614999434095776 0 0.015493037477237952 0.003243520789702825 0 0.015575038853937111 0.0032092433619153142 0 0.015458074276653593 0.0032776720901966537 0 0.015464011564154235 0.0032614999434095776 0 0.015348643752520336 0.0032720079212408058 0 0.015464011564154235 0.0032614999434095776 0 0.015348643752520336 0.0032720079212408058 0 0.015417110693608245 0.0032461010512822913 0 0.015464011564154235 0.0032614999434095776 0 0.015417110693608245 0.0032461010512822913 0 0.015493037477237952 0.003243520789702825 0 0.015417110693608245 0.0032461010512822913 0 0.015493037477237952 0.003243520789702825 0 0.015471307992749579 0.0032411203593370633 0 0.015417110693608245 0.0032461010512822913 0 0.015471307992749579 0.0032411203593370633 0 0.015463399982609351 0.0032215225628990968 0 0.015463399982609351 0.0032215225628990968 0 0.015804699623682476 0.0031076135191848344 0 0.015315344719717884 0.0032273794424244585 0 0.015463399982609351 0.0032215225628990968 0 0.015424754147740152 0.0031020868567081957 0 0.015804699623682476 0.0031076135191848344 0 0.015471307992749579 0.0032411203593370633 0 0.015463399982609351 0.0032215225628990968 0 0.01544203389669682 0.0032243531562414066 0 0.015282209046993641 0.0031599298674567975 0 0.015417110693608245 0.0032461010512822913 0 0.015424754147740152 0.0031020868567081957 0 0.015417110693608245 0.0032461010512822913 0 0.015463399982609351 0.0032215225628990968 0 0.015424754147740152 0.0031020868567081957 0 0.015564162547041212 0.0026554441606747503 0 0.015424754147740152 0.0031020868567081957 0 0.015804699623682476 0.0031076135191848344 0 0.015564162547041212 0.0026554441606747503 0 0.015144696392953768 0.0029445564441816629 0 0.015424754147740152 0.0031020868567081957 0 0.018864733977987408 0.0013228751132020144 0 0.01975739337296601 0.0020403404507510457 0 0.016265119491371532 0.0023544709736835665 0 0.015564162547041212 0.0026554441606747503 0 0.015804699623682476 0.0031076135191848344 0 0.023857741901165914 0.00072086678598695252 0 0.024062844108215114 0.00015355174993739287 0 0.024155356539231791 0.00011302728543662194 0 0.01975739337296601 0.0020403404507510457 0 0.021005558668338111 0.0015986548242338371 0 0.023638289642240184 0.00028190192504696035 0 0.023857741901165914 0.00072086678598695252 0 0.024062844108215114 0.00015355174993739287 0 0.023638289642240184 0.00028190192504696035 0 0.023872602707470662 5.7205038061940845e-05 0 0.024062844108215114 0.00015355174993739287 0 0.024045552720008249 8.5338672442549738e-05 0 0.023872602707470662 5.7205038061940845e-05 0 0.023883390521862953 -5.9421184860224732e-06 0 0.024045552720008249 8.5338672442549738e-05 0 0.023872602707470662 5.7205038061940845e-05 0 0.024062844108215114 0.00015355174993739287 0 0.023706368542189094 -7.7796437594630452e-05 0 0.023872602707470662 5.7205038061940845e-05 0 0.023883390521862953 -5.9421184860224732e-06 0 0.015315344719717884 0.0032273794424244585 0 0.015595534874080691 0.0030729053735544776 0 0.016140199011571113 0.0025440966681729805 0 0.024109525035332032 0.00025463084305901316 0 0.024318157802095102 0.0001050059083945432 0 0.024618207156304878 0.00010751529813768255 0 0.01546827101769024 0.0031833708566132309 0 0.015315344719717884 0.0032273794424244585 0 0.015595534874080691 0.0030729053735544776 0 0.015518449844019566 0.0031835006090766577 0 0.015595534874080691 0.0030729053735544776 0 0.015720349709714962 0.0030820566796799747 0 0.015518449844019566 0.0031835006090766577 0 0.01546827101769024 0.0031833708566132309 0 0.015595534874080691 0.0030729053735544776 0 0.015471307992749579 0.0032411203593370633 0 0.015518449844019566 0.0031835006090766577 0 0.015541681847805584 0.0032107930749073472 0 0.015471307992749579 0.0032411203593370633 0 0.015518449844019566 0.0031835006090766577 0 0.01544203389669682 0.0032243531562414066 0 0.015518449844019566 0.0031835006090766577 0 0.01544203389669682 0.0032243531562414066 0 0.01546827101769024 0.0031833708566132309 0 0.015463399982609351 0.0032215225628990968 0 0.01544203389669682 0.0032243531562414066 0 0.015315344719717884 0.0032273794424244585 0 0.01544203389669682 0.0032243531562414066 0 0.01546827101769024 0.0031833708566132309 0 0.015315344719717884 0.0032273794424244585 0 0.022494025059638965 0.00092017247597492996 0 0.021005558668338111 0.0015986548242338371 0 0.024045552720008249 8.5338672442549738e-05 0 0.024171106342540022 0.00013401666595391936 0 0.024225956300900277 3.7456772788155261e-05 0 0.024045552720008249 8.5338672442549738e-05 0 0.024062844108215114 0.00015355174993739287 0 0.024108152130843743 0.00015884889506739515 0 0.024045552720008249 8.5338672442549738e-05 0 0.024108152130843743 0.00015884889506739515 0 0.024171106342540022 0.00013401666595391936 0 0.021005558668338111 0.0015986548242338371 0 0.022539212143750223 1.5047828992397294e-05 0 0.024109525035332032 0.00025463084305901316 0 0.024171106342540022 0.00013401666595391936 0 0.024318157802095102 0.0001050059083945432 0 0.024369413264293753 1.0361257550648759e-05 0 0.024318157802095102 0.0001050059083945432 0 0.024225956300900277 3.7456772788155261e-05 0 0.024171106342540022 0.00013401666595391936 0 0.024318157802095102 0.0001050059083945432 0 0.024225956300900277 3.7456772788155261e-05 0 0.024369413264293753 1.0361257550648759e-05 0 0.024225956300900277 3.7456772788155261e-05 0 0.024311357607594626 -4.6131731084882055e-05 0 0.024045552720008249 8.5338672442549738e-05 0 0.024225956300900277 3.7456772788155261e-05 0 0.024141267977291509 -3.8728700484857733e-05 0 0.024225956300900277 3.7456772788155261e-05 0 0.024141267977291509 -3.8728700484857733e-05 0 0.024311357607594626 -4.6131731084882055e-05 0 0.024311357607594626 -4.6131731084882055e-05 0 0.024381289740171546 -0.00016567490609458791 0 0.024441608234908131 -7.813454187866597e-05 0 0.024141267977291509 -3.8728700484857733e-05 0 0.024311357607594626 -4.6131731084882055e-05 0 0.024381289740171546 -0.00016567490609458791 0 0.024369413264293753 1.0361257550648759e-05 0 0.024311357607594626 -4.6131731084882055e-05 0 0.024441608234908131 -7.813454187866597e-05 0 0.024045552720008249 8.5338672442549738e-05 0 0.024141267977291509 -3.8728700484857733e-05 0 0.023883390521862953 -5.9421184860224732e-06 0 0.024141267977291509 -3.8728700484857733e-05 0 0.023883390521862953 -5.9421184860224732e-06 0 0.023924979944660009 -1.8157158026278036e-05 0 0.023229642517213985 0.00059997181713257832 0 0.026758589029352936 -0.0015945497546735372 0 0.023924979944660009 -1.8157158026278036e-05 0 0.024232476347243858 -0.00022481402856676437 0 0.02414532621331943 -0.00035736375726293452 0 0.024020985909416287 0.00018347907255669585 0 0.023924979944660009 -1.8157158026278036e-05 0 0.02393798157377371 0.00032346548818228842 0 0.023924979944660009 -1.8157158026278036e-05 0 0.024045348519778898 -0.00061011259976326943 0 0.02414532621331943 -0.00035736375726293452 0 0.024141267977291509 -3.8728700484857733e-05 0 0.023924979944660009 -1.8157158026278036e-05 0 0.024232476347243858 -0.00022481402856676437 0 0.024141267977291509 -3.8728700484857733e-05 0 0.024381289740171546 -0.00016567490609458791 0 0.024232476347243858 -0.00022481402856676437 0 0.024381289740171546 -0.00016567490609458791 0 0.024425024694089977 -0.00032132386349337287 0 0.024232476347243858 -0.00022481402856676437 0 0.024381289740171546 -0.00016567490609458791 0 0.024425024694089977 -0.00032132386349337287 0 0.024503110585011104 -0.000252198883888438 0 0.024232476347243858 -0.00022481402856676437 0 0.024350051602905279 -0.00044682152173408201 0 0.02414532621331943 -0.00035736375726293452 0 0.024425024694089977 -0.00032132386349337287 0 0.024232476347243858 -0.00022481402856676437 0 0.024350051602905279 -0.00044682152173408201 0 0.024425024694089977 -0.00032132386349337287 0 0.024524956152927716 -0.00046333352550646144 0 0.024555541723606623 -0.00034711609901924995 0 0.024425024694089977 -0.00032132386349337287 0 0.024350051602905279 -0.00044682152173408201 0 0.024524956152927716 -0.00046333352550646144 0 0.024524956152927716 -0.00046333352550646144 0 0.02448135396259046 -0.00058420230416125762 0 0.024620524136188711 -0.00060080574085797094 0 0.024350051602905279 -0.00044682152173408201 0 0.024524956152927716 -0.00046333352550646144 0 0.02448135396259046 -0.00058420230416125762 0 0.024350051602905279 -0.00044682152173408201 0 0.02448135396259046 -0.00058420230416125762 0 0.02434260507570531 -0.00059355480513528693 0 0.024350051602905279 -0.00044682152173408201 0 0.02434260507570531 -0.00059355480513528693 0 0.02422962673997375 -0.00051791980216206229 0 0.02434260507570531 -0.00059355480513528693 0 0.02422962673997375 -0.00051791980216206229 0 0.02418156512676475 -0.00064470242169819007 0 0.02422962673997375 -0.00051791980216206229 0 0.024150674556229275 -0.00053263031047196799 0 0.02418156512676475 -0.00064470242169819007 0 0.024901487599196848 -0.00089984508873450827 0 0.026758589029352936 -0.0015945497546735372 0 0.024150674556229275 -0.00053263031047196799 0 0.02418156512676475 -0.00064470242169819007 0 0.024045348519778898 -0.00061011259976326943 0 0.024150674556229275 -0.00053263031047196799 0 0.024045348519778898 -0.00061011259976326943 0 0.02414532621331943 -0.00035736375726293452 0 0.02422962673997375 -0.00051791980216206229 0 0.024150674556229275 -0.00053263031047196799 0 0.02414532621331943 -0.00035736375726293452 0 0.024350051602905279 -0.00044682152173408201 0 0.02422962673997375 -0.00051791980216206229 0 0.02414532621331943 -0.00035736375726293452 0 0.024859852601224513 -0.00037865246661842759 0 0.024679794239048508 -0.00042406764035106815 0 0.024756077402281442 -0.00029686573158956123 0 0.024859852601224513 -0.00037865246661842759 0 0.024999266667754264 -0.00035101000784492449 0 0.024939342806625193 -0.0005441315596647116 0 0.024859852601224513 -0.00037865246661842759 0 0.0248061984746277 -0.00058651850067261866 0 0.024939342806625193 -0.0005441315596647116 0 0.024859852601224513 -0.00037865246661842759 0 0.024679794239048508 -0.00042406764035106815 0 0.0248061984746277 -0.00058651850067261866 0 0.024620524136188711 -0.00060080574085797094 0 0.024679794239048508 -0.00042406764035106815 0 0.0248061984746277 -0.00058651850067261866 0 0.024524956152927716 -0.00046333352550646144 0 0.024620524136188711 -0.00060080574085797094 0 0.024679794239048508 -0.00042406764035106815 0 0.024524956152927716 -0.00046333352550646144 0 0.024679794239048508 -0.00042406764035106815 0 0.024555541723606623 -0.00034711609901924995 0 0.024679794239048508 -0.00042406764035106815 0 0.024628690585126685 -0.00023806405132613726 0 0.024555541723606623 -0.00034711609901924995 0 0.024679794239048508 -0.00042406764035106815 0 0.024628690585126685 -0.00023806405132613726 0 0.024756077402281442 -0.00029686573158956123 0 0.024628690585126685 -0.00023806405132613726 0 0.024756541097534931 -0.00019812825118689667 0 0.024756077402281442 -0.00029686573158956123 0 0.024425024694089977 -0.00032132386349337287 0 0.024555541723606623 -0.00034711609901924995 0 0.024503110585011104 -0.000252198883888438 0 0.024628690585126685 -0.00023806405132613726 0 0.024555541723606623 -0.00034711609901924995 0 0.024503110585011104 -0.000252198883888438 0 0.024628690585126685 -0.00023806405132613726 0 0.024507830593348788 -0.00016871001744019789 0 0.024571710831463315 -9.7159367321852604e-05 0 0.024381289740171546 -0.00016567490609458791 0 0.024503110585011104 -0.000252198883888438 0 0.024507830593348788 -0.00016871001744019789 0 0.024628690585126685 -0.00023806405132613726 0 0.024503110585011104 -0.000252198883888438 0 0.024507830593348788 -0.00016871001744019789 0 0.024381289740171546 -0.00016567490609458791 0 0.024507830593348788 -0.00016871001744019789 0 0.024441608234908131 -7.813454187866597e-05 0 0.024628690585126685 -0.00023806405132613726 0 0.024676035855870082 -0.00012618162531645501 0 0.024756541097534931 -0.00019812825118689667 0 0.024628690585126685 -0.00023806405132613726 0 0.024676035855870082 -0.00012618162531645501 0 0.024571710831463315 -9.7159367321852604e-05 0 0.024676035855870082 -0.00012618162531645501 0 0.024764475940505955 -0.00013165244247991049 0 0.024756541097534931 -0.00019812825118689667 0 0.024764475940505955 -0.00013165244247991049 0 0.024756541097534931 -0.00019812825118689667 0 0.024840345737994873 -0.00017610456700346066 0 0.024756541097534931 -0.00019812825118689667 0 0.024836037441980888 -0.0002473124278145626 0 0.024840345737994873 -0.00017610456700346066 0 0.024859852601224513 -0.00037865246661842759 0 0.024756077402281442 -0.00029686573158956123 0 0.024836037441980888 -0.0002473124278145626 0 0.024756541097534931 -0.00019812825118689667 0 0.024756077402281442 -0.00029686573158956123 0 0.024836037441980888 -0.0002473124278145626 0 0.024836037441980888 -0.0002473124278145626 0 0.024840345737994873 -0.00017610456700346066 0 0.024914552911604437 -0.00022583087069480887 0 0.024859852601224513 -0.00037865246661842759 0 0.024836037441980888 -0.0002473124278145626 0 0.024914552911604437 -0.00022583087069480887 0 0.024840345737994873 -0.00017610456700346066 0 0.02491431918185882 -0.00016889551003656603 0 0.024914552911604437 -0.00022583087069480887 0 0.024840345737994873 -0.00017610456700346066 0 0.024819993756748052 -0.00011033042031559062 0 0.02491431918185882 -0.00016889551003656603 0 0.024764475940505955 -0.00013165244247991049 0 0.024840345737994873 -0.00017610456700346066 0 0.024819993756748052 -0.00011033042031559062 0 0.020122944688302481 0.0013978103816847636 0 0.021891499881316143 0.0007597937386199131 0 0.024819993756748052 -0.00011033042031559062 0 0.024618207156304878 0.00010751529813768255 0 0.024972759319696156 -0.0001606195749652703 0 0.024819993756748052 -0.00011033042031559062 0 0.024972759319696156 -0.0001606195749652703 0 0.02491431918185882 -0.00016889551003656603 0 0.017500590975166434 0.0023567833542842021 0 0.016140199011571113 0.0025440966681729805 0 0.018570375386615906 0.0016664747430596004 0 0.024819993756748052 -0.00011033042031559062 0 0.024709964826541642 -4.7778651304406412e-05 0 0.024618207156304878 0.00010751529813768255 0 0.024764475940505955 -0.00013165244247991049 0 0.024819993756748052 -0.00011033042031559062 0 0.024709964826541642 -4.7778651304406412e-05 0 0.024676035855870082 -0.00012618162531645501 0 0.024764475940505955 -0.00013165244247991049 0 0.024709964826541642 -4.7778651304406412e-05 0 0.0168676434721334 0.0026590488654436705 0 0.017500590975166434 0.0023567833542842021 0 0.016140199011571113 0.0025440966681729805 0 0.0168676434721334 0.0026590488654436705 0 0.017257456883401429 0.0026681799576975186 0 0.017500590975166434 0.0023567833542842021 0 0.017257456883401429 0.0026681799576975186 0 0.017500590975166434 0.0023567833542842021 0 0.017648853699611555 0.0029046820535025696 0 0.018047072705479953 0.0025598598824309168 0 0.017500590975166434 0.0023567833542842021 0 0.017648853699611555 0.0029046820535025696 0 0.018047072705479953 0.0025598598824309168 0 0.017500590975166434 0.0023567833542842021 0 0.018256972392759453 0.0022227405104074962 0 0.024369413264293753 1.0361257550648759e-05 0 0.024441608234908131 -7.813454187866597e-05 0 0.024493166502873094 1.1507773878684718e-05 0 0.024507830593348788 -0.00016871001744019789 0 0.024441608234908131 -7.813454187866597e-05 0 0.024571710831463315 -9.7159367321852604e-05 0 0.024441608234908131 -7.813454187866597e-05 0 0.024571710831463315 -9.7159367321852604e-05 0 0.024493166502873094 1.1507773878684718e-05 0 0.024571710831463315 -9.7159367321852604e-05 0 0.024616138425133011 -3.0824464473169224e-05 0 0.024493166502873094 1.1507773878684718e-05 0 0.024676035855870082 -0.00012618162531645501 0 0.024571710831463315 -9.7159367321852604e-05 0 0.024616138425133011 -3.0824464473169224e-05 0 0.024676035855870082 -0.00012618162531645501 0 0.024709964826541642 -4.7778651304406412e-05 0 0.024616138425133011 -3.0824464473169224e-05 0 0.024709964826541642 -4.7778651304406412e-05 0 0.024616138425133011 -3.0824464473169224e-05 0 0.024618207156304878 0.00010751529813768255 0 0.0168676434721334 0.0026590488654436705 0 0.016140199011571113 0.0025440966681729805 0 0.016474947243253626 0.0028118497568459552 0 0.024616138425133011 -3.0824464473169224e-05 0 0.024618207156304878 0.00010751529813768255 0 0.024493166502873094 1.1507773878684718e-05 0 0.024369413264293753 1.0361257550648759e-05 0 0.024318157802095102 0.0001050059083945432 0 0.024493166502873094 1.1507773878684718e-05 0 0.024318157802095102 0.0001050059083945432 0 0.024618207156304878 0.00010751529813768255 0 0.024493166502873094 1.1507773878684718e-05 0 0.015395732934450252 0.0033574334536970109 0 0.016023533338223397 0.0029417923638227579 0 0.015656811356628365 0.0031692617601944426 0 0.016706534317106135 0.004588331234794049 0 0.016023533338223397 0.0029417923638227579 0 0.016777132693600046 0.0036582572803192412 0 0.015223697219503927 0.0037857649943327395 0 0.016016411234838237 0.0031154650202884476 0 0.021005558668338111 0.0015986548242338371 0 0.020122944688302481 0.0013978103816847636 0 0.015595534874080691 0.0030729053735544776 0 0.016140199011571113 0.0025440966681729805 0 0.015720349709714962 0.0030820566796799747 0 0.015720349709714962 0.0030820566796799747 0 0.016023533338223397 0.0029417923638227579 0 0.015702001453016187 0.0031240261336988877 0 0.016140199011571113 0.0025440966681729805 0 0.015720349709714962 0.0030820566796799747 0 0.016023533338223397 0.0029417923638227579 0 0.016140199011571113 0.0025440966681729805 0 0.016023533338223397 0.0029417923638227579 0 0.016474947243253626 0.0028118497568459552 0 0.016023533338223397 0.0029417923638227579 0 0.016474947243253626 0.0028118497568459552 0 0.016683226151280948 0.0031200533260346427 0 0.016023533338223397 0.0029417923638227579 0 0.016683226151280948 0.0031200533260346427 0 0.016777132693600046 0.0036582572803192412 0 0.016023533338223397 0.0029417923638227579 0 0.015656811356628365 0.0031692617601944426 0 0.015702001453016187 0.0031240261336988877 0 0.015458074276653593 0.0032776720901966537 0 0.015656811356628365 0.0031692617601944426 0 0.015575038853937111 0.0032092433619153142 0 0.015720349709714962 0.0030820566796799747 0 0.015702001453016187 0.0031240261336988877 0 0.015624058821472666 0.0031600890436297522 0 0.015702001453016187 0.0031240261336988877 0 0.015575038853937111 0.0032092433619153142 0 0.015624058821472666 0.0031600890436297522 0 0.015656811356628365 0.0031692617601944426 0 0.015702001453016187 0.0031240261336988877 0 0.015575038853937111 0.0032092433619153142 0 0.015575038853937111 0.0032092433619153142 0 0.015541681847805584 0.0032107930749073472 0 0.015624058821472666 0.0031600890436297522 0 0.015493037477237952 0.003243520789702825 0 0.015471307992749579 0.0032411203593370633 0 0.015541681847805584 0.0032107930749073472 0 0.015493037477237952 0.003243520789702825 0 0.015575038853937111 0.0032092433619153142 0 0.015541681847805584 0.0032107930749073472 0 0.015518449844019566 0.0031835006090766577 0 0.015720349709714962 0.0030820566796799747 0 0.015541681847805584 0.0032107930749073472 0 0.015720349709714962 0.0030820566796799747 0 0.015541681847805584 0.0032107930749073472 0 0.015624058821472666 0.0031600890436297522 0 0.017648853699611555 0.0029046820535025696 0 0.017168237679968959 0.0032990553743435245 0 0.017665747120607221 0.0034673170257982339 0 0.017648853699611555 0.0029046820535025696 0 0.017665747120607221 0.0034673170257982339 0 0.018189886843462063 0.0032674511799978567 0 0.017648853699611555 0.0029046820535025696 0 0.018320712925456624 0.0028480853973089377 0 0.018189886843462063 0.0032674511799978567 0 0.018047072705479953 0.0025598598824309168 0 0.017648853699611555 0.0029046820535025696 0 0.018320712925456624 0.0028480853973089377 0 0.017648853699611555 0.0029046820535025696 0 0.016975216930489121 0.0029056413020428088 0 0.017168237679968959 0.0032990553743435245 0 0.017257456883401429 0.0026681799576975186 0 0.017648853699611555 0.0029046820535025696 0 0.016975216930489121 0.0029056413020428088 0 0.0168676434721334 0.0026590488654436705 0 0.017257456883401429 0.0026681799576975186 0 0.016975216930489121 0.0029056413020428088 0 0.016474947243253626 0.0028118497568459552 0 0.016975216930489121 0.0029056413020428088 0 0.016683226151280948 0.0031200533260346427 0 0.0168676434721334 0.0026590488654436705 0 0.016474947243253626 0.0028118497568459552 0 0.016975216930489121 0.0029056413020428088 0 0.016975216930489121 0.0029056413020428088 0 0.016683226151280948 0.0031200533260346427 0 0.017168237679968959 0.0032990553743435245 0 0.017168237679968959 0.0032990553743435245 0 0.016777132693600046 0.0036582572803192412 0 0.017291980780250082 0.0037279961694534651 0 0.016683226151280948 0.0031200533260346427 0 0.017168237679968959 0.0032990553743435245 0 0.016777132693600046 0.0036582572803192412 0 0.017065340482816979 0.0040231526273117844 0 0.016777132693600046 0.0036582572803192412 0 0.017291980780250082 0.0037279961694534651 0 0.017065340482816979 0.0040231526273117844 0 0.017465515759780659 0.0041199699269357619 0 0.017291980780250082 0.0037279961694534651 0 0.017465515759780659 0.0041199699269357619 0 0.017291980780250082 0.0037279961694534651 0 0.01760708701349022 0.0037714281321857661 0 0.017465515759780659 0.0041199699269357619 0 0.01760708701349022 0.0037714281321857661 0 0.017997067079854819 0.0037843040084183767 0 0.017291980780250082 0.0037279961694534651 0 0.01760708701349022 0.0037714281321857661 0 0.017665747120607221 0.0034673170257982339 0 0.017168237679968959 0.0032990553743435245 0 0.017291980780250082 0.0037279961694534651 0 0.017665747120607221 0.0034673170257982339 0 0.017665747120607221 0.0034673170257982339 0 0.017997067079854819 0.0037843040084183767 0 0.018189886843462063 0.0032674511799978567 0 0.01760708701349022 0.0037714281321857661 0 0.017665747120607221 0.0034673170257982339 0 0.017997067079854819 0.0037843040084183767 0 0.017997067079854819 0.0037843040084183767 0 0.018523917434508104 0.0035373706271397973 0 0.018364154401363585 0.0038390097010752309 0 0.017997067079854819 0.0037843040084183767 0 0.018523917434508104 0.0035373706271397973 0 0.018189886843462063 0.0032674511799978567 0 0.018523917434508104 0.0035373706271397973 0 0.018988863856394183 0.0033317657745852353 0 0.018645532371862117 0.0031267435665006918 0 0.018523917434508104 0.0035373706271397973 0 0.018852888243622298 0.0036462474851440651 0 0.018364154401363585 0.0038390097010752309 0 0.018988863856394183 0.0033317657745852353 0 0.019259904245237429 0.0034834006867782877 0 0.019312420106218385 0.0030865614352876382 0 0.018852888243622298 0.0036462474851440651 0 0.018988863856394183 0.0033317657745852353 0 0.019259904245237429 0.0034834006867782877 0 0.018523917434508104 0.0035373706271397973 0 0.018852888243622298 0.0036462474851440651 0 0.018988863856394183 0.0033317657745852353 0 0.018988863856394183 0.0033317657745852353 0 0.019053052745035735 0.0030054204228888801 0 0.018645532371862117 0.0031267435665006918 0 0.018988863856394183 0.0033317657745852353 0 0.019053052745035735 0.0030054204228888801 0 0.019312420106218385 0.0030865614352876382 0 0.019312420106218385 0.0030865614352876382 0 0.019588729367340831 0.0026991946109444402 0 0.019241416790236558 0.0027219042262865106 0 0.019053052745035735 0.0030054204228888801 0 0.019312420106218385 0.0030865614352876382 0 0.019241416790236558 0.0027219042262865106 0 0.019053052745035735 0.0030054204228888801 0 0.018831433070890979 0.0027828076566202139 0 0.019241416790236558 0.0027219042262865106 0 0.019053052745035735 0.0030054204228888801 0 0.018645532371862117 0.0031267435665006918 0 0.018831433070890979 0.0027828076566202139 0 0.018320712925456624 0.0028480853973089377 0 0.018645532371862117 0.0031267435665006918 0 0.018831433070890979 0.0027828076566202139 0 0.018523917434508104 0.0035373706271397973 0 0.018189886843462063 0.0032674511799978567 0 0.018645532371862117 0.0031267435665006918 0 0.018320712925456624 0.0028480853973089377 0 0.018189886843462063 0.0032674511799978567 0 0.018645532371862117 0.0031267435665006918 0 0.019259904245237429 0.0034834006867782877 0 0.019559323654883758 0.003201256240674721 0 0.019577057657373234 0.0032856345015751008 0 0.019259904245237429 0.0034834006867782877 0 0.019312420106218385 0.0030865614352876382 0 0.019559323654883758 0.003201256240674721 0 0.019312420106218385 0.0030865614352876382 0 0.019559323654883758 0.003201256240674721 0 0.019588729367340831 0.0026991946109444402 0 0.019559323654883758 0.003201256240674721 0 0.019671977596292353 0.0031297507883814527 0 0.019555301863943206 0.0031997739077878123 0 0.019559323654883758 0.003201256240674721 0 0.019671977596292353 0.0031297507883814527 0 0.019588729367340831 0.0026991946109444402 0 0.023493043988477635 0.0018007446625340989 0 0.020751507335463746 0.0016923012487250974 0 0.022577479973393728 0.0028414549478691757 0 0.020362867332992678 0.0016697372116309789 0 0.01988285089345691 0.0016041300273882289 0 0.022577479973393728 0.0028414549478691757 0 0.022449596698015405 0.0018109290416455943 0 0.020362867332992678 0.0016697372116309789 0 0.024809240881174296 0.0018089383906739348 0 0.020362867332992678 0.0016697372116309789 0 0.022393469313246185 0.001243157867194384 0 0.020973344550935552 0.0028001079432838239 0 0.019879273768844768 0.0017345881554962333 0 0.019671977596292353 0.0031297507883814527 0 0.019588729367340831 0.0026991946109444402 0 0.01988285089345691 0.0016041300273882289 0 0.018721782725300059 0.002232431548571489 0 0.01850897545760324 0.0025030061243098787 0 0.018988991068618864 0.0024562306852709062 0 0.018047072705479953 0.0025598598824309168 0 0.018256972392759453 0.0022227405104074962 0 0.01850897545760324 0.0025030061243098787 0 0.018721782725300059 0.002232431548571489 0 0.018256972392759453 0.0022227405104074962 0 0.01850897545760324 0.0025030061243098787 0 0.018047072705479953 0.0025598598824309168 0 0.018320712925456624 0.0028480853973089377 0 0.01850897545760324 0.0025030061243098787 0 0.01850897545760324 0.0025030061243098787 0 0.018831433070890979 0.0027828076566202139 0 0.018988991068618864 0.0024562306852709062 0 0.018320712925456624 0.0028480853973089377 0 0.01850897545760324 0.0025030061243098787 0 0.018831433070890979 0.0027828076566202139 0 0.019588729367340831 0.0026991946109444402 0 0.019241416790236558 0.0027219042262865106 0 0.019367873828476014 0.0022538804387842596 0 0.018831433070890979 0.0027828076566202139 0 0.019241416790236558 0.0027219042262865106 0 0.018988991068618864 0.0024562306852709062 0 0.019241416790236558 0.0027219042262865106 0 0.018988991068618864 0.0024562306852709062 0 0.019367873828476014 0.0022538804387842596 0 0.018721782725300059 0.002232431548571489 0 0.018988991068618864 0.0024562306852709062 0 0.019367873828476014 0.0022538804387842596 0 0.020362867332992678 0.0016697372116309789 0 0.01988285089345691 0.0016041300273882289 0 0.022393469313246185 0.001243157867194384 0 0.019588729367340831 0.0026991946109444402 0 0.019367873828476014 0.0022538804387842596 0 0.01988285089345691 0.0016041300273882289 0 0.019367873828476014 0.0022538804387842596 0 0.01988285089345691 0.0016041300273882289 0 0.018570375386615906 0.0016664747430596004 0 0.017500590975166434 0.0023567833542842021 0 0.018256972392759453 0.0022227405104074962 0 0.018570375386615906 0.0016664747430596004 0 0.018721782725300059 0.002232431548571489 0 0.018256972392759453 0.0022227405104074962 0 0.018570375386615906 0.0016664747430596004 0 0.018721782725300059 0.002232431548571489 0 0.019367873828476014 0.0022538804387842596 0 0.018570375386615906 0.0016664747430596004 0 0.024972759319696156 -0.0001606195749652703 0 0.02491431918185882 -0.00016889551003656603 0 0.024934902378712005 -0.00015802670404180543 0 0.01988285089345691 0.0016041300273882289 0 0.018570375386615906 0.0016664747430596004 0 0.024678421700458437 -1.7444949119021997e-05 0 0.02491431918185882 -0.00016889551003656603 0 0.024934902378712005 -0.00015802670404180543 0 0.024914552911604437 -0.00022583087069480887 0 0.024934902378712005 -0.00015802670404180543 0 0.024914552911604437 -0.00022583087069480887 0 0.024953959315493979 -0.00017927904561107418 0 0.024934902378712005 -0.00015802670404180543 0 0.024953959315493979 -0.00017927904561107418 0 0.024899164684092909 -0.00010090056981019107 0 0.024972759319696156 -0.0001606195749652703 0 0.024934902378712005 -0.00015802670404180543 0 0.024899164684092909 -0.00010090056981019107 0 0.024972759319696156 -0.0001606195749652703 0 0.024899164684092909 -0.00010090056981019107 0 0.024678421700458437 -1.7444949119021997e-05 0 0.01988285089345691 0.0016041300273882289 0 0.022393469313246185 0.001243157867194384 0 0.024678421700458437 -1.7444949119021997e-05 0 0.021891499881316143 0.0007597937386199131 0 0.024398232172020883 -1.0283869968899581e-06 0 0.024809240881174296 0.0018089383906739348 0 0.022393469313246185 0.001243157867194384 0 0.024678421700458437 -1.7444949119021997e-05 0 0.024678421700458437 -1.7444949119021997e-05 0 0.024900846787977486 -8.0043696229049205e-05 0 0.025169203918846385 -5.4883692128773785e-05 0 0.024953959315493979 -0.00017927904561107418 0 0.024899164684092909 -0.00010090056981019107 0 0.024900846787977486 -8.0043696229049205e-05 0 0.024899164684092909 -0.00010090056981019107 0 0.024678421700458437 -1.7444949119021997e-05 0 0.024900846787977486 -8.0043696229049205e-05 0 0.025088868249702637 -0.0002282678429021013 0 0.025551555004099887 -0.00027055022279013794 0 0.025284633989251851 -0.00051970226784969428 0 0.024953959315493979 -0.00017927904561107418 0 0.024900846787977486 -8.0043696229049205e-05 0 0.025088868249702637 -0.0002282678429021013 0 0.024900846787977486 -8.0043696229049205e-05 0 0.025088868249702637 -0.0002282678429021013 0 0.025169203918846385 -5.4883692128773785e-05 0 0.025088868249702637 -0.0002282678429021013 0 0.025551555004099887 -0.00027055022279013794 0 0.025169203918846385 -5.4883692128773785e-05 0 0.025088868249702637 -0.0002282678429021013 0 0.024999266667754264 -0.00035101000784492449 0 0.025284633989251851 -0.00051970226784969428 0 0.024914552911604437 -0.00022583087069480887 0 0.024953959315493979 -0.00017927904561107418 0 0.024999266667754264 -0.00035101000784492449 0 0.024859852601224513 -0.00037865246661842759 0 0.024914552911604437 -0.00022583087069480887 0 0.024999266667754264 -0.00035101000784492449 0 0.024953959315493979 -0.00017927904561107418 0 0.025088868249702637 -0.0002282678429021013 0 0.024999266667754264 -0.00035101000784492449 0 0.026314601854754829 -0.00012482880288859112 0 0.025551555004099887 -0.00027055022279013794 0 0.026035504547576291 0.00042769824030629825 0 0.025551555004099887 -0.00027055022279013794 0 0.025169203918846385 -5.4883692128773785e-05 0 0.026315960379303605 0.00020710680709932653 0 0.025580817433553189 -0.00029320815549417286 0 0.026406721236397045 0.00060069734570862511 0 0.025169203918846385 -5.4883692128773785e-05 0 0.025621346683972864 0.00061974995236979246 0 0.026315960379303605 0.00020710680709932653 0 0.024678421700458437 -1.7444949119021997e-05 0 0.025169203918846385 -5.4883692128773785e-05 0 0.025621346683972864 0.00061974995236979246 0 0.024809240881174296 0.0018089383906739348 0 0.024678421700458437 -1.7444949119021997e-05 0 0.025621346683972864 0.00061974995236979246 0 0.025621346683972864 0.00061974995236979246 0 0.026315960379303605 0.00020710680709932653 0 0.026419647572287229 0.0014244160595566441 0 0.026314601854754829 -0.00012482880288859112 0 0.026035504547576291 0.00042769824030629825 0 0.026524380694042182 0.00048673751656245844 0 0.026406721236397045 0.00060069734570862511 0 0.024090220586449638 0.00087276165064883874 0 0.026315960379303605 0.00020710680709932653 0 0.027339069786864026 0.0013724846419886857 0 0.026419647572287229 0.0014244160595566441 0 0.026035504547576291 0.00042769824030629825 0 0.026524380694042182 0.00048673751656245844 0 0.026439076251289183 0.00090139171171780641 0 0.024090220586449638 0.00087276165064883874 0 0.024498131051685752 0.0018406878407593401 0 0.023474168171012545 0.0023003569917287442 0 0.023241312470422635 0.0022555258565936276 0 0.023299912691559444 0.0024702382246902673 0 0.023241312470422635 0.0022555258565936276 0 0.023299912691559444 0.0024702382246902673 0 0.023141558105099474 0.0023937290968374624 0 0.023299912691559444 0.0024702382246902673 0 0.023131670487644883 0.0026428592400570784 0 0.023416997182026951 0.0026262797082168107 0 0.023299912691559444 0.0024702382246902673 0 0.023141558105099474 0.0023937290968374624 0 0.023131670487644883 0.0026428592400570784 0 0.023474168171012545 0.0023003569917287442 0 0.023299912691559444 0.0024702382246902673 0 0.023416997182026951 0.0026262797082168107 0 0.024809240881174296 0.0018089383906739348 0 0.025621346683972864 0.00061974995236979246 0 0.026419647572287229 0.0014244160595566441 0 0.022449596698015405 0.0018109290416455943 0 0.023505748727695557 0.0022885032206855257 0 0.023010818200681606 0.0021104360734751763 0 0.023493043988477635 0.0018007446625340989 0 0.024498131051685752 0.0018406878407593401 0 0.022449596698015405 0.0018109290416455943 0 0.023010818200681606 0.0021104360734751763 0 0.022919169257146869 0.0024562849660157682 0 0.024498131051685752 0.0018406878407593401 0 0.023174911964379392 0.0020263379106181018 0 0.023241312470422635 0.0022555258565936276 0 0.023010818200681606 0.0021104360734751763 0 0.023141558105099474 0.0023937290968374624 0 0.023010818200681606 0.0021104360734751763 0 0.023141558105099474 0.0023937290968374624 0 0.022919169257146869 0.0024562849660157682 0 0.023141558105099474 0.0023937290968374624 0 0.022919169257146869 0.0024562849660157682 0 0.023131670487644883 0.0026428592400570784 0 0.022577479973393728 0.0028414549478691757 0 0.022919169257146869 0.0024562849660157682 0 0.023131670487644883 0.0026428592400570784 0 0.022577479973393728 0.0028414549478691757 0 0.022449596698015405 0.0018109290416455943 0 0.022919169257146869 0.0024562849660157682 0 0.020973344550935552 0.0028001079432838239 0 0.021583941590838641 0.0032790173216995329 0 0.019671977596292353 0.0031297507883814527 0 0.019555301863943206 0.0031997739077878123 0 0.019299947618755399 0.0031867985598834536 0 0.019555301863943206 0.0031997739077878123 0 0.019299947618755399 0.0031867985598834536 0 0.019577057657373234 0.0032856345015751008 0 0.022577479973393728 0.0028414549478691757 0 0.023131670487644883 0.0026428592400570784 0 0.023312861538296432 0.0028535378660108249 0 0.019559323654883758 0.003201256240674721 0 0.019555301863943206 0.0031997739077878123 0 0.019577057657373234 0.0032856345015751008 0 0.023131670487644883 0.0026428592400570784 0 0.023416997182026951 0.0026262797082168107 0 0.023312861538296432 0.0028535378660108249 0 0.023416997182026951 0.0026262797082168107 0 0.023312861538296432 0.0028535378660108249 0 0.023539455406050298 0.0027746432167715723 0 0.019325768798798524 0.0033208155963141495 0 0.018144304184988823 0.0038350321225010925 0 0.015852647332904649 0.0027433694960907642 0 0.021583941590838641 0.0032790173216995329 0 0.020439731396755392 0.0019612735988539728 0 0.019299947618755399 0.0031867985598834536 0 0.019325768798798524 0.0033208155963141495 0 0.01963328182073136 0.0035906034804181336 0 0.019299947618755399 0.0031867985598834536 0 0.019325768798798524 0.0033208155963141495 0 0.019577057657373234 0.0032856345015751008 0 0.018144304184988823 0.0038350321225010925 0 0.01863507696708757 0.0045939113162428375 0 0.017078998906851481 0.0041409542670256911 0 0.019325768798798524 0.0033208155963141495 0 0.018144304184988823 0.0038350321225010925 0 0.019225399618967735 0.003982114293736929 0 0.018144304184988823 0.0038350321225010925 0 0.019225399618967735 0.003982114293736929 0 0.01863507696708757 0.0045939113162428375 0 0.01863507696708757 0.0045939113162428375 0 0.018666761053054631 0.0059328347749696723 0 0.019326004912490174 0.0048775219056252607 0 0.01863507696708757 0.0045939113162428375 0 0.016003419673295403 0.0054792481647485108 0 0.018608154738590531 0.0072846104666895676 0 0.01899294490735607 0.0059354590451673149 0 0.015357158230935145 0.0034904090122541884 0 0.019225399618967735 0.003982114293736929 0 0.01863507696708757 0.0045939113162428375 0 0.019326004912490174 0.0048775219056252607 0 0.01863507696708757 0.0045939113162428375 0 0.016003419673295403 0.0054792481647485108 0 0.017078998906851481 0.0041409542670256911 0 0.019190734915882829 0.0032363126748766258 0 0.017705720099898414 0.0031132603042213652 0 0.018144304184988823 0.0038350321225010925 0 0.017078998906851481 0.0041409542670256911 0 0.015852647332904649 0.0027433694960907642 0 0.016003419673295403 0.0054792481647485108 0 0.017078998906851481 0.0041409542670256911 0 0.015852647332904649 0.0027433694960907642 0 0.016003419673295403 0.0054792481647485108 0 0.015852647332904649 0.0027433694960907642 0 0.013170822576759019 0.0036277667815961894 0 0.017705720099898414 0.0031132603042213652 0 0.015831719893210923 0.0036223759874543819 0 0.015852647332904649 0.0027433694960907642 0 0.012778705099896917 0.0031856035233340566 0 0.013170822576759019 0.0036277667815961894 0 0.019259904245237429 0.0034834006867782877 0 0.019577057657373234 0.0032856345015751008 0 0.018931174982252264 0.004053868082424251 0 0.017465515759780659 0.0041199699269357619 0 0.018364154401363585 0.0038390097010752309 0 0.018931174982252264 0.004053868082424251 0 0.018852888243622298 0.0036462474851440651 0 0.018364154401363585 0.0038390097010752309 0 0.018931174982252264 0.004053868082424251 0 0.018852888243622298 0.0036462474851440651 0 0.019259904245237429 0.0034834006867782877 0 0.018931174982252264 0.004053868082424251 0 0.013170822576759019 0.0036277667815961894 0 0.012968399409399766 0.0033752667093080039 0 0.012992140657676891 0.0032189885277928675 0 0.012778705099896917 0.0031856035233340566 0 0.013170822576759019 0.0036277667815961894 0 0.012968399409399766 0.0033752667093080039 0 0.013089147613503094 0.0033217858005407477 0 0.012778705099896917 0.0031856035233340566 0 0.012968399409399766 0.0033752667093080039 0 0.013332231488025733 0.0030776900193689315 0 0.012992140657676891 0.0032189885277928675 0 0.012991790647909389 0.0028202710092886762 0 0.013089147613503094 0.0033217858005407477 0 0.012968399409399766 0.0033752667093080039 0 0.012992140657676891 0.0032189885277928675 0 0.013170822576759019 0.0036277667815961894 0 0.012992140657676891 0.0032189885277928675 0 0.012697367127658876 0.0031766810001978827 0 0.012992140657676891 0.0032189885277928675 0 0.012991790647909389 0.0028202710092886762 0 0.012680003312487016 0.002868081438363014 0 0.012992140657676891 0.0032189885277928675 0 0.012697367127658876 0.0031766810001978827 0 0.012680003312487016 0.002868081438363014 0 0.011789996640813778 0.0031764846832536948 0 0.012697367127658876 0.0031766810001978827 0 0.012341964433215316 0.0029271806279476649 0 0.013846261232047375 0.0044602307901249003 0 0.013177238464046642 0.0036423845583210862 0 0.011789996640813778 0.0031764846832536948 0 0.013170822576759019 0.0036277667815961894 0 0.012697367127658876 0.0031766810001978827 0 0.012697367127658876 0.0031766810001978827 0 0.012341964433215316 0.0029271806279476649 0 0.012680003312487016 0.002868081438363014 0 0.011789996640813778 0.0031764846832536948 0 0.012341964433215316 0.0029271806279476649 0 0.012117039609752972 0.0025233395862389505 0 0.012341964433215316 0.0029271806279476649 0 0.012117039609752972 0.0025233395862389505 0 0.012680003312487016 0.002868081438363014 0 0.012117039609752972 0.0025233395862389505 0 0.012680003312487016 0.002868081438363014 0 0.012664408717174013 0.0024403210303338366 0 0.012117039609752972 0.0025233395862389505 0 0.012664408717174013 0.0024403210303338366 0 0.012202767924847634 0.0019933176708948584 0 0.013275229037854429 0.0024031763185355507 0 0.012991790647909389 0.0028202710092886762 0 0.012664408717174013 0.0024403210303338366 0 0.012991790647909389 0.0028202710092886762 0 0.012680003312487016 0.002868081438363014 0 0.012664408717174013 0.0024403210303338366 0 0.01300217264345563 0.001489530286437281 0 0.013275229037854429 0.0024031763185355507 0 0.012666297488383108 0.0019762591533857387 0 0.013275229037854429 0.0024031763185355507 0 0.012664408717174013 0.0024403210303338366 0 0.012666297488383108 0.0019762591533857387 0 0.012664408717174013 0.0024403210303338366 0 0.012666297488383108 0.0019762591533857387 0 0.012202767924847634 0.0019933176708948584 0 0.012326200081877896 0.0015271284897083839 0 0.01300217264345563 0.001489530286437281 0 0.012666297488383108 0.0019762591533857387 0 0.012117039609752972 0.0025233395862389505 0 0.012202767924847634 0.0019933176708948584 0 0.011788954974922111 0.0020101394180121537 0 0.012326200081877896 0.0015271284897083839 0 0.012666297488383108 0.0019762591533857387 0 0.012202767924847634 0.0019933176708948584 0 0.011820623033370857 0.001559683961497833 0 0.012326200081877896 0.0015271284897083839 0 0.012202767924847634 0.0019933176708948584 0 0.011820623033370857 0.001559683961497833 0 0.012202767924847634 0.0019933176708948584 0 0.011788954974922111 0.0020101394180121537 0 0.011820623033370857 0.001559683961497833 0 0.011788954974922111 0.0020101394180121537 0 0.011352869661054036 0.0016090396675939389 0 0.011352869661054036 0.0016090396675939389 0 0.010894832162359386 0.0025238961866587543 0 0.011460367094865259 0.0023990456225964859 0 0.011788954974922111 0.0020101394180121537 0 0.011352869661054036 0.0016090396675939389 0 0.011460367094865259 0.0023990456225964859 0 0.013395918688136785 0.0027028058378826083 0 0.015357158230935145 0.0034904090122541884 0 0.011352869661054036 0.0016090396675939389 0 0.010935402210035168 0.0015825975754035063 0 0.010994733477904795 0.0023679028679545315 0 0.010323334776259553 0.0016931543144149831 0 0.015357158230935145 0.0034904090122541884 0 0.01573569578413022 0.0041195605208379062 0 0.015735403689297076 0.0018392374186776903 0 0.017358760044475324 0.0027923306065942514 0 0.015357158230935145 0.0034904090122541884 0 0.017728221988217434 0.0030108732596569052 0 0.016925073803673283 0.002519289836603197 0 0.01784488173219767 0.002245504436818493 0 0.017566341949266224 0.0014117917069605521 0 0.015357158230935145 0.0034904090122541884 0 0.018430219315072587 0.0031735891664621623 0 0.013846261232047375 0.0044602307901249003 0 0.015357158230935145 0.0034904090122541884 0 0.011789996640813778 0.0031764846832536948 0 0.010894832162359386 0.0025238961866587543 0 0.011460367094865259 0.0023990456225964859 0 0.011789996640813778 0.0031764846832536948 0 0.012117039609752972 0.0025233395862389505 0 0.011460367094865259 0.0023990456225964859 0 0.012117039609752972 0.0025233395862389505 0 0.011788954974922111 0.0020101394180121537 0 0.011460367094865259 0.0023990456225964859 0 0.018997728733712665 0.0026874219778771397 0 0.019880579012653915 0.0036888688306129444 0 0.020107329247664247 0.0024391232761206845 0 0.018997728733712665 0.0026874219778771397 0 0.020107329247664247 0.0024391232761206845 0 0.019568653871264649 0.0015880061690312949 0 0.018997728733712665 0.0026874219778771397 0 0.019568653871264649 0.0015880061690312949 0 0.01857355631387916 0.0017381442824051473 0 0.018997728733712665 0.0026874219778771397 0 0.01784488173219767 0.002245504436818493 0 0.018007837601797784 0.0031608039520863102 0 0.018997728733712665 0.0026874219778771397 0 0.01784488173219767 0.002245504436818493 0 0.01857355631387916 0.0017381442824051473 0 0.016925073803673283 0.002519289836603197 0 0.01784488173219767 0.002245504436818493 0 0.018007837601797784 0.0031608039520863102 0 0.017728221988217434 0.0030108732596569052 0 0.018795696811533757 0.0037927420524977982 0 0.01573569578413022 0.0041195605208379062 0 0.017358760044475324 0.0027923306065942514 0 0.017776050857991131 0.0038868391936066854 0 0.017358760044475324 0.0027923306065942514 0 0.017776050857991131 0.0038868391936066854 0 0.018928390663462771 0.0039125112343504232 0 0.018997728733712665 0.0026874219778771397 0 0.018928390663462771 0.0039125112343504232 0 0.019880579012653915 0.0036888688306129444 0 0.017908845583801031 0.0049990279504981399 0 0.018928390663462771 0.0039125112343504232 0 0.019880579012653915 0.0036888688306129444 0 0.018997728733712665 0.0026874219778771397 0 0.018007837601797784 0.0031608039520863102 0 0.018928390663462771 0.0039125112343504232 0 0.012941123646427325 0.001978809825520894 0 0.016081854228745696 -0.00014913419811566161 0 0.0066926296374136742 -0.00019228729786232806 0 0.0073073330430785885 -4.5295923308784659e-05 0 0.0076735488587037588 -0.00084693704716593248 0 0.0074016150378858258 0.00015874143686788025 0 0.016081854228745696 -0.00014913419811566161 0 0.0081155779541267781 -0.00022099100798178017 0 0.0088869978648611677 -0.0010238901288449722 0 0.0094962353802124921 -0.00018644851359922318 0 0.021280579771166843 0.0026299704225524554 0 0.020107329247664247 0.0024391232761206845 0 0.020679820726136257 0.0015889884878332967 0 0.019880579012653915 0.0036888688306129444 0 0.021280579771166843 0.0026299704225524554 0 0.020107329247664247 0.0024391232761206845 0 0.020107329247664247 0.0024391232761206845 0 0.020679820726136257 0.0015889884878332967 0 0.019568653871264649 0.0015880061690312949 0 0.020679820726136257 0.0015889884878332967 0 0.019677521028006927 0.0004414012135937087 0 0.019568653871264649 0.0015880061690312949 0 0.020714806326568323 0.0015872679003074792 0 0.019913525893791983 0.00050758764810921559 0 0.020679820726136257 0.0015889884878332967 0 0.021667275993409011 0.0011888513520064464 0 0.021000947509342262 0.00080385519377559921 0 0.021280579771166843 0.0026299704225524554 0 0.020679820726136257 0.0015889884878332967 0 0.021667275993409011 0.0011888513520064464 0 0.016081854228745696 -0.00014913419811566161 0 0.024661677619455709 -0.00022727834841240071 0 0.021667275993409011 0.0011888513520064464 0 0.021474048792326991 0.00055832236654177055 0 0.021000947509342262 0.00080385519377559921 0 0.021474048792326991 0.00055832236654177055 0 0.021000947509342262 0.00080385519377559921 0 0.02122251787623507 0.00034766921738150526 0 0.021000947509342262 0.00080385519377559921 0 0.020732237694621854 0.00069875278940723941 0 0.020473922319298916 0.00093747179706656027 0 0.020679820726136257 0.0015889884878332967 0 0.021000947509342262 0.00080385519377559921 0 0.020473922319298916 0.00093747179706656027 0 0.021000947509342262 0.00080385519377559921 0 0.020732237694621854 0.00069875278940723941 0 0.020860573120475789 0.00047187067297518534 0 0.020732237694621854 0.00069875278940723941 0 0.020473922319298916 0.00093747179706656027 0 0.020615232757166015 0.00051699970404659075 0 0.020473922319298916 0.00093747179706656027 0 0.020433692163798488 0.00045655931875242977 0 0.020615232757166015 0.00051699970404659075 0 0.019913525893791983 0.00050758764810921559 0 0.020520059771397724 0.0010143939478453911 0 0.020473922319298916 0.00093747179706656027 0 0.020433692163798488 0.00045655931875242977 0 0.020241230085082058 0.00042629884487176562 0 0.018924891423475958 0.00027015167370232764 0 0.019677521028006927 0.0004414012135937087 0 0.018824600918996119 -0.00054630866785083498 0 0.018924891423475958 0.00027015167370232764 0 0.019677521028006927 0.0004414012135937087 0 0.018924203659880037 0.00081208474826284906 0 0.018924891423475958 0.00027015167370232764 0 0.018924203659880037 0.00081208474826284906 0 0.018296673463412089 0.0003802131768978319 0 0.019677521028006927 0.0004414012135937087 0 0.018924203659880037 0.00081208474826284906 0 0.019568653871264649 0.0015880061690312949 0 0.018924203659880037 0.00081208474826284906 0 0.019568653871264649 0.0015880061690312949 0 0.01857355631387916 0.0017381442824051473 0 0.018924203659880037 0.00081208474826284906 0 0.017566341949266224 0.0014117917069605521 0 0.018196462696285515 0.00034404840883642528 0 0.018924203659880037 0.00081208474826284906 0 0.017566341949266224 0.0014117917069605521 0 0.01857355631387916 0.0017381442824051473 0 0.01784488173219767 0.002245504436818493 0 0.017566341949266224 0.0014117917069605521 0 0.01857355631387916 0.0017381442824051473 0 0.019225399618967735 0.003982114293736929 0 0.019326004912490174 0.0048775219056252607 0 0.01963328182073136 0.0035906034804181336 0 0.018430219315072587 0.0031735891664621623 0 0.020439731396755392 0.0019612735988539728 0 0.023312861538296432 0.0028535378660108249 0 0.023598573033072084 0.0029751599312571927 0 0.023539455406050298 0.0027746432167715723 0 0.019325768798798524 0.0033208155963141495 0 0.019225399618967735 0.003982114293736929 0 0.01963328182073136 0.0035906034804181336 0 0.018350504055474243 0.00048270079698776449 0 0.020439731396755392 0.0019612735988539728 0 0.020439731396755392 0.0019612735988539728 0 0.020520059771397724 0.0010143939478453911 0 0.023598573033072084 0.0029751599312571927 0 0.023539455406050298 0.0027746432167715723 0 0.0237164560385387 0.0027836353316438188 0 0.018924891423475958 0.00027015167370232764 0 0.018296673463412089 0.0003802131768978319 0 0.018824600918996119 -0.00054630866785083498 0 0.020259543965593221 0.00017567156441245901 0 0.020274015936794142 0.00039002395015582308 0 0.020146670976965139 0.00011602423300148186 0 0.020520059771397724 0.0010143939478453911 0 0.021869581317186727 0.0013442708096383811 0 0.023539455406050298 0.0027746432167715723 0 0.0237164560385387 0.0027836353316438188 0 0.023618485478113301 0.0025962860980689654 0 0.023416997182026951 0.0026262797082168107 0 0.023539455406050298 0.0027746432167715723 0 0.023618485478113301 0.0025962860980689654 0 0.020511180525690953 0.00028227790604402799 0 0.020711183931833278 0.00029642702101752473 0 0.020615232757166015 0.00051699970404659075 0 0.020433692163798488 0.00045655931875242977 0 0.020511180525690953 0.00028227790604402799 0 0.020615232757166015 0.00051699970404659075 0 0.020433692163798488 0.00045655931875242977 0 0.020405220405323464 0.00032163863308386334 0 0.020511180525690953 0.00028227790604402799 0 0.020433692163798488 0.00045655931875242977 0 0.020241230085082058 0.00042629884487176562 0 0.020307069874686726 0.00032958460593659838 0 0.020433692163798488 0.00045655931875242977 0 0.020307069874686726 0.00032958460593659838 0 0.020405220405323464 0.00032163863308386334 0 0.020274015936794142 0.00039002395015582308 0 0.020307069874686726 0.00032958460593659838 0 0.020300358306444412 0.00027110323656988404 0 0.020520059771397724 0.0010143939478453911 0 0.020553113378311571 0.00082493285940645454 0 0.020259543965593221 0.00017567156441245901 0 0.020274015936794142 0.00039002395015582308 0 0.020300358306444412 0.00027110323656988404 0 0.020307069874686726 0.00032958460593659838 0 0.020300358306444412 0.00027110323656988404 0 0.020375044371260261 0.00022310532382701544 0 0.020259543965593221 0.00017567156441245901 0 0.020300358306444412 0.00027110323656988404 0 0.020375044371260261 0.00022310532382701544 0 0.020259543965593221 0.00017567156441245901 0 0.020375044371260261 0.00022310532382701544 0 0.020374953854616646 9.5162494372692246e-05 0 0.020375044371260261 0.00022310532382701544 0 0.020471769223736589 0.00014868416377533322 0 0.020374953854616646 9.5162494372692246e-05 0 0.020307069874686726 0.00032958460593659838 0 0.020375044371260261 0.00022310532382701544 0 0.020405220405323464 0.00032163863308386334 0 0.020375044371260261 0.00022310532382701544 0 0.020405220405323464 0.00032163863308386334 0 0.020511180525690953 0.00028227790604402799 0 0.020375044371260261 0.00022310532382701544 0 0.020511180525690953 0.00028227790604402799 0 0.020471769223736589 0.00014868416377533322 0 0.020511180525690953 0.00028227790604402799 0 0.020471769223736589 0.00014868416377533322 0 0.020635811732472049 0.00010175004943508789 0 0.020511180525690953 0.00028227790604402799 0 0.020635811732472049 0.00010175004943508789 0 0.020711183931833278 0.00029642702101752473 0 0.02259779236193514 -6.8306313550605643e-06 0 0.02269714532780135 -8.5929992481763166e-05 0 0.022111786953853397 -0.00015298691953014609 0 0.020532147955138844 -1.9952277849890232e-05 0 0.020362299546900858 -0.00011625632972990487 0 0.020720435432721056 -5.9174845507901851e-05 0 0.020635811732472049 0.00010175004943508789 0 0.020532147955138844 -1.9952277849890232e-05 0 0.020720435432721056 -5.9174845507901851e-05 0 0.020635811732472049 0.00010175004943508789 0 0.020479829118640606 6.5672841003255349e-05 0 0.020532147955138844 -1.9952277849890232e-05 0 0.020471769223736589 0.00014868416377533322 0 0.020479829118640606 6.5672841003255349e-05 0 0.020374953854616646 9.5162494372692246e-05 0 0.020471769223736589 0.00014868416377533322 0 0.020635811732472049 0.00010175004943508789 0 0.020479829118640606 6.5672841003255349e-05 0 0.020479829118640606 6.5672841003255349e-05 0 0.020532147955138844 -1.9952277849890232e-05 0 0.020400442639161492 1.9186452001033027e-06 0 0.020362299546900858 -0.00011625632972990487 0 0.020202811480533572 -3.5271908898600139e-06 0 0.020275730303309716 3.701778531629502e-05 0 0.020532147955138844 -1.9952277849890232e-05 0 0.020400442639161492 1.9186452001033027e-06 0 0.020362299546900858 -0.00011625632972990487 0 0.020479829118640606 6.5672841003255349e-05 0 0.020400442639161492 1.9186452001033027e-06 0 0.020374953854616646 9.5162494372692246e-05 0 0.020259543965593221 0.00017567156441245901 0 0.020374953854616646 9.5162494372692246e-05 0 0.020275730303309716 3.701778531629502e-05 0 0.020400442639161492 1.9186452001033027e-06 0 0.020374953854616646 9.5162494372692246e-05 0 0.020275730303309716 3.701778531629502e-05 0 0.020400442639161492 1.9186452001033027e-06 0 0.020362299546900858 -0.00011625632972990487 0 0.020275730303309716 3.701778531629502e-05 0 0.02002426611109814 -6.6516514817170622e-05 0 0.020362299546900858 -0.00011625632972990487 0 0.020202811480533572 -3.5271908898600139e-06 0 0.024090220586449638 0.00087276165064883874 0 0.021031668392699206 -0.0002106702827249839 0 0.023446064502281146 6.0768110664928262e-05 0 0.02259779236193514 -6.8306313550605643e-06 0 0.02269714532780135 -8.5929992481763166e-05 0 0.024090220586449638 0.00087276165064883874 0 0.025183164855964647 0.00033842390652983175 0 0.024090220586449638 0.00087276165064883874 0 0.021869581317186727 0.0013442708096383811 0 0.02002426611109814 -6.6516514817170622e-05 0 0.020146670976965139 0.00011602423300148186 0 0.020202811480533572 -3.5271908898600139e-06 0 0.023474168171012545 0.0023003569917287442 0 0.023416997182026951 0.0026262797082168107 0 0.023618485478113301 0.0025962860980689654 0 0.020146670976965139 0.00011602423300148186 0 0.020202811480533572 -3.5271908898600139e-06 0 0.020275730303309716 3.701778531629502e-05 0 0.020259543965593221 0.00017567156441245901 0 0.020146670976965139 0.00011602423300148186 0 0.020275730303309716 3.701778531629502e-05 0 0.026524380694042182 0.00048673751656245844 0 0.026439076251289183 0.00090139171171780641 0 0.027354594715800481 0.00080168253641145807 0 0.026524380694042182 0.00048673751656245844 0 0.027354594715800481 0.00080168253641145807 0 0.026853826973722104 0.00025177783484451238 0 0.027354594715800481 0.00080168253641145807 0 0.027319740150296035 0.00014051966798109874 0 0.026853826973722104 0.00025177783484451238 0 0.027354594715800481 0.00080168253641145807 0 0.027319740150296035 0.00014051966798109874 0 0.027756486800906952 0.00037480384587235024 0 0.027319740150296035 0.00014051966798109874 0 0.027802676397991895 8.8944164146088534e-05 0 0.027429459349873449 -0.0001888861961896856 0 0.027319740150296035 0.00014051966798109874 0 0.026736362124104303 -0.00014092198783807004 0 0.026974156982490491 -0.00039697250497080833 0 0.026314601854754829 -0.00012482880288859112 0 0.026524380694042182 0.00048673751656245844 0 0.026853826973722104 0.00025177783484451238 0 0.026314601854754829 -0.00012482880288859112 0 0.026853826973722104 0.00025177783484451238 0 0.026736362124104303 -0.00014092198783807004 0 0.027319740150296035 0.00014051966798109874 0 0.026853826973722104 0.00025177783484451238 0 0.026736362124104303 -0.00014092198783807004 0 0.028107485533883234 0.00027640675818306639 0 0.027802676397991895 8.8944164146088534e-05 0 0.028097445852083805 9.3103778642913692e-06 0 0.028107485533883234 0.00027640675818306639 0 0.028257931382658929 0.00028655619945627375 0 0.028343520440167691 0.00030491893066846183 0 0.028107485533883234 0.00027640675818306639 0 0.028343520440167691 0.00030491893066846183 0 0.028097445852083805 9.3103778642913692e-06 0 0.027319740150296035 0.00014051966798109874 0 0.027802676397991895 8.8944164146088534e-05 0 0.027756486800906952 0.00037480384587235024 0 0.028107485533883234 0.00027640675818306639 0 0.027802676397991895 8.8944164146088534e-05 0 0.027756486800906952 0.00037480384587235024 0 0.027354594715800481 0.00080168253641145807 0 0.027756486800906952 0.00037480384587235024 0 0.028107366276160384 0.00054542456687526599 0 0.028107485533883234 0.00027640675818306639 0 0.028107366276160384 0.00054542456687526599 0 0.028257931382658929 0.00028655619945627375 0 0.028107485533883234 0.00027640675818306639 0 0.027756486800906952 0.00037480384587235024 0 0.028107366276160384 0.00054542456687526599 0 0.0219630369675584 -6.9379976630856198e-05 0 0.022111786953853397 -0.00015298691953014609 0 0.021842917548479869 -0.00014371701890268887 0 0.021689906181200806 -0.00016367435674893052 0 0.021772066852097666 -0.0001583696563336754 0 0.021322081814343356 6.4724988153017581e-05 0 0.021020960716390289 -0.00022884767126028863 0 0.021842917548479869 -0.00014371701890268887 0 0.021322081814343356 6.4724988153017581e-05 0 0.021557372941643754 0.0002466228583190004 0 0.021842917548479869 -0.00014371701890268887 0 0.025183164855964647 0.00033842390652983175 0 0.024915914325476091 0.00024150878276375779 0 0.021031668392699206 -0.0002106702827249839 0 0.021689906181200806 -0.00016367435674893052 0 0.02259779236193514 -6.8306313550605643e-06 0 0.0219630369675584 -6.9379976630856198e-05 0 0.022111786953853397 -0.00015298691953014609 0 0.020362299546900858 -0.00011625632972990487 0 0.021020960716390289 -0.00022884767126028863 0 0.020720435432721056 -5.9174845507901851e-05 0 0.021020960716390289 -0.00022884767126028863 0 0.020720435432721056 -5.9174845507901851e-05 0 0.020918528680757862 0.00013968425068101338 0 0.021322081814343356 6.4724988153017581e-05 0 0.021020960716390289 -0.00022884767126028863 0 0.020918528680757862 0.00013968425068101338 0 0.020635811732472049 0.00010175004943508789 0 0.020720435432721056 -5.9174845507901851e-05 0 0.020918528680757862 0.00013968425068101338 0 0.020711183931833278 0.00029642702101752473 0 0.020918528680757862 0.00013968425068101338 0 0.020860573120475789 0.00047187067297518534 0 0.020635811732472049 0.00010175004943508789 0 0.020711183931833278 0.00029642702101752473 0 0.020918528680757862 0.00013968425068101338 0 0.020918528680757862 0.00013968425068101338 0 0.020860573120475789 0.00047187067297518534 0 0.02122251787623507 0.00034766921738150526 0 0.021000947509342262 0.00080385519377559921 0 0.020860573120475789 0.00047187067297518534 0 0.02122251787623507 0.00034766921738150526 0 0.020711183931833278 0.00029642702101752473 0 0.020860573120475789 0.00047187067297518534 0 0.020615232757166015 0.00051699970404659075 0 0.020732237694621854 0.00069875278940723941 0 0.020860573120475789 0.00047187067297518534 0 0.020615232757166015 0.00051699970404659075 0 0.021322081814343356 6.4724988153017581e-05 0 0.021557372941643754 0.0002466228583190004 0 0.02122251787623507 0.00034766921738150526 0 0.021322081814343356 6.4724988153017581e-05 0 0.020918528680757862 0.00013968425068101338 0 0.02122251787623507 0.00034766921738150526 0 0.021474048792326991 0.00055832236654177055 0 0.021557372941643754 0.0002466228583190004 0 0.02191012843696467 0.00027206271249637619 0 0.021474048792326991 0.00055832236654177055 0 0.021557372941643754 0.0002466228583190004 0 0.02122251787623507 0.00034766921738150526 0 0.021557372941643754 0.0002466228583190004 0 0.02191012843696467 0.00027206271249637619 0 0.021842917548479869 -0.00014371701890268887 0 0.025733774469114484 -0.00059693078977355143 0 0.025282721202828949 -0.00032220044862861004 0 0.025429777784680294 -0.0011982445750877621 0 0.025282721202828949 -0.00032220044862861004 0 0.025587905518501701 -7.0254905324022761e-05 0 0.025936118590171611 -1.0792446688436275e-05 0 0.025733774469114484 -0.00059693078977355143 0 0.025282721202828949 -0.00032220044862861004 0 0.025587905518501701 -7.0254905324022761e-05 0 0.02191012843696467 0.00027206271249637619 0 0.021842917548479869 -0.00014371701890268887 0 0.021913846811644561 -0.00024022689814454771 0 0.02346918711252572 -3.4797282220380894e-05 0 0.025314238049868033 -0.00027463566985631247 0 0.0219630369675584 -6.9379976630856198e-05 0 0.021842917548479869 -0.00014371701890268887 0 0.021913846811644561 -0.00024022689814454771 0 0.028107366276160384 0.00054542456687526599 0 0.028257931382658929 0.00028655619945627375 0 0.02820872119727684 -8.34981599092538e-05 0 0.024915914325476091 0.00024150878276375779 0 0.025314238049868033 -0.00027463566985631247 0 0.028257931382658929 0.00028655619945627375 0 0.028176377765320518 0.00035244693714446752 0 0.02820872119727684 -8.34981599092538e-05 0 0.02820872119727684 -8.34981599092538e-05 0 0.027570197546222884 0.00024061938550741193 0 0.025936118590171611 -1.0792446688436275e-05 0 0.025314238049868033 -0.00027463566985631247 0 0.026613386698251851 -8.9090066724814817e-06 0 0.027570197546222884 0.00024061938550741193 0 0.027543020389695375 0.00038165089639573496 0 0.025936118590171611 -1.0792446688436275e-05 0 0.028176377765320518 0.00035244693714446752 0 0.02820872119727684 -8.34981599092538e-05 0 0.027570197546222884 0.00024061938550741193 0 0.028176377765320518 0.00035244693714446752 0 0.027570197546222884 0.00024061938550741193 0 0.027543020389695375 0.00038165089639573496 0 0.028176377765320518 0.00035244693714446752 0 0.027543020389695375 0.00038165089639573496 0 0.028307968373438804 0.00045323428778458306 0 0.027543020389695375 0.00038165089639573496 0 0.028307968373438804 0.00045323428778458306 0 0.027978733688975858 0.00045553690384966903 0 0.028307968373438804 0.00045323428778458306 0 0.027978733688975858 0.00045553690384966903 0 0.028812325456484527 0.00041206405381566955 0 0.028257931382658929 0.00028655619945627375 0 0.028176377765320518 0.00035244693714446752 0 0.028343520440167691 0.00030491893066846183 0 0.028307968373438804 0.00045323428778458306 0 0.028343520440167691 0.00030491893066846183 0 0.028601227976348429 0.0002696519986906343 0 0.028176377765320518 0.00035244693714446752 0 0.028307968373438804 0.00045323428778458306 0 0.028343520440167691 0.00030491893066846183 0 0.027173265072870569 3.8357696338925938e-07 0 0.026714758189705139 0.00025580174361489313 0 0.028437210487605391 0.00043590071754558488 0 0.026714758189705139 0.00025580174361489313 0 0.027978733688975858 0.00045553690384966903 0 0.028437210487605391 0.00043590071754558488 0 0.027543020389695375 0.00038165089639573496 0 0.026714758189705139 0.00025580174361489313 0 0.027978733688975858 0.00045553690384966903 0 0.027543020389695375 0.00038165089639573496 0 0.026714758189705139 0.00025580174361489313 0 0.025936118590171611 -1.0792446688436275e-05 0 0.027173265072870569 3.8357696338925938e-07 0 0.026714758189705139 0.00025580174361489313 0 0.024179412044820207 1.4545484340864119e-06 0 0.026714758189705139 0.00025580174361489313 0 0.025936118590171611 -1.0792446688436275e-05 0 0.024179412044820207 1.4545484340864119e-06 0 0.025936118590171611 -1.0792446688436275e-05 0 0.024179412044820207 1.4545484340864119e-06 0 0.024128992631699094 -3.2388357754788376e-06 0 0.024179412044820207 1.4545484340864119e-06 0 0.024128992631699094 -3.2388357754788376e-06 0 0.021194497613945529 -3.8575313534817437e-06 0 0.025282721202828949 -0.00032220044862861004 0 0.025936118590171611 -1.0792446688436275e-05 0 0.024128992631699094 -3.2388357754788376e-06 0 0.025282721202828949 -0.00032220044862861004 0 0.024128992631699094 -3.2388357754788376e-06 0 0.024579481923721034 -0.0016175061363631503 0 0.024128992631699094 -3.2388357754788376e-06 0 0.021194497613945529 -3.8575313534817437e-06 0 0.024579481923721034 -0.0016175061363631503 0 0.021182987471029736 -3.7779549085181449e-06 0 0.018345997545815659 -3.5556372079839042e-07 0 0.015414843731029658 -0.0015799406712678884 0 0.021186715016721466 -2.3755552714367817e-07 0 0.019767740402742012 -0.0013407557512426025 0 0.018345997545815659 -3.5556372079839042e-07 0 0.015414843731029658 -0.0015799406712678884 0 0.01365993160639521 -0.00029371832870139623 0 0.025282721202828949 -0.00032220044862861004 0 0.024579481923721034 -0.0016175061363631503 0 0.025429777784680294 -0.0011982445750877621 0 0.024579481923721034 -0.0016175061363631503 0 0.025429777784680294 -0.0011982445750877621 0 0.025438074744360065 -0.0016516901372132474 0 0.024661677619455709 -0.00022727834841240071 0 0.02346918711252572 -3.4797282220380894e-05 0 0.025714042518265409 -0.0014730286807149678 0 0.025733774469114484 -0.00059693078977355143 0 0.025429777784680294 -0.0011982445750877621 0 0.021667275993409011 0.0011888513520064464 0 0.021474048792326991 0.00055832236654177055 0 0.02191012843696467 0.00027206271249637619 0 0.025605781875272765 -0.0017189025864892925 0 0.025714042518265409 -0.0014730286807149678 0 0.025438074744360065 -0.0016516901372132474 0 0.025714042518265409 -0.0014730286807149678 0 0.025429777784680294 -0.0011982445750877621 0 0.025438074744360065 -0.0016516901372132474 0 0.015414843731029658 -0.0015799406712678884 0 0.011461221970926271 -0.0016237340980296629 0 0.01365993160639521 -0.00029371832870139623 0 0.019767740402742012 -0.0013407557512426025 0 0.018700694298452981 -0.0018396375265653029 0 0.011461221970926271 -0.0016237340980296629 0 0.011902076150349983 -0.00063423129811510592 0 0.01365993160639521 -0.00029371832870139623 0 0.011902076150349983 -0.00063423129811510592 0 0.01083827004557354 -0.00013331718747651086 0 0.01365993160639521 -0.00029371832870139623 0 0.011902076150349983 -0.00063423129811510592 0 0.010502744121672382 -0.00068106244876717746 0 0.01083827004557354 -0.00013331718747651086 0 0.011461221970926271 -0.0016237340980296629 0 0.011902076150349983 -0.00063423129811510592 0 0.010502744121672382 -0.00068106244876717746 0 0.0088869978648611677 -0.0010238901288449722 0 0.011461221970926271 -0.0016237340980296629 0 0.010502744121672382 -0.00068106244876717746 0 0.016081854228745696 -0.00014913419811566161 0 0.018700694298452981 -0.0018396375265653029 0 0.0088869978648611677 -0.0010238901288449722 0 0.010502744121672382 -0.00068106244876717746 0 0.0094962353802124921 -0.00018644851359922318 0 0.010502744121672382 -0.00068106244876717746 0 0.0094962353802124921 -0.00018644851359922318 0 0.01083827004557354 -0.00013331718747651086 0 0.010012174248138989 0.00026370704591737604 0 0.0094962353802124921 -0.00018644851359922318 0 0.01083827004557354 -0.00013331718747651086 0 0.01187601112620461 0.00026129180077210626 0 0.01083827004557354 -0.00013331718747651086 0 0.01365993160639521 -0.00029371832870139623 0 0.01187601112620461 0.00026129180077210626 0 0.01550483052203698 1.0316240651962284e-07 0 0.01365993160639521 -0.00029371832870139623 0 0.012664756712641162 6.6826030820896359e-07 0 0.01187601112620461 0.00026129180077210626 0 0.01550483052203698 1.0316240651962284e-07 0 0.018345997545815659 -3.5556372079839042e-07 0 0.01550483052203698 1.0316240651962284e-07 0 0.01365993160639521 -0.00029371832870139623 0 0.039234532492770348 0.00018383082052176661 0 0.036971822812667997 0.0003539767225063959 0 0.037139009996351086 0.00021010684698560432 0 0.038549114642787125 4.3030165553887628e-07 0 0.039234532492770348 0.00018383082052176661 0 0.037139009996351086 0.00021010684698560432 0 0.041244798388845344 2.4842861697803328e-07 0 0.039234532492770348 0.00018383082052176661 0 0.040804424181264093 -2.0965968218017779e-06 0 0.038549114642787125 4.3030165553887628e-07 0 0.041244798388845344 2.4842861697803328e-07 0 0.039234532492770348 0.00018383082052176661 0 0.039234532492770348 0.00018383082052176661 0 0.039124186328003782 0.00012189929456533594 0 0.036971822812667997 0.0003539767225063959 0 0.039234532492770348 0.00018383082052176661 0 0.039124186328003782 0.00012189929456533594 0 0.040804424181264093 -2.0965968218017779e-06 0 0.03800371234055646 -0.001629325517296642 0 0.038015315004176417 -0.002168066940878437 0 0.038130366001098703 -0.0017285309539987039 0 0.037983971548246391 -0.0016458689694771433 0 0.038087233430182353 -0.0019477275852580458 0 0.038278036420421338 -0.00097420622723506315 0 0.038096115144233562 -0.00023132468317862769 0 0.038337647077961369 -0.0018940666066262282 0 0.038130366001098703 -0.0017285309539987039 0 0.038087233430182353 -0.0019477275852580458 0 0.038337647077961369 -0.0018940666066262282 0 0.038130366001098703 -0.0017285309539987039 0 0.038127812061554078 -0.0014038000364507486 0 0.037723909812138273 -0.0019472595780041823 0 0.037983971548246391 -0.0016458689694771433 0 0.037543166778069847 -0.0016197650578591847 0 0.037723909812138273 -0.0019472595780041823 0 0.037983971548246391 -0.0016458689694771433 0 0.038066524929032106 -0.0021064859636082136 0 0.03350010148538405 -0.0016579869600258084 0 0.032635498252376494 -0.0027414847564285858 0 0.037983971548246391 -0.0016458689694771433 0 0.037747438214678637 -0.0012328871998342674 0 0.037543166778069847 -0.0016197650578591847 0 0.038130366001098703 -0.0017285309539987039 0 0.037983971548246391 -0.0016458689694771433 0 0.038127812061554078 -0.0014038000364507486 0 0.037983971548246391 -0.0016458689694771433 0 0.038127812061554078 -0.0014038000364507486 0 0.037747438214678637 -0.0012328871998342674 0 0.038127812061554078 -0.0014038000364507486 0 0.037747438214678637 -0.0012328871998342674 0 0.037898663275559991 -0.00086891333108592096 0 0.036971822812667997 0.0003539767225063959 0 0.03558806154501544 0.00012912674283647763 0 0.035324797830627273 0.00021066691491317038 0 0.038096115144233562 -0.00023132468317862769 0 0.033150676230041295 -0.0015962750819404972 0 0.029249280483143233 -0.0018403250137104291 0 0.028817713733200388 -0.0014929993053282014 0 0.028414342774765761 -0.0017650860579734814 0 0.03350010148538405 -0.0016579869600258084 0 0.033150676230041295 -0.0015962750819404972 0 0.029004153928901367 -0.0024041139836001239 0 0.029249280483143233 -0.0018403250137104291 0 0.028414342774765761 -0.0017650860579734814 0 0.03558806154501544 0.00012912674283647763 0 0.035324797830627273 0.00021066691491317038 0 0.034526022594603557 -0.00019803197410689762 0 0.036971822812667997 0.0003539767225063959 0 0.035324797830627273 0.00021066691491317038 0 0.037139009996351086 0.00021010684698560432 0 0.035324797830627273 0.00021066691491317038 0 0.037139009996351086 0.00021010684698560432 0 0.0358521231580365 8.4233617664280802e-07 0 0.038549114642787125 4.3030165553887628e-07 0 0.037139009996351086 0.00021010684698560432 0 0.0358521231580365 8.4233617664280802e-07 0 0.035324797830627273 0.00021066691491317038 0 0.0358521231580365 8.4233617664280802e-07 0 0.033159388704217377 -1.5213954180728455e-06 0 0.035324797830627273 0.00021066691491317038 0 0.033159388704217377 -1.5213954180728455e-06 0 0.033780662824924201 -0.00021340713521898663 0 0.033159388704217377 -1.5213954180728455e-06 0 0.033780662824924201 -0.00021340713521898663 0 0.032805044170045129 -0.00045011495334990634 0 0.035324797830627273 0.00021066691491317038 0 0.033780662824924201 -0.00021340713521898663 0 0.034526022594603557 -0.00019803197410689762 0 0.033780662824924201 -0.00021340713521898663 0 0.031624391812130767 -0.0007945622834248763 0 0.034526022594603557 -0.00019803197410689762 0 0.033780662824924201 -0.00021340713521898663 0 0.031624391812130767 -0.0007945622834248763 0 0.032805044170045129 -0.00045011495334990634 0 0.031624391812130767 -0.0007945622834248763 0 0.032805044170045129 -0.00045011495334990634 0 0.032085458086412666 -0.00040242993980176228 0 0.033155669654980437 1.3722597858944855e-07 0 0.030939351513003515 -0.0001786478510292837 0 0.033155336376010335 -7.052639095398268e-07 0 0.029947044402809056 -5.6590113952179553e-05 0 0.030163322835197397 5.6531658808107486e-07 0 0.033159388704217377 -1.5213954180728455e-06 0 0.032805044170045129 -0.00045011495334990634 0 0.032085458086412666 -0.00040242993980176228 0 0.029947044402809056 -5.6590113952179553e-05 0 0.030163322835197397 5.6531658808107486e-07 0 0.028437210487605391 0.00043590071754558488 0 0.031624391812130767 -0.0007945622834248763 0 0.030004873655241973 7.0629997541430729e-05 0 0.02935470495791891 2.8404822570879068e-05 0 0.031624391812130767 -0.0007945622834248763 0 0.032085458086412666 -0.00040242993980176228 0 0.030004873655241973 7.0629997541430729e-05 0 0.032085458086412666 -0.00040242993980176228 0 0.030004873655241973 7.0629997541430729e-05 0 0.028437210487605391 0.00043590071754558488 0 0.030004873655241973 7.0629997541430729e-05 0 0.028437210487605391 0.00043590071754558488 0 0.028812325456484527 0.00041206405381566955 0 0.027978733688975858 0.00045553690384966903 0 0.028437210487605391 0.00043590071754558488 0 0.028812325456484527 0.00041206405381566955 0 0.030939351513003515 -0.0001786478510292837 0 0.02889469103574098 0.00036059127440247595 0 0.027173265072870569 3.8357696338925938e-07 0 0.030163322835197397 5.6531658808107486e-07 0 0.028437210487605391 0.00043590071754558488 0 0.028384514990422244 2.955030602943201e-05 0 0.028601227976348429 0.0002696519986906343 0 0.028877862252270885 -0.00026271103945992323 0 0.028343520440167691 0.00030491893066846183 0 0.028384514990422244 2.955030602943201e-05 0 0.028601227976348429 0.0002696519986906343 0 0.028307968373438804 0.00045323428778458306 0 0.028601227976348429 0.0002696519986906343 0 0.028812325456484527 0.00041206405381566955 0 0.030004873655241973 7.0629997541430729e-05 0 0.028812325456484527 0.00041206405381566955 0 0.02935470495791891 2.8404822570879068e-05 0 0.028601227976348429 0.0002696519986906343 0 0.02935470495791891 2.8404822570879068e-05 0 0.028877862252270885 -0.00026271103945992323 0 0.028601227976348429 0.0002696519986906343 0 0.028812325456484527 0.00041206405381566955 0 0.02935470495791891 2.8404822570879068e-05 0 0.031624391812130767 -0.0007945622834248763 0 0.02935470495791891 2.8404822570879068e-05 0 0.029687224133138006 -0.00085676839941922235 0 0.02935470495791891 2.8404822570879068e-05 0 0.028877862252270885 -0.00026271103945992323 0 0.029687224133138006 -0.00085676839941922235 0 0.028384514990422244 2.955030602943201e-05 0 0.028877862252270885 -0.00026271103945992323 0 0.028643865459613584 -0.0013643302809063834 0 0.028384514990422244 2.955030602943201e-05 0 0.028912630323120317 -0.00099779987897635259 0 0.028165258464152177 -0.00035428380491274718 0 0.02856384339473134 5.6979937785408862e-05 0 0.028226983870246244 -0.0014540832282819696 0 0.028877862252270885 -0.00026271103945992323 0 0.028643865459613584 -0.0013643302809063834 0 0.029687224133138006 -0.00085676839941922235 0 0.028912630323120317 -0.00099779987897635259 0 0.028817713733200388 -0.0014929993053282014 0 0.028357811996867689 -0.00097955924199657173 0 0.028643865459613584 -0.0013643302809063834 0 0.029687224133138006 -0.00085676839941922235 0 0.030299119063976632 -0.0026434486058789699 0 0.031988207721686195 -0.00073100215309404126 0 0.032297256689545827 -0.0014102369154353337 0 0.031624391812130767 -0.0007945622834248763 0 0.029687224133138006 -0.00085676839941922235 0 0.030299119063976632 -0.0026434486058789699 0 0.029424352806752149 -0.0043148328262423491 0 0.028643865459613584 -0.0013643302809063834 0 0.030299119063976632 -0.0026434486058789699 0 0.033150676230041295 -0.0015962750819404972 0 0.032297256689545827 -0.0014102369154353337 0 0.029249280483143233 -0.0018403250137104291 0 0.028912630323120317 -0.00099779987897635259 0 0.028817713733200388 -0.0014929993053282014 0 0.033150676230041295 -0.0015962750819404972 0 0.028226983870246244 -0.0014540832282819696 0 0.028817713733200388 -0.0014929993053282014 0 0.028357811996867689 -0.00097955924199657173 0 0.028414342774765761 -0.0017650860579734814 0 0.027908067323822245 -0.0010947142652256139 0 0.028357811996867689 -0.00097955924199657173 0 0.028414342774765761 -0.0017650860579734814 0 0.027908067323822245 -0.0010947142652256139 0 0.027494005640743592 -0.0017866945238272851 0 0.028414342774765761 -0.0017650860579734814 0 0.027908067323822245 -0.0010947142652256139 0 0.028357811996867689 -0.00097955924199657173 0 0.028165258464152177 -0.00035428380491274718 0 0.028912630323120317 -0.00099779987897635259 0 0.028357811996867689 -0.00097955924199657173 0 0.028165258464152177 -0.00035428380491274718 0 0.027657072419340775 -0.0013101027623057732 0 0.028165258464152177 -0.00035428380491274718 0 0.027659160994989059 -0.00038275123414570594 0 0.027780559652565647 -0.0011791822283230716 0 0.028166404104502298 -0.00040498215645143082 0 0.027802676397991895 8.8944164146088534e-05 0 0.027659160994989059 -0.00038275123414570594 0 0.027429459349873449 -0.0001888861961896856 0 0.028165258464152177 -0.00035428380491274718 0 0.027659160994989059 -0.00038275123414570594 0 0.028097445852083805 9.3103778642913692e-06 0 0.027802676397991895 8.8944164146088534e-05 0 0.027659160994989059 -0.00038275123414570594 0 0.028097445852083805 9.3103778642913692e-06 0 0.028343520440167691 0.00030491893066846183 0 0.028384514990422244 2.955030602943201e-05 0 0.028097445852083805 9.3103778642913692e-06 0 0.028384514990422244 2.955030602943201e-05 0 0.028165258464152177 -0.00035428380491274718 0 0.028097445852083805 9.3103778642913692e-06 0 0.026736362124104303 -0.00014092198783807004 0 0.026974156982490491 -0.00039697250497080833 0 0.026287993803931931 -0.00059545205893260229 0 0.027319740150296035 0.00014051966798109874 0 0.026974156982490491 -0.00039697250497080833 0 0.027429459349873449 -0.0001888861961896856 0 0.027659160994989059 -0.00038275123414570594 0 0.027429459349873449 -0.0001888861961896856 0 0.027222145416134772 -0.00064651629191809037 0 0.026974156982490491 -0.00039697250497080833 0 0.027429459349873449 -0.0001888861961896856 0 0.027222145416134772 -0.00064651629191809037 0 0.027657072419340775 -0.0013101027623057732 0 0.027222145416134772 -0.00064651629191809037 0 0.026867066112406079 -0.00099655747783782673 0 0.027657072419340775 -0.0013101027623057732 0 0.027659160994989059 -0.00038275123414570594 0 0.027222145416134772 -0.00064651629191809037 0 0.026974156982490491 -0.00039697250497080833 0 0.026867066112406079 -0.00099655747783782673 0 0.026287993803931931 -0.00059545205893260229 0 0.026974156982490491 -0.00039697250497080833 0 0.027222145416134772 -0.00064651629191809037 0 0.026867066112406079 -0.00099655747783782673 0 0.027657072419340775 -0.0013101027623057732 0 0.026790434978079498 -0.0015544108524817863 0 0.027207229138490711 -0.0019776441175615458 0 0.027657072419340775 -0.0013101027623057732 0 0.026867066112406079 -0.00099655747783782673 0 0.026790434978079498 -0.0015544108524817863 0 0.027780559652565647 -0.0011791822283230716 0 0.027347219072726848 -0.001895623538352463 0 0.026790434978079498 -0.0015544108524817863 0 0.027207229138490711 -0.0019776441175615458 0 0.026679242849811539 -0.0020242704686690431 0 0.026941050121553664 -0.0025650286854049203 0 0.027207229138490711 -0.0019776441175615458 0 0.026679242849811539 -0.0020242704686690431 0 0.026941050121553664 -0.0025650286854049203 0 0.027509514378981637 -0.002526170402764337 0 0.027494005640743592 -0.0017866945238272851 0 0.02695072155301589 -0.0025338744694353831 0 0.027347219072726848 -0.001895623538352463 0 0.026941050121553664 -0.0025650286854049203 0 0.027509514378981637 -0.002526170402764337 0 0.026931371096557435 -0.002711765151612402 0 0.027509514378981637 -0.002526170402764337 0 0.027494005640743592 -0.0017866945238272851 0 0.028163403407741594 -0.0024310415169113745 0 0.027494005640743592 -0.0017866945238272851 0 0.028414342774765761 -0.0017650860579734814 0 0.028163403407741594 -0.0024310415169113745 0 0.029004153928901367 -0.0024041139836001239 0 0.028414342774765761 -0.0017650860579734814 0 0.028163403407741594 -0.0024310415169113745 0 0.028771784280164914 -0.0029796564955429546 0 0.02777065990881275 -0.003141421348559807 0 0.028536643163606226 -0.0035538602623957772 0 0.028163403407741594 -0.0024310415169113745 0 0.028771784280164914 -0.0029796564955429546 0 0.02777065990881275 -0.003141421348559807 0 0.029004153928901367 -0.0024041139836001239 0 0.028163403407741594 -0.0024310415169113745 0 0.028771784280164914 -0.0029796564955429546 0 0.037723909812138273 -0.0019472595780041823 0 0.037543166778069847 -0.0016197650578591847 0 0.037313881221422797 -0.0020635824739759327 0 0.032635498252376494 -0.0027414847564285858 0 0.037557686229238371 -0.0018419026991760227 0 0.044220253975052595 3.9858206771590133e-07 0 0.043782100353270681 0.00124136250065786 0 0.042513225370817469 0.0010099099435496668 0 0.035554822382942296 -0.0013867345009658557 0 0.037557686229238371 -0.0018419026991760227 0 0.044220253975052595 3.9858206771590133e-07 0 0.045174333412296694 0.0012314444846164361 0 0.043782100353270681 0.00124136250065786 0 0.045542855049699411 0.00020571060518371763 0 0.046720521360786943 0.00059258473658289033 0 0.045174333412296694 0.0012314444846164361 0 0.044220253975052595 3.9858206771590133e-07 0 0.045542855049699411 0.00020571060518371763 0 0.045174333412296694 0.0012314444846164361 0 0.044220253975052595 3.9858206771590133e-07 0 0.045542855049699411 0.00020571060518371763 0 0.045900842047592212 -0.00092601316394949216 0 0.035554822382942296 -0.0013867345009658557 0 0.036506890801359659 -0.0018594793500938671 0 0.027509514378981637 -0.002526170402764337 0 0.02777065990881275 -0.003141421348559807 0 0.026931371096557435 -0.002711765151612402 0 0.027509514378981637 -0.002526170402764337 0 0.028163403407741594 -0.0024310415169113745 0 0.02777065990881275 -0.003141421348559807 0 0.045900842047592212 -0.00092601316394949216 0 0.047342504127323645 -0.0005681445461908377 0 0.046720521360786943 0.00059258473658289033 0 0.045542855049699411 0.00020571060518371763 0 0.045900842047592212 -0.00092601316394949216 0 0.046720521360786943 0.00059258473658289033 0 0.047342504127323645 -0.0005681445461908377 0 0.046720521360786943 0.00059258473658289033 0 0.048430613072744717 0.00083002439990331972 0 0.048430613072744717 0.00083002439990331972 0 0.049161835996688205 0.00016127693202769696 0 0.048682806604871752 -0.000624104185260839 0 0.049161835996688205 0.00016127693202769696 0 0.049894922058011944 0.00066036437639830357 0 0.050224017436672458 -0.00064421908716159003 0 0.048430613072744717 0.00083002439990331972 0 0.049161835996688205 0.00016127693202769696 0 0.049894922058011944 0.00066036437639830357 0 0.048682806604871752 -0.000624104185260839 0 0.049286485079348685 -0.001442690866398026 0 0.050224017436672458 -0.00064421908716159003 0 0.049161835996688205 0.00016127693202769696 0 0.048682806604871752 -0.000624104185260839 0 0.050224017436672458 -0.00064421908716159003 0 0.047342504127323645 -0.0005681445461908377 0 0.048430613072744717 0.00083002439990331972 0 0.048682806604871752 -0.000624104185260839 0 0.048682806604871752 -0.000624104185260839 0 0.049286485079348685 -0.001442690866398026 0 0.047552813178040533 -0.0017484698492381029 0 0.049286485079348685 -0.001442690866398026 0 0.050365518052877305 -0.0018043341525185586 0 0.050224017436672458 -0.00064421908716159003 0 0.049286485079348685 -0.001442690866398026 0 0.049106426000042523 -0.0023733089714089764 0 0.050365518052877305 -0.0018043341525185586 0 0.049106426000042523 -0.0023733089714089764 0 0.05036207057145059 -0.0027360058358411425 0 0.050365518052877305 -0.0018043341525185586 0 0.037367360721829196 -0.0021451245110918073 0 0.036852838240922878 -0.0020110633156296001 0 0.049286485079348685 -0.001442690866398026 0 0.049106426000042523 -0.0023733089714089764 0 0.047552813178040533 -0.0017484698492381029 0 0.02557359569972328 -0.0019073936675653516 0 0.026226110317709567 -0.0023285874298215529 0 0.026174657431652763 -0.0017230593822920824 0 0.047342504127323645 -0.0005681445461908377 0 0.048682806604871752 -0.000624104185260839 0 0.047552813178040533 -0.0017484698492381029 0 0.026941050121553664 -0.0025650286854049203 0 0.026931371096557435 -0.002711765151612402 0 0.026226110317709567 -0.0023285874298215529 0 0.045900842047592212 -0.00092601316394949216 0 0.047342504127323645 -0.0005681445461908377 0 0.047552813178040533 -0.0017484698492381029 0 0.026941050121553664 -0.0025650286854049203 0 0.026226110317709567 -0.0023285874298215529 0 0.026679242849811539 -0.0020242704686690431 0 0.036506890801359659 -0.0018594793500938671 0 0.036852838240922878 -0.0020110633156296001 0 0.026226110317709567 -0.0023285874298215529 0 0.026679242849811539 -0.0020242704686690431 0 0.026174657431652763 -0.0017230593822920824 0 0.026790434978079498 -0.0015544108524817863 0 0.026174657431652763 -0.0017230593822920824 0 0.026227375435154278 -0.0012088942970301217 0 0.026790434978079498 -0.0015544108524817863 0 0.026679242849811539 -0.0020242704686690431 0 0.026174657431652763 -0.0017230593822920824 0 0.026227375435154278 -0.0012088942970301217 0 0.025844816617105186 -0.00096520720399091383 0 0.025709602747183501 -0.0013726256925602641 0 0.026174657431652763 -0.0017230593822920824 0 0.026227375435154278 -0.0012088942970301217 0 0.025709602747183501 -0.0013726256925602641 0 0.026867066112406079 -0.00099655747783782673 0 0.026790434978079498 -0.0015544108524817863 0 0.026227375435154278 -0.0012088942970301217 0 0.026867066112406079 -0.00099655747783782673 0 0.026227375435154278 -0.0012088942970301217 0 0.026287993803931931 -0.00059545205893260229 0 0.025844816617105186 -0.00096520720399091383 0 0.025701066486454122 -0.00065542881923359611 0 0.026287993803931931 -0.00059545205893260229 0 0.026227375435154278 -0.0012088942970301217 0 0.025844816617105186 -0.00096520720399091383 0 0.026287993803931931 -0.00059545205893260229 0 0.025551555004099887 -0.00027055022279013794 0 0.025701066486454122 -0.00065542881923359611 0 0.025284633989251851 -0.00051970226784969428 0 0.025551555004099887 -0.00027055022279013794 0 0.025701066486454122 -0.00065542881923359611 0 0.026287993803931931 -0.00059545205893260229 0 0.026314601854754829 -0.00012482880288859112 0 0.025551555004099887 -0.00027055022279013794 0 0.026287993803931931 -0.00059545205893260229 0 0.026314601854754829 -0.00012482880288859112 0 0.026736362124104303 -0.00014092198783807004 0 0.026287993803931931 -0.00059545205893260229 0 0.024999266667754264 -0.00035101000784492449 0 0.025118253060180312 -0.00067090588060034911 0 0.024939342806625193 -0.0005441315596647116 0 0.024999266667754264 -0.00035101000784492449 0 0.025118253060180312 -0.00067090588060034911 0 0.025284633989251851 -0.00051970226784969428 0 0.025701066486454122 -0.00065542881923359611 0 0.025284633989251851 -0.00051970226784969428 0 0.025422831928004687 -0.00094184376162830734 0 0.025118253060180312 -0.00067090588060034911 0 0.025284633989251851 -0.00051970226784969428 0 0.025422831928004687 -0.00094184376162830734 0 0.025844816617105186 -0.00096520720399091383 0 0.025701066486454122 -0.00065542881923359611 0 0.025422831928004687 -0.00094184376162830734 0 0.025844816617105186 -0.00096520720399091383 0 0.025422831928004687 -0.00094184376162830734 0 0.025709602747183501 -0.0013726256925602641 0 0.025118253060180312 -0.00067090588060034911 0 0.025142371671329919 -0.0010127158818823729 0 0.024929961264865779 -0.00077283737094763466 0 0.025118253060180312 -0.00067090588060034911 0 0.025422831928004687 -0.00094184376162830734 0 0.025142371671329919 -0.0010127158818823729 0 0.025422831928004687 -0.00094184376162830734 0 0.025142371671329919 -0.0010127158818823729 0 0.025339575014369661 -0.0013444758316506927 0 0.025142371671329919 -0.0010127158818823729 0 0.025339575014369661 -0.0013444758316506927 0 0.02505931467155326 -0.0014562735448952159 0 0.025422831928004687 -0.00094184376162830734 0 0.025339575014369661 -0.0013444758316506927 0 0.025709602747183501 -0.0013726256925602641 0 0.02557359569972328 -0.0019073936675653516 0 0.025339575014369661 -0.0013444758316506927 0 0.025709602747183501 -0.0013726256925602641 0 0.02557359569972328 -0.0019073936675653516 0 0.026174657431652763 -0.0017230593822920824 0 0.025709602747183501 -0.0013726256925602641 0 0.037367360721829196 -0.0021451245110918073 0 0.037548928694736361 -0.0020359615402182054 0 0.02557359569972328 -0.0019073936675653516 0 0.025339575014369661 -0.0013444758316506927 0 0.02505931467155326 -0.0014562735448952159 0 0.05036207057145059 -0.0027360058358411425 0 0.05123748921354105 -0.0030213940254114071 0 0.051365854432792998 -0.0020612891740613174 0 0.037548928694736361 -0.0020359615402182054 0 0.03873835593928774 -0.0021981396526670307 0 0.02505931467155326 -0.0014562735448952159 0 0.024877875151988565 -0.0010218453004262199 0 0.024780519222974733 -0.0010389347320355733 0 0.025142371671329919 -0.0010127158818823729 0 0.02505931467155326 -0.0014562735448952159 0 0.024877875151988565 -0.0010218453004262199 0 0.024877875151988565 -0.0010218453004262199 0 0.024760351806201068 -0.00081044969106425625 0 0.024929961264865779 -0.00077283737094763466 0 0.025142371671329919 -0.0010127158818823729 0 0.024877875151988565 -0.0010218453004262199 0 0.024929961264865779 -0.00077283737094763466 0 0.024877875151988565 -0.0010218453004262199 0 0.024720208265715714 -0.0010295768145163232 0 0.024780519222974733 -0.0010389347320355733 0 0.024877875151988565 -0.0010218453004262199 0 0.024760351806201068 -0.00081044969106425625 0 0.024720208265715714 -0.0010295768145163232 0 0.024620524136188711 -0.00060080574085797094 0 0.024760351806201068 -0.00081044969106425625 0 0.024489426529803258 -0.00073617645210468936 0 0.024760351806201068 -0.00081044969106425625 0 0.024489426529803258 -0.00073617645210468936 0 0.024720208265715714 -0.0010295768145163232 0 0.024620524136188711 -0.00060080574085797094 0 0.024760351806201068 -0.00081044969106425625 0 0.0248061984746277 -0.00058651850067261866 0 0.0248061984746277 -0.00058651850067261866 0 0.024939342806625193 -0.0005441315596647116 0 0.024929961264865779 -0.00077283737094763466 0 0.025118253060180312 -0.00067090588060034911 0 0.024939342806625193 -0.0005441315596647116 0 0.024929961264865779 -0.00077283737094763466 0 0.024760351806201068 -0.00081044969106425625 0 0.0248061984746277 -0.00058651850067261866 0 0.024929961264865779 -0.00077283737094763466 0 0.034208549719488113 -0.0026392079475470649 0 0.034186978840890322 -0.0044115629326984887 0 0.033510624881004356 -0.0032481143900727556 0 0.024114790484253433 -0.00060754590466182215 0 0.024209881050025698 -0.00075072840338668472 0 0.024151042353162195 -0.00098835364898651273 0 0.026758589029352936 -0.0015945497546735372 0 0.037244374673342587 -0.0020826137864949435 0 0.024292738359844777 -0.00083328751338886304 0 0.024209881050025698 -0.00075072840338668472 0 0.024151042353162195 -0.00098835364898651273 0 0.02418156512676475 -0.00064470242169819007 0 0.024114790484253433 -0.00060754590466182215 0 0.024209881050025698 -0.00075072840338668472 0 0.02418156512676475 -0.00064470242169819007 0 0.024209881050025698 -0.00075072840338668472 0 0.024298890573568446 -0.00070625026730481235 0 0.02434260507570531 -0.00059355480513528693 0 0.02418156512676475 -0.00064470242169819007 0 0.024298890573568446 -0.00070625026730481235 0 0.024292738359844777 -0.00083328751338886304 0 0.024209881050025698 -0.00075072840338668472 0 0.024298890573568446 -0.00070625026730481235 0 0.024292738359844777 -0.00083328751338886304 0 0.024298890573568446 -0.00070625026730481235 0 0.024489426529803258 -0.00073617645210468936 0 0.02448135396259046 -0.00058420230416125762 0 0.02434260507570531 -0.00059355480513528693 0 0.024489426529803258 -0.00073617645210468936 0 0.024292738359844777 -0.00083328751338886304 0 0.024489426529803258 -0.00073617645210468936 0 0.024720208265715714 -0.0010295768145163232 0 0.02434260507570531 -0.00059355480513528693 0 0.024298890573568446 -0.00070625026730481235 0 0.024489426529803258 -0.00073617645210468936 0 0.02448135396259046 -0.00058420230416125762 0 0.024620524136188711 -0.00060080574085797094 0 0.024489426529803258 -0.00073617645210468936 0 0.024720208265715714 -0.0010295768145163232 0 0.025232677861491002 -0.0010723193755044812 0 0.024780519222974733 -0.0010389347320355733 0 0.020521408709822123 -0.00080449787269814698 0 0.034969392629833937 -0.0021941872895066671 0 0.024292738359844777 -0.00083328751338886304 0 0.024720208265715714 -0.0010295768145163232 0 0.024213895078011284 -0.0010388852665163602 0 0.034969392629833937 -0.0021941872895066671 0 0.03873835593928774 -0.0021981396526670307 0 0.052242063199249789 -0.002323762989783961 0 0.05228075626276589 -0.0023494414237936845 0 0.05228079576035162 -0.0023382944571376371 0 0.051872350879233274 -0.0033573877971724187 0 0.051971837359028314 -0.0033542579645634164 0 0.052122359709208275 -0.0028753466137632949 0 0.042466958742035515 -0.0020170533718129502 0 0.052286393766269014 -0.0027041690348069587 0 0.051872350879233274 -0.0033573877971724187 0 0.052122359709208275 -0.0028753466137632949 0 0.05123748921354105 -0.0030213940254114071 0 0.024292738359844777 -0.00083328751338886304 0 0.024151042353162195 -0.00098835364898651273 0 0.024213895078011284 -0.0010388852665163602 0 0.037244374673342587 -0.0020826137864949435 0 0.042466958742035515 -0.0020170533718129502 0 0.037244374673342587 -0.0020826137864949435 0 0.034969392629833937 -0.0021941872895066671 0 0.037618809073521067 -0.0037823571160223914 0 0.037966786470367421 -0.0040115318302755163 0 0.0376153302864915 -0.0040076480964145768 0 0.034969392629833937 -0.0021941872895066671 0 0.042466958742035515 -0.0020170533718129502 0 0.052122359709208275 -0.0028753466137632949 0 0.05123748921354105 -0.0030213940254114071 0 0.051789364015958718 -0.0024544794048724054 0 0.05123748921354105 -0.0030213940254114071 0 0.051789364015958718 -0.0024544794048724054 0 0.051365854432792998 -0.0020612891740613174 0 0.052286393766269014 -0.0027041690348069587 0 0.052255904828009243 -0.0022316452021334619 0 0.052122359709208275 -0.0028753466137632949 0 0.051789364015958718 -0.0024544794048724054 0 0.052280422850305125 -0.0022370319356341153 0 0.051789364015958718 -0.0024544794048724054 0 0.052280422850305125 -0.0022370319356341153 0 0.052115966506541871 -0.0017774571850066704 0 0.052280422850305125 -0.0022370319356341153 0 0.052115966506541871 -0.0017774571850066704 0 0.052563798030202689 -0.0018748287671477347 0 0.052115966506541871 -0.0017774571850066704 0 0.052169877166195651 -0.00095764021092503628 0 0.052538056047856246 -0.0010832601860850748 0 0.052115966506541871 -0.0017774571850066704 0 0.052563798030202689 -0.0018748287671477347 0 0.052538056047856246 -0.0010832601860850748 0 0.052115966506541871 -0.0017774571850066704 0 0.051365854432792998 -0.0020612891740613174 0 0.052169877166195651 -0.00095764021092503628 0 0.051789364015958718 -0.0024544794048724054 0 0.052115966506541871 -0.0017774571850066704 0 0.051365854432792998 -0.0020612891740613174 0 0.051365854432792998 -0.0020612891740613174 0 0.050365518052877305 -0.0018043341525185586 0 0.05118234071726354 -0.0012055922565496989 0 0.05036207057145059 -0.0027360058358411425 0 0.051365854432792998 -0.0020612891740613174 0 0.050365518052877305 -0.0018043341525185586 0 0.050365518052877305 -0.0018043341525185586 0 0.05118234071726354 -0.0012055922565496989 0 0.050224017436672458 -0.00064421908716159003 0 0.051365854432792998 -0.0020612891740613174 0 0.05118234071726354 -0.0012055922565496989 0 0.052169877166195651 -0.00095764021092503628 0 0.05118234071726354 -0.0012055922565496989 0 0.051514042646048065 -0.00037539243283909573 0 0.052169877166195651 -0.00095764021092503628 0 0.05118234071726354 -0.0012055922565496989 0 0.051514042646048065 -0.00037539243283909573 0 0.050224017436672458 -0.00064421908716159003 0 0.051514042646048065 -0.00037539243283909573 0 0.050224017436672458 -0.00064421908716159003 0 0.050794108373639617 9.1764460911821104e-05 0 0.050794108373639617 9.1764460911821104e-05 0 0.05235173074027271 0.00070472040322027904 0 0.050722667803535432 0.0010047363324836203 0 0.049894922058011944 0.00066036437639830357 0 0.050224017436672458 -0.00064421908716159003 0 0.050794108373639617 9.1764460911821104e-05 0 0.049894922058011944 0.00066036437639830357 0 0.050794108373639617 9.1764460911821104e-05 0 0.050722667803535432 0.0010047363324836203 0 0.051514042646048065 -0.00037539243283909573 0 0.052266566766062741 5.5055959853906644e-05 0 0.05235173074027271 0.00070472040322027904 0 0.051514042646048065 -0.00037539243283909573 0 0.050794108373639617 9.1764460911821104e-05 0 0.05235173074027271 0.00070472040322027904 0 0.052266566766062741 5.5055959853906644e-05 0 0.052968465096587765 0.00031178127050393096 0 0.052169877166195651 -0.00095764021092503628 0 0.052266566766062741 5.5055959853906644e-05 0 0.052968465096587765 0.00031178127050393096 0 0.052815591639659987 0.00072064949430932358 0 0.052266566766062741 5.5055959853906644e-05 0 0.052815591639659987 0.00072064949430932358 0 0.05235173074027271 0.00070472040322027904 0 0.052281670773400908 -0.00077872813940772117 0 0.05240360820249905 -0.00077888396396114752 0 0.052360202677068438 -0.00091163207480598248 0 0.052360202677068438 -0.00091163207480598248 0 0.052169877166195651 -0.00095764021092503628 0 0.052538056047856246 -0.0010832601860850748 0 0.052281670773400908 -0.00077872813940772117 0 0.052360202677068438 -0.00091163207480598248 0 0.052169877166195651 -0.00095764021092503628 0 0.05240360820249905 -0.00077888396396114752 0 0.052360202677068438 -0.00091163207480598248 0 0.052538056047856246 -0.0010832601860850748 0 0.051514042646048065 -0.00037539243283909573 0 0.052266566766062741 5.5055959853906644e-05 0 0.052169877166195651 -0.00095764021092503628 0 0.052572897719584996 -0.00024563199961704203 0 0.052252833092883852 -0.0008868841488083439 0 0.053737586369625556 0.00069990577293174597 0 0.053501180456970887 0.0008832429281380353 0 0.053724533228910028 0.00086051655088730081 0 0.053143253242562853 0.00082718241539822546 0 0.053120791326409719 0.00084976975869978507 0 0.053501180456970887 0.0008832429281380353 0 0.052904163643742216 0.00013368563005662455 0 0.053540106213994534 0.0010065650394560778 0 0.053143253242562853 0.00082718241539822546 0 0.053261349005574943 0.00086302744240431017 0 0.052857435949709895 0.00077417431281130017 0 0.053143253242562853 0.00082718241539822546 0 0.053261349005574943 0.00086302744240431017 0 0.053501180456970887 0.0008832429281380353 0 0.052904163643742216 0.00013368563005662455 0 0.053008309555488124 0.00029151433872362135 0 0.053737586369625556 0.00069990577293174597 0 0.053702122541005454 0.00085632509015383222 0 0.053724533228910028 0.00086051655088730081 0 0.052572897719584996 -0.00024563199961704203 0 0.052904163643742216 0.00013368563005662455 0 0.052281670773400908 -0.00077872813940772117 0 0.05240360820249905 -0.00077888396396114752 0 0.052338894679525766 -0.00056773291942108966 0 0.052968465096587765 0.00031178127050393096 0 0.053120791326409719 0.00084976975869978507 0 0.052815591639659987 0.00072064949430932358 0 0.05240360820249905 -0.00077888396396114752 0 0.052338894679525766 -0.00056773291942108966 0 0.052478620746333041 -0.00072609957744868014 0 0.052904163643742216 0.00013368563005662455 0 0.052469203101966302 -0.00081609371608171806 0 0.052815591639659987 0.00072064949430932358 0 0.05235173074027271 0.00070472040322027904 0 0.052857435949709895 0.00077417431281130017 0 0.053143253242562853 0.00082718241539822546 0 0.053120791326409719 0.00084976975869978507 0 0.052815591639659987 0.00072064949430932358 0 0.053143253242562853 0.00082718241539822546 0 0.052815591639659987 0.00072064949430932358 0 0.052857435949709895 0.00077417431281130017 0 0.05235173074027271 0.00070472040322027904 0 0.052794572558336139 0.00075287113061633612 0 0.052857435949709895 0.00077417431281130017 0 0.052309735534172279 0.00079013694707309929 0 0.051802719299941728 0.0013670808681821652 0 0.05235173074027271 0.00070472040322027904 0 0.050722667803535432 0.0010047363324836203 0 0.050646739319268559 0.0021771597912452192 0 0.049894922058011944 0.00066036437639830357 0 0.050722667803535432 0.0010047363324836203 0 0.050116761491959608 0.0014438389088188256 0 0.050722667803535432 0.0010047363324836203 0 0.050646739319268559 0.0021771597912452192 0 0.050116761491959608 0.0014438389088188256 0 0.052794572558336139 0.00075287113061633612 0 0.052861152268787522 0.00080663500316771771 0 0.052717169631571859 0.0009150408283872595 0 0.052794572558336139 0.00075287113061633612 0 0.052861152268787522 0.00080663500316771771 0 0.052857435949709895 0.00077417431281130017 0 0.052861152268787522 0.00080663500316771771 0 0.052857435949709895 0.00077417431281130017 0 0.053087946404954338 0.00089126734250956027 0 0.053261349005574943 0.00086302744240431017 0 0.052857435949709895 0.00077417431281130017 0 0.053087946404954338 0.00089126734250956027 0 0.054737926360591514 0.00077946556329809222 0 0.054196944497518745 0.00067549507156101907 0 0.053570251176749184 0.00098802035349045895 0 0.053087946404954338 0.00089126734250956027 0 0.05245067045514884 0.0015435613703980351 0 0.053570251176749184 0.00098802035349045895 0 0.053261349005574943 0.00086302744240431017 0 0.053087946404954338 0.00089126734250956027 0 0.053570251176749184 0.00098802035349045895 0 0.053433611893956706 0.0009865051178539197 0 0.053647724045607414 0.0010469331658214199 0 0.053913512495413908 0.00075186130994194639 0 0.054196944497518745 0.00067549507156101907 0 0.053570251176749184 0.00098802035349045895 0 0.052861152268787522 0.00080663500316771771 0 0.052717169631571859 0.0009150408283872595 0 0.052778527149304276 0.001084347197173127 0 0.052861152268787522 0.00080663500316771771 0 0.053087946404954338 0.00089126734250956027 0 0.05245067045514884 0.0015435613703980351 0 0.05265784657755173 0.0010413814640099766 0 0.053433611893956706 0.0009865051178539197 0 0.052717169631571859 0.0009150408283872595 0 0.052778527149304276 0.001084347197173127 0 0.052623530914447741 0.0010425555025162013 0 0.054737926360591514 0.00077946556329809222 0 0.05454922991495504 0.00043117549733566408 0 0.054837603557065628 0.00039709660207430246 0 0.054737926360591514 0.00077946556329809222 0 0.054196944497518745 0.00067549507156101907 0 0.05454922991495504 0.00043117549733566408 0 0.053433611893956706 0.0009865051178539197 0 0.054331080576950054 0.00044149623635009796 0 0.053913512495413908 0.00075186130994194639 0 0.054196944497518745 0.00067549507156101907 0 0.054186023401442809 0.00055639307362604219 0 0.054196944497518745 0.00067549507156101907 0 0.054186023401442809 0.00055639307362604219 0 0.05454922991495504 0.00043117549733566408 0 0.054186023401442809 0.00055639307362604219 0 0.054163405248845393 0.00046830970814523649 0 0.053912666989871148 0.00068889124237260773 0 0.054163405248845393 0.00046830970814523649 0 0.053912666989871148 0.00068889124237260773 0 0.0539536596714945 0.00058893377646773617 0 0.053913512495413908 0.00075186130994194639 0 0.054186023401442809 0.00055639307362604219 0 0.053912666989871148 0.00068889124237260773 0 0.053913512495413908 0.00075186130994194639 0 0.053912666989871148 0.00068889124237260773 0 0.053697851513902661 0.00085208187029069159 0 0.053913512495413908 0.00075186130994194639 0 0.053697851513902661 0.00085208187029069159 0 0.053570251176749184 0.00098802035349045895 0 0.053912666989871148 0.00068889124237260773 0 0.053697851513902661 0.00085208187029069159 0 0.053724533228910028 0.00086051655088730081 0 0.053912666989871148 0.00068889124237260773 0 0.053724533228910028 0.00086051655088730081 0 0.0539536596714945 0.00058893377646773617 0 0.053697851513902661 0.00085208187029069159 0 0.053501180456970887 0.0008832429281380353 0 0.053724533228910028 0.00086051655088730081 0 0.053261349005574943 0.00086302744240431017 0 0.053501180456970887 0.0008832429281380353 0 0.053570251176749184 0.00098802035349045895 0 0.053697851513902661 0.00085208187029069159 0 0.053501180456970887 0.0008832429281380353 0 0.053570251176749184 0.00098802035349045895 0 0.053702122541005454 0.00085632509015383222 0 0.053724533228910028 0.00086051655088730081 0 0.0539536596714945 0.00058893377646773617 0 0.053008309555488124 0.00029151433872362135 0 0.053546414578797941 0.00023508524546031779 0 0.054116068340453918 0.0006038588401747789 0 0.053546414578797941 0.00023508524546031779 0 0.053702122541005454 0.00085632509015383222 0 0.0539536596714945 0.00058893377646773617 0 0.053607361896253862 0.00046156797003405592 0 0.054163405248845393 0.00046830970814523649 0 0.0539536596714945 0.00058893377646773617 0 0.054271449938970873 0.00038603533342221238 0 0.0539536596714945 0.00058893377646773617 0 0.054271449938970873 0.00038603533342221238 0 0.054228006264758058 0.00041615757790440966 0 0.054271449938970873 0.00038603533342221238 0 0.054450809044059481 0.00027058010952327259 0 0.054397681255894045 0.00030870877696648414 0 0.054271449938970873 0.00038603533342221238 0 0.054450809044059481 0.00027058010952327259 0 0.054453871979928119 0.00026732009122293381 0 0.054186023401442809 0.00055639307362604219 0 0.054163405248845393 0.00046830970814523649 0 0.05437443738119975 0.00032931730274527398 0 0.054163405248845393 0.00046830970814523649 0 0.054271449938970873 0.00038603533342221238 0 0.05437443738119975 0.00032931730274527398 0 0.054271449938970873 0.00038603533342221238 0 0.05437443738119975 0.00032931730274527398 0 0.054453871979928119 0.00026732009122293381 0 0.05437443738119975 0.00032931730274527398 0 0.054617437296645525 0.0001677887136736445 0 0.054453871979928119 0.00026732009122293381 0 0.05437443738119975 0.00032931730274527398 0 0.054617437296645525 0.0001677887136736445 0 0.054668835220458491 0.00018232487554144445 0 0.054450809044059481 0.00027058010952327259 0 0.054453871979928119 0.00026732009122293381 0 0.054568588928536249 0.00019785819054420872 0 0.054617437296645525 0.0001677887136736445 0 0.054453871979928119 0.00026732009122293381 0 0.054568588928536249 0.00019785819054420872 0 0.054450809044059481 0.00027058010952327259 0 0.054568588928536249 0.00019785819054420872 0 0.05455133991558471 0.00020878521530895522 0 0.054568588928536249 0.00019785819054420872 0 0.054688668727586882 0.00013201283811669888 0 0.05466199451629275 0.00014520368944330179 0 0.054617437296645525 0.0001677887136736445 0 0.054688668727586882 0.00013201283811669888 0 0.054816256516408333 7.0646855491806018e-05 0 0.054784622778914716 8.6094341770884088e-05 0 0.054688668727586882 0.00013201283811669888 0 0.05466199451629275 0.00014520368944330179 0 0.054784622778914716 8.6094341770884088e-05 0 0.054688668727586882 0.00013201283811669888 0 0.054816256516408333 7.0646855491806018e-05 0 0.054617437296645525 0.0001677887136736445 0 0.054568588928536249 0.00019785819054420872 0 0.054688668727586882 0.00013201283811669888 0 0.054617437296645525 0.0001677887136736445 0 0.054816256516408333 7.0646855491806018e-05 0 0.054832594843779323 6.6322786399366964e-05 0 0.054999789336530255 2.9304517839200753e-08 0 0.054816256516408333 7.0646855491806018e-05 0 0.054832594843779323 6.6322786399366964e-05 0 0.054999789336530255 2.9304517839200753e-08 0 0.054999698833913577 6.4414833766425296e-08 0 0.054816256516408333 7.0646855491806018e-05 0 0.054784622778914716 8.6094341770884088e-05 0 0.054999698833913577 6.4414833766425296e-08 0 0.054816256516408333 7.0646855491806018e-05 0 0.054999979829627524 4.7981932996757259e-09 0 0.055000016861310612 -3.1218036209725858e-09 0 0.054987502948172048 2.319862823631012e-06 0 0.054999979829627524 4.7981932996757259e-09 0 0.054987038672721519 2.961261066888341e-06 0 0.054987502948172048 2.319862823631012e-06 0 0.054999991778361679 -3.3270150496334618e-09 0 0.055000613931107722 5.2641695029341033e-07 0 0.054999924049429605 -3.0622008018411701e-08 0 0.054960526534512777 3.3779642902270818e-05 0 0.054999999676865745 2.4881225976838845e-11 0 0.054999441118287397 4.9956238215851678e-07 0 0.054999999155020511 2.8795305834676664e-10 0 0.054999708886980941 4.5064418461989279e-08 0 0.054832594843779323 6.6322786399366964e-05 0 0.0548550036818568 6.9255700841860159e-05 0 0.054999789336530255 2.9304517839200753e-08 0 0.054999708886980941 4.5064418461989279e-08 0 0.054832594843779323 6.6322786399366964e-05 0 0.054617437296645525 0.0001677887136736445 0 0.054832594843779323 6.6322786399366964e-05 0 0.054668835220458491 0.00018232487554144445 0 0.054832594843779323 6.6322786399366964e-05 0 0.0548550036818568 6.9255700841860159e-05 0 0.054668835220458491 0.00018232487554144445 0 0.0548550036818568 6.9255700841860159e-05 0 0.054768820344595799 0.0002304340613478347 0 0.054668835220458491 0.00018232487554144445 0 0.054186023401442809 0.00055639307362604219 0 0.05437443738119975 0.00032931730274527398 0 0.05454922991495504 0.00043117549733566408 0 0.05437443738119975 0.00032931730274527398 0 0.054668835220458491 0.00018232487554144445 0 0.05454922991495504 0.00043117549733566408 0 0.054768820344595799 0.0002304340613478347 0 0.05454922991495504 0.00043117549733566408 0 0.054837603557065628 0.00039709660207430246 0 0.054768820344595799 0.0002304340613478347 0 0.054668835220458491 0.00018232487554144445 0 0.05454922991495504 0.00043117549733566408 0 0.053753718532732565 0.00055266315243871151 0 0.053859878060076256 0.00046073286558705884 0 0.05391107142981396 0.00060822909790503603 0 0.053859878060076256 0.00046073286558705884 0 0.053917463360711772 0.00019716092565199076 0 0.054165714930406852 0.00064614422317542744 0 0.053753718532732565 0.00055266315243871151 0 0.053859878060076256 0.00046073286558705884 0 0.053917463360711772 0.00019716092565199076 0 0.054638777986609606 0.00015519396096782124 0 0.053970223640637 0.00057548573467680652 0 0.054331080576950054 0.00044149623635009796 0 0.054638777986609606 0.00015519396096782124 0 0.054768820344595799 0.0002304340613478347 0 0.054837603557065628 0.00039709660207430246 0 0.054900849716972878 0.00020913636119204273 0 0.05394902609025428 0.00051486182292803456 0 0.053970223640637 0.00057548573467680652 0 0.053859878060076256 0.00046073286558705884 0 0.05391107142981396 0.00060822909790503603 0 0.054153131349171144 0.0006446819403958309 0 0.054530286838709426 0.00014675402670963949 0 0.0542146338490671 0.00027678024913119963 0 0.054239140353431178 0.00029172592167713007 0 0.054897888997069058 8.9730308101063213e-05 0 0.054861027181794746 6.2397250913986371e-05 0 0.054887639111166481 0.00010011766732114046 0 0.054897888997069058 8.9730308101063213e-05 0 0.054904378247574985 8.6005912232866015e-05 0 0.054906479603088996 8.7252757893149021e-05 0 0.054897888997069058 8.9730308101063213e-05 0 0.054912735374932693 7.2586776099075006e-05 0 0.054887639111166481 0.00010011766732114046 0 0.054893517547388443 0.00010056757572619935 0 0.054901517341298244 3.5087358763206478e-05 0 0.054897888997069058 8.9730308101063213e-05 0 0.054904378247574985 8.6005912232866015e-05 0 0.054898645386048162 8.3491068118784096e-05 0 0.054897888997069058 8.9730308101063213e-05 0 0.054861027181794746 6.2397250913986371e-05 0 0.054865385852516844 5.2520407179006683e-05 0 0.054904378247574985 8.6005912232866015e-05 0 0.05490760568080319 8.7060277480349038e-05 0 0.054906479603088996 8.7252757893149021e-05 0 0.054904378247574985 8.6005912232866015e-05 0 0.054898645386048162 8.3491068118784096e-05 0 0.054911436554361356 7.5148162302259868e-05 0 0.054904378247574985 8.6005912232866015e-05 0 0.05490760568080319 8.7060277480349038e-05 0 0.054911436554361356 7.5148162302259868e-05 0 0.05490760568080319 8.7060277480349038e-05 0 0.054911436554361356 7.5148162302259868e-05 0 0.054915500651024324 7.9285626699182956e-05 0 0.0548550036818568 6.9255700841860159e-05 0 0.054768820344595799 0.0002304340613478347 0 0.054900849716972878 0.00020913636119204273 0 0.054987502948172048 2.319862823631012e-06 0 0.054975602644344548 -3.171479049659863e-06 0 0.05497558899065691 -1.1794950307852875e-06 0 0.054960526534512777 3.3779642902270818e-05 0 0.054638777986609606 0.00015519396096782124 0 0.054638777986609606 0.00015519396096782124 0 0.054901517341298244 3.5087358763206478e-05 0 0.054999441118287397 4.9956238215851678e-07 0 0.054998935395906501 1.4658585420776519e-06 0 0.054999728752447685 6.217195480711786e-07 0 0.055000613931107722 5.2641695029341033e-07 0 0.054901517341298244 3.5087358763206478e-05 0 0.054987038672721519 2.961261066888341e-06 0 0.054987502948172048 2.319862823631012e-06 0 0.05497558899065691 -1.1794950307852875e-06 0 0.054898645386048162 8.3491068118784096e-05 0 0.054911436554361356 7.5148162302259868e-05 0 0.054915908798408464 4.7137844214484824e-05 0 0.054901517341298244 3.5087358763206478e-05 0 0.054963328630401431 2.5691300404560468e-05 0 0.054911436554361356 7.5148162302259868e-05 0 0.054915908798408464 4.7137844214484824e-05 0 0.054955812876014865 3.6222179197579864e-05 0 0.054963328630401431 2.5691300404560468e-05 0 0.054999975574020199 1.6510867263069169e-08 0 0.054999728752447685 6.217195480711786e-07 0 0.055000000448155673 2.7554723392137052e-10 0 0.054999999155020511 2.8795305834676664e-10 0 0.054915908798408464 4.7137844214484824e-05 0 0.05499980979095094 3.9153618878834348e-08 0 0.054955812876014865 3.6222179197579864e-05 0 0.054999441118287397 4.9956238215851678e-07 0 0.054999728752447685 6.217195480711786e-07 0 0.054999999155020511 2.8795305834676664e-10 0 0.05499996708248097 1.0569866199536592e-08 0 0.054933360705635814 5.5519590797450148e-05 0 0.054958306357770513 3.8385696541615523e-05 0 0.05499996708248097 1.0569866199536592e-08 0 0.054955812876014865 3.6222179197579864e-05 0 0.054933360705635814 5.5519590797450148e-05 0 0.05499980979095094 3.9153618878834348e-08 0 0.05499996708248097 1.0569866199536592e-08 0 0.054955812876014865 3.6222179197579864e-05 0 0.054911436554361356 7.5148162302259868e-05 0 0.054955812876014865 3.6222179197579864e-05 0 0.054915500651024324 7.9285626699182956e-05 0 0.054955812876014865 3.6222179197579864e-05 0 0.054933360705635814 5.5519590797450148e-05 0 0.054915500651024324 7.9285626699182956e-05 0 0.054933360705635814 5.5519590797450148e-05 0 0.054915500651024324 7.9285626699182956e-05 0 0.054888137038923451 9.6849134538947129e-05 0 0.054933360705635814 5.5519590797450148e-05 0 0.054902766912588601 8.2496375737389489e-05 0 0.054888137038923451 9.6849134538947129e-05 0 0.054933360705635814 5.5519590797450148e-05 0 0.054958306357770513 3.8385696541615523e-05 0 0.054902766912588601 8.2496375737389489e-05 0 0.054799592578164101 0.00013175675699822546 0 0.054790614325438851 0.00012597928074681712 0 0.054902766912588601 8.2496375737389489e-05 0 0.054794822686701494 0.00013800847129648205 0 0.054991266241640878 7.1682514102830371e-05 0 0.054680769396841258 0.0001481235567389146 0 0.054794822686701494 0.00013800847129648205 0 0.054576512848310256 0.00019519830906516831 0 0.054902766912588601 8.2496375737389489e-05 0 0.054888137038923451 9.6849134538947129e-05 0 0.054794822686701494 0.00013800847129648205 0 0.05490760568080319 8.7060277480349038e-05 0 0.054915500651024324 7.9285626699182956e-05 0 0.054895607537937569 0.00010377896649023777 0 0.054915500651024324 7.9285626699182956e-05 0 0.054888137038923451 9.6849134538947129e-05 0 0.054895607537937569 0.00010377896649023777 0 0.054888137038923451 9.6849134538947129e-05 0 0.054895607537937569 0.00010377896649023777 0 0.054794822686701494 0.00013800847129648205 0 0.05490760568080319 8.7060277480349038e-05 0 0.054895607537937569 0.00010377896649023777 0 0.054906479603088996 8.7252757893149021e-05 0 0.054839862993638099 4.9714921166184982e-05 0 0.053970223640637 0.00057548573467680652 0 0.054530286838709426 0.00014675402670963949 0 0.054638201142692439 0.00019497773845314248 0 0.054423295544946231 0.00039683112308416878 0 0.054897888997069058 8.9730308101063213e-05 0 0.054906479603088996 8.7252757893149021e-05 0 0.054912735374932693 7.2586776099075006e-05 0 0.054895607537937569 0.00010377896649023777 0 0.054906479603088996 8.7252757893149021e-05 0 0.054912735374932693 7.2586776099075006e-05 0 0.054895607537937569 0.00010377896649023777 0 0.054912735374932693 7.2586776099075006e-05 0 0.054794822686701494 0.00013800847129648205 0 0.054680769396841258 0.0001481235567389146 0 0.054530286838709426 0.00014675402670963949 0 0.054638201142692439 0.00019497773845314248 0 0.054629944372505311 0.00016712014909935112 0 0.054839862993638099 4.9714921166184982e-05 0 0.054680769396841258 0.0001481235567389146 0 0.054912735374932693 7.2586776099075006e-05 0 0.054794822686701494 0.00013800847129648205 0 0.054917545303454378 -6.3549875976118598e-05 0 0.054435586935689173 0.00028736377412972143 0 0.054319518749910381 0.0002632941201802958 0 0.054533758706287939 0.00025316789251947027 0 0.054617716515845217 0.00015910293862121975 0 0.054680769396841258 0.0001481235567389146 0 0.054638201142692439 0.00019497773845314248 0 0.054617716515845217 0.00015910293862121975 0 0.054319518749910381 0.0002632941201802958 0 0.054439763212940188 0.00030746558796040729 0 0.054533758706287939 0.00025316789251947027 0 0.054319518749910381 0.0002632941201802958 0 0.054439763212940188 0.00030746558796040729 0 0.054381770645080409 0.00038165890301067009 0 0.054319518749910381 0.0002632941201802958 0 0.054381770645080409 0.00038165890301067009 0 0.054118623343322014 0.0004030711259584498 0 0.054439763212940188 0.00030746558796040729 0 0.054381770645080409 0.00038165890301067009 0 0.054509282114009627 0.00032114076155718312 0 0.054381770645080409 0.00038165890301067009 0 0.054321841734351665 0.00049292814016679224 0 0.05450828797909029 0.00039692184317903284 0 0.054381770645080409 0.00038165890301067009 0 0.054321841734351665 0.00049292814016679224 0 0.054118623343322014 0.0004030711259584498 0 0.050674738228466659 0.0022155244391296688 0 0.048812785831741458 0.001331362532706925 0 0.046729622579792351 0.0036392276621248043 0 0.047028680332003289 0.0027895406691203716 0 0.045607842143871112 0.0029633418040708312 0 0.046729622579792351 0.0036392276621248043 0 0.047998960787147597 0.0032180859339660541 0 0.047028680332003289 0.0027895406691203716 0 0.046729622579792351 0.0036392276621248043 0 0.047998960787147597 0.0032180859339660541 0 0.047881856266850195 0.0043141704594760024 0 0.054530286838709426 0.00014675402670963949 0 0.054423295544946231 0.00039683112308416878 0 0.054239140353431178 0.00029172592167713007 0 0.050674738228466659 0.0022155244391296688 0 0.05174013404034794 0.0014586647505013292 0 0.054917545303454378 -6.3549875976118598e-05 0 0.05174013404034794 0.0014586647505013292 0 0.05174013404034794 0.0014586647505013292 0 0.053781378437253495 0.00066229709345482196 0 0.052208884987904811 0.0011583252331616764 0 0.052380931848983313 0.0012554393166633491 0 0.05246385019391453 0.0011544522678288162 0 0.052402993945726527 0.00126780137152057 0 0.052380931848983313 0.0012554393166633491 0 0.05246385019391453 0.0011544522678288162 0 0.053970223640637 0.00057548573467680652 0 0.053781378437253495 0.00066229709345482196 0 0.05359205187979512 0.00090640975723001063 0 0.053753718532732565 0.00055266315243871151 0 0.053875407914939402 0.00077468988999213637 0 0.053753718532732565 0.00055266315243871151 0 0.05391107142981396 0.00060822909790503603 0 0.053875407914939402 0.00077468988999213637 0 0.052402993945726527 0.00126780137152057 0 0.05246385019391453 0.0011544522678288162 0 0.052591839434514093 0.0011773093821001058 0 0.053970223640637 0.00057548573467680652 0 0.053094071377301114 0.0010411614937667162 0 0.05391107142981396 0.00060822909790503603 0 0.054153131349171144 0.0006446819403958309 0 0.053875407914939402 0.00077468988999213637 0 0.05246385019391453 0.0011544522678288162 0 0.052591839434514093 0.0011773093821001058 0 0.052623530914447741 0.0010425555025162013 0 0.053433611893956706 0.0009865051178539197 0 0.053094071377301114 0.0010411614937667162 0 0.052778527149304276 0.001084347197173127 0 0.052591839434514093 0.0011773093821001058 0 0.052623530914447741 0.0010425555025162013 0 0.05246385019391453 0.0011544522678288162 0 0.052496116012381737 0.0009314643647746313 0 0.052623530914447741 0.0010425555025162013 0 0.052717169631571859 0.0009150408283872595 0 0.052496116012381737 0.0009314643647746313 0 0.052623530914447741 0.0010425555025162013 0 0.047998960787147597 0.0032180859339660541 0 0.047881856266850195 0.0043141704594760024 0 0.049225945444534111 0.0032595367381087997 0 0.05174013404034794 0.0014586647505013292 0 0.050485656018650668 0.0023930787461930538 0 0.052208884987904811 0.0011583252331616764 0 0.05246385019391453 0.0011544522678288162 0 0.052496116012381737 0.0009314643647746313 0 0.047998960787147597 0.0032180859339660541 0 0.049225945444534111 0.0032595367381087997 0 0.048616428776910983 0.0025252598901145955 0 0.047998960787147597 0.0032180859339660541 0 0.048616428776910983 0.0025252598901145955 0 0.047887214675783413 0.0023924762619847487 0 0.049225945444534111 0.0032595367381087997 0 0.048616428776910983 0.0025252598901145955 0 0.049310781558998783 0.0018622745243829614 0 0.048616428776910983 0.0025252598901145955 0 0.049310781558998783 0.0018622745243829614 0 0.048358955650642445 0.0018669530853254704 0 0.048616428776910983 0.0025252598901145955 0 0.048358955650642445 0.0018669530853254704 0 0.047887214675783413 0.0023924762619847487 0 0.052794572558336139 0.00075287113061633612 0 0.052717169631571859 0.0009150408283872595 0 0.052496116012381737 0.0009314643647746313 0 0.051802719299941728 0.0013670808681821652 0 0.050485656018650668 0.0023930787461930538 0 0.050646739319268559 0.0021771597912452192 0 0.049225945444534111 0.0032595367381087997 0 0.049310781558998783 0.0018622745243829614 0 0.050646739319268559 0.0021771597912452192 0 0.050116761491959608 0.0014438389088188256 0 0.049310781558998783 0.0018622745243829614 0 0.048430613072744717 0.00083002439990331972 0 0.049894922058011944 0.00066036437639830357 0 0.049310781558998783 0.0018622745243829614 0 0.049894922058011944 0.00066036437639830357 0 0.050116761491959608 0.0014438389088188256 0 0.049310781558998783 0.0018622745243829614 0 0.048430613072744717 0.00083002439990331972 0 0.049310781558998783 0.0018622745243829614 0 0.048358955650642445 0.0018669530853254704 0 0.048430613072744717 0.00083002439990331972 0 0.048358955650642445 0.0018669530853254704 0 0.047390318255410194 0.0017138981083272135 0 0.046720521360786943 0.00059258473658289033 0 0.048430613072744717 0.00083002439990331972 0 0.047390318255410194 0.0017138981083272135 0 0.046720521360786943 0.00059258473658289033 0 0.046299437888996611 0.0022140970932134174 0 0.045174333412296694 0.0012314444846164361 0 0.046720521360786943 0.00059258473658289033 0 0.047390318255410194 0.0017138981083272135 0 0.046299437888996611 0.0022140970932134174 0 0.046299437888996611 0.0022140970932134174 0 0.047028680332003289 0.0027895406691203716 0 0.045607842143871112 0.0029633418040708312 0 0.047390318255410194 0.0017138981083272135 0 0.046299437888996611 0.0022140970932134174 0 0.047028680332003289 0.0027895406691203716 0 0.047390318255410194 0.0017138981083272135 0 0.047028680332003289 0.0027895406691203716 0 0.047887214675783413 0.0023924762619847487 0 0.047998960787147597 0.0032180859339660541 0 0.047028680332003289 0.0027895406691203716 0 0.047887214675783413 0.0023924762619847487 0 0.048358955650642445 0.0018669530853254704 0 0.047390318255410194 0.0017138981083272135 0 0.047887214675783413 0.0023924762619847487 0 0.046769251318448016 -0.00070359470692756118 0 0.047875195195661045 -4.540090130048856e-05 0 0.046399114873712954 -3.8711340914066341e-05 0 0.04511193145647243 0.00075214891774343909 0 0.048812785831741458 0.001331362532706925 0 0.044150709208523875 0.0023661163171134129 0 0.045452620599102891 0.0031253992872281571 0 0.045292896351678442 0.0021827928911702685 0 0.04541422655648205 0.0031525299690597121 0 0.048812785831741458 0.001331362532706925 0 0.046299437888996611 0.0022140970932134174 0 0.045452620599102891 0.0031253992872281571 0 0.045292896351678442 0.0021827928911702685 0 0.046299437888996611 0.0022140970932134174 0 0.045292896351678442 0.0021827928911702685 0 0.045174333412296694 0.0012314444846164361 0 0.044150709208523875 0.0023661163171134129 0 0.045174333412296694 0.0012314444846164361 0 0.043782100353270681 0.00124136250065786 0 0.044150709208523875 0.0023661163171134129 0 0.045292896351678442 0.0021827928911702685 0 0.045174333412296694 0.0012314444846164361 0 0.04511193145647243 0.00075214891774343909 0 0.044598524845533886 -0.00035701447602289293 0 0.043782100353270681 0.00124136250065786 0 0.042841478983890777 0.0016029853464826615 0 0.042513225370817469 0.0010099099435496668 0 0.044150709208523875 0.0023661163171134129 0 0.043782100353270681 0.00124136250065786 0 0.042841478983890777 0.0016029853464826615 0 0.044598524845533886 -0.00035701447602289293 0 0.037557686229238371 -0.0018419026991760227 0 0.037723909812138273 -0.0019472595780041823 0 0.037313881221422797 -0.0020635824739759327 0 0.037720207437667387 -0.0023154545859772209 0 0.045320810006131397 -0.0018288025584203337 0 0.045202470314926094 -0.0015914793274357294 0 0.044396869022666388 -0.0012313420173370561 0 0.037557686229238371 -0.0018419026991760227 0 0.041638256470373239 -0.0020583724278591376 0 0.045539268209621897 -0.0013691342345439471 0 0.045320810006131397 -0.0018288025584203337 0 0.045202470314926094 -0.0015914793274357294 0 0.044598524845533886 -0.00035701447602289293 0 0.044927993498158764 -0.0008448321845823634 0 0.045631384335458935 -0.0013589814520299575 0 0.045202470314926094 -0.0015914793274357294 0 0.044982749339588152 -0.0010053975028888852 0 0.045202470314926094 -0.0015914793274357294 0 0.044982749339588152 -0.0010053975028888852 0 0.044396869022666388 -0.0012313420173370561 0 0.045631384335458935 -0.0013589814520299575 0 0.044982749339588152 -0.0010053975028888852 0 0.045148467702290536 -0.00024169885852622775 0 0.044982749339588152 -0.0010053975028888852 0 0.045148467702290536 -0.00024169885852622775 0 0.044551309086657324 -0.00059434027135248015 0 0.044982749339588152 -0.0010053975028888852 0 0.044551309086657324 -0.00059434027135248015 0 0.044396869022666388 -0.0012313420173370561 0 0.045148467702290536 -0.00024169885852622775 0 0.044231431348937388 1.0729594658879282e-05 0 0.044551309086657324 -0.00059434027135248015 0 0.044598524845533886 -0.00035701447602289293 0 0.046536611508192174 -0.00038572710758960632 0 0.045631384335458935 -0.0013589814520299575 0 0.045148467702290536 -0.00024169885852622775 0 0.046399114873712954 -3.8711340914066341e-05 0 0.046769251318448016 -0.00070359470692756118 0 0.045675782936454995 -0.0013438496757240915 0 0.046399114873712954 -3.8711340914066341e-05 0 0.046399114873712954 -3.8711340914066341e-05 0 0.045785647831119422 0.00071953293349210311 0 0.046946746515726084 0.00090681606563189712 0 0.045148467702290536 -0.00024169885852622775 0 0.046399114873712954 -3.8711340914066341e-05 0 0.045785647831119422 0.00071953293349210311 0 0.045148467702290536 -0.00024169885852622775 0 0.044677536220499102 0.0011277682819832945 0 0.044231431348937388 1.0729594658879282e-05 0 0.045148467702290536 -0.00024169885852622775 0 0.045785647831119422 0.00071953293349210311 0 0.044677536220499102 0.0011277682819832945 0 0.045785647831119422 0.00071953293349210311 0 0.044677536220499102 0.0011277682819832945 0 0.046023468015978383 0.0018662172036787443 0 0.048800863599409341 -0.00072176790897501961 0 0.048982791163195774 -0.00036020871671362973 0 0.04865416078528173 -0.00030727455247407713 0 0.048800863599409341 -0.00072176790897501961 0 0.049368016694873125 -0.0003989229125593927 0 0.048982791163195774 -0.00036020871671362973 0 0.046434976646911756 0.00017615554474711278 0 0.049204081637894498 0.0002306027343460725 0 0.051219982218207318 0.00041563544033132351 0 0.049204081637894498 0.0002306027343460725 0 0.054575521485062867 0.00035217665693777821 0 0.054469990258441348 0.00036151336580979917 0 0.054494867185886052 0.00037863536496567839 0 0.045785647831119422 0.00071953293349210311 0 0.046946746515726084 0.00090681606563189712 0 0.046023468015978383 0.0018662172036787443 0 0.054575521485062867 0.00035217665693777821 0 0.054574566537172596 0.00038035263833742484 0 0.054469990258441348 0.00036151336580979917 0 0.054575521485062867 0.00035217665693777821 0 0.054596145785662561 0.00032845053606370551 0 0.054492625517383424 0.0003241158297251473 0 0.054820075120280212 4.8128109894762646e-05 0 0.052830278371671556 0.00035315441448924534 0 0.054575521485062867 0.00035217665693777821 0 0.05450828797909029 0.00039692184317903284 0 0.054564784672623518 0.00032774540345431618 0 0.054575521485062867 0.00035217665693777821 0 0.054564784672623518 0.00032774540345431618 0 0.054596145785662561 0.00032845053606370551 0 0.054575521485062867 0.00035217665693777821 0 0.054574566537172596 0.00038035263833742484 0 0.05450828797909029 0.00039692184317903284 0 0.047875195195661045 -4.540090130048856e-05 0 0.046399114873712954 -3.8711340914066341e-05 0 0.046946746515726084 0.00090681606563189712 0 0.048812785831741458 0.001331362532706925 0 0.051219982218207318 0.00041563544033132351 0 0.054453061694143538 0.00055455086927898929 0 0.054574566537172596 0.00038035263833742484 0 0.05450828797909029 0.00039692184317903284 0 0.054321841734351665 0.00049292814016679224 0 0.054453061694143538 0.00055455086927898929 0 0.05450828797909029 0.00039692184317903284 0 0.054381770645080409 0.00038165890301067009 0 0.05450828797909029 0.00039692184317903284 0 0.054509282114009627 0.00032114076155718312 0 0.05450828797909029 0.00039692184317903284 0 0.054564784672623518 0.00032774540345431618 0 0.054509282114009627 0.00032114076155718312 0 0.054439763212940188 0.00030746558796040729 0 0.054509282114009627 0.00032114076155718312 0 0.054533758706287939 0.00025316789251947027 0 0.054509282114009627 0.00032114076155718312 0 0.054533758706287939 0.00025316789251947027 0 0.054582937555191273 0.00028200418803445056 0 0.054564784672623518 0.00032774540345431618 0 0.054509282114009627 0.00032114076155718312 0 0.054582937555191273 0.00028200418803445056 0 0.054533758706287939 0.00025316789251947027 0 0.054582937555191273 0.00028200418803445056 0 0.054600262936005506 0.00021269426096792195 0 0.054582937555191273 0.00028200418803445056 0 0.054600262936005506 0.00021269426096792195 0 0.054616945785728087 0.0002584606260963478 0 0.054533758706287939 0.00025316789251947027 0 0.054600262936005506 0.00021269426096792195 0 0.054617716515845217 0.00015910293862121975 0 0.054623680767204114 0.00032613858599402692 0 0.054689777329971136 0.00024599615015951417 0 0.054833147097322829 0.00027974996529585891 0 0.054575521485062867 0.00035217665693777821 0 0.054483712147216881 0.00031917886216415245 0 0.054492625517383424 0.0003241158297251473 0 0.054623680767204114 0.00032613858599402692 0 0.054596145785662561 0.00032845053606370551 0 0.054492625517383424 0.0003241158297251473 0 0.054564784672623518 0.00032774540345431618 0 0.054582937555191273 0.00028200418803445056 0 0.054596145785662561 0.00032845053606370551 0 0.054582937555191273 0.00028200418803445056 0 0.054623680767204114 0.00032613858599402692 0 0.054596145785662561 0.00032845053606370551 0 0.054582937555191273 0.00028200418803445056 0 0.054623680767204114 0.00032613858599402692 0 0.054616945785728087 0.0002584606260963478 0 0.054623680767204114 0.00032613858599402692 0 0.054616945785728087 0.0002584606260963478 0 0.054689777329971136 0.00024599615015951417 0 0.054616945785728087 0.0002584606260963478 0 0.054689777329971136 0.00024599615015951417 0 0.054627043384320631 0.00021745897526356624 0 0.054600262936005506 0.00021269426096792195 0 0.054616945785728087 0.0002584606260963478 0 0.054627043384320631 0.00021745897526356624 0 0.054635553664337928 0.00019643395245468663 0 0.054719648127652322 0.00015745549807393916 0 0.054576512848310256 0.00019519830906516831 0 0.054689777329971136 0.00024599615015951417 0 0.054695682457522495 0.00020021783464973882 0 0.054775902686722402 0.00020248114617617768 0 0.054695682457522495 0.00020021783464973882 0 0.054627043384320631 0.00021745897526356624 0 0.054635553664337928 0.00019643395245468663 0 0.054689777329971136 0.00024599615015951417 0 0.054695682457522495 0.00020021783464973882 0 0.054627043384320631 0.00021745897526356624 0 0.054695682457522495 0.00020021783464973882 0 0.054635553664337928 0.00019643395245468663 0 0.054719648127652322 0.00015745549807393916 0 0.054695682457522495 0.00020021783464973882 0 0.054719648127652322 0.00015745549807393916 0 0.054775902686722402 0.00020248114617617768 0 0.054680769396841258 0.0001481235567389146 0 0.054617716515845217 0.00015910293862121975 0 0.054598073004527285 0.00018750644064357861 0 0.054680769396841258 0.0001481235567389146 0 0.054598073004527285 0.00018750644064357861 0 0.054576512848310256 0.00019519830906516831 0 0.054600262936005506 0.00021269426096792195 0 0.054617716515845217 0.00015910293862121975 0 0.054598073004527285 0.00018750644064357861 0 0.054627043384320631 0.00021745897526356624 0 0.054635553664337928 0.00019643395245468663 0 0.054598073004527285 0.00018750644064357861 0 0.054600262936005506 0.00021269426096792195 0 0.054627043384320631 0.00021745897526356624 0 0.054598073004527285 0.00018750644064357861 0 0.054635553664337928 0.00019643395245468663 0 0.054598073004527285 0.00018750644064357861 0 0.054576512848310256 0.00019519830906516831 0 0.054958306357770513 3.8385696541615523e-05 0 0.054991266241640878 7.1682514102830371e-05 0 0.054990430101407077 1.8336302990119805e-05 0 0.054958306357770513 3.8385696541615523e-05 0 0.054902766912588601 8.2496375737389489e-05 0 0.054991266241640878 7.1682514102830371e-05 0 0.054719648127652322 0.00015745549807393916 0 0.054576512848310256 0.00019519830906516831 0 0.054767596696477315 2.7298938877883372e-05 0 0.054790614325438851 0.00012597928074681712 0 0.054885867065029487 3.3024933641379243e-05 0 0.054991266241640878 7.1682514102830371e-05 0 0.055009060055972982 1.5397203176912484e-05 0 0.054990430101407077 1.8336302990119805e-05 0 0.055009060055972982 1.5397203176912484e-05 0 0.05500000591639248 1.4232313337610109e-08 0 0.054990430101407077 1.8336302990119805e-05 0 0.05499996708248097 1.0569866199536592e-08 0 0.054958306357770513 3.8385696541615523e-05 0 0.054990430101407077 1.8336302990119805e-05 0 0.05499996708248097 1.0569866199536592e-08 0 0.05500000591639248 1.4232313337610109e-08 0 0.054990430101407077 1.8336302990119805e-05 0 0.054885867065029487 3.3024933641379243e-05 0 0.054999954370288678 5.9708405806847436e-09 0 0.055009060055972982 1.5397203176912484e-05 0 0.05500000591639248 1.4232313337610109e-08 0 0.055000014817672721 -1.1874353305175291e-09 0 0.054767596696477315 2.7298938877883372e-05 0 0.055001943650429985 -8.0691545447264407e-07 0 0.054972036008642637 2.663556933434743e-05 0 0.054719648127652322 0.00015745549807393916 0 0.054767596696477315 2.7298938877883372e-05 0 0.054872847508666903 0.0001390988417687266 0 0.054767596696477315 2.7298938877883372e-05 0 0.054872847508666903 0.0001390988417687266 0 0.054972036008642637 2.663556933434743e-05 0 0.054972036008642637 2.663556933434743e-05 0 0.054979709121543069 0.00012435887962239121 0 0.055077118899889907 0.00012288850491935576 0 0.054872847508666903 0.0001390988417687266 0 0.054972036008642637 2.663556933434743e-05 0 0.054979709121543069 0.00012435887962239121 0 0.05222914114856745 0.00044031984676366781 0 0.054937104732321211 0.0002537555769244463 0 0.054872847508666903 0.0001390988417687266 0 0.054979270830426835 0.00021286869886389856 0 0.054833147097322829 0.00027974996529585891 0 0.054872847508666903 0.0001390988417687266 0 0.054979709121543069 0.00012435887962239121 0 0.054979270830426835 0.00021286869886389856 0 0.048911721009314776 0.00018249636354048313 0 0.048988473108529301 2.8679643096381223e-05 0 0.048685019887143195 5.541393776903682e-06 0 0.054872847508666903 0.0001390988417687266 0 0.054775902686722402 0.00020248114617617768 0 0.054833147097322829 0.00027974996529585891 0 0.054719648127652322 0.00015745549807393916 0 0.054872847508666903 0.0001390988417687266 0 0.054775902686722402 0.00020248114617617768 0 0.054689777329971136 0.00024599615015951417 0 0.054775902686722402 0.00020248114617617768 0 0.054833147097322829 0.00027974996529585891 0 0.053907242472328976 0.00067516743092581322 0 0.054318510300516841 0.00051409171752843732 0 0.054444961612595627 0.00029172254089359587 0 0.054495432994016151 0.00039825552110320537 0 0.054937104732321211 0.0002537555769244463 0 0.048988473108529301 2.8679643096381223e-05 0 0.049675506226981622 -0.00057786577558346485 0 0.049865665294993519 -0.00046863226425903368 0 0.05222914114856745 0.00044031984676366781 0 0.052830278371671556 0.00035315441448924534 0 0.054623680767204114 0.00032613858599402692 0 0.054318510300516841 0.00051409171752843732 0 0.054492625517383424 0.0003241158297251473 0 0.054318510300516841 0.00051409171752843732 0 0.054444961612595627 0.00029172254089359587 0 0.054492625517383424 0.0003241158297251473 0 0.049204081637894498 0.0002306027343460725 0 0.052830278371671556 0.00035315441448924534 0 0.052830278371671556 0.00035315441448924534 0 0.053180865535200503 0.00047936482501216847 0 0.048988473108529301 2.8679643096381223e-05 0 0.049368016694873125 -0.0003989229125593927 0 0.048982791163195774 -0.00036020871671362973 0 0.048911721009314776 0.00018249636354048313 0 0.048988473108529301 2.8679643096381223e-05 0 0.049865665294993519 -0.00046863226425903368 0 0.049191589164471833 -0.00024665095869955291 0 0.049204081637894498 0.0002306027343460725 0 0.048988473108529301 2.8679643096381223e-05 0 0.048828844797394813 -0.00016111738656135604 0 0.048982791163195774 -0.00036020871671362973 0 0.048988473108529301 2.8679643096381223e-05 0 0.048828844797394813 -0.00016111738656135604 0 0.048685019887143195 5.541393776903682e-06 0 0.048828844797394813 -0.00016111738656135604 0 0.048982791163195774 -0.00036020871671362973 0 0.04865416078528173 -0.00030727455247407713 0 0.055001943650429985 -8.0691545447264407e-07 0 0.054940158527651918 8.3539376881508346e-06 0 0.054995112776533579 1.5667878209513741e-06 0 0.04865416078528173 -0.00030727455247407713 0 0.048409424296496903 -9.2016241025700803e-05 0 0.048179894234967394 -0.00053947906593438668 0 0.04865416078528173 -0.00030727455247407713 0 0.048409424296496903 -9.2016241025700803e-05 0 0.048685019887143195 5.541393776903682e-06 0 0.048828844797394813 -0.00016111738656135604 0 0.04865416078528173 -0.00030727455247407713 0 0.048685019887143195 5.541393776903682e-06 0 0.048148614892292788 -3.118464170673711e-05 0 0.048071193560310241 -2.2701263847053623e-05 0 0.048104000166510084 -4.2405197924686323e-05 0 0.048133066121240652 -1.639720119598056e-05 0 0.048226689793143401 -0.00038550410842965545 0 0.048409424296496903 -9.2016241025700803e-05 0 0.048148614892292788 -3.118464170673711e-05 0 0.048179894234967394 -0.00053947906593438668 0 0.048148614892292788 -3.118464170673711e-05 0 0.04837462824226782 0.00036125156558877448 0 0.0479429478875745 -5.1761633941712867e-05 0 0.051597215856078953 -6.3567324869789405e-05 0 0.049296330969907563 -5.4586696531097152e-05 0 0.048409424296496903 -9.2016241025700803e-05 0 0.048148614892292788 -3.118464170673711e-05 0 0.04837462824226782 0.00036125156558877448 0 0.054979709121543069 0.00012435887962239121 0 0.054979270830426835 0.00021286869886389856 0 0.055077118899889907 0.00012288850491935576 0 0.05222914114856745 0.00044031984676366781 0 0.051597215856078953 -6.3567324869789405e-05 0 0.052345018515568144 0.00042336305568476404 0 0.052917190948021012 -4.9929885931953262e-05 0 0.053101583946454846 6.0234180381944637e-05 0 0.048911721009314776 0.00018249636354048313 0 0.048685019887143195 5.541393776903682e-06 0 0.04837462824226782 0.00036125156558877448 0 0.048409424296496903 -9.2016241025700803e-05 0 0.048685019887143195 5.541393776903682e-06 0 0.04837462824226782 0.00036125156558877448 0 0.05222914114856745 0.00044031984676366781 0 0.05433947406379485 0.00011426523353875038 0 0.055001943650429985 -8.0691545447264407e-07 0 0.054972036008642637 2.663556933434743e-05 0 0.054940158527651918 8.3539376881508346e-06 0 0.054972036008642637 2.663556933434743e-05 0 0.054953749126499189 8.0593015524826832e-06 0 0.054940158527651918 8.3539376881508346e-06 0 0.055203014805367941 8.272811893490275e-05 0 0.05433947406379485 0.00011426523353875038 0 0.05433947406379485 0.00011426523353875038 0 0.051597215856078953 -6.3567324869789405e-05 0 0.05433947406379485 0.00011426523353875038 0 0.05515573958723461 -9.1053597337761906e-05 0 0.054939453428713439 -4.3835211597243948e-05 0 0.054934266628696549 -4.8341294914573899e-05 0 0.054940158527651918 8.3539376881508346e-06 0 0.054934266628696549 -4.8341294914573899e-05 0 0.054940158527651918 8.3539376881508346e-06 0 0.05484402408132192 -1.711639924083526e-05 0 0.051597215856078953 -6.3567324869789405e-05 0 0.053423397856115121 3.1579097999835959e-05 0 0.054940158527651918 8.3539376881508346e-06 0 0.054995112776533579 1.5667878209513741e-06 0 0.05484402408132192 -1.711639924083526e-05 0 0.053997105766864874 -2.3219561629301938e-06 0 0.054995112776533579 1.5667878209513741e-06 0 0.05484402408132192 -1.711639924083526e-05 0 0.053988577026040825 2.2703218126307611e-07 0 0.053423397856115121 3.1579097999835959e-05 0 0.051602354992111042 8.627952482856035e-05 0 0.051364642413870149 0.00010521424489525899 0 0.051169267033207753 0.00013779797930761755 0 0.051364642413870149 0.00010521424489525899 0 0.051540855074916285 1.2090316306299189e-06 0 0.051169267033207753 0.00013779797930761755 0 0.05398430079336998 -1.5858930136760188e-06 0 0.051364642413870149 0.00010521424489525899 0 0.051540855074916285 1.2090316306299189e-06 0 0.051540855074916285 1.2090316306299189e-06 0 0.050323046251833967 9.1218260726750499e-05 0 0.04908823441778095 -1.9146964602563608e-07 0 0.051540855074916285 1.2090316306299189e-06 0 0.050323046251833967 9.1218260726750499e-05 0 0.051169267033207753 0.00013779797930761755 0 0.051602354992111042 8.627952482856035e-05 0 0.051169267033207753 0.00013779797930761755 0 0.051308060009882112 -0.00012978483946962001 0 0.050323046251833967 9.1218260726750499e-05 0 0.051169267033207753 0.00013779797930761755 0 0.051308060009882112 -0.00012978483946962001 0 0.0479429478875745 -5.1761633941712867e-05 0 0.048057398982239236 3.8153813078346762e-05 0 0.04811759156865425 0.00010204286814970185 0 0.0479429478875745 -5.1761633941712867e-05 0 0.048057398982239236 3.8153813078346762e-05 0 0.048071193560310241 -2.2701263847053623e-05 0 0.048148614892292788 -3.118464170673711e-05 0 0.0479429478875745 -5.1761633941712867e-05 0 0.048071193560310241 -2.2701263847053623e-05 0 0.048057398982239236 3.8153813078346762e-05 0 0.04811759156865425 0.00010204286814970185 0 0.048063613341150835 6.5060568972525037e-05 0 0.048057398982239236 3.8153813078346762e-05 0 0.048071193560310241 -2.2701263847053623e-05 0 0.04809575467304212 -2.1530871350012501e-05 0 0.0479429478875745 -5.1761633941712867e-05 0 0.04811759156865425 0.00010204286814970185 0 0.048658953544836792 -2.1148870689612136e-05 0 0.050323046251833967 9.1218260726750499e-05 0 0.051308060009882112 -0.00012978483946962001 0 0.048658953544836792 -2.1148870689612136e-05 0 0.049296330969907563 -5.4586696531097152e-05 0 0.048967171722819787 -5.9229860438436916e-06 0 0.050323046251833967 9.1218260726750499e-05 0 0.04908823441778095 -1.9146964602563608e-07 0 0.048658953544836792 -2.1148870689612136e-05 0 0.04811759156865425 0.00010204286814970185 0 0.048658953544836792 -2.1148870689612136e-05 0 0.047982199271568209 0.00010676531888041362 0 0.047982199271568209 0.00010676531888041362 0 0.04784046252250769 0.00013427558014538759 0 0.046641684258699502 -4.4423415372382987e-07 0 0.048658953544836792 -2.1148870689612136e-05 0 0.047982199271568209 0.00010676531888041362 0 0.046641684258699502 -4.4423415372382987e-07 0 0.04908823441778095 -1.9146964602563608e-07 0 0.048658953544836792 -2.1148870689612136e-05 0 0.046641684258699502 -4.4423415372382987e-07 0 0.04784046252250769 0.00013427558014538759 0 0.046641684258699502 -4.4423415372382987e-07 0 0.048118050096993013 -0.000139637484797439 0 0.04811759156865425 0.00010204286814970185 0 0.04784046252250769 0.00013427558014538759 0 0.048063613341150835 6.5060568972525037e-05 0 0.04811759156865425 0.00010204286814970185 0 0.047982199271568209 0.00010676531888041362 0 0.04784046252250769 0.00013427558014538759 0 0.04784046252250769 0.00013427558014538759 0 0.048118050096993013 -0.000139637484797439 0 0.048063613341150835 6.5060568972525037e-05 0 0.046638431692166311 -2.5207688023246319e-07 0 0.045660024280684101 -0.00071690229495376015 0 0.046634937750604039 -7.1018762588045655e-07 0 0.043941916852140286 -7.2569982786144257e-07 0 0.044033834058850918 2.8638181477797575e-05 0 0.046634937750604039 -7.1018762588045655e-07 0 0.043756773389733501 -0.00018254274080755229 0 0.044033834058850918 2.8638181477797575e-05 0 0.046641684258699502 -4.4423415372382987e-07 0 0.048386739217088255 -0.0011970767926713032 0 0.048118050096993013 -0.000139637484797439 0 0.048086261076421222 -8.8406402528525194e-05 0 0.048086632934085112 -8.7391119408989794e-05 0 0.048068790220184093 -9.161713625215958e-05 0 0.044008390927860838 -0.0010365625075658494 0 0.043821648526015528 -0.00037203553338739236 0 0.04336257187890423 -0.00063149498261921735 0 0.045660024280684101 -0.00071690229495376015 0 0.043364398181050604 -0.00078960878942494015 0 0.043756773389733501 -0.00018254274080755229 0 0.044033834058850918 2.8638181477797575e-05 0 0.043971673470602435 -4.2554105600983639e-05 0 0.045660024280684101 -0.00071690229495376015 0 0.041990371624252412 -0.0011791558067711545 0 0.048086261076421222 -8.8406402528525194e-05 0 0.048086632934085112 -8.7391119408989794e-05 0 0.048118050096993013 -0.000139637484797439 0 0.045660024280684101 -0.00071690229495376015 0 0.047613587611888754 -0.00051089928422288805 0 0.048086632934085112 -8.7391119408989794e-05 0 0.048118050096993013 -0.000139637484797439 0 0.04809575467304212 -2.1530871350012501e-05 0 0.048118050096993013 -0.000139637484797439 0 0.048063613341150835 6.5060568972525037e-05 0 0.04809575467304212 -2.1530871350012501e-05 0 0.048057398982239236 3.8153813078346762e-05 0 0.048063613341150835 6.5060568972525037e-05 0 0.04809575467304212 -2.1530871350012501e-05 0 0.048071193560310241 -2.2701263847053623e-05 0 0.04809575467304212 -2.1530871350012501e-05 0 0.048104000166510084 -4.2405197924686323e-05 0 0.048226689793143401 -0.00038550410842965545 0 0.046026264527694351 -0.00021325296077275035 0 0.048086632934085112 -8.7391119408989794e-05 0 0.04809575467304212 -2.1530871350012501e-05 0 0.048104000166510084 -4.2405197924686323e-05 0 0.048800863599409341 -0.00072176790897501961 0 0.048179894234967394 -0.00053947906593438668 0 0.048208788339007019 -0.00104241662184549 0 0.048800863599409341 -0.00072176790897501961 0 0.04865416078528173 -0.00030727455247407713 0 0.048179894234967394 -0.00053947906593438668 0 0.044677536220499102 0.0011277682819832945 0 0.044231431348937388 1.0729594658879282e-05 0 0.043354667104449379 0.00038179037329478849 0 0.046434976646911756 0.00017615554474711278 0 0.046026264527694351 -0.00021325296077275035 0 0.048086632934085112 -8.7391119408989794e-05 0 0.048104000166510084 -4.2405197924686323e-05 0 0.048087480048710739 -9.2561051567545695e-05 0 0.046026264527694351 -0.00021325296077275035 0 0.043364398181050604 -0.00078960878942494015 0 0.048086632934085112 -8.7391119408989794e-05 0 0.048087480048710739 -9.2561051567545695e-05 0 0.048068790220184093 -9.161713625215958e-05 0 0.040521783539577715 -0.0014365306509466151 0 0.043364398181050604 -0.00078960878942494015 0 0.046026264527694351 -0.00021325296077275035 0 0.040521783539577715 -0.0014365306509466151 0 0.043284758432627621 -0.00082434571736687942 0 0.043269667879450552 -0.0008562255111308262 0 0.043255861824422356 -0.00083934245936379708 0 0.03816235226897511 -0.0022560627578123143 0 0.038348105281116672 -0.0021896272495735732 0 0.038234070903294747 -0.0020716398824502462 0 0.03816235226897511 -0.0022560627578123143 0 0.038348105281116672 -0.0021896272495735732 0 0.038437570536462504 -0.00240800624590337 0 0.043430273082822858 -0.00061705469539093875 0 0.044551309086657324 -0.00059434027135248015 0 0.044396869022666388 -0.0012313420173370561 0 0.044231431348937388 1.0729594658879282e-05 0 0.043354667104449379 0.00038179037329478849 0 0.043430273082822858 -0.00061705469539093875 0 0.044231431348937388 1.0729594658879282e-05 0 0.043430273082822858 -0.00061705469539093875 0 0.044551309086657324 -0.00059434027135248015 0 0.040521783539577715 -0.0014365306509466151 0 0.041638256470373239 -0.0020583724278591376 0 0.038138169440679347 -0.0025648158421075415 0 0.037720207437667387 -0.0023154545859772209 0 0.038066524929032106 -0.0021064859636082136 0 0.037723909812138273 -0.0019472595780041823 0 0.037720207437667387 -0.0023154545859772209 0 0.038066524929032106 -0.0021064859636082136 0 0.040521783539577715 -0.0014365306509466151 0 0.038015315004176417 -0.002168066940878437 0 0.038337647077961369 -0.0018940666066262282 0 0.038348105281116672 -0.0021896272495735732 0 0.038234070903294747 -0.0020716398824502462 0 0.03816235226897511 -0.0022560627578123143 0 0.038234070903294747 -0.0020716398824502462 0 0.038087233430182353 -0.0019477275852580458 0 0.038337647077961369 -0.0018940666066262282 0 0.038234070903294747 -0.0020716398824502462 0 0.038087233430182353 -0.0019477275852580458 0 0.039124186328003782 0.00012189929456533594 0 0.040804424181264093 -2.0965968218017779e-06 0 0.040650074489004213 -0.0014492111348127703 0 0.038337647077961369 -0.0018940666066262282 0 0.038348105281116672 -0.0021896272495735732 0 0.038540304780083294 -0.0023471896694499199 0 0.038278036420421338 -0.00097420622723506315 0 0.041990371624252412 -0.0011791558067711545 0 0.041244798388845344 2.4842861697803328e-07 0 0.042790851846824733 -0.00034108664204510289 0 0.043941916852140286 -7.2569982786144257e-07 0 0.041244798388845344 2.4842861697803328e-07 0 0.040804424181264093 -2.0965968218017779e-06 0 0.042790851846824733 -0.00034108664204510289 0 0.040804424181264093 -2.0965968218017779e-06 0 0.042790851846824733 -0.00034108664204510289 0 0.040650074489004213 -0.0014492111348127703 0 0.042927584396181405 -0.00030793233710504333 0 0.041990371624252412 -0.0011791558067711545 0 0.042790851846824733 -0.00034108664204510289 0 0.043941916852140286 -7.2569982786144257e-07 0 0.044033834058850918 2.8638181477797575e-05 0 0.042790851846824733 -0.00034108664204510289 0 0.044033834058850918 2.8638181477797575e-05 0 0.043971673470602435 -4.2554105600983639e-05 0 0.041990371624252412 -0.0011791558067711545 0 0.043364398181050604 -0.00078960878942494015 0 0.038348105281116672 -0.0021896272495735732 0 0.038540304780083294 -0.0023471896694499199 0 0.038437570536462504 -0.00240800624590337 0 0.052482296924948504 -0.00083729706732178452 0 0.052484037716212351 -0.00079143637098484914 0 0.052538161398360136 -0.00087713001303269423 0 0.052482296924948504 -0.00083729706732178452 0 0.052514606980578728 -0.00078777308301655551 0 0.052659123399368048 -0.00036247560221568125 0 0.052482296924948504 -0.00083729706732178452 0 0.052323981287022113 -0.00066621856515656564 0 0.051769545843384751 -0.00069605926619802604 0 0.052467208335942442 -0.00081933536882129851 0 0.052139310058254562 -0.00044725846993352885 0 0.052482296924948504 -0.00083729706732178452 0 0.052484037716212351 -0.00079143637098484914 0 0.052323981287022113 -0.00066621856515656564 0 0.052546667502301532 -0.00068161342413444769 0 0.052484037716212351 -0.00079143637098484914 0 0.052323981287022113 -0.00066621856515656564 0 0.052546667502301532 -0.00068161342413444769 0 0.052580702921199804 -0.0008108504029647589 0 0.052484037716212351 -0.00079143637098484914 0 0.052546667502301532 -0.00068161342413444769 0 0.052580702921199804 -0.0008108504029647589 0 0.052712049206027789 -0.00070717809415598491 0 0.052620671486208838 -0.00087475892752458091 0 0.052696818777382352 -0.00081882365622097707 0 0.052683982471991159 -0.00091326227826401174 0 0.052580702921199804 -0.0008108504029647589 0 0.052620671486208838 -0.00087475892752458091 0 0.052696818777382352 -0.00081882365622097707 0 0.052580702921199804 -0.0008108504029647589 0 0.052696818777382352 -0.00081882365622097707 0 0.052712049206027789 -0.00070717809415598491 0 0.052580702921199804 -0.0008108504029647589 0 0.052538161398360136 -0.00087713001303269423 0 0.052620671486208838 -0.00087475892752458091 0 0.052580702921199804 -0.0008108504029647589 0 0.052484037716212351 -0.00079143637098484914 0 0.052538161398360136 -0.00087713001303269423 0 0.052538161398360136 -0.00087713001303269423 0 0.052620671486208838 -0.00087475892752458091 0 0.052615391697338608 -0.00092957882391715675 0 0.052538161398360136 -0.00087713001303269423 0 0.052615391697338608 -0.00092957882391715675 0 0.052569670928611423 -0.00093491757713143266 0 0.052615391697338608 -0.00092957882391715675 0 0.052598334603530146 -0.0009666823123304193 0 0.052683982471991159 -0.00091326227826401174 0 0.052620671486208838 -0.00087475892752458091 0 0.052615391697338608 -0.00092957882391715675 0 0.052683982471991159 -0.00091326227826401174 0 0.05360261680475191 -0.00067355332725011158 0 0.053572803773061284 -0.0011436345689116048 0 0.054497584489086877 -0.00085330030004280319 0 0.054798301935546218 -0.00094214528760012354 0 0.054454451340703508 -0.0012786798486540544 0 0.052604277340993176 -0.00095957182284892256 0 0.052564065167187771 -0.00096852428397915379 0 0.052559358297712737 -0.0010205568846090585 0 0.052569670928611423 -0.00093491757713143266 0 0.052604277340993176 -0.00095957182284892256 0 0.052564065167187771 -0.00096852428397915379 0 0.052824382654161631 -0.0011338535643986671 0 0.05360261680475191 -0.00067355332725011158 0 0.052615391697338608 -0.00092957882391715675 0 0.052569670928611423 -0.00093491757713143266 0 0.052604277340993176 -0.00095957182284892256 0 0.052564065167187771 -0.00096852428397915379 0 0.052548167608915411 -0.00099077556141830524 0 0.052559358297712737 -0.0010205568846090585 0 0.052548167608915411 -0.00099077556141830524 0 0.052540394345763589 -0.00093405371926706215 0 0.052530872499725441 -0.0010135555063039375 0 0.052564065167187771 -0.00096852428397915379 0 0.052548167608915411 -0.00099077556141830524 0 0.052540394345763589 -0.00093405371926706215 0 0.052569670928611423 -0.00093491757713143266 0 0.052564065167187771 -0.00096852428397915379 0 0.052540394345763589 -0.00093405371926706215 0 0.052482296924948504 -0.00083729706732178452 0 0.052538161398360136 -0.00087713001303269423 0 0.052540394345763589 -0.00093405371926706215 0 0.052538161398360136 -0.00087713001303269423 0 0.052569670928611423 -0.00093491757713143266 0 0.052540394345763589 -0.00093405371926706215 0 0.052482296924948504 -0.00083729706732178452 0 0.052525237866334881 -0.00091004145820954431 0 0.052514606980578728 -0.00078777308301655551 0 0.052482296924948504 -0.00083729706732178452 0 0.052540394345763589 -0.00093405371926706215 0 0.052525237866334881 -0.00091004145820954431 0 0.052525237866334881 -0.00091004145820954431 0 0.052530872499725441 -0.0010135555063039375 0 0.052507362683907079 -0.00099840592972836087 0 0.052540394345763589 -0.00093405371926706215 0 0.052525237866334881 -0.00091004145820954431 0 0.052530872499725441 -0.0010135555063039375 0 0.052530872499725441 -0.0010135555063039375 0 0.052507362683907079 -0.00099840592972836087 0 0.052519075586745359 -0.0010622564800214236 0 0.052430999344135976 -0.00103131294109572 0 0.0524585307654057 -0.0012113437052414164 0 0.052517146983634008 -0.0011355226050020278 0 0.052507362683907079 -0.00099840592972836087 0 0.052430999344135976 -0.00103131294109572 0 0.052517146983634008 -0.0011355226050020278 0 0.052507362683907079 -0.00099840592972836087 0 0.052430999344135976 -0.00103131294109572 0 0.052514606980578728 -0.00078777308301655551 0 0.052430999344135976 -0.00103131294109572 0 0.052269015258104824 -0.00076200839581469645 0 0.052514606980578728 -0.00078777308301655551 0 0.052525237866334881 -0.00091004145820954431 0 0.052507362683907079 -0.00099840592972836087 0 0.052514606980578728 -0.00078777308301655551 0 0.052196373847516984 -0.00135617431924881 0 0.052286264452917439 -0.0010972354667137421 0 0.0524585307654057 -0.0012113437052414164 0 0.052430999344135976 -0.00103131294109572 0 0.052286264452917439 -0.0010972354667137421 0 0.0524585307654057 -0.0012113437052414164 0 0.052430999344135976 -0.00103131294109572 0 0.052286264452917439 -0.0010972354667137421 0 0.052269015258104824 -0.00076200839581469645 0 0.052286264452917439 -0.0010972354667137421 0 0.052004347665083626 -0.00097377326616758595 0 0.052269015258104824 -0.00076200839581469645 0 0.052196373847516984 -0.00135617431924881 0 0.052286264452917439 -0.0010972354667137421 0 0.052004347665083626 -0.00097377326616758595 0 0.051888884975270069 -0.00051325705924860725 0 0.052269015258104824 -0.00076200839581469645 0 0.052111707402777659 -0.00035645921512277392 0 0.052004347665083626 -0.00097377326616758595 0 0.051888884975270069 -0.00051325705924860725 0 0.052269015258104824 -0.00076200839581469645 0 0.052111707402777659 -0.00035645921512277392 0 0.052376630044817941 -0.00036865758170883159 0 0.052138132877238355 -0.00011048696407931273 0 0.052269015258104824 -0.00076200839581469645 0 0.052111707402777659 -0.00035645921512277392 0 0.052376630044817941 -0.00036865758170883159 0 0.051888884975270069 -0.00051325705924860725 0 0.052111707402777659 -0.00035645921512277392 0 0.051778360716136257 -6.4405438737243917e-06 0 0.052111707402777659 -0.00035645921512277392 0 0.051778360716136257 -6.4405438737243917e-06 0 0.052138132877238355 -0.00011048696407931273 0 0.052269015258104824 -0.00076200839581469645 0 0.052514606980578728 -0.00078777308301655551 0 0.052376630044817941 -0.00036865758170883159 0 0.052514606980578728 -0.00078777308301655551 0 0.052376630044817941 -0.00036865758170883159 0 0.052659123399368048 -0.00036247560221568125 0 0.051984893758887325 -7.335893978581461e-05 0 0.052139310058254562 -0.00044725846993352885 0 0.052376630044817941 -0.00036865758170883159 0 0.052459522185007934 -0.00010079237143486848 0 0.052659123399368048 -0.00036247560221568125 0 0.050950626846590637 -0.00010268340734132615 0 0.051591315811439255 -0.00028079226340284015 0 0.051769545843384751 -0.00069605926619802604 0 0.052459522185007934 -0.00010079237143486848 0 0.0525094715740866 0.00029214823615187024 0 0.052659123399368048 -0.00036247560221568125 0 0.052376630044817941 -0.00036865758170883159 0 0.052256556996710946 9.5623950761483298e-05 0 0.052138132877238355 -0.00011048696407931273 0 0.052376630044817941 -0.00036865758170883159 0 0.052459522185007934 -0.00010079237143486848 0 0.052256556996710946 9.5623950761483298e-05 0 0.052459522185007934 -0.00010079237143486848 0 0.052256556996710946 9.5623950761483298e-05 0 0.0525094715740866 0.00029214823615187024 0 0.052256556996710946 9.5623950761483298e-05 0 0.0525094715740866 0.00029214823615187024 0 0.052143014447484176 0.00039084856280565869 0 0.050950626846590637 -0.00010268340734132615 0 0.051343174527501444 -5.3796872661602307e-05 0 0.051591315811439255 -0.00028079226340284015 0 0.051778360716136257 -6.4405438737243917e-06 0 0.051950465802382176 0.00022977385547937734 0 0.051568423997103381 0.00039108157104789798 0 0.051778360716136257 -6.4405438737243917e-06 0 0.052138132877238355 -0.00011048696407931273 0 0.051950465802382176 0.00022977385547937734 0 0.052256556996710946 9.5623950761483298e-05 0 0.052138132877238355 -0.00011048696407931273 0 0.051950465802382176 0.00022977385547937734 0 0.052256556996710946 9.5623950761483298e-05 0 0.052143014447484176 0.00039084856280565869 0 0.051950465802382176 0.00022977385547937734 0 0.052143014447484176 0.00039084856280565869 0 0.051950465802382176 0.00022977385547937734 0 0.051882916580110371 0.00051577074323631833 0 0.050350032329524057 0.0012105021493368311 0 0.049837075463872046 0.00081709601537776667 0 0.051950465802382176 0.00022977385547937734 0 0.051882916580110371 0.00051577074323631833 0 0.051568423997103381 0.00039108157104789798 0 0.048542688898653229 0.001781610140932151 0 0.048601107182480861 0.0023342842702756051 0 0.048263252937926285 0.0023998917575511498 0 0.048542688898653229 0.001781610140932151 0 0.048011511063290997 0.0020404256153909511 0 0.048180140364550414 0.001286503150665373 0 0.048542688898653229 0.001781610140932151 0 0.048263252937926285 0.0023998917575511498 0 0.048011511063290997 0.0020404256153909511 0 0.050350032329524057 0.0012105021493368311 0 0.049775859904268679 0.0014942403744781195 0 0.052143014447484176 0.00039084856280565869 0 0.051882916580110371 0.00051577074323631833 0 0.052174900095881355 0.0008134036798260174 0 0.048542688898653229 0.001781610140932151 0 0.049098696262983056 0.0023237679055751535 0 0.048601107182480861 0.0023342842702756051 0 0.043904499935577684 0.0055141113767991643 0 0.046708591456391488 0.00132542388841982 0 0.048329872958841974 0.002867684504442729 0 0.045074630249060894 0.0052556543815457622 0 0.049775859904268679 0.0014942403744781195 0 0.048708923101537363 0.0029274999490731426 0 0.049098696262983056 0.0023237679055751535 0 0.048677562367591493 0.0025954450166388813 0 0.049098696262983056 0.0023237679055751535 0 0.048677562367591493 0.0025954450166388813 0 0.048601107182480861 0.0023342842702756051 0 0.048601107182480861 0.0023342842702756051 0 0.048437173641454105 0.0025961407854655171 0 0.048263252937926285 0.0023998917575511498 0 0.048677562367591493 0.0025954450166388813 0 0.048601107182480861 0.0023342842702756051 0 0.048437173641454105 0.0025961407854655171 0 0.048605445139267629 0.0028193197081748124 0 0.048677562367591493 0.0025954450166388813 0 0.048437173641454105 0.0025961407854655171 0 0.048404841480865816 0.0027908705687915581 0 0.048605445139267629 0.0028193197081748124 0 0.048437173641454105 0.0025961407854655171 0 0.048180432438181223 0.0027763173799463404 0 0.048404841480865816 0.0027908705687915581 0 0.048437173641454105 0.0025961407854655171 0 0.048180432438181223 0.0027763173799463404 0 0.048263252937926285 0.0023998917575511498 0 0.04793471716716232 0.0025550604609834429 0 0.048180432438181223 0.0027763173799463404 0 0.048437173641454105 0.0025961407854655171 0 0.048263252937926285 0.0023998917575511498 0 0.050950626846590637 -0.00010268340734132615 0 0.051343174527501444 -5.3796872661602307e-05 0 0.05106183278341709 0.00064464343682125828 0 0.051171410785379484 5.9127160246524442e-05 0 0.051969545354156654 0.00074260844377134147 0 0.051343174527501444 -5.3796872661602307e-05 0 0.05106183278341709 0.00064464343682125828 0 0.051377708267755784 0.0011031810239825624 0 0.051343174527501444 -5.3796872661602307e-05 0 0.051341033583680043 0.0007599734983349749 0 0.051524180710521089 0.00024320572792916646 0 0.050950626846590637 -0.00010268340734132615 0 0.05106183278341709 0.00064464343682125828 0 0.050644227834441502 0.00067049565592169761 0 0.0525094715740866 0.00029214823615187024 0 0.052143014447484176 0.00039084856280565869 0 0.052174900095881355 0.0008134036798260174 0 0.051984893758887325 -7.335893978581461e-05 0 0.049775859904268679 0.0014942403744781195 0 0.050950626846590637 -0.00010268340734132615 0 0.050139743178742847 0.00094072078591268815 0 0.050644227834441502 0.00067049565592169761 0 0.05106183278341709 0.00064464343682125828 0 0.050367411875946434 0.001182452067470882 0 0.050925343477237331 0.001150638234749674 0 0.05106183278341709 0.00064464343682125828 0 0.050644227834441502 0.00067049565592169761 0 0.0504285923104884 0.0012077890220178382 0 0.051946376321196357 3.9081953436753485e-06 0 0.04729480046202645 0.0024241068647168382 0 0.050139743178742847 0.00094072078591268815 0 0.050644227834441502 0.00067049565592169761 0 0.0504285923104884 0.0012077890220178382 0 0.049775859904268679 0.0014942403744781195 0 0.04729480046202645 0.0024241068647168382 0 0.050934987664408383 0.00170091516895093 0 0.050367411875946434 0.001182452067470882 0 0.050925343477237331 0.001150638234749674 0 0.050934987664408383 0.00170091516895093 0 0.050925343477237331 0.001150638234749674 0 0.051377708267755784 0.0011031810239825624 0 0.05106183278341709 0.00064464343682125828 0 0.050925343477237331 0.001150638234749674 0 0.051377708267755784 0.0011031810239825624 0 0.051404133504643568 0.0009520840427521168 0 0.051341033583680043 0.0007599734983349749 0 0.051640089632798307 0.00066564621109518559 0 0.051404133504643568 0.0009520840427521168 0 0.051640089632798307 0.00066564621109518559 0 0.051979142181529367 0.00080620707207556673 0 0.051640089632798307 0.00066564621109518559 0 0.051914817580333644 0.00040541641180986255 0 0.051659839937847174 0.0003422671116550185 0 0.051341033583680043 0.0007599734983349749 0 0.051640089632798307 0.00066564621109518559 0 0.051659839937847174 0.0003422671116550185 0 0.051105924182949312 0.00097329275694266074 0 0.051110028218936669 0.0012944825396419661 0 0.050548031967754876 0.0015231339104957952 0 0.044725732372388013 0.0025600066296270645 0 0.04698630882289638 0.0025159145596087371 0 0.052268518064910258 0.00067792870341458174 0 0.04698630882289638 0.0025159145596087371 0 0.051640089632798307 0.00066564621109518559 0 0.051979142181529367 0.00080620707207556673 0 0.051914817580333644 0.00040541641180986255 0 0.051979142181529367 0.00080620707207556673 0 0.052162215640106771 0.00043873552671745984 0 0.051914817580333644 0.00040541641180986255 0 0.051979142181529367 0.00080620707207556673 0 0.052162215640106771 0.00043873552671745984 0 0.052424867547964847 0.00057970339583117848 0 0.052162215640106771 0.00043873552671745984 0 0.051914817580333644 0.00040541641180986255 0 0.052134078789926507 0.00015322418117619051 0 0.052162215640106771 0.00043873552671745984 0 0.052134078789926507 0.00015322418117619051 0 0.052364021810714548 0.00025269441853639643 0 0.051914817580333644 0.00040541641180986255 0 0.051878961770011257 0.00017251932456753086 0 0.052134078789926507 0.00015322418117619051 0 0.051878961770011257 0.00017251932456753086 0 0.052134078789926507 0.00015322418117619051 0 0.052008795048987963 -9.1600240471720926e-06 0 0.052134078789926507 0.00015322418117619051 0 0.052008795048987963 -9.1600240471720926e-06 0 0.052184805840894868 -0.00013754343075326309 0 0.052134078789926507 0.00015322418117619051 0 0.052184805840894868 -0.00013754343075326309 0 0.052386682961545604 -9.0134349337286232e-05 0 0.051341033583680043 0.0007599734983349749 0 0.051659839937847174 0.0003422671116550185 0 0.051524180710521089 0.00024320572792916646 0 0.051914817580333644 0.00040541641180986255 0 0.051878961770011257 0.00017251932456753086 0 0.051659839937847174 0.0003422671116550185 0 0.051878961770011257 0.00017251932456753086 0 0.051759669917907203 -7.6724172717034244e-05 0 0.052008795048987963 -9.1600240471720926e-06 0 0.051878961770011257 0.00017251932456753086 0 0.051659839937847174 0.0003422671116550185 0 0.051759669917907203 -7.6724172717034244e-05 0 0.051659839937847174 0.0003422671116550185 0 0.051524180710521089 0.00024320572792916646 0 0.051759669917907203 -7.6724172717034244e-05 0 0.051343174527501444 -5.3796872661602307e-05 0 0.051524180710521089 0.00024320572792916646 0 0.051759669917907203 -7.6724172717034244e-05 0 0.051343174527501444 -5.3796872661602307e-05 0 0.051591315811439255 -0.00028079226340284015 0 0.051759669917907203 -7.6724172717034244e-05 0 0.051759669917907203 -7.6724172717034244e-05 0 0.052040811105907997 -0.00022706250560251031 0 0.052005057803013149 -0.00045665349452980768 0 0.051591315811439255 -0.00028079226340284015 0 0.051759669917907203 -7.6724172717034244e-05 0 0.052005057803013149 -0.00045665349452980768 0 0.051759669917907203 -7.6724172717034244e-05 0 0.052008795048987963 -9.1600240471720926e-06 0 0.052040811105907997 -0.00022706250560251031 0 0.052310996921926062 -0.00040212656449904261 0 0.052040811105907997 -0.00022706250560251031 0 0.052005057803013149 -0.00045665349452980768 0 0.052008795048987963 -9.1600240471720926e-06 0 0.052184805840894868 -0.00013754343075326309 0 0.052040811105907997 -0.00022706250560251031 0 0.052184805840894868 -0.00013754343075326309 0 0.052310996921926062 -0.00040212656449904261 0 0.052040811105907997 -0.00022706250560251031 0 0.052310996921926062 -0.00040212656449904261 0 0.052323981287022113 -0.00066621856515656564 0 0.052005057803013149 -0.00045665349452980768 0 0.052323981287022113 -0.00066621856515656564 0 0.051769545843384751 -0.00069605926619802604 0 0.052005057803013149 -0.00045665349452980768 0 0.051591315811439255 -0.00028079226340284015 0 0.051769545843384751 -0.00069605926619802604 0 0.052005057803013149 -0.00045665349452980768 0 0.052628949742822638 -0.00062246192395269955 0 0.052682090087844781 -0.00078247206363218544 0 0.052546667502301532 -0.00068161342413444769 0 0.052595573491639319 -0.00056962338925404621 0 0.052712049206027789 -0.00070717809415598491 0 0.052546667502301532 -0.00068161342413444769 0 0.052595573491639319 -0.00056962338925404621 0 0.052483852040964001 -0.00055144248955383798 0 0.052546667502301532 -0.00068161342413444769 0 0.052323981287022113 -0.00066621856515656564 0 0.052483852040964001 -0.00055144248955383798 0 0.052310996921926062 -0.00040212656449904261 0 0.052323981287022113 -0.00066621856515656564 0 0.052483852040964001 -0.00055144248955383798 0 0.052595573491639319 -0.00056962338925404621 0 0.052483852040964001 -0.00055144248955383798 0 0.052582396283444362 -0.00039931724896899039 0 0.052310996921926062 -0.00040212656449904261 0 0.052582396283444362 -0.00039931724896899039 0 0.052386682961545604 -9.0134349337286232e-05 0 0.052310996921926062 -0.00040212656449904261 0 0.052483852040964001 -0.00055144248955383798 0 0.052582396283444362 -0.00039931724896899039 0 0.052184805840894868 -0.00013754343075326309 0 0.052310996921926062 -0.00040212656449904261 0 0.052386682961545604 -9.0134349337286232e-05 0 0.052582396283444362 -0.00039931724896899039 0 0.052386682961545604 -9.0134349337286232e-05 0 0.052739416878765252 0.0001043377959830813 0 0.052595573491639319 -0.00056962338925404621 0 0.052593966489369197 -0.00046497473951979002 0 0.052829885992514494 -0.00069954361506404403 0 0.052444977255548489 -0.00024218565761577484 0 0.050896935134262244 -0.00010247624644367603 0 0.052582396283444362 -0.00039931724896899039 0 0.052593966489369197 -0.00046497473951979002 0 0.052579921951375827 -0.00043938148878469807 0 0.052595573491639319 -0.00056962338925404621 0 0.052582396283444362 -0.00039931724896899039 0 0.052593966489369197 -0.00046497473951979002 0 0.052593966489369197 -0.00046497473951979002 0 0.052432058209013997 -0.00014836478009151613 0 0.052856976274674228 -0.00043415554110939382 0 0.052593966489369197 -0.00046497473951979002 0 0.052418793908457544 -0.00028873757852931328 0 0.052432058209013997 -0.00014836478009151613 0 0.052612725390448319 -0.00079113337866763475 0 0.050896935134262244 -0.00010247624644367603 0 0.050896935134262244 -0.00010247624644367603 0 0.045377749950039452 0.0021350965672716506 0 0.052134078789926507 0.00015322418117619051 0 0.052386682961545604 -9.0134349337286232e-05 0 0.052364021810714548 0.00025269441853639643 0 0.052386682961545604 -9.0134349337286232e-05 0 0.052739416878765252 0.0001043377959830813 0 0.052364021810714548 0.00025269441853639643 0 0.052739416878765252 0.0001043377959830813 0 0.052364021810714548 0.00025269441853639643 0 0.052424867547964847 0.00057970339583117848 0 0.04846088835623702 0.00073878683299223862 0 0.048689955310109556 0.0018605989884836968 0 0.047072629256595409 0.0026237435507511266 0 0.050896935134262244 -0.00010247624644367603 0 0.04698630882289638 0.0025159145596087371 0 0.052162215640106771 0.00043873552671745984 0 0.052364021810714548 0.00025269441853639643 0 0.052424867547964847 0.00057970339583117848 0 0.038327622349241822 0.0040511874661627789 0 0.038185227508399359 0.0044760801604658675 0 0.038438210122240454 0.0043505803390177927 0 0.045377749950039452 0.0021350965672716506 0 0.04698630882289638 0.0025159145596087371 0 0.039646112673906345 0.0040605815040439114 0 0.045377749950039452 0.0021350965672716506 0 0.037931750931855711 0.0039544540946858065 0 0.038327622349241822 0.0040511874661627789 0 0.038185227508399359 0.0044760801604658675 0 0.042855340639818613 0.0042468668877482796 0 0.042482955847142588 0.0022717311998948428 0 0.044072081956460847 0.0029769518109020207 0 0.045377749950039452 0.0021350965672716506 0 0.04920739462020908 0.00017772520507963141 0 0.042482955847142588 0.0022717311998948428 0 0.044072081956460847 0.0029769518109020207 0 0.04460388866428807 0.0012761977941073031 0 0.04460388866428807 0.0012761977941073031 0 0.045862056106905337 0.0022070028827719653 0 0.046799310462715737 0.00026028842089245453 0 0.044072081956460847 0.0029769518109020207 0 0.04460388866428807 0.0012761977941073031 0 0.045862056106905337 0.0022070028827719653 0 0.044072081956460847 0.0029769518109020207 0 0.045588391875123646 0.0035676615582096432 0 0.045862056106905337 0.0022070028827719653 0 0.045588391875123646 0.0035676615582096432 0 0.046852190699625589 0.0031240427519326 0 0.045862056106905337 0.0022070028827719653 0 0.046852190699625589 0.0031240427519326 0 0.047654321500259639 0.0019323246311466152 0 0.045862056106905337 0.0022070028827719653 0 0.046852190699625589 0.0031240427519326 0 0.047654321500259639 0.0019323246311466152 0 0.048484862863145073 0.0034631405522799448 0 0.047654321500259639 0.0019323246311466152 0 0.045862056106905337 0.0022070028827719653 0 0.046799310462715737 0.00026028842089245453 0 0.047654321500259639 0.0019323246311466152 0 0.046799310462715737 0.00026028842089245453 0 0.048711157595409629 0.00090998247880280702 0 0.046799310462715737 0.00026028842089245453 0 0.048711157595409629 0.00090998247880280702 0 0.049326118428935445 -0.0007900128368125962 0 0.049850365441042599 -0.00024142012855610213 0 0.051201387511789702 -0.0010117726620678614 0 0.053163558277506649 -0.00085601517701398031 0 0.053054382659959293 -0.0012897212246865471 0 0.053177341675314176 -0.0010772235131472664 0 0.053163558277506649 -0.00085601517701398031 0 0.053048058292013339 -0.00094208594007820251 0 0.053177341675314176 -0.0010772235131472664 0 0.052856976274674228 -0.00043415554110939382 0 0.053163558277506649 -0.00085601517701398031 0 0.052829885992514494 -0.00069954361506404403 0 0.053163558277506649 -0.00085601517701398031 0 0.053048058292013339 -0.00094208594007820251 0 0.052829885992514494 -0.00069954361506404403 0 0.053048058292013339 -0.00094208594007820251 0 0.052829885992514494 -0.00069954361506404403 0 0.052786765856229677 -0.00097244404207856767 0 0.052595573491639319 -0.00056962338925404621 0 0.052829885992514494 -0.00069954361506404403 0 0.052786765856229677 -0.00097244404207856767 0 0.052593966489369197 -0.00046497473951979002 0 0.052856976274674228 -0.00043415554110939382 0 0.052829885992514494 -0.00069954361506404403 0 0.04920739462020908 0.00017772520507963141 0 0.049850365441042599 -0.00024142012855610213 0 0.041823914625513228 -0.0006147594915678668 0 0.04183000496384174 -0.00043983878433363077 0 0.043161747101719439 -0.00043576839528476733 0 0.042466958742035515 -0.0020170533718129502 0 0.050077790405345456 0.00077977724957638468 0 0.052242063199249789 -0.002323762989783961 0 0.05228079576035162 -0.0023382944571376371 0 0.052233682409271287 -0.0023119937804539311 0 0.034186978840890322 -0.0044115629326984887 0 0.033510624881004356 -0.0032481143900727556 0 0.032423510847129508 -0.0033244024994008429 0 0.037244374673342587 -0.0020826137864949435 0 0.039852495104113254 -0.0013327783652053917 0 0.041823914625513228 -0.0006147594915678668 0 0.043161747101719439 -0.00043576839528476733 0 0.043312721370414649 -0.0015456616379082057 0 0.032853903989319651 -0.0027108971588213041 0 0.033510624881004356 -0.0032481143900727556 0 0.032423510847129508 -0.0033244024994008429 0 0.051262540976714739 0.0023222445770505859 0 0.051132725784022927 0.003176562173563905 0 0.050266034145106164 0.0023262771092993234 0 0.050077790405345456 0.00077977724957638468 0 0.039852495104113254 -0.0013327783652053917 0 0.051132725784022927 0.003176562173563905 0 0.050266034145106164 0.0023262771092993234 0 0.049798429301925982 0.0030542791788155002 0 0.03580284520698794 -0.0023064795831998367 0 0.039852495104113254 -0.0013327783652053917 0 0.052787144243351049 0.0021087473324007361 0 0.051228343860108161 0.002206290059590151 0 0.051839524510216652 0.0010526216221921304 0 0.050077790405345456 0.00077977724957638468 0 0.05106588607386317 0.0022744202762094651 0 0.051228343860108161 0.002206290059590151 0 0.049334381896908183 0.0022140106153320958 0 0.05038102444609887 0.0012019703280597494 0 0.050266034145106164 0.0023262771092993234 0 0.049798429301925982 0.0030542791788155002 0 0.049334381896908183 0.0022140106153320958 0 0.05106588607386317 0.0022744202762094651 0 0.04935495954363632 0.0022314980849949119 0 0.051228343860108161 0.002206290059590151 0 0.05038102444609887 0.0012019703280597494 0 0.051839524510216652 0.0010526216221921304 0 0.049970044100834048 0.0040790609373609369 0 0.051132725784022927 0.003176562173563905 0 0.049798429301925982 0.0030542791788155002 0 0.049970044100834048 0.0040790609373609369 0 0.049798429301925982 0.0030542791788155002 0 0.048484862863145073 0.0034631405522799448 0 0.047654321500259639 0.0019323246311466152 0 0.048484862863145073 0.0034631405522799448 0 0.049334381896908183 0.0022140106153320958 0 0.049798429301925982 0.0030542791788155002 0 0.048484862863145073 0.0034631405522799448 0 0.049334381896908183 0.0022140106153320958 0 0.049334381896908183 0.0022140106153320958 0 0.048711157595409629 0.00090998247880280702 0 0.05038102444609887 0.0012019703280597494 0 0.047654321500259639 0.0019323246311466152 0 0.049334381896908183 0.0022140106153320958 0 0.048711157595409629 0.00090998247880280702 0 0.048711157595409629 0.00090998247880280702 0 0.049326118428935445 -0.0007900128368125962 0 0.05038102444609887 0.0012019703280597494 0 0.051201387511789702 -0.0010117726620678614 0 0.052133045548301338 -0.0013189665893836766 0 0.049326118428935445 -0.0007900128368125962 0 0.051608812084189624 -7.6609826121076344e-05 0 0.052248457618601085 -0.0013345843935209231 0 0.05038102444609887 0.0012019703280597494 0 0.051839524510216652 0.0010526216221921304 0 0.051608812084189624 -7.6609826121076344e-05 0 0.049326118428935445 -0.0007900128368125962 0 0.05038102444609887 0.0012019703280597494 0 0.051608812084189624 -7.6609826121076344e-05 0 0.052787144243351049 0.0021087473324007361 0 0.051839524510216652 0.0010526216221921304 0 0.052990086214393814 -2.3132384994796671e-05 0 0.051839524510216652 0.0010526216221921304 0 0.051608812084189624 -7.6609826121076344e-05 0 0.052990086214393814 -2.3132384994796671e-05 0 0.051608812084189624 -7.6609826121076344e-05 0 0.05244760267586536 -0.00075774312365554897 0 0.052990086214393814 -2.3132384994796671e-05 0 0.051608812084189624 -7.6609826121076344e-05 0 0.05244760267586536 -0.00075774312365554897 0 0.052248457618601085 -0.0013345843935209231 0 0.052945964165053656 -0.0013728109007992554 0 0.052582357328257778 -0.0014569289605812314 0 0.05244760267586536 -0.00075774312365554897 0 0.052990086214393814 -2.3132384994796671e-05 0 0.052671948004282043 -0.0012545670899171562 0 0.052280422850305125 -0.0022370319356341153 0 0.052372094923360001 -0.0023466089032634402 0 0.052563798030202689 -0.0018748287671477347 0 0.05228079576035162 -0.0023382944571376371 0 0.052233682409271287 -0.0023119937804539311 0 0.052372094923360001 -0.0023466089032634402 0 0.05228075626276589 -0.0023494414237936845 0 0.052280422850305125 -0.0022370319356341153 0 0.052372094923360001 -0.0023466089032634402 0 0.050077790405345456 0.00077977724957638468 0 0.052945964165053656 -0.0013728109007992554 0 0.05228075626276589 -0.0023494414237936845 0 0.05228079576035162 -0.0023382944571376371 0 0.052372094923360001 -0.0023466089032634402 0 0.052671948004282043 -0.0012545670899171562 0 0.052527272763198969 -0.0011686044789959848 0 0.052445910025793789 -0.001099231114616774 0 0.052582357328257778 -0.0014569289605812314 0 0.052496988291480841 -0.0011078198647371273 0 0.052671948004282043 -0.0012545670899171562 0 0.052248457618601085 -0.0013345843935209231 0 0.052527272763198969 -0.0011686044789959848 0 0.05244760267586536 -0.00075774312365554897 0 0.052671948004282043 -0.0012545670899171562 0 0.052248457618601085 -0.0013345843935209231 0 0.052789055454767184 -0.0011424800546799159 0 0.052808301947217244 -0.0010715627744612639 0 0.053068087154731394 -0.0010656333850920055 0 0.052527272763198969 -0.0011686044789959848 0 0.052789055454767184 -0.0011424800546799159 0 0.052808301947217244 -0.0010715627744612639 0 0.052248457618601085 -0.0013345843935209231 0 0.052527272763198969 -0.0011686044789959848 0 0.052789055454767184 -0.0011424800546799159 0 0.053054382659959293 -0.0012897212246865471 0 0.052248457618601085 -0.0013345843935209231 0 0.052789055454767184 -0.0011424800546799159 0 0.053054382659959293 -0.0012897212246865471 0 0.052789055454767184 -0.0011424800546799159 0 0.05312641159564678 -0.0011382123089668321 0 0.052789055454767184 -0.0011424800546799159 0 0.053068087154731394 -0.0010656333850920055 0 0.05312641159564678 -0.0011382123089668321 0 0.052808301947217244 -0.0010715627744612639 0 0.053068087154731394 -0.0010656333850920055 0 0.053087231393391748 -0.00095507356750628911 0 0.053068087154731394 -0.0010656333850920055 0 0.053087231393391748 -0.00095507356750628911 0 0.053291260089929654 -0.00099724338156508365 0 0.053087231393391748 -0.00095507356750628911 0 0.053291260089929654 -0.00099724338156508365 0 0.053314577035514323 -0.00077370159573013754 0 0.053087231393391748 -0.00095507356750628911 0 0.053062458209868782 -0.00078178569826671074 0 0.053314577035514323 -0.00077370159573013754 0 0.052899258064176044 -0.00091515881070009181 0 0.052858072970165294 -0.00072330100097879428 0 0.053062458209868782 -0.00078178569826671074 0 0.053087231393391748 -0.00095507356750628911 0 0.052899258064176044 -0.00091515881070009181 0 0.053062458209868782 -0.00078178569826671074 0 0.052808301947217244 -0.0010715627744612639 0 0.052899258064176044 -0.00091515881070009181 0 0.052765663463014575 -0.00096487488053754577 0 0.052808301947217244 -0.0010715627744612639 0 0.053087231393391748 -0.00095507356750628911 0 0.052899258064176044 -0.00091515881070009181 0 0.052804895573243769 -0.0010681704987206473 0 0.052685058797219561 -0.00093184844040976431 0 0.052527272763198969 -0.0011686044789959848 0 0.052808301947217244 -0.0010715627744612639 0 0.052601713198139458 -0.00091208518448649821 0 0.052527272763198969 -0.0011686044789959848 0 0.052601713198139458 -0.00091208518448649821 0 0.052496073337835195 -0.00093759561284636648 0 0.052899258064176044 -0.00091515881070009181 0 0.052738440339370238 -0.00081048713476726596 0 0.052858072970165294 -0.00072330100097879428 0 0.052738440339370238 -0.00081048713476726596 0 0.052765663463014575 -0.00096487488053754577 0 0.052544365625670546 -0.00078759969849678346 0 0.052899258064176044 -0.00091515881070009181 0 0.052738440339370238 -0.00081048713476726596 0 0.052765663463014575 -0.00096487488053754577 0 0.052601713198139458 -0.00091208518448649821 0 0.052496073337835195 -0.00093759561284636648 0 0.052478620746333041 -0.00072609957744868014 0 0.052685058797219561 -0.00093184844040976431 0 0.052469203101966302 -0.00081609371608171806 0 0.05240360820249905 -0.00077888396396114752 0 0.052496073337835195 -0.00093759561284636648 0 0.052478620746333041 -0.00072609957744868014 0 0.05240360820249905 -0.00077888396396114752 0 0.052496073337835195 -0.00093759561284636648 0 0.052445910025793789 -0.001099231114616774 0 0.052527272763198969 -0.0011686044789959848 0 0.052496073337835195 -0.00093759561284636648 0 0.052445910025793789 -0.001099231114616774 0 0.052413104747679864 -0.0007949790026300235 0 0.052496988291480841 -0.0011078198647371273 0 0.053153678147134856 -0.0011275172182275055 0 0.053159319259955568 -0.0011410359201444638 0 0.053269251562578453 -0.0011174986911909916 0 0.053153678147134856 -0.0011275172182275055 0 0.05302511872835397 -0.0012285687110359348 0 0.053028693615856756 -0.0010486129422458796 0 0.053172857280781319 -0.0012012292760993967 0 0.053350744417949056 -0.0011579691097624504 0 0.052807417278821378 -0.00083118521332766295 0 0.052696818777382352 -0.00081882365622097707 0 0.052712049206027789 -0.00070717809415598491 0 0.052807417278821378 -0.00083118521332766295 0 0.052696818777382352 -0.00081882365622097707 0 0.052683982471991159 -0.00091326227826401174 0 0.05302511872835397 -0.0012285687110359348 0 0.052786765856229677 -0.00097244404207856767 0 0.053028693615856756 -0.0010486129422458796 0 0.053350744417949056 -0.0011579691097624504 0 0.052682090087844781 -0.00078247206363218544 0 0.053048058292013339 -0.00094208594007820251 0 0.052786765856229677 -0.00097244404207856767 0 0.053028693615856756 -0.0010486129422458796 0 0.053153678147134856 -0.0011275172182275055 0 0.053028693615856756 -0.0010486129422458796 0 0.053136623376436987 -0.0010584176770690775 0 0.053048058292013339 -0.00094208594007820251 0 0.053028693615856756 -0.0010486129422458796 0 0.053136623376436987 -0.0010584176770690775 0 0.053048058292013339 -0.00094208594007820251 0 0.053177341675314176 -0.0010772235131472664 0 0.053136623376436987 -0.0010584176770690775 0 0.053177341675314176 -0.0010772235131472664 0 0.053136623376436987 -0.0010584176770690775 0 0.053213990654117742 -0.0011101740697236429 0 0.053153678147134856 -0.0011275172182275055 0 0.053136623376436987 -0.0010584176770690775 0 0.053213990654117742 -0.0011101740697236429 0 0.053177341675314176 -0.0010772235131472664 0 0.05312641159564678 -0.0011382123089668321 0 0.053213990654117742 -0.0011101740697236429 0 0.053054382659959293 -0.0012897212246865471 0 0.053177341675314176 -0.0010772235131472664 0 0.05312641159564678 -0.0011382123089668321 0 0.053068087154731394 -0.0010656333850920055 0 0.05312641159564678 -0.0011382123089668321 0 0.053245487608446523 -0.0011037841512586007 0 0.05312641159564678 -0.0011382123089668321 0 0.053245487608446523 -0.0011037841512586007 0 0.053213990654117742 -0.0011101740697236429 0 0.053153678147134856 -0.0011275172182275055 0 0.053213990654117742 -0.0011101740697236429 0 0.053269251562578453 -0.0011174986911909916 0 0.053245487608446523 -0.0011037841512586007 0 0.053213990654117742 -0.0011101740697236429 0 0.053269251562578453 -0.0011174986911909916 0 0.053269251562578453 -0.0011174986911909916 0 0.053346260617827705 -0.0010863991280929981 0 0.053503748211588396 -0.0010600958655004981 0 0.053346260617827705 -0.0010863991280929981 0 0.053291260089929654 -0.00099724338156508365 0 0.053503748211588396 -0.0010600958655004981 0 0.053245487608446523 -0.0011037841512586007 0 0.053269251562578453 -0.0011174986911909916 0 0.053346260617827705 -0.0010863991280929981 0 0.053068087154731394 -0.0010656333850920055 0 0.053245487608446523 -0.0011037841512586007 0 0.053291260089929654 -0.00099724338156508365 0 0.053245487608446523 -0.0011037841512586007 0 0.053346260617827705 -0.0010863991280929981 0 0.053291260089929654 -0.00099724338156508365 0 0.053333743151471505 -0.00098313192873796386 0 0.053674570768170268 -0.00065670923577819363 0 0.053291260089929654 -0.00099724338156508365 0 0.053503748211588396 -0.0010600958655004981 0 0.053605695081811296 -0.00060698342284704586 0 0.053503748211588396 -0.0010600958655004981 0 0.053872287671825801 -0.00075808299906153336 0 0.053605695081811296 -0.00060698342284704586 0 0.053503748211588396 -0.0010600958655004981 0 0.05388307396605279 -0.00098267456764555123 0 0.053872287671825801 -0.00075808299906153336 0 0.053503748211588396 -0.0010600958655004981 0 0.05388307396605279 -0.00098267456764555123 0 0.054058609588829361 -0.0012403015241539571 0 0.05413277573844525 -0.00086599004549020304 0 0.05388307396605279 -0.00098267456764555123 0 0.054058609588829361 -0.0012403015241539571 0 0.05413277573844525 -0.00086599004549020304 0 0.05388307396605279 -0.00098267456764555123 0 0.053872287671825801 -0.00075808299906153336 0 0.054016782127869666 -0.0016830617345901795 0 0.053503748211588396 -0.0010600958655004981 0 0.054058609588829361 -0.0012403015241539571 0 0.053159319259955568 -0.0011410359201444638 0 0.053269251562578453 -0.0011174986911909916 0 0.053503748211588396 -0.0010600958655004981 0 0.053350744417949056 -0.0011579691097624504 0 0.053583652684651734 -0.0011823909710185158 0 0.054016782127869666 -0.0016830617345901795 0 0.054058609588829361 -0.0012403015241539571 0 0.054454451340703508 -0.0012786798486540544 0 0.054058609588829361 -0.0012403015241539571 0 0.054454451340703508 -0.0012786798486540544 0 0.054288225647077679 -0.0010566637284607917 0 0.053350744417949056 -0.0011579691097624504 0 0.053572803773061284 -0.0011436345689116048 0 0.054497584489086877 -0.00085330030004280319 0 0.054454451340703508 -0.0012786798486540544 0 0.054288225647077679 -0.0010566637284607917 0 0.05413277573844525 -0.00086599004549020304 0 0.054058609588829361 -0.0012403015241539571 0 0.054288225647077679 -0.0010566637284607917 0 0.054497584489086877 -0.00085330030004280319 0 0.05413277573844525 -0.00086599004549020304 0 0.054288225647077679 -0.0010566637284607917 0 0.054329940827125486 -0.00070004879177149862 0 0.05440955201779675 -0.00051091581417557605 0 0.054061080203528275 -0.00054368544828944812 0 0.054497584489086877 -0.00085330030004280319 0 0.054329940827125486 -0.00070004879177149862 0 0.054519019458797606 -0.00062908133810565543 0 0.054497584489086877 -0.00085330030004280319 0 0.05413277573844525 -0.00086599004549020304 0 0.054329940827125486 -0.00070004879177149862 0 0.054329940827125486 -0.00070004879177149862 0 0.05440955201779675 -0.00051091581417557605 0 0.054519019458797606 -0.00062908133810565543 0 0.05440955201779675 -0.00051091581417557605 0 0.05429370854886105 -0.00038092557174569929 0 0.054061080203528275 -0.00054368544828944812 0 0.05440955201779675 -0.00051091581417557605 0 0.05429370854886105 -0.00038092557174569929 0 0.054561875453657989 -0.00032823711072590083 0 0.05429370854886105 -0.00038092557174569929 0 0.054061080203528275 -0.00054368544828944812 0 0.054056634273214686 -0.00021341847775593756 0 0.05413277573844525 -0.00086599004549020304 0 0.054329940827125486 -0.00070004879177149862 0 0.054061080203528275 -0.00054368544828944812 0 0.05413277573844525 -0.00086599004549020304 0 0.054061080203528275 -0.00054368544828944812 0 0.053872287671825801 -0.00075808299906153336 0 0.054061080203528275 -0.00054368544828944812 0 0.053872287671825801 -0.00075808299906153336 0 0.053605695081811296 -0.00060698342284704586 0 0.053743989930232307 -0.00071146799719029878 0 0.053508880387127283 -0.00054306941399416423 0 0.053314577035514323 -0.00077370159573013754 0 0.053291260089929654 -0.00099724338156508365 0 0.053743989930232307 -0.00071146799719029878 0 0.053314577035514323 -0.00077370159573013754 0 0.053743989930232307 -0.00071146799719029878 0 0.053508880387127283 -0.00054306941399416423 0 0.053763491248097837 -0.00037866435969416287 0 0.053508880387127283 -0.00054306941399416423 0 0.053763491248097837 -0.00037866435969416287 0 0.053510341264770937 -0.00028366091410606935 0 0.053674570768170268 -0.00065670923577819363 0 0.05414070343344065 -0.00024925411193063861 0 0.053743989930232307 -0.00071146799719029878 0 0.053763491248097837 -0.00037866435969416287 0 0.054223703692790011 -0.00027566105607928603 0 0.054061080203528275 -0.00054368544828944812 0 0.053605695081811296 -0.00060698342284704586 0 0.054056634273214686 -0.00021341847775593756 0 0.053763491248097837 -0.00037866435969416287 0 0.053805762499545079 -7.0487915983498975e-05 0 0.054223703692790011 -0.00027566105607928603 0 0.053763491248097837 -0.00037866435969416287 0 0.053510341264770937 -0.00028366091410606935 0 0.053805762499545079 -7.0487915983498975e-05 0 0.053510341264770937 -0.00028366091410606935 0 0.053805762499545079 -7.0487915983498975e-05 0 0.053438826647305787 4.1686140315055446e-05 0 0.053805762499545079 -7.0487915983498975e-05 0 0.053438826647305787 4.1686140315055446e-05 0 0.053697471211502312 0.0003115944608696718 0 0.054293944264974754 6.7942709048532059e-06 0 0.053946926417885045 0.00018189490736239262 0 0.053805762499545079 -7.0487915983498975e-05 0 0.054283853773714821 4.9081547196753695e-06 0 0.054223703692790011 -0.00027566105607928603 0 0.053805762499545079 -7.0487915983498975e-05 0 0.054283853773714821 4.9081547196753695e-06 0 0.053697471211502312 0.0003115944608696718 0 0.05414070343344065 -0.00024925411193063861 0 0.054459654384457601 8.9451888901499473e-06 0 0.054283853773714821 4.9081547196753695e-06 0 0.054223703692790011 -0.00027566105607928603 0 0.054502662871172967 1.8660900172190661e-05 0 0.054588490710932018 -8.2484207360663706e-05 0 0.054502662871172967 1.8660900172190661e-05 0 0.054713992013179655 -2.9666022848430052e-06 0 0.054588490710932018 -8.2484207360663706e-05 0 0.054440156630555771 -0.00022137668099442154 0 0.054502662871172967 1.8660900172190661e-05 0 0.054588490710932018 -8.2484207360663706e-05 0 0.054440156630555771 -0.00022137668099442154 0 0.054693247639191957 -0.0001509296651338897 0 0.054440156630555771 -0.00022137668099442154 0 0.054693247639191957 -0.0001509296651338897 0 0.054561875453657989 -0.00032823711072590083 0 0.05429370854886105 -0.00038092557174569929 0 0.054440156630555771 -0.00022137668099442154 0 0.054561875453657989 -0.00032823711072590083 0 0.054440156630555771 -0.00022137668099442154 0 0.054056634273214686 -0.00021341847775593756 0 0.054502662871172967 1.8660900172190661e-05 0 0.05429370854886105 -0.00038092557174569929 0 0.054440156630555771 -0.00022137668099442154 0 0.054056634273214686 -0.00021341847775593756 0 0.052295785544769359 -0.00054538209562027425 0 0.052370250803275412 -0.00022193189067347014 0 0.052628444322016521 -0.00047001829592500222 0 0.052295785544769359 -0.00054538209562027425 0 0.052628444322016521 -0.00047001829592500222 0 0.052649158275687356 -0.00065246732977419612 0 0.052295785544769359 -0.00054538209562027425 0 0.052544365625670546 -0.00078759969849678346 0 0.052649158275687356 -0.00065246732977419612 0 0.052738440339370238 -0.00081048713476726596 0 0.052544365625670546 -0.00078759969849678346 0 0.052649158275687356 -0.00065246732977419612 0 0.052738440339370238 -0.00081048713476726596 0 0.052649158275687356 -0.00065246732977419612 0 0.052858072970165294 -0.00072330100097879428 0 0.052649158275687356 -0.00065246732977419612 0 0.052858072970165294 -0.00072330100097879428 0 0.052814242088149985 -0.00052366004138330196 0 0.052628444322016521 -0.00047001829592500222 0 0.052814242088149985 -0.00052366004138330196 0 0.052732241149523108 -0.00014112833404372635 0 0.052814242088149985 -0.00052366004138330196 0 0.052993052247196033 -0.00037524721301633812 0 0.052732241149523108 -0.00014112833404372635 0 0.052628444322016521 -0.00047001829592500222 0 0.052649158275687356 -0.00065246732977419612 0 0.052814242088149985 -0.00052366004138330196 0 0.052993052247196033 -0.00037524721301633812 0 0.053232580042850489 -0.00053797449289542411 0 0.053235810320454088 -0.00025741368075290555 0 0.052993052247196033 -0.00037524721301633812 0 0.052991320591133054 -0.00059434396002994801 0 0.053232580042850489 -0.00053797449289542411 0 0.052814242088149985 -0.00052366004138330196 0 0.052993052247196033 -0.00037524721301633812 0 0.052991320591133054 -0.00059434396002994801 0 0.052858072970165294 -0.00072330100097879428 0 0.052814242088149985 -0.00052366004138330196 0 0.052991320591133054 -0.00059434396002994801 0 0.052991320591133054 -0.00059434396002994801 0 0.053062458209868782 -0.00078178569826671074 0 0.053232580042850489 -0.00053797449289542411 0 0.052858072970165294 -0.00072330100097879428 0 0.052991320591133054 -0.00059434396002994801 0 0.053062458209868782 -0.00078178569826671074 0 0.053508880387127283 -0.00054306941399416423 0 0.053314577035514323 -0.00077370159573013754 0 0.053232580042850489 -0.00053797449289542411 0 0.053062458209868782 -0.00078178569826671074 0 0.053314577035514323 -0.00077370159573013754 0 0.053232580042850489 -0.00053797449289542411 0 0.053510341264770937 -0.00028366091410606935 0 0.053232580042850489 -0.00053797449289542411 0 0.053235810320454088 -0.00025741368075290555 0 0.053508880387127283 -0.00054306941399416423 0 0.053510341264770937 -0.00028366091410606935 0 0.053232580042850489 -0.00053797449289542411 0 0.053510341264770937 -0.00028366091410606935 0 0.053235810320454088 -0.00025741368075290555 0 0.053438826647305787 4.1686140315055446e-05 0 0.053235810320454088 -0.00025741368075290555 0 0.053438826647305787 4.1686140315055446e-05 0 0.053076915439654003 -1.1330375657208487e-05 0 0.053438826647305787 4.1686140315055446e-05 0 0.053076915439654003 -1.1330375657208487e-05 0 0.053283716956054779 0.00047087747471476172 0 0.052993052247196033 -0.00037524721301633812 0 0.053076915439654003 -1.1330375657208487e-05 0 0.052732241149523108 -0.00014112833404372635 0 0.052993052247196033 -0.00037524721301633812 0 0.053235810320454088 -0.00025741368075290555 0 0.053076915439654003 -1.1330375657208487e-05 0 0.053076915439654003 -1.1330375657208487e-05 0 0.052732241149523108 -0.00014112833404372635 0 0.052840600559681275 0.00027959240658545492 0 0.052732241149523108 -0.00014112833404372635 0 0.052451167501624346 0.00012071134760779271 0 0.052840600559681275 0.00027959240658545492 0 0.052732241149523108 -0.00014112833404372635 0 0.052451167501624346 0.00012071134760779271 0 0.052546057353892846 -0.00017986422432729877 0 0.052628444322016521 -0.00047001829592500222 0 0.052732241149523108 -0.00014112833404372635 0 0.052546057353892846 -0.00017986422432729877 0 0.052370250803275412 -0.00022193189067347014 0 0.052628444322016521 -0.00047001829592500222 0 0.052546057353892846 -0.00017986422432729877 0 0.052370250803275412 -0.00022193189067347014 0 0.052451167501624346 0.00012071134760779271 0 0.052546057353892846 -0.00017986422432729877 0 0.05419738767621466 0.00026258255776494792 0 0.054468066702511621 7.7421624204834647e-05 0 0.05455133991558471 0.00020878521530895522 0 0.054397681255894045 0.00030870877696648414 0 0.054615895548263814 0.00016096174234826797 0 0.054568588928536249 0.00019785819054420872 0 0.05455133991558471 0.00020878521530895522 0 0.05466199451629275 0.00014520368944330179 0 0.054450809044059481 0.00027058010952327259 0 0.05455133991558471 0.00020878521530895522 0 0.054397681255894045 0.00030870877696648414 0 0.053929565292828371 7.7300833021066943e-05 0 0.053946488334870431 0.00012235026942281283 0 0.053992641082036372 9.7418452543856536e-05 0 0.054271449938970873 0.00038603533342221238 0 0.054228006264758058 0.00041615757790440966 0 0.054397681255894045 0.00030870877696648414 0 0.053546414578797941 0.00023508524546031779 0 0.05419738767621466 0.00026258255776494792 0 0.053546414578797941 0.00023508524546031779 0 0.053253763676261612 0.00016296609733865627 0 0.053946488334870431 0.00012235026942281283 0 0.053992641082036372 9.7418452543856536e-05 0 0.054008777740260118 0.0001424192202709913 0 0.053946488334870431 0.00012235026942281283 0 0.054008777740260118 0.0001424192202709913 0 0.05396327707311728 0.00016559025558840113 0 0.055008164168873878 6.2980618722952955e-05 0 0.055013332435582936 3.6513270511311052e-05 0 0.055026282469516803 4.4693453809746502e-05 0 0.054577272501450218 7.9851953915785573e-05 0 0.054468066702511621 7.7421624204834647e-05 0 0.055008164168873878 6.2980618722952955e-05 0 0.054984694173980518 9.3837919873290484e-05 0 0.054988081956614955 3.9998245822442397e-05 0 0.054577272501450218 7.9851953915785573e-05 0 0.054145374949835956 0.0001713235606271361 0 0.053076915439654003 -1.1330375657208487e-05 0 0.052840600559681275 0.00027959240658545492 0 0.053283716956054779 0.00047087747471476172 0 0.053253763676261612 0.00016296609733865627 0 0.054145374949835956 0.0001713235606271361 0 0.053992641082036372 9.7418452543856536e-05 0 0.054008777740260118 0.0001424192202709913 0 0.054057008431525028 0.00011909406013806149 0 0.053438826647305787 4.1686140315055446e-05 0 0.053283716956054779 0.00047087747471476172 0 0.053697471211502312 0.0003115944608696718 0 0.054145374949835956 0.0001713235606271361 0 0.053946926417885045 0.00018189490736239262 0 0.054984694173980518 9.3837919873290484e-05 0 0.054988081956614955 3.9998245822442397e-05 0 0.054942455333797338 0.00010910277084394624 0 0.054988081956614955 3.9998245822442397e-05 0 0.054999996519957718 1.9428601536599882e-08 0 0.054999954445763291 2.2309165498926329e-09 0 0.054988081956614955 3.9998245822442397e-05 0 0.054999996519957718 1.9428601536599882e-08 0 0.055002427243372717 3.0059570232447756e-05 0 0.054999996519957718 1.9428601536599882e-08 0 0.055002427243372717 3.0059570232447756e-05 0 0.055004960653971431 1.5610086070095703e-05 0 0.054999996519957718 1.9428601536599882e-08 0 0.055004960653971431 1.5610086070095703e-05 0 0.055000046274207327 1.2930171121859193e-08 0 0.055008164168873878 6.2980618722952955e-05 0 0.055002427243372717 3.0059570232447756e-05 0 0.055013332435582936 3.6513270511311052e-05 0 0.055008164168873878 6.2980618722952955e-05 0 0.054988081956614955 3.9998245822442397e-05 0 0.055002427243372717 3.0059570232447756e-05 0 0.055013332435582936 3.6513270511311052e-05 0 0.055020352249812415 2.2618549134202698e-05 0 0.055026282469516803 4.4693453809746502e-05 0 0.055002427243372717 3.0059570232447756e-05 0 0.055013332435582936 3.6513270511311052e-05 0 0.055004960653971431 1.5610086070095703e-05 0 0.055013332435582936 3.6513270511311052e-05 0 0.055004960653971431 1.5610086070095703e-05 0 0.055020352249812415 2.2618549134202698e-05 0 0.054999951332616918 4.403464991560276e-08 0 0.054916233906921567 8.8654988799956257e-05 0 0.055004960653971431 1.5610086070095703e-05 0 0.055000046274207327 1.2930171121859193e-08 0 0.055020352249812415 2.2618549134202698e-05 0 0.054999698833913577 6.4414833766425296e-08 0 0.054816626798046615 7.0147381947513986e-05 0 0.054772360501315467 9.0645344425714224e-05 0 0.054784622778914716 8.6094341770884088e-05 0 0.054999698833913577 6.4414833766425296e-08 0 0.054772360501315467 9.0645344425714224e-05 0 0.054999698833913577 6.4414833766425296e-08 0 0.05499976969019308 3.0832771787121114e-08 0 0.054816626798046615 7.0147381947513986e-05 0 0.054784622778914716 8.6094341770884088e-05 0 0.054772360501315467 9.0645344425714224e-05 0 0.05466199451629275 0.00014520368944330179 0 0.054916233906921567 8.8654988799956257e-05 0 0.054468066702511621 7.7421624204834647e-05 0 0.054816626798046615 7.0147381947513986e-05 0 0.054772360501315467 9.0645344425714224e-05 0 0.054615895548263814 0.00016096174234826797 0 0.054772360501315467 9.0645344425714224e-05 0 0.054615895548263814 0.00016096174234826797 0 0.05466199451629275 0.00014520368944330179 0 0.05455133991558471 0.00020878521530895522 0 0.054615895548263814 0.00016096174234826797 0 0.05466199451629275 0.00014520368944330179 0 0.054740882413038955 9.8269036226764485e-05 0 0.054701309820427237 5.9632824515486174e-05 0 0.054484696899668048 3.7119094634928903e-05 0 0.054701309820427237 5.9632824515486174e-05 0 0.054857885129083871 6.0206418818755406e-05 0 0.054838618688485233 3.7959521142513211e-05 0 0.054740882413038955 9.8269036226764485e-05 0 0.054701309820427237 5.9632824515486174e-05 0 0.054857885129083871 6.0206418818755406e-05 0 0.054701309820427237 5.9632824515486174e-05 0 0.054502662871172967 1.8660900172190661e-05 0 0.054713992013179655 -2.9666022848430052e-06 0 0.054701309820427237 5.9632824515486174e-05 0 0.054502662871172967 1.8660900172190661e-05 0 0.054484696899668048 3.7119094634928903e-05 0 0.054283853773714821 4.9081547196753695e-06 0 0.054502662871172967 1.8660900172190661e-05 0 0.054484696899668048 3.7119094634928903e-05 0 0.054484696899668048 3.7119094634928903e-05 0 0.054340926567302432 5.6395592287569824e-06 0 0.05437382280879844 0.00010935081137212001 0 0.054283853773714821 4.9081547196753695e-06 0 0.054484696899668048 3.7119094634928903e-05 0 0.054340926567302432 5.6395592287569824e-06 0 0.054227082068423631 6.3249157126183474e-05 0 0.054340926567302432 5.6395592287569824e-06 0 0.05437382280879844 0.00010935081137212001 0 0.054145374949835956 0.0001713235606271361 0 0.054752303464201277 0.00010795146899326512 0 0.054685159155853591 9.3769325596779752e-05 0 0.054752303464201277 0.00010795146899326512 0 0.054740882413038955 9.8269036226764485e-05 0 0.054484696899668048 3.7119094634928903e-05 0 0.05437382280879844 0.00010935081137212001 0 0.054740882413038955 9.8269036226764485e-05 0 0.054942455333797338 0.00010910277084394624 0 0.054938950520846346 2.9412815443313841e-05 0 0.054740882413038955 9.8269036226764485e-05 0 0.054938950520846346 2.9412815443313841e-05 0 0.054999813623651854 9.1613647834272921e-10 0 0.054988081956614955 3.9998245822442397e-05 0 0.054942455333797338 0.00010910277084394624 0 0.054938950520846346 2.9412815443313841e-05 0 0.054988081956614955 3.9998245822442397e-05 0 0.054938950520846346 2.9412815443313841e-05 0 0.054999954445763291 2.2309165498926329e-09 0 0.054938950520846346 2.9412815443313841e-05 0 0.054999954445763291 2.2309165498926329e-09 0 0.054999813623651854 9.1613647834272921e-10 0 0.054740882413038955 9.8269036226764485e-05 0 0.054999813623651854 9.1613647834272921e-10 0 0.054857885129083871 6.0206418818755406e-05 0 0.054999813623651854 9.1613647834272921e-10 0 0.054857885129083871 6.0206418818755406e-05 0 0.054999850339095054 5.6283746414565984e-08 0 0.054999850339095054 5.6283746414565984e-08 0 0.054999925905333397 3.657934118406673e-08 0 0.054921406699125437 4.2278744977662368e-05 0 0.054857885129083871 6.0206418818755406e-05 0 0.054999850339095054 5.6283746414565984e-08 0 0.054921406699125437 4.2278744977662368e-05 0 0.054999925905333397 3.657934118406673e-08 0 0.054921406699125437 4.2278744977662368e-05 0 0.054964304960565556 2.6817816447553751e-05 0 0.054921406699125437 4.2278744977662368e-05 0 0.054964304960565556 2.6817816447553751e-05 0 0.05492736362372478 1.2899604911589508e-05 0 0.054857885129083871 6.0206418818755406e-05 0 0.054921406699125437 4.2278744977662368e-05 0 0.054838618688485233 3.7959521142513211e-05 0 0.054999991403072039 7.9597354354274821e-09 0 0.0549862925407405 1.6443246748195564e-05 0 0.054999979910451829 8.8023745229910867e-09 0 0.054999925905333397 3.657934118406673e-08 0 0.054999991403072039 7.9597354354274821e-09 0 0.0549862925407405 1.6443246748195564e-05 0 0.054999925905333397 3.657934118406673e-08 0 0.054964304960565556 2.6817816447553751e-05 0 0.0549862925407405 1.6443246748195564e-05 0 0.054964304960565556 2.6817816447553751e-05 0 0.0549862925407405 1.6443246748195564e-05 0 0.05497801605910569 1.6187159213750263e-05 0 0.0549862925407405 1.6443246748195564e-05 0 0.05497801605910569 1.6187159213750263e-05 0 0.05499101238811694 1.498440553844145e-05 0 0.05497801605910569 1.6187159213750263e-05 0 0.055005083767592521 -2.4113776794594649e-05 0 0.05499101238811694 1.498440553844145e-05 0 0.054514068506994681 -0.00032432986991693557 0 0.0545368314778793 -0.00028801407771366413 0 0.05497801605910569 1.6187159213750263e-05 0 0.05492736362372478 1.2899604911589508e-05 0 0.055005083767592521 -2.4113776794594649e-05 0 0.054964304960565556 2.6817816447553751e-05 0 0.05497801605910569 1.6187159213750263e-05 0 0.05492736362372478 1.2899604911589508e-05 0 0.05492736362372478 1.2899604911589508e-05 0 0.055005083767592521 -2.4113776794594649e-05 0 0.05487286712522952 -5.2711951221393757e-05 0 0.054921406699125437 4.2278744977662368e-05 0 0.05492736362372478 1.2899604911589508e-05 0 0.054838618688485233 3.7959521142513211e-05 0 0.05492736362372478 1.2899604911589508e-05 0 0.054838618688485233 3.7959521142513211e-05 0 0.05487286712522952 -5.2711951221393757e-05 0 0.054701309820427237 5.9632824515486174e-05 0 0.054838618688485233 3.7959521142513211e-05 0 0.054713992013179655 -2.9666022848430052e-06 0 0.054838618688485233 3.7959521142513211e-05 0 0.05487286712522952 -5.2711951221393757e-05 0 0.054713992013179655 -2.9666022848430052e-06 0 0.054588490710932018 -8.2484207360663706e-05 0 0.054713992013179655 -2.9666022848430052e-06 0 0.054693247639191957 -0.0001509296651338897 0 0.05487286712522952 -5.2711951221393757e-05 0 0.054713992013179655 -2.9666022848430052e-06 0 0.054693247639191957 -0.0001509296651338897 0 0.054693247639191957 -0.0001509296651338897 0 0.054561875453657989 -0.00032823711072590083 0 0.054735631928861307 -0.00034722473884928143 0 0.054693247639191957 -0.0001509296651338897 0 0.054845204591686812 -0.00022246191646486688 0 0.054735631928861307 -0.00034722473884928143 0 0.05487286712522952 -5.2711951221393757e-05 0 0.054693247639191957 -0.0001509296651338897 0 0.054845204591686812 -0.00022246191646486688 0 0.05487286712522952 -5.2711951221393757e-05 0 0.054845204591686812 -0.00022246191646486688 0 0.054988639575110125 -0.00017435808188848915 0 0.055005083767592521 -2.4113776794594649e-05 0 0.05487286712522952 -5.2711951221393757e-05 0 0.054988639575110125 -0.00017435808188848915 0 0.054019097878394831 -0.0006472244372602141 0 0.054117206592708085 -0.0003673702848443907 0 0.053952574663720609 -0.00044835648868003417 0 0.054514068506994681 -0.00032432986991693557 0 0.054526633545953308 -0.00029701411445302335 0 0.054117206592708085 -0.0003673702848443907 0 0.053979124358553343 -0.00020277024950239947 0 0.053952574663720609 -0.00044835648868003417 0 0.054526633545953308 -0.00029701411445302335 0 0.054687029328241689 -0.00027592431597645191 0 0.054845204591686812 -0.00022246191646486688 0 0.054988639575110125 -0.00017435808188848915 0 0.054939818416891224 -0.00047813612126630135 0 0.054117206592708085 -0.0003673702848443907 0 0.053979124358553343 -0.00020277024950239947 0 0.054156538660835599 -0.00018350973317767124 0 0.053979124358553343 -0.00020277024950239947 0 0.054110886908022508 -0.00014342673315269238 0 0.054156538660835599 -0.00018350973317767124 0 0.053243805045436764 -0.00063284885787235137 0 0.053299635497366764 -0.00057115986153238928 0 0.052530872499725441 -0.0010135555063039375 0 0.052503748551972741 -0.0010687052400676195 0 0.052519075586745359 -0.0010622564800214236 0 0.052530872499725441 -0.0010135555063039375 0 0.052503748551972741 -0.0010687052400676195 0 0.052559358297712737 -0.0010205568846090585 0 0.052548167608915411 -0.00099077556141830524 0 0.052530872499725441 -0.0010135555063039375 0 0.052559358297712737 -0.0010205568846090585 0 0.054798301935546218 -0.00094214528760012354 0 0.054709635383827879 -0.00062531697120424268 0 0.054939818416891224 -0.00047813612126630135 0 0.05360261680475191 -0.00067355332725011158 0 0.054687029328241689 -0.00027592431597645191 0 0.054168513032236583 -0.00010610021630743005 0 0.054110886908022508 -0.00014342673315269238 0 0.054156538660835599 -0.00018350973317767124 0 0.05360261680475191 -0.00067355332725011158 0 0.053299635497366764 -0.00057115986153238928 0 0.054497584489086877 -0.00085330030004280319 0 0.054798301935546218 -0.00094214528760012354 0 0.054709635383827879 -0.00062531697120424268 0 0.054497584489086877 -0.00085330030004280319 0 0.054519019458797606 -0.00062908133810565543 0 0.054709635383827879 -0.00062531697120424268 0 0.054519019458797606 -0.00062908133810565543 0 0.054709635383827879 -0.00062531697120424268 0 0.054589522415660438 -0.00048379938049281654 0 0.054709635383827879 -0.00062531697120424268 0 0.054589522415660438 -0.00048379938049281654 0 0.054735631928861307 -0.00034722473884928143 0 0.05440955201779675 -0.00051091581417557605 0 0.054589522415660438 -0.00048379938049281654 0 0.054561875453657989 -0.00032823711072590083 0 0.05440955201779675 -0.00051091581417557605 0 0.054519019458797606 -0.00062908133810565543 0 0.054589522415660438 -0.00048379938049281654 0 0.054589522415660438 -0.00048379938049281654 0 0.054561875453657989 -0.00032823711072590083 0 0.054735631928861307 -0.00034722473884928143 0 0.054709635383827879 -0.00062531697120424268 0 0.054735631928861307 -0.00034722473884928143 0 0.054939818416891224 -0.00047813612126630135 0 0.054845204591686812 -0.00022246191646486688 0 0.054735631928861307 -0.00034722473884928143 0 0.054939818416891224 -0.00047813612126630135 0 0.052634048745690845 -0.0011591239990649139 0 0.052734375807506499 -0.001156062611667839 0 0.052894723351946407 -0.00093626116722377267 0 0.052634048745690845 -0.0011591239990649139 0 0.052734375807506499 -0.001156062611667839 0 0.052487097488003925 -0.0013025495038083963 0 0.052734375807506499 -0.001156062611667839 0 0.052487097488003925 -0.0013025495038083963 0 0.052361288216840961 -0.001448419153939126 0 0.052196373847516984 -0.00135617431924881 0 0.052487097488003925 -0.0013025495038083963 0 0.052361288216840961 -0.001448419153939126 0 0.052196373847516984 -0.00135617431924881 0 0.052487097488003925 -0.0013025495038083963 0 0.0524585307654057 -0.0012113437052414164 0 0.052634048745690845 -0.0011591239990649139 0 0.0524585307654057 -0.0012113437052414164 0 0.052517146983634008 -0.0011355226050020278 0 0.052634048745690845 -0.0011591239990649139 0 0.052487097488003925 -0.0013025495038083963 0 0.0524585307654057 -0.0012113437052414164 0 0.052503748551972741 -0.0010687052400676195 0 0.052517146983634008 -0.0011355226050020278 0 0.052519075586745359 -0.0010622564800214236 0 0.052507362683907079 -0.00099840592972836087 0 0.052517146983634008 -0.0011355226050020278 0 0.052519075586745359 -0.0010622564800214236 0 0.052503748551972741 -0.0010687052400676195 0 0.052517146983634008 -0.0011355226050020278 0 0.052550913640390669 -0.00097695542566683842 0 0.052634048745690845 -0.0011591239990649139 0 0.052517146983634008 -0.0011355226050020278 0 0.052550913640390669 -0.00097695542566683842 0 0.053979124358553343 -0.00020277024950239947 0 0.053755353901101727 -0.00028457191309905677 0 0.053952574663720609 -0.00044835648868003417 0 0.053243805045436764 -0.00063284885787235137 0 0.053153862752033758 -0.00063694372744290946 0 0.053755353901101727 -0.00028457191309905677 0 0.053952574663720609 -0.00044835648868003417 0 0.053842859598037932 -0.00060075553638170057 0 0.053755353901101727 -0.00028457191309905677 0 0.05318383484503162 -0.00060344549334923525 0 0.053842859598037932 -0.00060075553638170057 0 0.053153862752033758 -0.00063694372744290946 0 0.053171336854446444 -0.00061239344245224078 0 0.05318383484503162 -0.00060344549334923525 0 0.052894723351946407 -0.00093626116722377267 0 0.0530772369460406 -0.00082177523241467459 0 0.052550913640390669 -0.00097695542566683842 0 0.05318383484503162 -0.00060344549334923525 0 0.052894723351946407 -0.00093626116722377267 0 0.052634048745690845 -0.0011591239990649139 0 0.052550913640390669 -0.00097695542566683842 0 0.052894723351946407 -0.00093626116722377267 0 0.052734375807506499 -0.001156062611667839 0 0.052894723351946407 -0.00093626116722377267 0 0.0530772369460406 -0.00082177523241467459 0 0.0530772369460406 -0.00082177523241467459 0 0.053306227692737712 -0.00063977464013529033 0 0.053297550423661147 -0.00072772169111752385 0 0.05318383484503162 -0.00060344549334923525 0 0.0530772369460406 -0.00082177523241467459 0 0.053306227692737712 -0.00063977464013529033 0 0.05318383484503162 -0.00060344549334923525 0 0.053306227692737712 -0.00063977464013529033 0 0.053361643174716644 -0.0005973636628881187 0 0.053306227692737712 -0.00063977464013529033 0 0.053361643174716644 -0.0005973636628881187 0 0.053544876897127988 -0.00050882916785554655 0 0.05318383484503162 -0.00060344549334923525 0 0.053486515704913681 -0.00067380980756345137 0 0.053767057633680684 -0.00067563958066784715 0 0.05318383484503162 -0.00060344549334923525 0 0.053361643174716644 -0.0005973636628881187 0 0.053486515704913681 -0.00067380980756345137 0 0.053361643174716644 -0.0005973636628881187 0 0.053486515704913681 -0.00067380980756345137 0 0.053402525036606301 -0.00039161007901250582 0 0.053527598047809093 -0.00065410118455939449 0 0.053696046207103207 -0.00057596257813856302 0 0.053486515704913681 -0.00067380980756345137 0 0.053672323345709164 -0.0007207363195760975 0 0.053917536715224673 -0.00081783099990057583 0 0.053672323345709164 -0.0007207363195760975 0 0.053917536715224673 -0.00081783099990057583 0 0.053642923426484711 -0.00070446167313952663 0 0.053361643174716644 -0.0005973636628881187 0 0.053402525036606301 -0.00039161007901250582 0 0.053544876897127988 -0.00050882916785554655 0 0.053402525036606301 -0.00039161007901250582 0 0.053544876897127988 -0.00050882916785554655 0 0.053784542104690011 -0.00031291078653449472 0 0.054019097878394831 -0.0006472244372602141 0 0.053842859598037932 -0.00060075553638170057 0 0.054070125856535284 -0.00073528871270025456 0 0.054019097878394831 -0.0006472244372602141 0 0.053952574663720609 -0.00044835648868003417 0 0.053842859598037932 -0.00060075553638170057 0 0.05318383484503162 -0.00060344549334923525 0 0.053842859598037932 -0.00060075553638170057 0 0.053767057633680684 -0.00067563958066784715 0 0.053842859598037932 -0.00060075553638170057 0 0.053767057633680684 -0.00067563958066784715 0 0.054070125856535284 -0.00073528871270025456 0 0.053672323345709164 -0.0007207363195760975 0 0.054070125856535284 -0.00073528871270025456 0 0.053642923426484711 -0.00070446167313952663 0 0.053486515704913681 -0.00067380980756345137 0 0.053672323345709164 -0.0007207363195760975 0 0.053767057633680684 -0.00067563958066784715 0 0.053672323345709164 -0.0007207363195760975 0 0.053767057633680684 -0.00067563958066784715 0 0.054070125856535284 -0.00073528871270025456 0 0.054019097878394831 -0.0006472244372602141 0 0.054070125856535284 -0.00073528871270025456 0 0.054045751034780085 -0.00054294280041057347 0 0.054070125856535284 -0.00073528871270025456 0 0.054045751034780085 -0.00054294280041057347 0 0.054567636132552028 -0.0003051090900256739 0 0.054070125856535284 -0.00073528871270025456 0 0.054567636132552028 -0.0003051090900256739 0 0.054984112705939253 -0.00034442726772842272 0 0.054102942668220314 -0.00070490030818013555 0 0.054314011725973055 -0.00051035579961006673 0 0.054567636132552028 -0.0003051090900256739 0 0.054984112705939253 -0.00034442726772842272 0 0.054890175100488013 -0.0001184833129623694 0 0.054567636132552028 -0.0003051090900256739 0 0.054998674597814011 1.6806334045334048e-07 0 0.054890175100488013 -0.0001184833129623694 0 0.054998674597814011 1.6806334045334048e-07 0 0.054890175100488013 -0.0001184833129623694 0 0.055000181656354626 -1.3065608412722905e-07 0 0.0545368314778793 -0.00028801407771366413 0 0.054999795099958976 -1.3510989638829135e-07 0 0.054045751034780085 -0.00054294280041057347 0 0.054567636132552028 -0.0003051090900256739 0 0.054998674597814011 1.6806334045334048e-07 0 0.0549862925407405 1.6443246748195564e-05 0 0.05499101238811694 1.498440553844145e-05 0 0.054999979910451829 8.8023745229910867e-09 0 0.053917536715224673 -0.00081783099990057583 0 0.054210652465351013 -0.0002600193189801156 0 0.054624490660670079 -0.0003951008498759789 0 0.053696046207103207 -0.00057596257813856302 0 0.054273178638461976 -0.00023831144568335475 0 0.053917536715224673 -0.00081783099990057583 0 0.053642923426484711 -0.00070446167313952663 0 0.054210652465351013 -0.0002600193189801156 0 0.054314011725973055 -0.00051035579961006673 0 0.054621199452306812 -0.00018365762524506402 0 0.054984112705939253 -0.00034442726772842272 0 0.055004579804677323 -8.095731385694509e-05 0 0.05503712197545655 -4.9361732222376228e-05 0 0.054984112705939253 -0.00034442726772842272 0 0.055004579804677323 -8.095731385694509e-05 0 0.054890175100488013 -0.0001184833129623694 0 0.055004579804677323 -8.095731385694509e-05 0 0.055000181656354626 -1.3065608412722905e-07 0 0.055000044382314657 -4.1769385560983676e-08 0 0.055004579804677323 -8.095731385694509e-05 0 0.054890175100488013 -0.0001184833129623694 0 0.055000181656354626 -1.3065608412722905e-07 0 0.055004579804677323 -8.095731385694509e-05 0 0.05503712197545655 -4.9361732222376228e-05 0 0.055000044382314657 -4.1769385560983676e-08 0 0.05503712197545655 -4.9361732222376228e-05 0 0.055000044382314657 -4.1769385560983676e-08 0 0.055000013858099592 1.9686149571101522e-08 0 0.054210652465351013 -0.0002600193189801156 0 0.054624490660670079 -0.0003951008498759789 0 0.054998405619608344 -3.3538444746907045e-07 0 0.054621199452306812 -0.00018365762524506402 0 0.05499987737120441 -3.3171032309981643e-08 0 0.054273178638461976 -0.00023831144568335475 0 0.054999683948791289 -8.0297854048064178e-08 0 0.053402525036606301 -0.00039161007901250582 0 0.053941040229466435 3.3870974836165977e-06 0 0.053784542104690011 -0.00031291078653449472 0 0.053941040229466435 3.3870974836165977e-06 0 0.054118860521844427 -0.00020555294233969121 0 0.054479701950533213 -6.5222488727563363e-05 0 0.053941040229466435 3.3870974836165977e-06 0 0.054118860521844427 -0.00020555294233969121 0 0.053784542104690011 -0.00031291078653449472 0 0.054386291002514797 -0.00018220463803034735 0 0.054479701950533213 -6.5222488727563363e-05 0 0.054743964118736173 -2.9825972696914679e-05 0 0.054386291002514797 -0.00018220463803034735 0 0.054118860521844427 -0.00020555294233969121 0 0.053915093945991144 -0.00037195360401370684 0 0.054386291002514797 -0.00018220463803034735 0 0.054118860521844427 -0.00020555294233969121 0 0.054479701950533213 -6.5222488727563363e-05 0 0.054479701950533213 -6.5222488727563363e-05 0 0.054998587466314842 4.3346632898018584e-07 0 0.054743964118736173 -2.9825972696914679e-05 0 0.054624490660670079 -0.0003951008498759789 0 0.054998405619608344 -3.3538444746907045e-07 0 0.055001406923827219 3.3424010811540679e-07 0 0.053941040229466435 3.3870974836165977e-06 0 0.054479701950533213 -6.5222488727563363e-05 0 0.054998587466314842 4.3346632898018584e-07 0 0.054999903540012385 -1.3384405243974689e-07 0 0.054743964118736173 -2.9825972696914679e-05 0 0.054720202116883714 -7.1768058289701145e-05 0 0.054998587466314842 4.3346632898018584e-07 0 0.054999903540012385 -1.3384405243974689e-07 0 0.054743964118736173 -2.9825972696914679e-05 0 0.054999903540012385 -1.3384405243974689e-07 0 0.054999662286820829 5.6052626356163397e-08 0 0.054720202116883714 -7.1768058289701145e-05 0 0.054999868375765017 -3.1459210644681519e-08 0 0.054665036842587389 -0.0001610642317946483 0 0.054999662286820829 5.6052626356163397e-08 0 0.054654644475729222 -0.00014153300660997521 0 0.054720202116883714 -7.1768058289701145e-05 0 0.054654644475729222 -0.00014153300660997521 0 0.054720202116883714 -7.1768058289701145e-05 0 0.054437455494583516 -0.00022201983163081798 0 0.054386291002514797 -0.00018220463803034735 0 0.054743964118736173 -2.9825972696914679e-05 0 0.054720202116883714 -7.1768058289701145e-05 0 0.054386291002514797 -0.00018220463803034735 0 0.054720202116883714 -7.1768058289701145e-05 0 0.054437455494583516 -0.00022201983163081798 0 0.054386291002514797 -0.00018220463803034735 0 0.054437455494583516 -0.00022201983163081798 0 0.054052401353264869 -0.00041251859890050125 0 0.054437455494583516 -0.00022201983163081798 0 0.054052401353264869 -0.00041251859890050125 0 0.054433733594442979 -0.00034613624312338696 0 0.054654644475729222 -0.00014153300660997521 0 0.054437455494583516 -0.00022201983163081798 0 0.054433733594442979 -0.00034613624312338696 0 0.054052401353264869 -0.00041251859890050125 0 0.054433733594442979 -0.00034613624312338696 0 0.054063101683659763 -0.00057960366101618833 0 0.054052401353264869 -0.00041251859890050125 0 0.05359163647239832 -0.00056781007330582005 0 0.053915093945991144 -0.00037195360401370684 0 0.054052401353264869 -0.00041251859890050125 0 0.05359163647239832 -0.00056781007330582005 0 0.053517206768683781 -0.00070012803872915254 0 0.053306227692737712 -0.00063977464013529033 0 0.05359163647239832 -0.00056781007330582005 0 0.053297550423661147 -0.00072772169111752385 0 0.053306227692737712 -0.00063977464013529033 0 0.05359163647239832 -0.00056781007330582005 0 0.053544876897127988 -0.00050882916785554655 0 0.05359163647239832 -0.00056781007330582005 0 0.053544876897127988 -0.00050882916785554655 0 0.053915093945991144 -0.00037195360401370684 0 0.054118860521844427 -0.00020555294233969121 0 0.053784542104690011 -0.00031291078653449472 0 0.053915093945991144 -0.00037195360401370684 0 0.053544876897127988 -0.00050882916785554655 0 0.053784542104690011 -0.00031291078653449472 0 0.053915093945991144 -0.00037195360401370684 0 0.054386291002514797 -0.00018220463803034735 0 0.054052401353264869 -0.00041251859890050125 0 0.053915093945991144 -0.00037195360401370684 0 0.054764282588360816 -0.00010876013250351155 0 0.054465371927676628 -0.00019258397808844332 0 0.054812380287580467 -5.1635363981903018e-05 0 0.054999574867440074 -6.0010776971416098e-08 0 0.054764282588360816 -0.00010876013250351155 0 0.054812380287580467 -5.1635363981903018e-05 0 0.054764282588360816 -0.00010876013250351155 0 0.054594439654906422 -0.000228686464918831 0 0.054999631643373265 -1.3286222428021865e-07 0 0.054999574867440074 -6.0010776971416098e-08 0 0.054764282588360816 -0.00010876013250351155 0 0.054999631643373265 -1.3286222428021865e-07 0 0.054764282588360816 -0.00010876013250351155 0 0.054594439654906422 -0.000228686464918831 0 0.054465371927676628 -0.00019258397808844332 0 0.054594439654906422 -0.000228686464918831 0 0.054826131610616481 -0.00010294432732729874 0 0.054582168355429166 -0.00026173021468747987 0 0.054594439654906422 -0.000228686464918831 0 0.054999631643373265 -1.3286222428021865e-07 0 0.054826131610616481 -0.00010294432732729874 0 0.054999575992653447 -7.2176076609806503e-08 0 0.054999631643373265 -1.3286222428021865e-07 0 0.054826131610616481 -0.00010294432732729874 0 0.054999575992653447 -7.2176076609806503e-08 0 0.054666623755275728 -0.00017604643286161308 0 0.054826131610616481 -0.00010294432732729874 0 0.054666623755275728 -0.00017604643286161308 0 0.054826131610616481 -0.00010294432732729874 0 0.054582168355429166 -0.00026173021468747987 0 0.054665036842587389 -0.0001610642317946483 0 0.0544737277102183 -0.00033260951523775029 0 0.054666623755275728 -0.00017604643286161308 0 0.054433733594442979 -0.00034613624312338696 0 0.054582168355429166 -0.00026173021468747987 0 0.054433733594442979 -0.00034613624312338696 0 0.054490892168141444 -0.00034941137946607758 0 0.054582168355429166 -0.00026173021468747987 0 0.054433733594442979 -0.00034613624312338696 0 0.054490892168141444 -0.00034941137946607758 0 0.054407486858161935 -0.00047553787664463611 0 0.054490892168141444 -0.00034941137946607758 0 0.054419281371172704 -0.00034727085815064809 0 0.054513766702389013 -0.000307338429270531 0 0.054490892168141444 -0.00034941137946607758 0 0.054582168355429166 -0.00026173021468747987 0 0.054419281371172704 -0.00034727085815064809 0 0.054594439654906422 -0.000228686464918831 0 0.054582168355429166 -0.00026173021468747987 0 0.054419281371172704 -0.00034727085815064809 0 0.054594439654906422 -0.000228686464918831 0 0.054290807062762333 -0.00032047349803474891 0 0.054465371927676628 -0.00019258397808844332 0 0.054594439654906422 -0.000228686464918831 0 0.054290807062762333 -0.00032047349803474891 0 0.054419281371172704 -0.00034727085815064809 0 0.054419281371172704 -0.00034727085815064809 0 0.053708126594958265 -0.00032166353915663451 0 0.054513766702389013 -0.000307338429270531 0 0.054290807062762333 -0.00032047349803474891 0 0.054419281371172704 -0.00034727085815064809 0 0.053708126594958265 -0.00032166353915663451 0 0.053708126594958265 -0.00032166353915663451 0 0.054018299557336169 -0.0010079780698676463 0 0.05438848399226702 -0.00037930457080096749 0 0.053708126594958265 -0.00032166353915663451 0 0.054465371927676628 -0.00019258397808844332 0 0.05438848399226702 -0.00037930457080096749 0 0.054290807062762333 -0.00032047349803474891 0 0.053708126594958265 -0.00032166353915663451 0 0.054465371927676628 -0.00019258397808844332 0 0.050868280598095533 -0.0019704910493438046 0 0.052334692842138646 -0.0010713905101669859 0 0.051101820217721444 -0.0018243551292514198 0 0.053822681989226615 -0.0020103927077745462 0 0.052334692842138646 -0.0010713905101669859 0 0.054018299557336169 -0.0010079780698676463 0 0.052305890667263537 -0.0018233488980168057 0 0.052217944730944037 -0.0010895743631193168 0 0.053708126594958265 -0.00032166353915663451 0 0.052334692842138646 -0.0010713905101669859 0 0.054018299557336169 -0.0010079780698676463 0 0.052334692842138646 -0.0010713905101669859 0 0.051101820217721444 -0.0018243551292514198 0 0.050511425252300055 -0.0014781499936467359 0 0.053708126594958265 -0.00032166353915663451 0 0.052334692842138646 -0.0010713905101669859 0 0.050511425252300055 -0.0014781499936467359 0 0.053559047503067246 -0.00036676663573437701 0 0.052535116246917174 -0.00093629522833152412 0 0.051101820217721444 -0.0018243551292514198 0 0.050511425252300055 -0.0014781499936467359 0 0.050489451806255643 -0.0020887637908741353 0 0.050868280598095533 -0.0019704910493438046 0 0.051101820217721444 -0.0018243551292514198 0 0.050489451806255643 -0.0020887637908741353 0 0.050511425252300055 -0.0014781499936467359 0 0.049947598348956491 -0.0021156059194747338 0 0.050489451806255643 -0.0020887637908741353 0 0.052535116246917174 -0.00093629522833152412 0 0.052147345463044503 -0.0014949107292473577 0 0.054490892168141444 -0.00034941137946607758 0 0.054513766702389013 -0.000307338429270531 0 0.054407486858161935 -0.00047553787664463611 0 0.054513766702389013 -0.000307338429270531 0 0.054407486858161935 -0.00047553787664463611 0 0.054340275968312361 -0.00088402851384372075 0 0.054433733594442979 -0.00034613624312338696 0 0.054407486858161935 -0.00047553787664463611 0 0.054063101683659763 -0.00057960366101618833 0 0.054407486858161935 -0.00047553787664463611 0 0.054340275968312361 -0.00088402851384372075 0 0.054063101683659763 -0.00057960366101618833 0 0.049947598348956491 -0.0021156059194747338 0 0.049939653924905472 -0.0022506967683297739 0 0.050049199355280426 -0.0022184991084313516 0 0.049939653924905472 -0.0022506967683297739 0 0.049878704803886023 -0.0022345704810070042 0 0.050049199355280426 -0.0022184991084313516 0 0.049878704803886023 -0.0022345704810070042 0 0.050049199355280426 -0.0022184991084313516 0 0.050489451806255643 -0.0020887637908741353 0 0.049947598348956491 -0.0021156059194747338 0 0.050049199355280426 -0.0022184991084313516 0 0.050489451806255643 -0.0020887637908741353 0 0.049878704803886023 -0.0022345704810070042 0 0.050489451806255643 -0.0020887637908741353 0 0.050240145291911224 -0.002099021692840335 0 0.050868280598095533 -0.0019704910493438046 0 0.050489451806255643 -0.0020887637908741353 0 0.050240145291911224 -0.002099021692840335 0 0.053055526721957902 -0.0010584494684262246 0 0.053111873546709834 -0.0009060218811460948 0 0.053517206768683781 -0.00070012803872915254 0 0.053055526721957902 -0.0010584494684262246 0 0.053517206768683781 -0.00070012803872915254 0 0.053689865492935376 -0.00092087602035267988 0 0.052734375807506499 -0.001156062611667839 0 0.053055526721957902 -0.0010584494684262246 0 0.053111873546709834 -0.0009060218811460948 0 0.052734375807506499 -0.001156062611667839 0 0.0530772369460406 -0.00082177523241467459 0 0.053111873546709834 -0.0009060218811460948 0 0.053111873546709834 -0.0009060218811460948 0 0.053297550423661147 -0.00072772169111752385 0 0.053517206768683781 -0.00070012803872915254 0 0.05359163647239832 -0.00056781007330582005 0 0.053297550423661147 -0.00072772169111752385 0 0.053517206768683781 -0.00070012803872915254 0 0.0530772369460406 -0.00082177523241467459 0 0.053111873546709834 -0.0009060218811460948 0 0.053297550423661147 -0.00072772169111752385 0 0.053517206768683781 -0.00070012803872915254 0 0.054063101683659763 -0.00057960366101618833 0 0.053689865492935376 -0.00092087602035267988 0 0.054052401353264869 -0.00041251859890050125 0 0.053517206768683781 -0.00070012803872915254 0 0.054063101683659763 -0.00057960366101618833 0 0.054340275968312361 -0.00088402851384372075 0 0.054063101683659763 -0.00057960366101618833 0 0.053689865492935376 -0.00092087602035267988 0 0.053055526721957902 -0.0010584494684262246 0 0.053689865492935376 -0.00092087602035267988 0 0.053618438266095476 -0.0014405900111274588 0 0.049947598348956491 -0.0021156059194747338 0 0.049939653924905472 -0.0022506967683297739 0 0.050294309697465546 -0.0025008442786435994 0 0.052147345463044503 -0.0014949107292473577 0 0.051976604034312403 -0.001912834652702144 0 0.054340275968312361 -0.00088402851384372075 0 0.053689865492935376 -0.00092087602035267988 0 0.053618438266095476 -0.0014405900111274588 0 0.049939653924905472 -0.0022506967683297739 0 0.050294309697465546 -0.0025008442786435994 0 0.050384991946348767 -0.0019768272128704426 0 0.051976604034312403 -0.001912834652702144 0 0.05197243465355688 -0.0018278861004521788 0 0.050294309697465546 -0.0025008442786435994 0 0.051915672814695085 -0.0018345132715851843 0 0.050384991946348767 -0.0019768272128704426 0 0.053618438266095476 -0.0014405900111274588 0 0.052533428853535846 -0.0014177963148189518 0 0.051915672814695085 -0.0018345132715851843 0 0.052533428853535846 -0.0014177963148189518 0 0.052361288216840961 -0.001448419153939126 0 0.051915672814695085 -0.0018345132715851843 0 0.053055526721957902 -0.0010584494684262246 0 0.053618438266095476 -0.0014405900111274588 0 0.052533428853535846 -0.0014177963148189518 0 0.052734375807506499 -0.001156062611667839 0 0.053055526721957902 -0.0010584494684262246 0 0.052533428853535846 -0.0014177963148189518 0 0.052734375807506499 -0.001156062611667839 0 0.052533428853535846 -0.0014177963148189518 0 0.052361288216840961 -0.001448419153939126 0 0.052196373847516984 -0.00135617431924881 0 0.052361288216840961 -0.001448419153939126 0 0.051915672814695085 -0.0018345132715851843 0 0.052196373847516984 -0.00135617431924881 0 0.051915672814695085 -0.0018345132715851843 0 0.051586116759781205 -0.0012584583835894307 0 0.051915672814695085 -0.0018345132715851843 0 0.051586116759781205 -0.0012584583835894307 0 0.050613179426168303 -0.0014704006266087163 0 0.051586116759781205 -0.0012584583835894307 0 0.050668737124093234 -0.00078752444755891674 0 0.050613179426168303 -0.0014704006266087163 0 0.051586116759781205 -0.0012584583835894307 0 0.051534027980680096 -0.00073453274177413754 0 0.050668737124093234 -0.00078752444755891674 0 0.052196373847516984 -0.00135617431924881 0 0.052004347665083626 -0.00097377326616758595 0 0.051586116759781205 -0.0012584583835894307 0 0.052004347665083626 -0.00097377326616758595 0 0.051586116759781205 -0.0012584583835894307 0 0.051534027980680096 -0.00073453274177413754 0 0.052004347665083626 -0.00097377326616758595 0 0.051888884975270069 -0.00051325705924860725 0 0.051534027980680096 -0.00073453274177413754 0 0.051888884975270069 -0.00051325705924860725 0 0.051534027980680096 -0.00073453274177413754 0 0.051437048698713093 -0.00021486125149357965 0 0.051534027980680096 -0.00073453274177413754 0 0.05076214615656869 -0.00013674919637116347 0 0.051437048698713093 -0.00021486125149357965 0 0.051534027980680096 -0.00073453274177413754 0 0.050668737124093234 -0.00078752444755891674 0 0.05076214615656869 -0.00013674919637116347 0 0.050668737124093234 -0.00078752444755891674 0 0.05076214615656869 -0.00013674919637116347 0 0.049861308420436526 -0.00022467837820874586 0 0.05076214615656869 -0.00013674919637116347 0 0.049187424781004276 8.2771450813876746e-05 0 0.051021743436677057 0.00042724710154529871 0 0.049105380708401057 4.3478154070232625e-05 0 0.049539784588220649 0.00054930983311128297 0 0.05076214615656869 -0.00013674919637116347 0 0.051437048698713093 -0.00021486125149357965 0 0.051021743436677057 0.00042724710154529871 0 0.051888884975270069 -0.00051325705924860725 0 0.051778360716136257 -6.4405438737243917e-06 0 0.051437048698713093 -0.00021486125149357965 0 0.051778360716136257 -6.4405438737243917e-06 0 0.051437048698713093 -0.00021486125149357965 0 0.051021743436677057 0.00042724710154529871 0 0.04966196746127937 -0.00031160729375346306 0 0.048761923248380738 0.00064929776739232619 0 0.050019794331763859 -0.00027332505100112784 0 0.049850551625943436 -0.00074163439382411136 0 0.049729319796957355 0.00015951200013347524 0 0.04982953391148922 -0.0013083943674509139 0 0.049723936241280783 -0.00036484464996498165 0 0.050019794331763859 -0.00027332505100112784 0 0.050374100923273005 -0.00068775646943733328 0 0.05013449832701377 0.0002130007015205978 0 0.050019794331763859 -0.00027332505100112784 0 0.050374100923273005 -0.00068775646943733328 0 0.049850551625943436 -0.00074163439382411136 0 0.049187424781004276 8.2771450813876746e-05 0 0.048943215785415932 -1.9789971931139036e-05 0 0.048302068239721545 0.00066918981621924502 0 0.048943215785415932 -1.9789971931139036e-05 0 0.048302068239721545 0.00066918981621924502 0 0.047366133049193973 0.00098084237753681539 0 0.049187424781004276 8.2771450813876746e-05 0 0.048166127304207509 0.00082820095140525489 0 0.048302068239721545 0.00066918981621924502 0 0.050374100923273005 -0.00068775646943733328 0 0.050234158796355989 -0.0011928918232891523 0 0.050613179426168303 -0.0014704006266087163 0 0.04966196746127937 -0.00031160729375346306 0 0.050474875280717472 -0.0013759250753716725 0 0.050668737124093234 -0.00078752444755891674 0 0.048943215785415932 -1.9789971931139036e-05 0 0.050613179426168303 -0.0014704006266087163 0 0.049187424781004276 8.2771450813876746e-05 0 0.048943215785415932 -1.9789971931139036e-05 0 0.049861308420436526 -0.00022467837820874586 0 0.050668737124093234 -0.00078752444755891674 0 0.048943215785415932 -1.9789971931139036e-05 0 0.049861308420436526 -0.00022467837820874586 0 0.05076214615656869 -0.00013674919637116347 0 0.049187424781004276 8.2771450813876746e-05 0 0.049861308420436526 -0.00022467837820874586 0 0.050374100923273005 -0.00068775646943733328 0 0.049850551625943436 -0.00074163439382411136 0 0.050234158796355989 -0.0011928918232891523 0 0.050234158796355989 -0.0011928918232891523 0 0.050613179426168303 -0.0014704006266087163 0 0.049990299974043632 -0.0018601136364576882 0 0.049781926703177687 -0.0018806775789752506 0 0.049990299974043632 -0.0018601136364576882 0 0.049671164467400435 -0.002013023791798331 0 0.049850551625943436 -0.00074163439382411136 0 0.050234158796355989 -0.0011928918232891523 0 0.049990299974043632 -0.0018601136364576882 0 0.04982953391148922 -0.0013083943674509139 0 0.049967128822334471 -0.0018496258148242369 0 0.050613179426168303 -0.0014704006266087163 0 0.050384991946348767 -0.0019768272128704426 0 0.049990299974043632 -0.0018601136364576882 0 0.051915672814695085 -0.0018345132715851843 0 0.050613179426168303 -0.0014704006266087163 0 0.050384991946348767 -0.0019768272128704426 0 0.049939653924905472 -0.0022506967683297739 0 0.050384991946348767 -0.0019768272128704426 0 0.049990299974043632 -0.0018601136364576882 0 0.049939653924905472 -0.0022506967683297739 0 0.049878704803886023 -0.0022345704810070042 0 0.049698158023419661 -0.0021513804226430569 0 0.049939653924905472 -0.0022506967683297739 0 0.049990299974043632 -0.0018601136364576882 0 0.049698158023419661 -0.0021513804226430569 0 0.049878704803886023 -0.0022345704810070042 0 0.049698158023419661 -0.0021513804226430569 0 0.04946322907312637 -0.0022912152195390021 0 0.049698158023419661 -0.0021513804226430569 0 0.04946322907312637 -0.0022912152195390021 0 0.049384201728016282 -0.0021768535419983974 0 0.049698158023419661 -0.0021513804226430569 0 0.049384201728016282 -0.0021768535419983974 0 0.049671164467400435 -0.002013023791798331 0 0.049990299974043632 -0.0018601136364576882 0 0.049698158023419661 -0.0021513804226430569 0 0.049671164467400435 -0.002013023791798331 0 0.050240145291911224 -0.002099021692840335 0 0.049653457559134223 -0.0022532357412075859 0 0.050115793421647313 -0.0022848833123496003 0 0.049878704803886023 -0.0022345704810070042 0 0.04946322907312637 -0.0022912152195390021 0 0.049653457559134223 -0.0022532357412075859 0 0.049878704803886023 -0.0022345704810070042 0 0.050240145291911224 -0.002099021692840335 0 0.049653457559134223 -0.0022532357412075859 0 0.04946322907312637 -0.0022912152195390021 0 0.049653457559134223 -0.0022532357412075859 0 0.04896616687846117 -0.0026041600205491864 0 0.04946322907312637 -0.0022912152195390021 0 0.049384201728016282 -0.0021768535419983974 0 0.04896616687846117 -0.0026041600205491864 0 0.049653457559134223 -0.0022532357412075859 0 0.04896616687846117 -0.0026041600205491864 0 0.04996218007895821 -0.0027607708904545947 0 0.049653457559134223 -0.0022532357412075859 0 0.04996218007895821 -0.0027607708904545947 0 0.050115793421647313 -0.0022848833123496003 0 0.048847184774993044 -0.0026444090611688945 0 0.048449624878780448 -0.0027462227144008462 0 0.04896616687846117 -0.0026041600205491864 0 0.047519341505156847 -0.0017768643738982491 0 0.046811569794121821 -0.0027291087158663224 0 0.049384201728016282 -0.0021768535419983974 0 0.04896616687846117 -0.0026041600205491864 0 0.049029410328726389 -0.0020096449103444397 0 0.04896616687846117 -0.0026041600205491864 0 0.048479929575748253 -0.0018734503668936596 0 0.047519341505156847 -0.0017768643738982491 0 0.04896616687846117 -0.0026041600205491864 0 0.048479929575748253 -0.0018734503668936596 0 0.049029410328726389 -0.0020096449103444397 0 0.048479929575748253 -0.0018734503668936596 0 0.047969734661019753 -0.0013215096052438756 0 0.048889878668481788 -0.0015425028992247481 0 0.047969734661019753 -0.0013215096052438756 0 0.048889878668481788 -0.0015425028992247481 0 0.048301388443199582 -0.000888341939246396 0 0.048479929575748253 -0.0018734503668936596 0 0.047969734661019753 -0.0013215096052438756 0 0.047519341505156847 -0.0017768643738982491 0 0.047969734661019753 -0.0013215096052438756 0 0.047519341505156847 -0.0017768643738982491 0 0.04722980001908883 -0.0011443443063703564 0 0.047519341505156847 -0.0017768643738982491 0 0.04722980001908883 -0.0011443443063703564 0 0.04667401870623486 -0.0013183772317378038 0 0.049781926703177687 -0.0018806775789752506 0 0.049671164467400435 -0.002013023791798331 0 0.049391774353260434 -0.0018925359751648123 0 0.049384201728016282 -0.0021768535419983974 0 0.049671164467400435 -0.002013023791798331 0 0.049391774353260434 -0.0018925359751648123 0 0.049384201728016282 -0.0021768535419983974 0 0.049391774353260434 -0.0018925359751648123 0 0.049029410328726389 -0.0020096449103444397 0 0.049391774353260434 -0.0018925359751648123 0 0.049029410328726389 -0.0020096449103444397 0 0.048889878668481788 -0.0015425028992247481 0 0.048889878668481788 -0.0015425028992247481 0 0.049414398065498445 -0.001448271553399689 0 0.04895548944979343 -0.0011543320163185547 0 0.049391774353260434 -0.0018925359751648123 0 0.048889878668481788 -0.0015425028992247481 0 0.049414398065498445 -0.001448271553399689 0 0.048479929575748253 -0.0018734503668936596 0 0.049029410328726389 -0.0020096449103444397 0 0.048889878668481788 -0.0015425028992247481 0 0.049781926703177687 -0.0018806775789752506 0 0.049391774353260434 -0.0018925359751648123 0 0.049414398065498445 -0.001448271553399689 0 0.049781926703177687 -0.0018806775789752506 0 0.049414398065498445 -0.001448271553399689 0 0.049730435066648454 -0.00089686638350485316 0 0.049414398065498445 -0.001448271553399689 0 0.049257293893093933 -0.0009959464023525154 0 0.049730435066648454 -0.00089686638350485316 0 0.04919398052541115 -0.00061084815850329642 0 0.049257293893093933 -0.0009959464023525154 0 0.049730435066648454 -0.00089686638350485316 0 0.04919398052541115 -0.00061084815850329642 0 0.049257293893093933 -0.0009959464023525154 0 0.048834459083341893 -0.00072451256492146537 0 0.049414398065498445 -0.001448271553399689 0 0.049257293893093933 -0.0009959464023525154 0 0.04895548944979343 -0.0011543320163185547 0 0.04895548944979343 -0.0011543320163185547 0 0.048301388443199582 -0.000888341939246396 0 0.048834459083341893 -0.00072451256492146537 0 0.049257293893093933 -0.0009959464023525154 0 0.04895548944979343 -0.0011543320163185547 0 0.048834459083341893 -0.00072451256492146537 0 0.048889878668481788 -0.0015425028992247481 0 0.04895548944979343 -0.0011543320163185547 0 0.048301388443199582 -0.000888341939246396 0 0.048301388443199582 -0.000888341939246396 0 0.048834459083341893 -0.00072451256492146537 0 0.048338611067029823 -0.00029726667679515504 0 0.048834459083341893 -0.00072451256492146537 0 0.048823744698144572 -0.00019683959827729609 0 0.048338611067029823 -0.00029726667679515504 0 0.04919398052541115 -0.00061084815850329642 0 0.048834459083341893 -0.00072451256492146537 0 0.048823744698144572 -0.00019683959827729609 0 0.048338611067029823 -0.00029726667679515504 0 0.04798968750813553 0.00012318012033568754 0 0.048526528094552837 0.00026237957435515559 0 0.048823744698144572 -0.00019683959827729609 0 0.048338611067029823 -0.00029726667679515504 0 0.048526528094552837 0.00026237957435515559 0 0.048823744698144572 -0.00019683959827729609 0 0.049011152185960263 0.00022704740487599668 0 0.048526528094552837 0.00026237957435515559 0 0.048823744698144572 -0.00019683959827729609 0 0.049011152185960263 0.00022704740487599668 0 0.049287745860394715 -0.00020335789889639071 0 0.049561257464940126 0.0008916872201845962 0 0.049723936241280783 -0.00036484464996498165 0 0.049287745860394715 -0.00020335789889639071 0 0.04956522193998919 0.0005810709592652505 0 0.049730435066648454 -0.00089686638350485316 0 0.049011152185960263 0.00022704740487599668 0 0.049287745860394715 -0.00020335789889639071 0 0.04956522193998919 0.0005810709592652505 0 0.04919398052541115 -0.00061084815850329642 0 0.049287745860394715 -0.00020335789889639071 0 0.049730435066648454 -0.00089686638350485316 0 0.04919398052541115 -0.00061084815850329642 0 0.048823744698144572 -0.00019683959827729609 0 0.049287745860394715 -0.00020335789889639071 0 0.047969734661019753 -0.0013215096052438756 0 0.04722980001908883 -0.0011443443063703564 0 0.047342746742056657 -0.00062448557480890331 0 0.046585401232206641 -0.00054488079882553087 0 0.04722980001908883 -0.0011443443063703564 0 0.04667401870623486 -0.0013183772317378038 0 0.046585401232206641 -0.00054488079882553087 0 0.04722980001908883 -0.0011443443063703564 0 0.047342746742056657 -0.00062448557480890331 0 0.047969734661019753 -0.0013215096052438756 0 0.048301388443199582 -0.000888341939246396 0 0.047342746742056657 -0.00062448557480890331 0 0.048301388443199582 -0.000888341939246396 0 0.047342746742056657 -0.00062448557480890331 0 0.047710588103955835 -0.00031276500174875116 0 0.048301388443199582 -0.000888341939246396 0 0.048338611067029823 -0.00029726667679515504 0 0.047710588103955835 -0.00031276500174875116 0 0.048338611067029823 -0.00029726667679515504 0 0.04798968750813553 0.00012318012033568754 0 0.047710588103955835 -0.00031276500174875116 0 0.04798968750813553 0.00012318012033568754 0 0.047710588103955835 -0.00031276500174875116 0 0.047576618195215775 5.1916551295132045e-05 0 0.04798968750813553 0.00012318012033568754 0 0.047576618195215775 5.1916551295132045e-05 0 0.047521164011558051 0.00044678207669907749 0 0.047576618195215775 5.1916551295132045e-05 0 0.047107538066922264 4.9725876021519908e-05 0 0.047521164011558051 0.00044678207669907749 0 0.047710588103955835 -0.00031276500174875116 0 0.047576618195215775 5.1916551295132045e-05 0 0.047107538066922264 4.9725876021519908e-05 0 0.047342746742056657 -0.00062448557480890331 0 0.047710588103955835 -0.00031276500174875116 0 0.047107538066922264 4.9725876021519908e-05 0 0.047342746742056657 -0.00062448557480890331 0 0.047107538066922264 4.9725876021519908e-05 0 0.046636025724993993 -0.00015869812103354029 0 0.046585401232206641 -0.00054488079882553087 0 0.047342746742056657 -0.00062448557480890331 0 0.046636025724993993 -0.00015869812103354029 0 0.047107538066922264 4.9725876021519908e-05 0 0.046636025724993993 -0.00015869812103354029 0 0.046307171383620241 0.00044585822115194321 0 0.046636025724993993 -0.00015869812103354029 0 0.046307171383620241 0.00044585822115194321 0 0.046007132059831361 -2.6319027024644021e-05 0 0.046585401232206641 -0.00054488079882553087 0 0.046636025724993993 -0.00015869812103354029 0 0.046007132059831361 -2.6319027024644021e-05 0 0.046307171383620241 0.00044585822115194321 0 0.045652470341298185 0.0012592555636184543 0 0.045543996294426112 0.00052958458286000878 0 0.046307171383620241 0.00044585822115194321 0 0.045543996294426112 0.00052958458286000878 0 0.046007132059831361 -2.6319027024644021e-05 0 0.047107538066922264 4.9725876021519908e-05 0 0.046307171383620241 0.00044585822115194321 0 0.046927754133018341 0.00058278225580811601 0 0.046307171383620241 0.00044585822115194321 0 0.046927754133018341 0.00058278225580811601 0 0.04656664874027637 0.0011309977847420969 0 0.046307171383620241 0.00044585822115194321 0 0.04656664874027637 0.0011309977847420969 0 0.045652470341298185 0.0012592555636184543 0 0.046927754133018341 0.00058278225580811601 0 0.047330499266973469 0.00093724441471108833 0 0.04656664874027637 0.0011309977847420969 0 0.047107538066922264 4.9725876021519908e-05 0 0.046927754133018341 0.00058278225580811601 0 0.047521164011558051 0.00044678207669907749 0 0.046927754133018341 0.00058278225580811601 0 0.047521164011558051 0.00044678207669907749 0 0.047330499266973469 0.00093724441471108833 0 0.04798968750813553 0.00012318012033568754 0 0.047521164011558051 0.00044678207669907749 0 0.048030252920543068 0.00064011131285871198 0 0.047521164011558051 0.00044678207669907749 0 0.047330499266973469 0.00093724441471108833 0 0.048030252920543068 0.00064011131285871198 0 0.047330499266973469 0.00093724441471108833 0 0.048030252920543068 0.00064011131285871198 0 0.047758958711654205 0.0013138324515101969 0 0.047330499266973469 0.00093724441471108833 0 0.047081218092525572 0.0016182176958850422 0 0.047758958711654205 0.0013138324515101969 0 0.047081218092525572 0.0016182176958850422 0 0.047758958711654205 0.0013138324515101969 0 0.0477324532669086 0.0020898567036725141 0 0.047081218092525572 0.0016182176958850422 0 0.0477324532669086 0.0020898567036725141 0 0.046932161423960277 0.0022788095993227096 0 0.047081218092525572 0.0016182176958850422 0 0.046160479510020558 0.0020605430613820806 0 0.046932161423960277 0.0022788095993227096 0 0.047081218092525572 0.0016182176958850422 0 0.04656664874027637 0.0011309977847420969 0 0.046160479510020558 0.0020605430613820806 0 0.047330499266973469 0.00093724441471108833 0 0.047081218092525572 0.0016182176958850422 0 0.04656664874027637 0.0011309977847420969 0 0.04656664874027637 0.0011309977847420969 0 0.046160479510020558 0.0020605430613820806 0 0.045652470341298185 0.0012592555636184543 0 0.046160479510020558 0.0020605430613820806 0 0.045652470341298185 0.0012592555636184543 0 0.044957697805606545 0.0021897084035254108 0 0.048887308333340498 0.00071550952945410038 0 0.04956522193998919 0.0005810709592652505 0 0.049093852886863971 0.0013939721885996685 0 0.049011152185960263 0.00022704740487599668 0 0.048887308333340498 0.00071550952945410038 0 0.04956522193998919 0.0005810709592652505 0 0.048887308333340498 0.00071550952945410038 0 0.048526528094552837 0.00026237957435515559 0 0.048451656608478909 0.00066908959741016679 0 0.049011152185960263 0.00022704740487599668 0 0.048887308333340498 0.00071550952945410038 0 0.048526528094552837 0.00026237957435515559 0 0.048526528094552837 0.00026237957435515559 0 0.048451656608478909 0.00066908959741016679 0 0.048030252920543068 0.00064011131285871198 0 0.04798968750813553 0.00012318012033568754 0 0.048526528094552837 0.00026237957435515559 0 0.048030252920543068 0.00064011131285871198 0 0.048030252920543068 0.00064011131285871198 0 0.048356928511178808 0.0010678601400458212 0 0.047758958711654205 0.0013138324515101969 0 0.048451656608478909 0.00066908959741016679 0 0.048030252920543068 0.00064011131285871198 0 0.048356928511178808 0.0010678601400458212 0 0.048887308333340498 0.00071550952945410038 0 0.048356928511178808 0.0010678601400458212 0 0.048791293826277449 0.001398331097460034 0 0.048887308333340498 0.00071550952945410038 0 0.048451656608478909 0.00066908959741016679 0 0.048356928511178808 0.0010678601400458212 0 0.048356928511178808 0.0010678601400458212 0 0.048281635007444465 0.0016360005547316351 0 0.048791293826277449 0.001398331097460034 0 0.048281635007444465 0.0016360005547316351 0 0.048602261605302198 0.0017666757717554559 0 0.048791293826277449 0.001398331097460034 0 0.048356928511178808 0.0010678601400458212 0 0.048281635007444465 0.0016360005547316351 0 0.047758958711654205 0.0013138324515101969 0 0.048281635007444465 0.0016360005547316351 0 0.047758958711654205 0.0013138324515101969 0 0.0477324532669086 0.0020898567036725141 0 0.048281635007444465 0.0016360005547316351 0 0.0477324532669086 0.0020898567036725141 0 0.048434620766233935 0.0021644285561757256 0 0.048281635007444465 0.0016360005547316351 0 0.048602261605302198 0.0017666757717554559 0 0.048434620766233935 0.0021644285561757256 0 0.048602261605302198 0.0017666757717554559 0 0.048434620766233935 0.0021644285561757256 0 0.048899313118780513 0.0018755868943196854 0 0.049564210444844083 0.0011493310099811088 0 0.049696576108845328 0.0023778669154949786 0 0.04935893531949672 0.0024378144552449454 0 0.04956522193998919 0.0005810709592652505 0 0.049093852886863971 0.0013939721885996685 0 0.04935893531949672 0.0024378144552449454 0 0.048434620766233935 0.0021644285561757256 0 0.048899313118780513 0.0018755868943196854 0 0.048741484992708931 0.00249972273902612 0 0.048899313118780513 0.0018755868943196854 0 0.049093852886863971 0.0013939721885996685 0 0.04935893531949672 0.0024378144552449454 0 0.049561257464940126 0.0008916872201845962 0 0.04937431681334585 0.0023611658411497104 0 0.048602261605302198 0.0017666757717554559 0 0.048899313118780513 0.0018755868943196854 0 0.048791293826277449 0.001398331097460034 0 0.048899313118780513 0.0018755868943196854 0 0.049093852886863971 0.0013939721885996685 0 0.048791293826277449 0.001398331097460034 0 0.048887308333340498 0.00071550952945410038 0 0.049093852886863971 0.0013939721885996685 0 0.048791293826277449 0.001398331097460034 0 0.048202716936825991 0.0015462003615196471 0 0.047662490703770308 0.0027012501586996468 0 0.049564210444844083 0.0011493310099811088 0 0.04993051467995363 0.0011617882097829911 0 0.049696576108845328 0.0023778669154949786 0 0.046242315288383226 0.0026451025120383313 0 0.046446218153489892 0.0018832246093676323 0 0.045788360315734966 0.0029569113349709603 0 0.046242315288383226 0.0026451025120383313 0 0.046546037150623477 0.0022926051289459595 0 0.046446218153489892 0.0018832246093676323 0 0.04641182833991913 0.0027603862150836849 0 0.046242315288383226 0.0026451025120383313 0 0.046099796912995421 0.002941562580771169 0 0.04641182833991913 0.0027603862150836849 0 0.046242315288383226 0.0026451025120383313 0 0.046464995067514128 0.0025593832070916209 0 0.046242315288383226 0.0026451025120383313 0 0.046464995067514128 0.0025593832070916209 0 0.046546037150623477 0.0022926051289459595 0 0.046464995067514128 0.0025593832070916209 0 0.046546037150623477 0.0022926051289459595 0 0.046656990525205402 0.0025424630220367327 0 0.046546037150623477 0.0022926051289459595 0 0.046695636415440001 0.0020118353328552833 0 0.046446218153489892 0.0018832246093676323 0 0.046546037150623477 0.0022926051289459595 0 0.046695636415440001 0.0020118353328552833 0 0.046889142240901051 0.0020359163762146758 0 0.046446218153489892 0.0018832246093676323 0 0.046883504777622154 0.0018329969046010088 0 0.047170452389260459 0.0014851695875052898 0 0.046695636415440001 0.0020118353328552833 0 0.046446218153489892 0.0018832246093676323 0 0.046883504777622154 0.0018329969046010088 0 0.049564210444844083 0.0011493310099811088 0 0.04993051467995363 0.0011617882097829911 0 0.049841889012630598 0.00066766753257045913 0 0.047232853691897683 0.0017376541975646245 0 0.047222430263455281 0.0020927589756547797 0 0.047572210469728843 0.0016552528787572806 0 0.047232853691897683 0.0017376541975646245 0 0.046883504777622154 0.0018329969046010088 0 0.047170452389260459 0.0014851695875052898 0 0.047232853691897683 0.0017376541975646245 0 0.046883504777622154 0.0018329969046010088 0 0.046889142240901051 0.0020359163762146758 0 0.046546037150623477 0.0022926051289459595 0 0.046889142240901051 0.0020359163762146758 0 0.046854601948713166 0.0022841072700928284 0 0.046695636415440001 0.0020118353328552833 0 0.046883504777622154 0.0018329969046010088 0 0.046889142240901051 0.0020359163762146758 0 0.046889142240901051 0.0020359163762146758 0 0.047222430263455281 0.0020927589756547797 0 0.046854601948713166 0.0022841072700928284 0 0.047232853691897683 0.0017376541975646245 0 0.046889142240901051 0.0020359163762146758 0 0.047222430263455281 0.0020927589756547797 0 0.047222430263455281 0.0020927589756547797 0 0.046934698161270286 0.0024618544204037672 0 0.047210301862612943 0.0024820019108660824 0 0.047222430263455281 0.0020927589756547797 0 0.046934698161270286 0.0024618544204037672 0 0.046854601948713166 0.0022841072700928284 0 0.046546037150623477 0.0022926051289459595 0 0.046854601948713166 0.0022841072700928284 0 0.046656990525205402 0.0025424630220367327 0 0.046934698161270286 0.0024618544204037672 0 0.046854601948713166 0.0022841072700928284 0 0.046656990525205402 0.0025424630220367327 0 0.046656990525205402 0.0025424630220367327 0 0.046776189156859396 0.0026447786195866992 0 0.046609743951478516 0.0028610895573552178 0 0.04641182833991913 0.0027603862150836849 0 0.046656990525205402 0.0025424630220367327 0 0.046609743951478516 0.0028610895573552178 0 0.04641182833991913 0.0027603862150836849 0 0.046464995067514128 0.0025593832070916209 0 0.046656990525205402 0.0025424630220367327 0 0.046934698161270286 0.0024618544204037672 0 0.046656990525205402 0.0025424630220367327 0 0.046776189156859396 0.0026447786195866992 0 0.046934698161270286 0.0024618544204037672 0 0.046900442615317402 0.0027111438424177936 0 0.047210301862612943 0.0024820019108660824 0 0.046934698161270286 0.0024618544204037672 0 0.046776189156859396 0.0026447786195866992 0 0.046900442615317402 0.0027111438424177936 0 0.046776189156859396 0.0026447786195866992 0 0.046900442615317402 0.0027111438424177936 0 0.046609743951478516 0.0028610895573552178 0 0.046900442615317402 0.0027111438424177936 0 0.04705847686678144 0.0027910804585241982 0 0.047210301862612943 0.0024820019108660824 0 0.04705847686678144 0.0027910804585241982 0 0.047270071556536897 0.002666034232886754 0 0.047210301862612943 0.0024820019108660824 0 0.04705847686678144 0.0027910804585241982 0 0.047270071556536897 0.002666034232886754 0 0.047202353613474475 0.0028905990442336382 0 0.047270071556536897 0.002666034232886754 0 0.0474389525951786 0.0027087011817713241 0 0.047202353613474475 0.0028905990442336382 0 0.047270071556536897 0.002666034232886754 0 0.047453135150663302 0.0024958593024358702 0 0.047210301862612943 0.0024820019108660824 0 0.047270071556536897 0.002666034232886754 0 0.0474389525951786 0.0027087011817713241 0 0.047453135150663302 0.0024958593024358702 0 0.047453135150663302 0.0024958593024358702 0 0.047581552975941153 0.0021948471515545768 0 0.047679841960428709 0.002459900131460475 0 0.047453135150663302 0.0024958593024358702 0 0.047581552975941153 0.0021948471515545768 0 0.047210301862612943 0.0024820019108660824 0 0.047222430263455281 0.0020927589756547797 0 0.047581552975941153 0.0021948471515545768 0 0.047210301862612943 0.0024820019108660824 0 0.04793471716716232 0.0025550604609834429 0 0.047637829061132855 0.0027859368162086191 0 0.04785442947003557 0.0028997527536168831 0 0.048180432438181223 0.0027763173799463404 0 0.04793471716716232 0.0025550604609834429 0 0.04785442947003557 0.0028997527536168831 0 0.0474389525951786 0.0027087011817713241 0 0.047679841960428709 0.002459900131460475 0 0.047637829061132855 0.0027859368162086191 0 0.04793471716716232 0.0025550604609834429 0 0.047679841960428709 0.002459900131460475 0 0.047637829061132855 0.0027859368162086191 0 0.0474389525951786 0.0027087011817713241 0 0.047453135150663302 0.0024958593024358702 0 0.047679841960428709 0.002459900131460475 0 0.047581552975941153 0.0021948471515545768 0 0.047679841960428709 0.002459900131460475 0 0.048011511063290997 0.0020404256153909511 0 0.048263252937926285 0.0023998917575511498 0 0.04793471716716232 0.0025550604609834429 0 0.048011511063290997 0.0020404256153909511 0 0.04793471716716232 0.0025550604609834429 0 0.047679841960428709 0.002459900131460475 0 0.048011511063290997 0.0020404256153909511 0 0.048011511063290997 0.0020404256153909511 0 0.047813674905350545 0.0017162559337856155 0 0.048180140364550414 0.001286503150665373 0 0.047581552975941153 0.0021948471515545768 0 0.048011511063290997 0.0020404256153909511 0 0.047813674905350545 0.0017162559337856155 0 0.047222430263455281 0.0020927589756547797 0 0.047581552975941153 0.0021948471515545768 0 0.04755155562805536 0.0019098058920799508 0 0.047581552975941153 0.0021948471515545768 0 0.047813674905350545 0.0017162559337856155 0 0.04755155562805536 0.0019098058920799508 0 0.047813674905350545 0.0017162559337856155 0 0.047572210469728843 0.0016552528787572806 0 0.04755155562805536 0.0019098058920799508 0 0.047222430263455281 0.0020927589756547797 0 0.047572210469728843 0.0016552528787572806 0 0.04755155562805536 0.0019098058920799508 0 0.047813674905350545 0.0017162559337856155 0 0.047572210469728843 0.0016552528787572806 0 0.047917210540945374 0.0013182082825405528 0 0.047572210469728843 0.0016552528787572806 0 0.047917210540945374 0.0013182082825405528 0 0.047817033516886924 0.0011376884021461588 0 0.047813674905350545 0.0017162559337856155 0 0.047917210540945374 0.0013182082825405528 0 0.048180140364550414 0.001286503150665373 0 0.051778360716136257 -6.4405438737243917e-06 0 0.051568423997103381 0.00039108157104789798 0 0.051021743436677057 0.00042724710154529871 0 0.047917210540945374 0.0013182082825405528 0 0.048180140364550414 0.001286503150665373 0 0.048166127304207509 0.00082820095140525489 0 0.049837075463872046 0.00081709601537776667 0 0.049539784588220649 0.00054930983311128297 0 0.048166127304207509 0.00082820095140525489 0 0.048302068239721545 0.00066918981621924502 0 0.047817033516886924 0.0011376884021461588 0 0.047917210540945374 0.0013182082825405528 0 0.048166127304207509 0.00082820095140525489 0 0.047817033516886924 0.0011376884021461588 0 0.048302068239721545 0.00066918981621924502 0 0.047817033516886924 0.0011376884021461588 0 0.047550587335657188 0.0011568368859694129 0 0.048302068239721545 0.00066918981621924502 0 0.047366133049193973 0.00098084237753681539 0 0.047550587335657188 0.0011568368859694129 0 0.050019794331763859 -0.00027332505100112784 0 0.049729319796957355 0.00015951200013347524 0 0.05013449832701377 0.0002130007015205978 0 0.049729319796957355 0.00015951200013347524 0 0.05013449832701377 0.0002130007015205978 0 0.049841889012630598 0.00066766753257045913 0 0.049564210444844083 0.0011493310099811088 0 0.049729319796957355 0.00015951200013347524 0 0.049841889012630598 0.00066766753257045913 0 0.048202716936825991 0.0015462003615196471 0 0.048761923248380738 0.00064929776739232619 0 0.046446218153489892 0.0018832246093676323 0 0.047366133049193973 0.00098084237753681539 0 0.047170452389260459 0.0014851695875052898 0 0.04993051467995363 0.0011617882097829911 0 0.05013449832701377 0.0002130007015205978 0 0.049841889012630598 0.00066766753257045913 0 0.047232853691897683 0.0017376541975646245 0 0.047170452389260459 0.0014851695875052898 0 0.047817033516886924 0.0011376884021461588 0 0.047232853691897683 0.0017376541975646245 0 0.047572210469728843 0.0016552528787572806 0 0.047817033516886924 0.0011376884021461588 0 0.047366133049193973 0.00098084237753681539 0 0.047170452389260459 0.0014851695875052898 0 0.047550587335657188 0.0011568368859694129 0 0.047170452389260459 0.0014851695875052898 0 0.047817033516886924 0.0011376884021461588 0 0.047550587335657188 0.0011568368859694129 0 0.039934973763997676 -0.00034556755727814683 0 0.04103889584161554 -0.00048986838378104836 0 0.040450658310647515 9.5535815041643062e-05 0 0.04103889584161554 -0.00048986838378104836 0 0.040450658310647515 9.5535815041643062e-05 0 0.040989260918918122 0.0005608263974870571 0 0.039934973763997676 -0.00034556755727814683 0 0.04103889584161554 -0.00048986838378104836 0 0.040463770912058265 -0.0010167901519681566 0 0.04103889584161554 -0.00048986838378104836 0 0.040463770912058265 -0.0010167901519681566 0 0.041054578815706989 -0.0013511936728325858 0 0.039934973763997676 -0.00034556755727814683 0 0.039819003366000361 -0.0011748886291234517 0 0.039231934807943569 -0.00079473294536523166 0 0.039934973763997676 -0.00034556755727814683 0 0.040463770912058265 -0.0010167901519681566 0 0.039819003366000361 -0.0011748886291234517 0 0.039231934807943569 -0.00079473294536523166 0 0.03843885517653807 -0.00083726041494586656 0 0.039215576717503392 -0.0016715676978975383 0 0.039819003366000361 -0.0011748886291234517 0 0.039231934807943569 -0.00079473294536523166 0 0.039215576717503392 -0.0016715676978975383 0 0.038759596923387915 4.7973476899605096e-05 0 0.037709443810778003 -0.00030745207018707956 0 0.037771768886802601 0.00048488289865285852 0 0.039231934807943569 -0.00079473294536523166 0 0.03843885517653807 -0.00083726041494586656 0 0.038759596923387915 4.7973476899605096e-05 0 0.03843885517653807 -0.00083726041494586656 0 0.038759596923387915 4.7973476899605096e-05 0 0.037709443810778003 -0.00030745207018707956 0 0.039934973763997676 -0.00034556755727814683 0 0.039231934807943569 -0.00079473294536523166 0 0.038759596923387915 4.7973476899605096e-05 0 0.038759596923387915 4.7973476899605096e-05 0 0.038648460184450867 0.0015595959567925785 0 0.037771768886802601 0.00048488289865285852 0 0.039934973763997676 -0.00034556755727814683 0 0.038759596923387915 4.7973476899605096e-05 0 0.039838006530593925 0.00066391749493461367 0 0.038759596923387915 4.7973476899605096e-05 0 0.038648460184450867 0.0015595959567925785 0 0.039838006530593925 0.00066391749493461367 0 0.03775154978017848 0.0014266959156079167 0 0.037147034842289713 0.001214636878054638 0 0.038648460184450867 0.0015595959567925785 0 0.039838006530593925 0.00066391749493461367 0 0.039947640192614584 0.0017978967909195898 0 0.039838006530593925 0.00066391749493461367 0 0.040675136637315812 0.0013218704162930811 0 0.039947640192614584 0.0017978967909195898 0 0.039934973763997676 -0.00034556755727814683 0 0.040450658310647515 9.5535815041643062e-05 0 0.039838006530593925 0.00066391749493461367 0 0.040450658310647515 9.5535815041643062e-05 0 0.039838006530593925 0.00066391749493461367 0 0.040989260918918122 0.0005608263974870571 0 0.039838006530593925 0.00066391749493461367 0 0.040989260918918122 0.0005608263974870571 0 0.040675136637315812 0.0013218704162930811 0 0.040989260918918122 0.0005608263974870571 0 0.040675136637315812 0.0013218704162930811 0 0.041412617170805834 0.0011779780587138639 0 0.041412617170805834 0.0011779780587138639 0 0.042355680544176773 0.001169503655576002 0 0.041851733083436829 0.00072835922393692698 0 0.04228987529339185 0.0012451068023632661 0 0.039235313773766753 0.0018815068719387612 0 0.041412617170805834 0.0011779780587138639 0 0.042355680544176773 0.001169503655576002 0 0.041216815629443085 0.0020290589716331579 0 0.040989260918918122 0.0005608263974870571 0 0.041412617170805834 0.0011779780587138639 0 0.041851733083436829 0.00072835922393692698 0 0.040675136637315812 0.0013218704162930811 0 0.041412617170805834 0.0011779780587138639 0 0.041216815629443085 0.0020290589716331579 0 0.04169350836114092 0.001307259603454106 0 0.042462151577515664 0.0020582026023671018 0 0.042180846596629434 0.0023223009649353987 0 0.042485322822581974 0.00043954602880898983 0 0.041684952096565239 0.00017335459061683722 0 0.042090279468828193 -0.00038374492369015425 0 0.042485322822581974 0.00043954602880898983 0 0.041684952096565239 0.00017335459061683722 0 0.041851733083436829 0.00072835922393692698 0 0.042355680544176773 0.001169503655576002 0 0.042485322822581974 0.00043954602880898983 0 0.041851733083436829 0.00072835922393692698 0 0.042460086145171737 0.00033884059860012853 0 0.042255431680352472 -0.00051368887056805535 0 0.042355680544176773 0.001169503655576002 0 0.042485322822581974 0.00043954602880898983 0 0.042914733231939943 0.00029763667368797926 0 0.040989260918918122 0.0005608263974870571 0 0.041684952096565239 0.00017335459061683722 0 0.041851733083436829 0.00072835922393692698 0 0.04103889584161554 -0.00048986838378104836 0 0.040989260918918122 0.0005608263974870571 0 0.041684952096565239 0.00017335459061683722 0 0.045652470341298185 0.0012592555636184543 0 0.044472014384099083 0.0012434418986439042 0 0.044957697805606545 0.0021897084035254108 0 0.044472014384099083 0.0012434418986439042 0 0.044957697805606545 0.0021897084035254108 0 0.044113483867558582 0.0020870636303976617 0 0.044472014384099083 0.0012434418986439042 0 0.044113483867558582 0.0020870636303976617 0 0.043157637605157118 0.0021946812060622762 0 0.044472014384099083 0.0012434418986439042 0 0.043110219524407939 0.0010740671710819461 0 0.042871561918812376 0.0016473531878622904 0 0.044472014384099083 0.0012434418986439042 0 0.042871561918812376 0.0016473531878622904 0 0.043157637605157118 0.0021946812060622762 0 0.042871561918812376 0.0016473531878622904 0 0.042462151577515664 0.0020582026023671018 0 0.043157637605157118 0.0021946812060622762 0 0.04169350836114092 0.001307259603454106 0 0.042871561918812376 0.0016473531878622904 0 0.042462151577515664 0.0020582026023671018 0 0.04169350836114092 0.001307259603454106 0 0.043110219524407939 0.0010740671710819461 0 0.042871561918812376 0.0016473531878622904 0 0.04228987529339185 0.0012451068023632661 0 0.043572314376303767 7.5844830898605847e-05 0 0.044472014384099083 0.0012434418986439042 0 0.043110219524407939 0.0010740671710819461 0 0.043774511316505345 -1.0580234438832924e-06 0 0.04169350836114092 0.001307259603454106 0 0.043110219524407939 0.0010740671710819461 0 0.043774511316505345 -1.0580234438832924e-06 0 0.042355680544176773 0.001169503655576002 0 0.042914733231939943 0.00029763667368797926 0 0.043774511316505345 -1.0580234438832924e-06 0 0.042914733231939943 0.00029763667368797926 0 0.043774511316505345 -1.0580234438832924e-06 0 0.043047828947982307 -0.00046093817897662479 0 0.042485322822581974 0.00043954602880898983 0 0.042914733231939943 0.00029763667368797926 0 0.043047828947982307 -0.00046093817897662479 0 0.044546951973144781 0.0011900456461815632 0 0.04467761199921156 -0.00019822496102389503 0 0.044472014384099083 0.0012434418986439042 0 0.045543996294426112 0.00052958458286000878 0 0.045442507010961468 -2.3804204926328441e-05 0 0.044472014384099083 0.0012434418986439042 0 0.043774511316505345 -1.0580234438832924e-06 0 0.043859724187243446 -0.00064389264541770688 0 0.045652470341298185 0.0012592555636184543 0 0.044472014384099083 0.0012434418986439042 0 0.045543996294426112 0.00052958458286000878 0 0.046585401232206641 -0.00054488079882553087 0 0.046007132059831361 -2.6319027024644021e-05 0 0.046024810284513967 -0.00054683191793708052 0 0.046007132059831361 -2.6319027024644021e-05 0 0.045442507010961468 -2.3804204926328441e-05 0 0.046024810284513967 -0.00054683191793708052 0 0.045543996294426112 0.00052958458286000878 0 0.046007132059831361 -2.6319027024644021e-05 0 0.045442507010961468 -2.3804204926328441e-05 0 0.043859724187243446 -0.00064389264541770688 0 0.043047828947982307 -0.00046093817897662479 0 0.042953162193102343 -0.0013721425589013432 0 0.043774511316505345 -1.0580234438832924e-06 0 0.043859724187243446 -0.00064389264541770688 0 0.043047828947982307 -0.00046093817897662479 0 0.043571457764757363 -0.0019058559314874457 0 0.042953162193102343 -0.0013721425589013432 0 0.042808063181280616 -0.0023137284875645592 0 0.043859724187243446 -0.00064389264541770688 0 0.043571457764757363 -0.0019058559314874457 0 0.042953162193102343 -0.0013721425589013432 0 0.04467761199921156 -0.00019822496102389503 0 0.044215096243105163 -0.0016824502245151949 0 0.045442507010961468 -2.3804204926328441e-05 0 0.045648392709200868 -0.0010775790866878225 0 0.046024810284513967 -0.00054683191793708052 0 0.046585401232206641 -0.00054488079882553087 0 0.046024810284513967 -0.00054683191793708052 0 0.04667401870623486 -0.0013183772317378038 0 0.045648392709200868 -0.0010775790866878225 0 0.046024810284513967 -0.00054683191793708052 0 0.04667401870623486 -0.0013183772317378038 0 0.04103889584161554 -0.00048986838378104836 0 0.041684952096565239 0.00017335459061683722 0 0.042090279468828193 -0.00038374492369015425 0 0.043047828947982307 -0.00046093817897662479 0 0.042953162193102343 -0.0013721425589013432 0 0.042335973634114031 -0.00086678900357496159 0 0.042485322822581974 0.00043954602880898983 0 0.043047828947982307 -0.00046093817897662479 0 0.042335973634114031 -0.00086678900357496159 0 0.042255431680352472 -0.00051368887056805535 0 0.041743071801510087 -0.0018746071557827241 0 0.042953162193102343 -0.0013721425589013432 0 0.042335973634114031 -0.00086678900357496159 0 0.04218901092511107 -0.0018891104128692161 0 0.042953162193102343 -0.0013721425589013432 0 0.04218901092511107 -0.0018891104128692161 0 0.042808063181280616 -0.0023137284875645592 0 0.04103889584161554 -0.00048986838378104836 0 0.042090279468828193 -0.00038374492369015425 0 0.041814242151050604 -0.0012224326789969729 0 0.04103889584161554 -0.00048986838378104836 0 0.041814242151050604 -0.0012224326789969729 0 0.041054578815706989 -0.0013511936728325858 0 0.041743071801510087 -0.0018746071557827241 0 0.045218011950282203 -0.0013685760135175528 0 0.041814242151050604 -0.0012224326789969729 0 0.041583171811122296 -0.0020472249943226514 0 0.041054578815706989 -0.0013511936728325858 0 0.04218901092511107 -0.0018891104128692161 0 0.042808063181280616 -0.0023137284875645592 0 0.041987743225479837 -0.0028395566823366087 0 0.052363404709811164 0.00047802968306595649 0 0.053116291222890286 3.1756779765009648e-05 0 0.051488876452073715 0.00025467543056579287 0 0.052363404709811164 0.00047802968306595649 0 0.053103218087456452 0.00036295003196062394 0 0.052418784330318678 0.0011455140289582015 0 0.042808063181280616 -0.0023137284875645592 0 0.041987743225479837 -0.0028395566823366087 0 0.043383284357062034 -0.0031064680194825695 0 0.045218011950282203 -0.0013685760135175528 0 0.047722141852789855 -0.0022003979875266197 0 0.052363404709811164 0.00047802968306595649 0 0.051488876452073715 0.00025467543056579287 0 0.052047691508600488 0.00081902211687946821 0 0.053152154468072046 0.00038998395500790966 0 0.053198373687480906 0.00041247572867990763 0 0.053271281220469278 0.00044331270467084995 0 0.053152154468072046 0.00038998395500790966 0 0.053103218087456452 0.00036295003196062394 0 0.053439244168902542 0.00047195532016720642 0 0.053152154468072046 0.00038998395500790966 0 0.053103218087456452 0.00036295003196062394 0 0.053235300102771776 0.00048408237203305697 0 0.050743252955724918 -0.00060146033890110429 0 0.049200358738170274 -0.00087311578554191867 0 0.042239482850621526 -0.00263399250518314 0 0.042405362610562401 -0.0019848421977031279 0 0.041362695305153026 -0.0022871657679236863 0 0.053103218087456452 0.00036295003196062394 0 0.053235300102771776 0.00048408237203305697 0 0.053116291222890286 3.1756779765009648e-05 0 0.049200358738170274 -0.00087311578554191867 0 0.045218011950282203 -0.0013685760135175528 0 0.052363404709811164 0.00047802968306595649 0 0.053103218087456452 0.00036295003196062394 0 0.053116291222890286 3.1756779765009648e-05 0 0.047519341505156847 -0.0017768643738982491 0 0.046328367149047915 -0.0019235886655112008 0 0.04667401870623486 -0.0013183772317378038 0 0.045648392709200868 -0.0010775790866878225 0 0.046328367149047915 -0.0019235886655112008 0 0.04667401870623486 -0.0013183772317378038 0 0.043571457764757363 -0.0019058559314874457 0 0.042808063181280616 -0.0023137284875645592 0 0.043383284357062034 -0.0031064680194825695 0 0.045648392709200868 -0.0010775790866878225 0 0.046328367149047915 -0.0019235886655112008 0 0.045464466732078629 -0.0024698845139971373 0 0.044215096243105163 -0.0016824502245151949 0 0.047722141852789855 -0.0022003979875266197 0 0.047519341505156847 -0.0017768643738982491 0 0.046328367149047915 -0.0019235886655112008 0 0.046811569794121821 -0.0027291087158663224 0 0.05044615894836782 -0.0028199862708898809 0 0.04996218007895821 -0.0027607708904545947 0 0.05027236835246373 -0.0025422977889517696 0 0.046328367149047915 -0.0019235886655112008 0 0.045464466732078629 -0.0024698845139971373 0 0.046811569794121821 -0.0027291087158663224 0 0.047722141852789855 -0.0022003979875266197 0 0.048449624878780448 -0.0027462227144008462 0 0.04996218007895821 -0.0027607708904545947 0 0.05027236835246373 -0.0025422977889517696 0 0.050115793421647313 -0.0022848833123496003 0 0.05027236835246373 -0.0025422977889517696 0 0.050354656455166451 -0.0023096231368601315 0 0.050115793421647313 -0.0022848833123496003 0 0.05044615894836782 -0.0028199862708898809 0 0.05027236835246373 -0.0025422977889517696 0 0.05049954252298381 -0.0024686932621162711 0 0.051488876452073715 0.00025467543056579287 0 0.051699597930280519 0.0011204150132716093 0 0.052047691508600488 0.00081902211687946821 0 0.047722141852789855 -0.0022003979875266197 0 0.051121235069867869 -0.00038054415242221306 0 0.05027236835246373 -0.0025422977889517696 0 0.05049954252298381 -0.0024686932621162711 0 0.050354656455166451 -0.0023096231368601315 0 0.050507032929473741 -0.0022148110358894075 0 0.050354656455166451 -0.0023096231368601315 0 0.050321567001889236 -0.0021691988657911547 0 0.05049954252298381 -0.0024686932621162711 0 0.050507032929473741 -0.0022148110358894075 0 0.050354656455166451 -0.0023096231368601315 0 0.051121235069867869 -0.00038054415242221306 0 0.052958945475298863 -0.00096444852562574846 0 0.050240145291911224 -0.002099021692840335 0 0.050321567001889236 -0.0021691988657911547 0 0.050115793421647313 -0.0022848833123496003 0 0.050354656455166451 -0.0023096231368601315 0 0.050321567001889236 -0.0021691988657911547 0 0.050115793421647313 -0.0022848833123496003 0 0.05321277350607611 0.00042440611247597201 0 0.053271281220469278 0.00044331270467084995 0 0.053399965590948742 0.00029912036322596661 0 0.053096802685308621 0.00070022938892616712 0 0.053075283938995819 0.00048120707951031846 0 0.052950953839062488 0.00059654432438359037 0 0.049200358738170274 -0.00087311578554191867 0 0.053154072765994285 0.00083350513797026597 0 0.053198373687480906 0.00041247572867990763 0 0.05321277350607611 0.00042440611247597201 0 0.053271281220469278 0.00044331270467084995 0 0.053152154468072046 0.00038998395500790966 0 0.053271281220469278 0.00044331270467084995 0 0.053439244168902542 0.00047195532016720642 0 0.053189552790498355 0.00029504015183651097 0 0.052781339556371265 0.0010698338087498445 0 0.051699597930280519 0.0011204150132716093 0 0.051854202643025468 0.0018820138493612518 0 0.052418784330318678 0.0011455140289582015 0 0.053271281220469278 0.00044331270467084995 0 0.053439244168902542 0.00047195532016720642 0 0.053399965590948742 0.00029912036322596661 0 0.052363404709811164 0.00047802968306595649 0 0.052047691508600488 0.00081902211687946821 0 0.052418784330318678 0.0011455140289582015 0 0.051699597930280519 0.0011204150132716093 0 0.052047691508600488 0.00081902211687946821 0 0.052418784330318678 0.0011455140289582015 0 0.053798180693939678 0.00025896627281905301 0 0.053439244168902542 0.00047195532016720642 0 0.053399965590948742 0.00029912036322596661 0 0.052958945475298863 -0.00096444852562574846 0 0.052781339556371265 0.0010698338087498445 0 0.053798180693939678 0.00025896627281905301 0 0.053399965590948742 0.00029912036322596661 0 0.053603147472992073 0.00013289912800575678 0 0.053399965590948742 0.00029912036322596661 0 0.053603147472992073 0.00013289912800575678 0 0.053498921193158015 3.9447343355375243e-05 0 0.05321277350607611 0.00042440611247597201 0 0.053399965590948742 0.00029912036322596661 0 0.05308873400984998 0.00022129561162391337 0 0.053399965590948742 0.00029912036322596661 0 0.05330833673632402 0.00013898580468053341 0 0.05308873400984998 0.00022129561162391337 0 0.053399965590948742 0.00029912036322596661 0 0.05330833673632402 0.00013898580468053341 0 0.053498921193158015 3.9447343355375243e-05 0 0.053154072765994285 0.00083350513797026597 0 0.053056622789978525 0.00012629676893849729 0 0.05308873400984998 0.00022129561162391337 0 0.052745873992327122 0.0003867301061486186 0 0.052911580963904067 0.00050491775599574486 0 0.053075283938995819 0.00048120707951031846 0 0.05308873400984998 0.00022129561162391337 0 0.052911580963904067 0.00050491775599574486 0 0.05308873400984998 0.00022129561162391337 0 0.052837207804919677 0.00020035739444942662 0 0.052745873992327122 0.0003867301061486186 0 0.052548626396472883 0.00031110742405330449 0 0.052429309488476288 0.00026954690646581063 0 0.052643974671331611 0.00014787925813692713 0 0.052745873992327122 0.0003867301061486186 0 0.052548626396472883 0.00031110742405330449 0 0.052387497603450649 0.00045463456779294513 0 0.052837207804919677 0.00020035739444942662 0 0.052548626396472883 0.00031110742405330449 0 0.052643974671331611 0.00014787925813692713 0 0.052837207804919677 0.00020035739444942662 0 0.052745873992327122 0.0003867301061486186 0 0.052548626396472883 0.00031110742405330449 0 0.052714974571719961 0.00070304001608886791 0 0.05203266797248228 0.00072611545979566915 0 0.052387497603450649 0.00045463456779294513 0 0.052745873992327122 0.0003867301061486186 0 0.052714974571719961 0.00070304001608886791 0 0.052387497603450649 0.00045463456779294513 0 0.046266648514048624 -0.0010394445287788096 0 0.04571508308121594 -0.0009857962973544999 0 0.052745873992327122 0.0003867301061486186 0 0.052911580963904067 0.00050491775599574486 0 0.052714974571719961 0.00070304001608886791 0 0.053075283938995819 0.00048120707951031846 0 0.052911580963904067 0.00050491775599574486 0 0.052950953839062488 0.00059654432438359037 0 0.052911580963904067 0.00050491775599574486 0 0.052950953839062488 0.00059654432438359037 0 0.052714974571719961 0.00070304001608886791 0 0.042239482850621526 -0.00263399250518314 0 0.041362695305153026 -0.0022871657679236863 0 0.040491606838631823 -0.0027400972164435019 0 0.045218011950282203 -0.0013685760135175528 0 0.039065852341387763 -0.0018720135024275703 0 0.049200358738170274 -0.00087311578554191867 0 0.046266648514048624 -0.0010394445287788096 0 0.041362695305153026 -0.0022871657679236863 0 0.040491606838631823 -0.0027400972164435019 0 0.040357668371188878 -0.0017770841531233852 0 0.042405362610562401 -0.0019848421977031279 0 0.041362695305153026 -0.0022871657679236863 0 0.040357668371188878 -0.0017770841531233852 0 0.053096802685308621 0.00070022938892616712 0 0.052950953839062488 0.00059654432438359037 0 0.052714974571719961 0.00070304001608886791 0 0.040491606838631823 -0.0027400972164435019 0 0.039795547792001632 -0.0022178155207125418 0 0.040357668371188878 -0.0017770841531233852 0 0.040491606838631823 -0.0027400972164435019 0 0.039795547792001632 -0.0022178155207125418 0 0.039181099647806097 -0.0026994857272961944 0 0.039819003366000361 -0.0011748886291234517 0 0.040357668371188878 -0.0017770841531233852 0 0.039215576717503392 -0.0016715676978975383 0 0.040463770912058265 -0.0010167901519681566 0 0.039819003366000361 -0.0011748886291234517 0 0.040357668371188878 -0.0017770841531233852 0 0.039795547792001632 -0.0022178155207125418 0 0.040357668371188878 -0.0017770841531233852 0 0.039215576717503392 -0.0016715676978975383 0 0.040463770912058265 -0.0010167901519681566 0 0.040357668371188878 -0.0017770841531233852 0 0.041054578815706989 -0.0013511936728325858 0 0.041583171811122296 -0.0020472249943226514 0 0.040357668371188878 -0.0017770841531233852 0 0.041054578815706989 -0.0013511936728325858 0 0.038223492656734359 -0.0014828875343851639 0 0.039215576717503392 -0.0016715676978975383 0 0.038502925293377746 -0.0020807970646896366 0 0.03843885517653807 -0.00083726041494586656 0 0.038223492656734359 -0.0014828875343851639 0 0.039215576717503392 -0.0016715676978975383 0 0.039795547792001632 -0.0022178155207125418 0 0.039215576717503392 -0.0016715676978975383 0 0.039181099647806097 -0.0026994857272961944 0 0.039215576717503392 -0.0016715676978975383 0 0.038502925293377746 -0.0020807970646896366 0 0.039181099647806097 -0.0026994857272961944 0 0.038502925293377746 -0.0020807970646896366 0 0.039181099647806097 -0.0026994857272961944 0 0.038053685359698428 -0.0026723291243728824 0 0.04571508308121594 -0.0009857962973544999 0 0.044522029547154819 -0.0010346345952025205 0 0.05203266797248228 0.00072611545979566915 0 0.051525333071391198 0.00023639878451715284 0 0.051247187540810243 0.00060331481476031019 0 0.05203266797248228 0.00072611545979566915 0 0.052387497603450649 0.00045463456779294513 0 0.051525333071391198 0.00023639878451715284 0 0.052368458604562525 0.00044815541795531917 0 0.051936678137760615 0.00032305077884283925 0 0.052548626396472883 0.00031110742405330449 0 0.052387497603450649 0.00045463456779294513 0 0.052429309488476288 0.00026954690646581063 0 0.052387497603450649 0.00045463456779294513 0 0.052429309488476288 0.00026954690646581063 0 0.052329479195917829 0.00036882595325954165 0 0.052429309488476288 0.00026954690646581063 0 0.052329479195917829 0.00036882595325954165 0 0.052396730746521097 0.00011066919551865244 0 0.052329479195917829 0.00036882595325954165 0 0.052396730746521097 0.00011066919551865244 0 0.052220782557032421 0.00015326628154360946 0 0.053071215815036113 -7.1747046332278767e-06 0 0.052492349406642026 -2.3660337078977165e-05 0 0.052396730746521097 0.00011066919551865244 0 0.052460961765892371 -6.0258257881712558e-05 0 0.052437316597511899 -3.7233581452075148e-05 0 0.053071215815036113 -7.1747046332278767e-06 0 0.053519725432460051 -0.00017655924160485623 0 0.052460961765892371 -6.0258257881712558e-05 0 0.052503366654850447 5.6425708495445549e-05 0 0.052714358357554156 -0.00022021302799167568 0 0.052396730746521097 0.00011066919551865244 0 0.052460961765892371 -6.0258257881712558e-05 0 0.052503366654850447 5.6425708495445549e-05 0 0.052429309488476288 0.00026954690646581063 0 0.052503366654850447 5.6425708495445549e-05 0 0.052643974671331611 0.00014787925813692713 0 0.052429309488476288 0.00026954690646581063 0 0.052396730746521097 0.00011066919551865244 0 0.052503366654850447 5.6425708495445549e-05 0 0.052643974671331611 0.00014787925813692713 0 0.052922452169250872 -2.4221627110368409e-05 0 0.052714358357554156 -0.00022021302799167568 0 0.052503366654850447 5.6425708495445549e-05 0 0.052643974671331611 0.00014787925813692713 0 0.052714358357554156 -0.00022021302799167568 0 0.05308873400984998 0.00022129561162391337 0 0.052837207804919677 0.00020035739444942662 0 0.052922452169250872 -2.4221627110368409e-05 0 0.05308873400984998 0.00022129561162391337 0 0.052922452169250872 -2.4221627110368409e-05 0 0.053254600886573453 -1.6138768218793592e-05 0 0.052837207804919677 0.00020035739444942662 0 0.052643974671331611 0.00014787925813692713 0 0.052922452169250872 -2.4221627110368409e-05 0 0.053519725432460051 -0.00017655924160485623 0 0.053787614825668233 -0.00036754875763996133 0 0.052922452169250872 -2.4221627110368409e-05 0 0.052714358357554156 -0.00022021302799167568 0 0.05317145036209972 -0.00038845621479983408 0 0.054343125055642989 -0.0001307773521147274 0 0.054436850218439831 -0.00032406883567729456 0 0.054403403942017051 -0.00039122080684439491 0 0.054436850218439831 -0.00032406883567729456 0 0.054427392951218317 -0.00046128649078406117 0 0.054134420185173511 -0.0004007474066803042 0 0.054343125055642989 -0.0001307773521147274 0 0.054436850218439831 -0.00032406883567729456 0 0.054134420185173511 -0.0004007474066803042 0 0.054436850218439831 -0.00032406883567729456 0 0.054449667293270033 -0.00039220500953523964 0 0.054366452362428985 -0.00033810110686654507 0 0.054436850218439831 -0.00032406883567729456 0 0.054449667293270033 -0.00039220500953523964 0 0.054427392951218317 -0.00046128649078406117 0 0.054449667293270033 -0.00039220500953523964 0 0.054427392951218317 -0.00046128649078406117 0 0.054516564584115947 -0.00041144193655458244 0 0.054427392951218317 -0.00046128649078406117 0 0.054134420185173511 -0.0004007474066803042 0 0.054430783498471559 -0.00061407285518455545 0 0.054427392951218317 -0.00046128649078406117 0 0.054430783498471559 -0.00061407285518455545 0 0.054516564584115947 -0.00041144193655458244 0 0.054097315417799351 -0.00074380538066724073 0 0.054377923930165002 -0.00067866055580399786 0 0.05368968838827036 -0.00091157147313952736 0 0.054134420185173511 -0.0004007474066803042 0 0.054430783498471559 -0.00061407285518455545 0 0.05368968838827036 -0.00091157147313952736 0 0.053308983277267241 -0.00047958955856455034 0 0.054134420185173511 -0.0004007474066803042 0 0.054097315417799351 -0.00074380538066724073 0 0.054384528336913575 -0.00025549306098310136 0 0.05368968838827036 -0.00091157147313952736 0 0.052881078468441221 -0.00098073430221890705 0 0.053308983277267241 -0.00047958955856455034 0 0.0537102342633069 0.00010126452109697258 0 0.053308983277267241 -0.00047958955856455034 0 0.052437316597511899 -3.7233581452075148e-05 0 0.052881078468441221 -0.00098073430221890705 0 0.053308983277267241 -0.00047958955856455034 0 0.052642562881707454 -0.00049314753797939875 0 0.053308983277267241 -0.00047958955856455034 0 0.052437316597511899 -3.7233581452075148e-05 0 0.052642562881707454 -0.00049314753797939875 0 0.0537102342633069 0.00010126452109697258 0 0.053308983277267241 -0.00047958955856455034 0 0.054134420185173511 -0.0004007474066803042 0 0.0537102342633069 0.00010126452109697258 0 0.054343125055642989 -0.0001307773521147274 0 0.054134420185173511 -0.0004007474066803042 0 0.052305890667263537 -0.0018233488980168057 0 0.05246384749395782 -0.0026210866739532108 0 0.050868280598095533 -0.0019704910493438046 0 0.050240145291911224 -0.002099021692840335 0 0.050408618847256295 -0.0020480173513847664 0 0.053822681989226615 -0.0020103927077745462 0 0.054424841705274063 -0.0025624908620100126 0 0.054616783499644952 -0.0019845803269899769 0 0.050240145291911224 -0.002099021692840335 0 0.050321567001889236 -0.0021691988657911547 0 0.050408618847256295 -0.0020480173513847664 0 0.052958945475298863 -0.00096444852562574846 0 0.05246384749395782 -0.0026210866739532108 0 0.052958945475298863 -0.00096444852562574846 0 0.054662407659552333 -0.0014898958958374918 0 0.054880616778313837 -0.003168780824839147 0 0.054424841705274063 -0.0025624908620100126 0 0.055064329256489374 -0.0024197446416157598 0 0.050507032929473741 -0.0022148110358894075 0 0.050321567001889236 -0.0021691988657911547 0 0.050408618847256295 -0.0020480173513847664 0 0.054424841705274063 -0.0025624908620100126 0 0.055064329256489374 -0.0024197446416157598 0 0.054616783499644952 -0.0019845803269899769 0 0.053982730106526072 -0.00039879374508483692 0 0.053921585226951535 -0.00038805206934800629 0 0.054277631412332286 -0.00035077754923093735 0 0.053982730106526072 -0.00039879374508483692 0 0.05359924677193615 -0.00020542703247007675 0 0.05317145036209972 -0.00038845621479983408 0 0.053982730106526072 -0.00039879374508483692 0 0.053781422167133455 -0.00025538852620081616 0 0.05359924677193615 -0.00020542703247007675 0 0.053982730106526072 -0.00039879374508483692 0 0.053921585226951535 -0.00038805206934800629 0 0.053781422167133455 -0.00025538852620081616 0 0.053798180693939678 0.00025896627281905301 0 0.053921585226951535 -0.00038805206934800629 0 0.053728606176251706 -8.9371228831055974e-05 0 0.053921585226951535 -0.00038805206934800629 0 0.053781422167133455 -0.00025538852620081616 0 0.053728606176251706 -8.9371228831055974e-05 0 0.053798180693939678 0.00025896627281905301 0 0.053603147472992073 0.00013289912800575678 0 0.053728606176251706 -8.9371228831055974e-05 0 0.053603147472992073 0.00013289912800575678 0 0.053728606176251706 -8.9371228831055974e-05 0 0.053498921193158015 3.9447343355375243e-05 0 0.053728606176251706 -8.9371228831055974e-05 0 0.053498921193158015 3.9447343355375243e-05 0 0.05359924677193615 -0.00020542703247007675 0 0.053781422167133455 -0.00025538852620081616 0 0.053728606176251706 -8.9371228831055974e-05 0 0.05359924677193615 -0.00020542703247007675 0 0.052922452169250872 -2.4221627110368409e-05 0 0.053254600886573453 -1.6138768218793592e-05 0 0.05317145036209972 -0.00038845621479983408 0 0.053498921193158015 3.9447343355375243e-05 0 0.05359924677193615 -0.00020542703247007675 0 0.053254600886573453 -1.6138768218793592e-05 0 0.05330833673632402 0.00013898580468053341 0 0.053498921193158015 3.9447343355375243e-05 0 0.053254600886573453 -1.6138768218793592e-05 0 0.05330833673632402 0.00013898580468053341 0 0.05308873400984998 0.00022129561162391337 0 0.053254600886573453 -1.6138768218793592e-05 0 0.053982730106526072 -0.00039879374508483692 0 0.054403403942017051 -0.00039122080684439491 0 0.054366452362428985 -0.00033810110686654507 0 0.053974118897580421 -0.00039946272023722284 0 0.053787614825668233 -0.00036754875763996133 0 0.05359924677193615 -0.00020542703247007675 0 0.053254600886573453 -1.6138768218793592e-05 0 0.05317145036209972 -0.00038845621479983408 0 0.054436850218439831 -0.00032406883567729456 0 0.054403403942017051 -0.00039122080684439491 0 0.054366452362428985 -0.00033810110686654507 0 0.054449667293270033 -0.00039220500953523964 0 0.054366452362428985 -0.00033810110686654507 0 0.054417567326474986 -0.0003625767757798989 0 0.054366452362428985 -0.00033810110686654507 0 0.054417567326474986 -0.0003625767757798989 0 0.054277631412332286 -0.00035077754923093735 0 0.054449667293270033 -0.00039220500953523964 0 0.054417567326474986 -0.0003625767757798989 0 0.054516564584115947 -0.00041144193655458244 0 0.054417567326474986 -0.0003625767757798989 0 0.054277631412332286 -0.00035077754923093735 0 0.054444682947892342 -0.0003310508161509134 0 0.055272456641712056 -0.0014670853302509227 0 0.054734480103250119 -0.00085583195853247587 0 0.055271116081680984 -0.00056662037737595134 0 0.054736241643664231 -0.00090863798334851634 0 0.054854608732056137 -0.00046817323932136454 0 0.053982730106526072 -0.00039879374508483692 0 0.054366452362428985 -0.00033810110686654507 0 0.054277631412332286 -0.00035077754923093735 0 0.054662407659552333 -0.0014898958958374918 0 0.054736241643664231 -0.00090863798334851634 0 0.055064329256489374 -0.0024197446416157598 0 0.055272456641712056 -0.0014670853302509227 0 0.054616783499644952 -0.0019845803269899769 0 0.055272456641712056 -0.0014670853302509227 0 0.054616783499644952 -0.0019845803269899769 0 0.054479231155855533 -0.0014289797025928686 0 0.055272456641712056 -0.0014670853302509227 0 0.054479231155855533 -0.0014289797025928686 0 0.054734480103250119 -0.00085583195853247587 0 0.053822681989226615 -0.0020103927077745462 0 0.054018299557336169 -0.0010079780698676463 0 0.054479231155855533 -0.0014289797025928686 0 0.054018299557336169 -0.0010079780698676463 0 0.054479231155855533 -0.0014289797025928686 0 0.054734480103250119 -0.00085583195853247587 0 0.053822681989226615 -0.0020103927077745462 0 0.054616783499644952 -0.0019845803269899769 0 0.054479231155855533 -0.0014289797025928686 0 0.054465371927676628 -0.00019258397808844332 0 0.054687426161839955 -0.00018008700696924091 0 0.05438848399226702 -0.00037930457080096749 0 0.054687426161839955 -0.00018008700696924091 0 0.05438848399226702 -0.00037930457080096749 0 0.054895451582926157 -0.00029059492684790125 0 0.054018299557336169 -0.0010079780698676463 0 0.05438848399226702 -0.00037930457080096749 0 0.054734480103250119 -0.00085583195853247587 0 0.054734480103250119 -0.00085583195853247587 0 0.054895451582926157 -0.00029059492684790125 0 0.055271116081680984 -0.00056662037737595134 0 0.05438848399226702 -0.00037930457080096749 0 0.054734480103250119 -0.00085583195853247587 0 0.054895451582926157 -0.00029059492684790125 0 0.054687426161839955 -0.00018008700696924091 0 0.054895451582926157 -0.00029059492684790125 0 0.054951577299395829 -6.132231952418701e-05 0 0.054895451582926157 -0.00029059492684790125 0 0.055271116081680984 -0.00056662037737595134 0 0.055122433053030981 -0.00010712810104818426 0 0.054854608732056137 -0.00046817323932136454 0 0.054885853124790052 -0.00015826672637221767 0 0.054444682947892342 -0.0003310508161509134 0 0.05463354868149211 -0.00023935510978319381 0 0.054516564584115947 -0.00041144193655458244 0 0.054417567326474986 -0.0003625767757798989 0 0.054444682947892342 -0.0003310508161509134 0 0.054516564584115947 -0.00041144193655458244 0 0.054444682947892342 -0.0003310508161509134 0 0.05463354868149211 -0.00023935510978319381 0 0.054636834460927444 -0.00014915537642669387 0 0.05463354868149211 -0.00023935510978319381 0 0.054636834460927444 -0.00014915537642669387 0 0.054823787613976133 -8.7157623921844764e-05 0 0.054999941401939485 -9.0934066655120838e-08 0 0.054885853124790052 -0.00015826672637221767 0 0.054999444632256776 -1.55623606554212e-08 0 0.054636834460927444 -0.00014915537642669387 0 0.054823787613976133 -8.7157623921844764e-05 0 0.055000285030654052 3.8854473694534439e-08 0 0.054951577299395829 -6.132231952418701e-05 0 0.054999804998536461 -3.328215307946323e-09 0 0.055000285030654052 3.8854473694534439e-08 0 0.055122433053030981 -0.00010712810104818426 0 0.054951577299395829 -6.132231952418701e-05 0 0.054895451582926157 -0.00029059492684790125 0 0.055122433053030981 -0.00010712810104818426 0 0.054951577299395829 -6.132231952418701e-05 0 0.054951577299395829 -6.132231952418701e-05 0 0.054999804998536461 -3.328215307946323e-09 0 0.054812380287580467 -5.1635363981903018e-05 0 0.054999574867440074 -6.0010776971416098e-08 0 0.054999804998536461 -3.328215307946323e-09 0 0.054812380287580467 -5.1635363981903018e-05 0 0.054687426161839955 -0.00018008700696924091 0 0.054951577299395829 -6.132231952418701e-05 0 0.054812380287580467 -5.1635363981903018e-05 0 0.054465371927676628 -0.00019258397808844332 0 0.054687426161839955 -0.00018008700696924091 0 0.054812380287580467 -5.1635363981903018e-05 0 0.054981504209045171 -7.4711618769417184e-05 0 0.054767340488901452 -0.00019879224078509571 0 0.054974291679537775 -4.6682775495155252e-05 0 0.054903400709512287 -0.0003086888187107414 0 0.054703060309714127 -0.00016845127530493463 0 0.054981504209045171 -7.4711618769417184e-05 0 0.054963087500556382 -9.2984421383920002e-05 0 0.054767340488901452 -0.00019879224078509571 0 0.054981504209045171 -7.4711618769417184e-05 0 0.054984231303859606 -2.8360288055444013e-05 0 0.054980954146075407 -3.054893914384563e-05 0 0.054981504209045171 -7.4711618769417184e-05 0 0.054988778103232779 -4.2997482639669545e-05 0 0.054980954146075407 -3.054893914384563e-05 0 0.05467821862809448 -0.00065594912453420041 0 0.054876495121217728 -0.00069986513618229313 0 0.054641601071277267 -0.00047653774084398536 0 0.054998419737702135 5.2879911079303506e-05 0 0.054984231303859606 -2.8360288055444013e-05 0 0.054963087500556382 -9.2984421383920002e-05 0 0.054384528336913575 -0.00025549306098310136 0 0.054903400709512287 -0.0003086888187107414 0 0.054981504209045171 -7.4711618769417184e-05 0 0.054984231303859606 -2.8360288055444013e-05 0 0.054963087500556382 -9.2984421383920002e-05 0 0.05467821862809448 -0.00065594912453420041 0 0.054641601071277267 -0.00047653774084398536 0 0.054430783498471559 -0.00061407285518455545 0 0.054430783498471559 -0.00061407285518455545 0 0.054516564584115947 -0.00041144193655458244 0 0.054767340488901452 -0.00019879224078509571 0 0.054641601071277267 -0.00047653774084398536 0 0.054430783498471559 -0.00061407285518455545 0 0.054767340488901452 -0.00019879224078509571 0 0.05463354868149211 -0.00023935510978319381 0 0.054516564584115947 -0.00041144193655458244 0 0.054767340488901452 -0.00019879224078509571 0 0.054767340488901452 -0.00019879224078509571 0 0.054823787613976133 -8.7157623921844764e-05 0 0.054922304555440178 -4.3814761788425707e-05 0 0.054767340488901452 -0.00019879224078509571 0 0.054922304555440178 -4.3814761788425707e-05 0 0.054974291679537775 -4.6682775495155252e-05 0 0.05463354868149211 -0.00023935510978319381 0 0.054767340488901452 -0.00019879224078509571 0 0.054823787613976133 -8.7157623921844764e-05 0 0.054999444632256776 -1.55623606554212e-08 0 0.054823787613976133 -8.7157623921844764e-05 0 0.054999877308716708 -3.9481817803094212e-08 0 0.054823787613976133 -8.7157623921844764e-05 0 0.054999877308716708 -3.9481817803094212e-08 0 0.054922304555440178 -4.3814761788425707e-05 0 0.054999877308716708 -3.9481817803094212e-08 0 0.054922304555440178 -4.3814761788425707e-05 0 0.054999947940908192 -5.2353803164358735e-09 0 0.054922304555440178 -4.3814761788425707e-05 0 0.054999947940908192 -5.2353803164358735e-09 0 0.054974291679537775 -4.6682775495155252e-05 0 0.054974291679537775 -4.6682775495155252e-05 0 0.054988778103232779 -4.2997482639669545e-05 0 0.054992553666499723 -2.3175239894286579e-05 0 0.054981504209045171 -7.4711618769417184e-05 0 0.054974291679537775 -4.6682775495155252e-05 0 0.054988778103232779 -4.2997482639669545e-05 0 0.054999947940908192 -5.2353803164358735e-09 0 0.054974291679537775 -4.6682775495155252e-05 0 0.054992553666499723 -2.3175239894286579e-05 0 0.054999947940908192 -5.2353803164358735e-09 0 0.054992553666499723 -2.3175239894286579e-05 0 0.054999999355041913 -1.9954925002630476e-08 0 0.054992553666499723 -2.3175239894286579e-05 0 0.054999999355041913 -1.9954925002630476e-08 0 0.05497756541171412 -4.0572008049332512e-05 0 0.054999999355041913 -1.9954925002630476e-08 0 0.05497756541171412 -4.0572008049332512e-05 0 0.054999920880380394 -7.231855151814845e-08 0 0.05497756541171412 -4.0572008049332512e-05 0 0.054950280850989387 -5.3276919552594039e-05 0 0.054999920880380394 -7.231855151814845e-08 0 0.05497756541171412 -4.0572008049332512e-05 0 0.054925884488199281 -2.4209746839604806e-05 0 0.054950280850989387 -5.3276919552594039e-05 0 0.054988778103232779 -4.2997482639669545e-05 0 0.05497756541171412 -4.0572008049332512e-05 0 0.054980954146075407 -3.054893914384563e-05 0 0.054988778103232779 -4.2997482639669545e-05 0 0.054992553666499723 -2.3175239894286579e-05 0 0.05497756541171412 -4.0572008049332512e-05 0 0.05497756541171412 -4.0572008049332512e-05 0 0.054980954146075407 -3.054893914384563e-05 0 0.054955858701455355 -1.2189098498206802e-05 0 0.054980954146075407 -3.054893914384563e-05 0 0.054955858701455355 -1.2189098498206802e-05 0 0.054972047920358626 1.5912358457348042e-05 0 0.05497756541171412 -4.0572008049332512e-05 0 0.054955858701455355 -1.2189098498206802e-05 0 0.054925884488199281 -2.4209746839604806e-05 0 0.054955858701455355 -1.2189098498206802e-05 0 0.054899135820992928 3.8692462212736701e-05 0 0.054925884488199281 -2.4209746839604806e-05 0 0.054955858701455355 -1.2189098498206802e-05 0 0.054937589395488741 4.901834006636859e-05 0 0.054972047920358626 1.5912358457348042e-05 0 0.054955858701455355 -1.2189098498206802e-05 0 0.054937589395488741 4.901834006636859e-05 0 0.054899135820992928 3.8692462212736701e-05 0 0.054937589395488741 4.901834006636859e-05 0 0.054899135820992928 3.8692462212736701e-05 0 0.054880706993234642 0.000121979466760538 0 0.054937589395488741 4.901834006636859e-05 0 0.054950754948746905 8.3352123157236211e-05 0 0.054880706993234642 0.000121979466760538 0 0.054998419737702135 5.2879911079303506e-05 0 0.054972047920358626 1.5912358457348042e-05 0 0.054950754948746905 8.3352123157236211e-05 0 0.054998419737702135 5.2879911079303506e-05 0 0.054984231303859606 -2.8360288055444013e-05 0 0.054972047920358626 1.5912358457348042e-05 0 0.054937589395488741 4.901834006636859e-05 0 0.054972047920358626 1.5912358457348042e-05 0 0.054950754948746905 8.3352123157236211e-05 0 0.054984231303859606 -2.8360288055444013e-05 0 0.054980954146075407 -3.054893914384563e-05 0 0.054972047920358626 1.5912358457348042e-05 0 0.054726726863906519 3.3104137422836836e-05 0 0.054570477528327943 0.0001825301709974319 0 0.054671095065376631 0.00020432696457670893 0 0.054803739062779085 0.00011526880659241327 0 0.054726726863906519 3.3104137422836836e-05 0 0.054671095065376631 0.00020432696457670893 0 0.054803739062779085 0.00011526880659241327 0 0.054845627456714077 1.54900849023944e-05 0 0.054726726863906519 3.3104137422836836e-05 0 0.054803739062779085 0.00011526880659241327 0 0.054899135820992928 3.8692462212736701e-05 0 0.054880706993234642 0.000121979466760538 0 0.054803739062779085 0.00011526880659241327 0 0.054899135820992928 3.8692462212736701e-05 0 0.054845627456714077 1.54900849023944e-05 0 0.054845627456714077 1.54900849023944e-05 0 0.054925884488199281 -2.4209746839604806e-05 0 0.054876840585598864 -7.2678765791024015e-05 0 0.054899135820992928 3.8692462212736701e-05 0 0.054845627456714077 1.54900849023944e-05 0 0.054925884488199281 -2.4209746839604806e-05 0 0.054845627456714077 1.54900849023944e-05 0 0.054726726863906519 3.3104137422836836e-05 0 0.054876840585598864 -7.2678765791024015e-05 0 0.054726726863906519 3.3104137422836836e-05 0 0.054876840585598864 -7.2678765791024015e-05 0 0.054729469561058758 -0.00010366909644592826 0 0.054876840585598864 -7.2678765791024015e-05 0 0.05488628558522584 -0.0001644325782123427 0 0.054729469561058758 -0.00010366909644592826 0 0.054876840585598864 -7.2678765791024015e-05 0 0.054941308809692863 -7.2478196777331835e-05 0 0.05488628558522584 -0.0001644325782123427 0 0.054876840585598864 -7.2678765791024015e-05 0 0.054950280850989387 -5.3276919552594039e-05 0 0.054941308809692863 -7.2478196777331835e-05 0 0.054925884488199281 -2.4209746839604806e-05 0 0.054876840585598864 -7.2678765791024015e-05 0 0.054950280850989387 -5.3276919552594039e-05 0 0.054999920880380394 -7.231855151814845e-08 0 0.054941308809692863 -7.2478196777331835e-05 0 0.054999745352448288 -1.3335668285113156e-07 0 0.054950280850989387 -5.3276919552594039e-05 0 0.054999920880380394 -7.231855151814845e-08 0 0.054941308809692863 -7.2478196777331835e-05 0 0.054941308809692863 -7.2478196777331835e-05 0 0.05488628558522584 -0.0001644325782123427 0 0.054999745352448288 -1.3335668285113156e-07 0 0.054999745352448288 -1.3335668285113156e-07 0 0.055000090015930224 -1.3303533940492071e-08 0 0.055001284159282786 -4.5071322075093418e-05 0 0.05488628558522584 -0.0001644325782123427 0 0.054999745352448288 -1.3335668285113156e-07 0 0.055001284159282786 -4.5071322075093418e-05 0 0.05483542359350338 -0.00019638234444016648 0 0.054601713413389888 -0.00026212215760987729 0 0.055000090015930224 -1.3303533940492071e-08 0 0.055001284159282786 -4.5071322075093418e-05 0 0.055002001434079469 -1.0936624395389566e-05 0 0.054601713413389888 -0.00026212215760987729 0 0.054468514848818393 -0.00024582622082386862 0 0.054225754573312752 -0.00029139516207475033 0 0.053864155620839446 -0.00032335424673939983 0 0.054467371480936597 -8.589286836159526e-05 0 0.05423974491610211 -0.00052145784344180069 0 0.054225754573312752 -0.00029139516207475033 0 0.054528204642775392 -0.00022446927061660197 0 0.05423974491610211 -0.00052145784344180069 0 0.054225754573312752 -0.00029139516207475033 0 0.053864155620839446 -0.00032335424673939983 0 0.054225754573312752 -0.00029139516207475033 0 0.054528204642775392 -0.00022446927061660197 0 0.054467371480936597 -8.589286836159526e-05 0 0.054729469561058758 -0.00010366909644592826 0 0.054528204642775392 -0.00022446927061660197 0 0.054467371480936597 -8.589286836159526e-05 0 0.05488628558522584 -0.0001644325782123427 0 0.05423974491610211 -0.00052145784344180069 0 0.054528204642775392 -0.00022446927061660197 0 0.05488628558522584 -0.0001644325782123427 0 0.054729469561058758 -0.00010366909644592826 0 0.054528204642775392 -0.00022446927061660197 0 0.054468514848818393 -0.00024582622082386862 0 0.054066623791441761 -0.00031687915480128626 0 0.054999997999267039 -7.0612572748709604e-12 0 0.054999990621117441 -1.7858490981442649e-09 0 0.054995058907773946 -1.5951426674144039e-06 0 0.054999960034244601 -2.2523097937153154e-08 0 0.055002001434079469 -1.0936624395389566e-05 0 0.054990460522404451 -5.9104213190906471e-06 0 0.055000379935333937 -2.2769580093733822e-07 0 0.054066623791441761 -0.00031687915480128626 0 0.055000090015930224 -1.3303533940492071e-08 0 0.054999960034244601 -2.2523097937153154e-08 0 0.055002001434079469 -1.0936624395389566e-05 0 0.053812512618770736 -0.00048106321179349604 0 0.053864155620839446 -0.00032335424673939983 0 0.053795462387020161 -0.00035567346088913982 0 0.05423974491610211 -0.00052145784344180069 0 0.053812512618770736 -0.00048106321179349604 0 0.053864155620839446 -0.00032335424673939983 0 0.053795462387020161 -0.00035567346088913982 0 0.053677599126954099 -0.00047169122688745684 0 0.053659061360284199 -0.00045317840804932902 0 0.052950642317855554 -0.0012163949052463852 0 0.052200258077270363 -0.001802117737246735 0 0.052238333995652975 -0.00094974260829829775 0 0.053812512618770736 -0.00048106321179349604 0 0.053795462387020161 -0.00035567346088913982 0 0.053677599126954099 -0.00047169122688745684 0 0.053310933959167021 -0.00085822478188469153 0 0.052946851860549614 -0.00042586710576558446 0 0.052950642317855554 -0.0012163949052463852 0 0.052658952752360294 -0.00055327524953139738 0 0.053485654338125375 -0.00055869205883623272 0 0.052950642317855554 -0.0012163949052463852 0 0.052658952752360294 -0.00055327524953139738 0 0.052238333995652975 -0.00094974260829829775 0 0.053485654338125375 -0.00055869205883623272 0 0.053676515314143892 -0.00047226942015726509 0 0.053385674468018215 -0.00038982181497885414 0 0.052950642317855554 -0.0012163949052463852 0 0.053485654338125375 -0.00055869205883623272 0 0.053676515314143892 -0.00047226942015726509 0 0.053310933959167021 -0.00085822478188469153 0 0.053674012868714475 -0.0004931916805347938 0 0.053864155620839446 -0.00032335424673939983 0 0.053795462387020161 -0.00035567346088913982 0 0.053676515314143892 -0.00047226942015726509 0 0.053092142847728153 -0.00035727044535223759 0 0.053771793612803986 -0.00039184367265630024 0 0.053485654338125375 -0.00055869205883623272 0 0.053385674468018215 -0.00038982181497885414 0 0.053015717247959789 -0.0003573130156265105 0 0.052658952752360294 -0.00055327524953139738 0 0.053485654338125375 -0.00055869205883623272 0 0.052626962933248575 0.0001762503987926323 0 0.052658952752360294 -0.00055327524953139738 0 0.052626962933248575 0.0001762503987926323 0 0.051968637121294584 -0.00029631403616308831 0 0.054726726863906519 3.3104137422836836e-05 0 0.054729469561058758 -0.00010366909644592826 0 0.054467371480936597 -8.589286836159526e-05 0 0.054726726863906519 3.3104137422836836e-05 0 0.054526180486701048 8.1357301644353471e-05 0 0.054467371480936597 -8.589286836159526e-05 0 0.053864155620839446 -0.00032335424673939983 0 0.053676515314143892 -0.00047226942015726509 0 0.053518135460659241 -0.00047959050602050296 0 0.053852671050176923 -0.00033906486872390973 0 0.053921960953551028 -0.00016299926045021133 0 0.053864155620839446 -0.00032335424673939983 0 0.054467371480936597 -8.589286836159526e-05 0 0.054323366041768323 0.00018196418500182978 0 0.054526180486701048 8.1357301644353471e-05 0 0.054467371480936597 -8.589286836159526e-05 0 0.054323366041768323 0.00018196418500182978 0 0.053921960953551028 -0.00016299926045021133 0 0.054001767630698957 3.3231170448298333e-05 0 0.053676515314143892 -0.00047226942015726509 0 0.053385674468018215 -0.00038982181497885414 0 0.053518135460659241 -0.00047959050602050296 0 0.053385674468018215 -0.00038982181497885414 0 0.053518135460659241 -0.00047959050602050296 0 0.053441166658354668 -0.00027746442269860826 0 0.054526180486701048 8.1357301644353471e-05 0 0.054323366041768323 0.00018196418500182978 0 0.054570477528327943 0.0001825301709974319 0 0.054323366041768323 0.00018196418500182978 0 0.054570477528327943 0.0001825301709974319 0 0.054529987930891206 0.00028772175649701608 0 0.054726726863906519 3.3104137422836836e-05 0 0.054526180486701048 8.1357301644353471e-05 0 0.054570477528327943 0.0001825301709974319 0 0.054570477528327943 0.0001825301709974319 0 0.054529987930891206 0.00028772175649701608 0 0.054671095065376631 0.00020432696457670893 0 0.053518135460659241 -0.00047959050602050296 0 0.053543471189982442 -0.00016432421396270796 0 0.053441166658354668 -0.00027746442269860826 0 0.053543471189982442 -0.00016432421396270796 0 0.053441166658354668 -0.00027746442269860826 0 0.053314944847644548 -9.6452452724306818e-05 0 0.053543471189982442 -0.00016432421396270796 0 0.053400605742618158 -1.6871470670534155e-05 0 0.053451188494697467 7.4187339898847349e-05 0 0.053543471189982442 -0.00016432421396270796 0 0.053400605742618158 -1.6871470670534155e-05 0 0.053314944847644548 -9.6452452724306818e-05 0 0.053400605742618158 -1.6871470670534155e-05 0 0.053314944847644548 -9.6452452724306818e-05 0 0.053329196630722227 0.00011632574085209097 0 0.053400605742618158 -1.6871470670534155e-05 0 0.053451188494697467 7.4187339898847349e-05 0 0.053329196630722227 0.00011632574085209097 0 0.054001767630698957 3.3231170448298333e-05 0 0.054265467948056069 0.0002908155737420641 0 0.053543471189982442 -0.00016432421396270796 0 0.053554244186493613 8.1067077946856274e-05 0 0.053451188494697467 7.4187339898847349e-05 0 0.054529987930891206 0.00028772175649701608 0 0.054596523248757259 0.00037334125632401574 0 0.054724373493672478 0.00029726877491111829 0 0.053015717247959789 -0.0003573130156265105 0 0.052936669330656425 -0.00010492055833772498 0 0.053314944847644548 -9.6452452724306818e-05 0 0.053385674468018215 -0.00038982181497885414 0 0.053441166658354668 -0.00027746442269860826 0 0.053314944847644548 -9.6452452724306818e-05 0 0.053385674468018215 -0.00038982181497885414 0 0.053015717247959789 -0.0003573130156265105 0 0.053314944847644548 -9.6452452724306818e-05 0 0.052936669330656425 -0.00010492055833772498 0 0.053314944847644548 -9.6452452724306818e-05 0 0.053060544096703688 9.956369802523273e-05 0 0.053314944847644548 -9.6452452724306818e-05 0 0.053060544096703688 9.956369802523273e-05 0 0.053329196630722227 0.00011632574085209097 0 0.045206272122329007 0.0010411215293698673 0 0.046976984004433363 0.00072531975745565157 0 0.052936669330656425 -0.00010492055833772498 0 0.053060544096703688 9.956369802523273e-05 0 0.052606904125420385 -5.7058453626099427e-05 0 0.038682893387937345 0.0017207722012964274 0 0.038740620681458802 0.0015708799156053058 0 0.038820706740826119 0.0016377894492442232 0 0.045206272122329007 0.0010411215293698673 0 0.048564485852568506 -7.175119730611048e-05 0 0.053060544096703688 9.956369802523273e-05 0 0.053329196630722227 0.00011632574085209097 0 0.053376890711313831 0.00018480361044004277 0 0.038682893387937345 0.0017207722012964274 0 0.038819773270321815 0.0015861606327864553 0 0.038918909691950818 0.0015404496572413837 0 0.038682893387937345 0.0017207722012964274 0 0.038819773270321815 0.0015861606327864553 0 0.038740620681458802 0.0015708799156053058 0 0.038819773270321815 0.0015861606327864553 0 0.038740620681458802 0.0015708799156053058 0 0.038826895730401448 0.0016447037876974916 0 0.038740620681458802 0.0015708799156053058 0 0.038820706740826119 0.0016377894492442232 0 0.038669082645589568 0.0015060382834080704 0 0.053543798722932287 0.00018692929339013053 0 0.053554244186493613 8.1067077946856274e-05 0 0.053602308010733304 0.0002664518297185911 0 0.053543798722932287 0.00018692929339013053 0 0.053483671425419523 0.00012812378233763842 0 0.053381695454786431 0.00017255058451582327 0 0.053543798722932287 0.00018692929339013053 0 0.053554244186493613 8.1067077946856274e-05 0 0.053483671425419523 0.00012812378233763842 0 0.053554244186493613 8.1067077946856274e-05 0 0.053483671425419523 0.00012812378233763842 0 0.053451188494697467 7.4187339898847349e-05 0 0.053483671425419523 0.00012812378233763842 0 0.053451188494697467 7.4187339898847349e-05 0 0.053381695454786431 0.00017255058451582327 0 0.053451188494697467 7.4187339898847349e-05 0 0.053329196630722227 0.00011632574085209097 0 0.053381695454786431 0.00017255058451582327 0 0.051926274480811697 0.0012274713009274383 0 0.048564485852568506 -7.175119730611048e-05 0 0.038918909691950818 0.0015404496572413837 0 0.038924859780663797 0.0015957658357591913 0 0.039060659988429398 0.0016314341770249144 0 0.038819773270321815 0.0015861606327864553 0 0.038918909691950818 0.0015404496572413837 0 0.038924859780663797 0.0015957658357591913 0 0.038819773270321815 0.0015861606327864553 0 0.038924859780663797 0.0015957658357591913 0 0.038910318419109878 0.0016262432173808064 0 0.038819773270321815 0.0015861606327864553 0 0.038910318419109878 0.0016262432173808064 0 0.038826895730401448 0.0016447037876974916 0 0.038924859780663797 0.0015957658357591913 0 0.038910318419109878 0.0016262432173808064 0 0.039060659988429398 0.0016314341770249144 0 0.048564485852568506 -7.175119730611048e-05 0 0.044754871100695266 0.0012496107018871013 0 0.049752877748631567 -0.00043057523341198824 0 0.050502511100782119 8.3085468592440209e-05 0 0.050235153618026898 0.00020093209874248681 0 0.048564485852568506 -7.175119730611048e-05 0 0.052535366112696914 0.00032707413811544373 0 0.053543798722932287 0.00018692929339013053 0 0.053381695454786431 0.00017255058451582327 0 0.053602308010733304 0.0002664518297185911 0 0.049752877748631567 -0.00043057523341198824 0 0.050502511100782119 8.3085468592440209e-05 0 0.05063883641321295 -3.0840560476031217e-05 0 0.052535366112696914 0.00032707413811544373 0 0.053042768274095278 0.000105770490035144 0 0.050583719783906564 6.5904655944683686e-05 0 0.050614869378577371 -1.676674040138109e-05 0 0.050757703604469045 0.00031540637332336848 0 0.050502511100782119 8.3085468592440209e-05 0 0.050583719783906564 6.5904655944683686e-05 0 0.050553636490599026 0.00025940711702344228 0 0.052535366112696914 0.00032707413811544373 0 0.050985059207636005 -5.1360274815466773e-05 0 0.05163645339579568 0.00061438832398011119 0 0.052535366112696914 0.00032707413811544373 0 0.050502511100782119 8.3085468592440209e-05 0 0.050583719783906564 6.5904655944683686e-05 0 0.050614869378577371 -1.676674040138109e-05 0 0.050816224855432489 0.00026894847938419041 0 0.050848374139679055 0.00028955060427837703 0 0.050757703604469045 0.00031540637332336848 0 0.050627533605482257 0.00023668205871774133 0 0.050848374139679055 0.00028955060427837703 0 0.051024048692006052 0.00022389494734753376 0 0.052535366112696914 0.00032707413811544373 0 0.050900483601411924 -4.425780913582094e-05 0 0.054596523248757259 0.00037334125632401574 0 0.054625270910656394 0.00046070575204797625 0 0.054655288952597719 0.00039589840983522668 0 0.054265467948056069 0.0002908155737420641 0 0.052535366112696914 0.00032707413811544373 0 0.054625270910656394 0.00046070575204797625 0 0.054655288952597719 0.00039589840983522668 0 0.054716548488483022 0.00037652521691924082 0 0.054596523248757259 0.00037334125632401574 0 0.054655288952597719 0.00039589840983522668 0 0.054691924945017782 0.0003518612032693558 0 0.054716548488483022 0.00037652521691924082 0 0.054691924945017782 0.0003518612032693558 0 0.054725821754508866 0.0003245744317728274 0 0.054655288952597719 0.00039589840983522668 0 0.054716548488483022 0.00037652521691924082 0 0.054691924945017782 0.0003518612032693558 0 0.051323168342537986 -0.00016779032061726455 0 0.051024048692006052 0.00022389494734753376 0 0.051731184853475227 0.00011123566070422104 0 0.051049251898579714 0.00022397944657666488 0 0.051508723799734986 0.00032920100067977334 0 0.050627533605482257 0.00023668205871774133 0 0.051323168342537986 -0.00016779032061726455 0 0.051024048692006052 0.00022389494734753376 0 0.050848374139679055 0.00028955060427837703 0 0.051024048692006052 0.00022389494734753376 0 0.050896090199991674 0.00031803475022283901 0 0.051731184853475227 0.00011123566070422104 0 0.052220782557032421 0.00015326628154360946 0 0.051976383239632384 0.00044527089680810336 0 0.051024048692006052 0.00022389494734753376 0 0.051731184853475227 0.00011123566070422104 0 0.051976383239632384 0.00044527089680810336 0 0.052396730746521097 0.00011066919551865244 0 0.052220782557032421 0.00015326628154360946 0 0.052437316597511899 -3.7233581452075148e-05 0 0.052220782557032421 0.00015326628154360946 0 0.052437316597511899 -3.7233581452075148e-05 0 0.051914033016472363 -5.8375857709206599e-05 0 0.052437316597511899 -3.7233581452075148e-05 0 0.051914033016472363 -5.8375857709206599e-05 0 0.052013960688139751 -0.0004736258966831485 0 0.051323168342537986 -0.00016779032061726455 0 0.051914033016472363 -5.8375857709206599e-05 0 0.052013960688139751 -0.0004736258966831485 0 0.053042768274095278 0.000105770490035144 0 0.053264989663917191 -5.3216885447674539e-05 0 0.051323168342537986 -0.00016779032061726455 0 0.051731184853475227 0.00011123566070422104 0 0.051914033016472363 -5.8375857709206599e-05 0 0.051731184853475227 0.00011123566070422104 0 0.052220782557032421 0.00015326628154360946 0 0.051914033016472363 -5.8375857709206599e-05 0 0.054732000253682397 0.00031539319432456335 0 0.05473223747386196 0.00031642071263189429 0 0.054725821754508866 0.0003245744317728274 0 0.054716548488483022 0.00037652521691924082 0 0.054732000253682397 0.00031539319432456335 0 0.054725821754508866 0.0003245744317728274 0 0.052881078468441221 -0.00098073430221890705 0 0.052013960688139751 -0.0004736258966831485 0 0.052642562881707454 -0.00049314753797939875 0 0.052437316597511899 -3.7233581452075148e-05 0 0.052013960688139751 -0.0004736258966831485 0 0.052642562881707454 -0.00049314753797939875 0 0.054710483622058652 0.00031032198068599418 0 0.054732000253682397 0.00031539319432456335 0 0.05473223747386196 0.00031642071263189429 0 0.054998419737702135 5.2879911079303506e-05 0 0.0549288490593677 0.00017575151600222991 0 0.054950754948746905 8.3352123157236211e-05 0 0.054384528336913575 -0.00025549306098310136 0 0.054910967050055236 0.00027875118145801413 0 0.054384528336913575 -0.00025549306098310136 0 0.053264989663917191 -5.3216885447674539e-05 0 0.0549288490593677 0.00017575151600222991 0 0.054950754948746905 8.3352123157236211e-05 0 0.054880706993234642 0.000121979466760538 0 0.054910967050055236 0.00027875118145801413 0 0.054692480576359642 0.00028878200297720384 0 0.0549288490593677 0.00017575151600222991 0 0.054880706993234642 0.000121979466760538 0 0.054724373493672478 0.00029726877491111829 0 0.054803739062779085 0.00011526880659241327 0 0.054880706993234642 0.000121979466760538 0 0.054724373493672478 0.00029726877491111829 0 0.054803739062779085 0.00011526880659241327 0 0.054671095065376631 0.00020432696457670893 0 0.054724373493672478 0.00029726877491111829 0 0.054529987930891206 0.00028772175649701608 0 0.054671095065376631 0.00020432696457670893 0 0.054724373493672478 0.00029726877491111829 0 0.054596523248757259 0.00037334125632401574 0 0.054691924945017782 0.0003518612032693558 0 0.054724373493672478 0.00029726877491111829 0 0.05473223747386196 0.00031642071263189429 0 0.054725821754508866 0.0003245744317728274 0 0.054724373493672478 0.00029726877491111829 0 0.054691924945017782 0.0003518612032693558 0 0.054725821754508866 0.0003245744317728274 0 0.054724373493672478 0.00029726877491111829 0 0.054998221709592725 -5.8501675288624676e-07 0 0.050286061721598552 -0.00037736093730255109 0 0.046923006564644765 -0.00032463410785761316 0 0.054998221709592725 -5.8501675288624676e-07 0 0.052999434751890818 -0.00026651528184414708 0 0.050286061721598552 -0.00037736093730255109 0 0.054998221709592725 -5.8501675288624676e-07 0 0.052999434751890818 -0.00026651528184414708 0 0.054988998249686401 5.7885452376062539e-07 0 0.052999434751890818 -0.00026651528184414708 0 0.054988998249686401 5.7885452376062539e-07 0 0.05208017042218567 -0.00035109802089511744 0 0.055000650839858618 1.2360741636719217e-07 0 0.054769215903949377 -1.0335788267065372e-05 0 0.054738338520963915 0.00012997095512344656 0 0.054999151098934641 -1.2927621352217784e-07 0 0.053395145489062511 -0.00024777058319908762 0 0.052999434751890818 -0.00026651528184414708 0 0.051335845224160882 -0.00055535491272744048 0 0.05208017042218567 -0.00035109802089511744 0 0.052999434751890818 -0.00026651528184414708 0 0.051335845224160882 -0.00055535491272744048 0 0.050286061721598552 -0.00037736093730255109 0 0.051335845224160882 -0.00055535491272744048 0 0.050286061721598552 -0.00037736093730255109 0 0.050332023770465036 -0.00048585712709119225 0 0.050286061721598552 -0.00037736093730255109 0 0.049071761066322848 -0.0002994791314164255 0 0.047789425334756101 -0.00034507052183383754 0 0.050286061721598552 -0.00037736093730255109 0 0.049071761066322848 -0.0002994791314164255 0 0.050332023770465036 -0.00048585712709119225 0 0.049767743754821896 -0.00038657670366704197 0 0.049071761066322848 -0.0002994791314164255 0 0.050332023770465036 -0.00048585712709119225 0 0.049767743754821896 -0.00038657670366704197 0 0.049071761066322848 -0.0002994791314164255 0 0.048789399026656334 3.7324433704387132e-05 0 0.049767743754821896 -0.00038657670366704197 0 0.048789399026656334 3.7324433704387132e-05 0 0.050116102995109539 -0.00028668511858164722 0 0.050116102995109539 -0.00028668511858164722 0 0.051202609083914483 -0.00017522521556499388 0 0.050841552509153988 0.00079476486122273798 0 0.049767743754821896 -0.00038657670366704197 0 0.050116102995109539 -0.00028668511858164722 0 0.050851799183277008 -0.00062897118027974229 0 0.050116102995109539 -0.00028668511858164722 0 0.050851799183277008 -0.00062897118027974229 0 0.051305228523712228 -0.00075462397674593007 0 0.050851799183277008 -0.00062897118027974229 0 0.051430859677423557 -0.00074061047297621163 0 0.051305228523712228 -0.00075462397674593007 0 0.050321583683354612 -0.00030260910920176993 0 0.050984795347945866 -0.00088604765422233434 0 0.050851799183277008 -0.00062897118027974229 0 0.051430859677423557 -0.00074061047297621163 0 0.051833676778058516 -0.00072922725986237201 0 0.051335845224160882 -0.00055535491272744048 0 0.050332023770465036 -0.00048585712709119225 0 0.051833676778058516 -0.00072922725986237201 0 0.050851799183277008 -0.00062897118027974229 0 0.050332023770465036 -0.00048585712709119225 0 0.051833676778058516 -0.00072922725986237201 0 0.049767743754821896 -0.00038657670366704197 0 0.050851799183277008 -0.00062897118027974229 0 0.050332023770465036 -0.00048585712709119225 0 0.051335845224160882 -0.00055535491272744048 0 0.05208017042218567 -0.00035109802089511744 0 0.051833676778058516 -0.00072922725986237201 0 0.054769215903949377 -1.0335788267065372e-05 0 0.053642104877546858 0.0001799907631205593 0 0.051833676778058516 -0.00072922725986237201 0 0.053395145489062511 -0.00024777058319908762 0 0.052203133511121019 -0.0006542080092710223 0 0.055000650839858618 1.2360741636719217e-07 0 0.054997619227337029 2.5508154387699665e-07 0 0.054738338520963915 0.00012997095512344656 0 0.054769215903949377 -1.0335788267065372e-05 0 0.053642104877546858 0.0001799907631205593 0 0.054738338520963915 0.00012997095512344656 0 0.053642104877546858 0.0001799907631205593 0 0.054997619227337029 2.5508154387699665e-07 0 0.054738338520963915 0.00012997095512344656 0 0.054997619227337029 2.5508154387699665e-07 0 0.054688080557854013 -1.2046344554045566e-05 0 0.055000752160190784 -2.5339691672498504e-07 0 0.053670149501492917 0.00016971029723741209 0 0.053042555030804253 0.00015221160097105287 0 0.053642104877546858 0.0001799907631205593 0 0.054688080557854013 -1.2046344554045566e-05 0 0.055071956197418365 0.00030520142680895955 0 0.053642104877546858 0.0001799907631205593 0 0.054997619227337029 2.5508154387699665e-07 0 0.054688080557854013 -1.2046344554045566e-05 0 0.051430859677423557 -0.00074061047297621163 0 0.052050799372377311 -0.00039374663853050863 0 0.051231577225719513 -2.2586293081229265e-05 0 0.053642104877546858 0.0001799907631205593 0 0.052050799372377311 -0.00039374663853050863 0 0.051231577225719513 -2.2586293081229265e-05 0 0.053642104877546858 0.0001799907631205593 0 0.052050799372377311 -0.00039374663853050863 0 0.051833676778058516 -0.00072922725986237201 0 0.051430859677423557 -0.00074061047297621163 0 0.052050799372377311 -0.00039374663853050863 0 0.051833676778058516 -0.00072922725986237201 0 0.051430859677423557 -0.00074061047297621163 0 0.051231577225719513 -2.2586293081229265e-05 0 0.051305228523712228 -0.00075462397674593007 0 0.051231577225719513 -2.2586293081229265e-05 0 0.050722219262227301 -4.4591738451754166e-05 0 0.051305228523712228 -0.00075462397674593007 0 0.053042555030804253 0.00015221160097105287 0 0.053754848139423404 -2.6548786622496589e-05 0 0.055071956197418365 0.00030520142680895955 0 0.055000752160190784 -2.5339691672498504e-07 0 0.055400447662446353 0.00028738371180184137 0 0.054688080557854013 -1.2046344554045566e-05 0 0.055071956197418365 0.00030520142680895955 0 0.055000752160190784 -2.5339691672498504e-07 0 0.055001522387490731 8.3800607741807808e-07 0 0.053754848139423404 -2.6548786622496589e-05 0 0.055000000239917621 6.2232048918392066e-10 0 0.054999990621117441 -1.7858490981442649e-09 0 0.05499500820196862 -1.6586149122623892e-06 0 0.054999990621117441 -1.7858490981442649e-09 0 0.05499500820196862 -1.6586149122623892e-06 0 0.054995058907773946 -1.5951426674144039e-06 0 0.053754848139423404 -2.6548786622496589e-05 0 0.052946851860549614 -0.00042586710576558446 0 0.053754848139423404 -2.6548786622496589e-05 0 0.054066623791441761 -0.00031687915480128626 0 0.053417402376866291 -9.4401173669354972e-05 0 0.053429756622184188 -9.6164612406983709e-05 0 0.053423993357934262 -9.0262058164290981e-05 0 0.054066623791441761 -0.00031687915480128626 0 0.052946851860549614 -0.00042586710576558446 0 0.052200258077270363 -0.001802117737246735 0 0.052238333995652975 -0.00094974260829829775 0 0.051298753973881395 -0.00097068296035725059 0 0.052946851860549614 -0.00042586710576558446 0 0.050984795347945866 -0.00088604765422233434 0 0.050722219262227301 -4.4591738451754166e-05 0 0.050625566778223351 -0.00012098996568692224 0 0.051305228523712228 -0.00075462397674593007 0 0.052238333995652975 -0.00094974260829829775 0 0.051298753973881395 -0.00097068296035725059 0 0.051968637121294584 -0.00029631403616308831 0 0.052658952752360294 -0.00055327524953139738 0 0.052238333995652975 -0.00094974260829829775 0 0.051968637121294584 -0.00029631403616308831 0 0.050116102995109539 -0.00028668511858164722 0 0.051298753973881395 -0.00097068296035725059 0 0.051202609083914483 -0.00017522521556499388 0 0.051298753973881395 -0.00097068296035725059 0 0.051202609083914483 -0.00017522521556499388 0 0.051968637121294584 -0.00029631403616308831 0 0.051202609083914483 -0.00017522521556499388 0 0.051968637121294584 -0.00029631403616308831 0 0.05168915587027955 0.0003251676368329134 0 0.052626962933248575 0.0001762503987926323 0 0.051968637121294584 -0.00029631403616308831 0 0.05168915587027955 0.0003251676368329134 0 0.052626962933248575 0.0001762503987926323 0 0.05168915587027955 0.0003251676368329134 0 0.0517303886460658 0.0011461135732914066 0 0.053015717247959789 -0.0003573130156265105 0 0.052936669330656425 -0.00010492055833772498 0 0.052606904125420385 -5.7058453626099427e-05 0 0.053771793612803986 -0.00039184367265630024 0 0.046976984004433363 0.00072531975745565157 0 0.051202609083914483 -0.00017522521556499388 0 0.05168915587027955 0.0003251676368329134 0 0.050841552509153988 0.00079476486122273798 0 0.05168915587027955 0.0003251676368329134 0 0.050841552509153988 0.00079476486122273798 0 0.0517303886460658 0.0011461135732914066 0 0.04906472106447677 0.00029719270111955602 0 0.046976984004433363 0.00072531975745565157 0 0.0464036124182391 -0.00052713992137865592 0 0.04637522372035946 -0.0004400502105335996 0 0.046474997892756512 -0.00058508474026885298 0 0.046976984004433363 0.00072531975745565157 0 0.042709393859524609 0.00074245172293069673 0 0.04656043690158581 -0.00027442514739675389 0 0.0464036124182391 -0.00052713992137865592 0 0.046474997892756512 -0.00058508474026885298 0 0.038682893387937345 0.0017207722012964274 0 0.039035518096135466 0.0024860947025995401 0 0.038820706740826119 0.0016377894492442232 0 0.039035518096135466 0.0024860947025995401 0 0.038820706740826119 0.0016377894492442232 0 0.039393824339262355 0.0016787694049766517 0 0.038820706740826119 0.0016377894492442232 0 0.038807859131165266 0.0015121179075931555 0 0.039393824339262355 0.0016787694049766517 0 0.038820706740826119 0.0016377894492442232 0 0.038807859131165266 0.0015121179075931555 0 0.038669082645589568 0.0015060382834080704 0 0.038807859131165266 0.0015121179075931555 0 0.038669082645589568 0.0015060382834080704 0 0.038232330589069517 0.0014967010784612226 0 0.039668598672866276 0.00095773723243052584 0 0.039353927348409048 0.0016785010830532739 0 0.038807859131165266 0.0015121179075931555 0 0.038577288147437626 0.0015220956689950336 0 0.038232330589069517 0.0014967010784612226 0 0.038807859131165266 0.0015121179075931555 0 0.038577288147437626 0.0015220956689950336 0 0.039393824339262355 0.0016787694049766517 0 0.040747366586104797 0.00022618734913083737 0 0.039393824339262355 0.0016787694049766517 0 0.04077907458955872 0.001654029055601603 0 0.039035518096135466 0.0024860947025995401 0 0.039393824339262355 0.0016787694049766517 0 0.04077907458955872 0.001654029055601603 0 0.04637522372035946 -0.0004400502105335996 0 0.046139000095091115 -0.00062488621658444369 0 0.046474997892756512 -0.00058508474026885298 0 0.04637522372035946 -0.0004400502105335996 0 0.046139000095091115 -0.00062488621658444369 0 0.044939989421832062 -0.00042639146724461006 0 0.042709393859524609 0.00074245172293069673 0 0.043742099212245707 -0.00031996584883371785 0 0.04637522372035946 -0.0004400502105335996 0 0.043240444832861512 -0.0001737648814639122 0 0.044939989421832062 -0.00042639146724461006 0 0.040747366586104797 0.00022618734913083737 0 0.04077907458955872 0.001654029055601603 0 0.043240444832861512 -0.0001737648814639122 0 0.043240444832861512 -0.0001737648814639122 0 0.044939989421832062 -0.00042639146724461006 0 0.043534260046295299 -0.00033468529385401733 0 0.046139000095091115 -0.00062488621658444369 0 0.044939989421832062 -0.00042639146724461006 0 0.046114054323360354 -0.00044659489792529323 0 0.046139000095091115 -0.00062488621658444369 0 0.047138326772594746 -0.00054813239307391392 0 0.046114054323360354 -0.00044659489792529323 0 0.047138326772594746 -0.00054813239307391392 0 0.04783572108839413 -0.00031787453586664479 0 0.046114054323360354 -0.00044659489792529323 0 0.046139000095091115 -0.00062488621658444369 0 0.047138326772594746 -0.00054813239307391392 0 0.046474997892756512 -0.00058508474026885298 0 0.04656043690158581 -0.00027442514739675389 0 0.047138326772594746 -0.00054813239307391392 0 0.046474997892756512 -0.00058508474026885298 0 0.048789399026656334 3.7324433704387132e-05 0 0.050116102995109539 -0.00028668511858164722 0 0.050841552509153988 0.00079476486122273798 0 0.048573265637847397 1.7304834120046585e-05 0 0.04906472106447677 0.00029719270111955602 0 0.048789399026656334 3.7324433704387132e-05 0 0.04656043690158581 -0.00027442514739675389 0 0.047138326772594746 -0.00054813239307391392 0 0.048789399026656334 3.7324433704387132e-05 0 0.047138326772594746 -0.00054813239307391392 0 0.04783572108839413 -0.00031787453586664479 0 0.049071761066322848 -0.0002994791314164255 0 0.048789399026656334 3.7324433704387132e-05 0 0.04783572108839413 -0.00031787453586664479 0 0.054998221709592725 -5.8501675288624676e-07 0 0.046923006564644765 -0.00032463410785761316 0 0.042837321904993043 -1.0160592266972394e-06 0 0.050286061721598552 -0.00037736093730255109 0 0.047789425334756101 -0.00034507052183383754 0 0.046923006564644765 -0.00032463410785761316 0 0.04783572108839413 -0.00031787453586664479 0 0.047789425334756101 -0.00034507052183383754 0 0.046114054323360354 -0.00044659489792529323 0 0.049071761066322848 -0.0002994791314164255 0 0.04783572108839413 -0.00031787453586664479 0 0.047789425334756101 -0.00034507052183383754 0 0.047789425334756101 -0.00034507052183383754 0 0.046923006564644765 -0.00032463410785761316 0 0.046114054323360354 -0.00044659489792529323 0 0.044939989421832062 -0.00042639146724461006 0 0.046114054323360354 -0.00044659489792529323 0 0.043534260046295299 -0.00033468529385401733 0 0.046923006564644765 -0.00032463410785761316 0 0.046114054323360354 -0.00044659489792529323 0 0.043534260046295299 -0.00033468529385401733 0 0.046923006564644765 -0.00032463410785761316 0 0.043534260046295299 -0.00033468529385401733 0 0.042837321904993043 -1.0160592266972394e-06 0 0.042837321904993043 -1.0160592266972394e-06 0 0.03981287230677516 -0.00040530803580654539 0 0.033615964587641003 -2.748296043454164e-06 0 0.03981287230677516 -0.00040530803580654539 0 0.037437205096144295 -0.00023261231484444678 0 0.033615964587641003 -2.748296043454164e-06 0 0.043534260046295299 -0.00033468529385401733 0 0.042837321904993043 -1.0160592266972394e-06 0 0.03981287230677516 -0.00040530803580654539 0 0.043534260046295299 -0.00033468529385401733 0 0.03981287230677516 -0.00040530803580654539 0 0.041738959255199409 -0.00054835740779192227 0 0.043240444832861512 -0.0001737648814639122 0 0.043534260046295299 -0.00033468529385401733 0 0.041738959255199409 -0.00054835740779192227 0 0.03981287230677516 -0.00040530803580654539 0 0.041738959255199409 -0.00054835740779192227 0 0.0398375776173122 -0.00038522181399829844 0 0.03981287230677516 -0.00040530803580654539 0 0.0398375776173122 -0.00038522181399829844 0 0.037437205096144295 -0.00023261231484444678 0 0.0398375776173122 -0.00038522181399829844 0 0.037437205096144295 -0.00023261231484444678 0 0.039083440752077009 -0.00012410305844904579 0 0.039083440752077009 -0.00012410305844904579 0 0.038646065312966882 0.0007665773553724995 0 0.03769569617148031 4.9049024098379356e-05 0 0.039083440752077009 -0.00012410305844904579 0 0.03769569617148031 4.9049024098379356e-05 0 0.038671168628969917 -0.00027925182249520237 0 0.038646065312966882 0.0007665773553724995 0 0.038059284659772236 0.00081811728592495585 0 0.03769569617148031 4.9049024098379356e-05 0 0.039302355480815419 -0.00012852655765375977 0 0.039837173112483408 5.8737860375823141e-05 0 0.0398375776173122 -0.00038522181399829844 0 0.039083440752077009 -0.00012410305844904579 0 0.041080965230860099 -0.00047241315419774835 0 0.041738959255199409 -0.00054835740779192227 0 0.0398375776173122 -0.00038522181399829844 0 0.041080965230860099 -0.00047241315419774835 0 0.041738959255199409 -0.00054835740779192227 0 0.041080965230860099 -0.00047241315419774835 0 0.041948172168879465 -0.00082856533181351337 0 0.043240444832861512 -0.0001737648814639122 0 0.041738959255199409 -0.00054835740779192227 0 0.041948172168879465 -0.00082856533181351337 0 0.040747366586104797 0.00022618734913083737 0 0.043240444832861512 -0.0001737648814639122 0 0.041948172168879465 -0.00082856533181351337 0 0.039668598672866276 0.00095773723243052584 0 0.040130936989388834 0.00025608976785815231 0 0.039837173112483408 5.8737860375823141e-05 0 0.040130936989388834 0.00025608976785815231 0 0.038646065312966882 0.0007665773553724995 0 0.038452577841113236 0.0013265560127138051 0 0.038059284659772236 0.00081811728592495585 0 0.038232330589069517 0.0014967010784612226 0 0.03756824809780919 0.00070538401262154236 0 0.038059284659772236 0.00081811728592495585 0 0.038452577841113236 0.0013265560127138051 0 0.038232330589069517 0.0014967010784612226 0 0.038059284659772236 0.00081811728592495585 0 0.038577288147437626 0.0015220956689950336 0 0.038452577841113236 0.0013265560127138051 0 0.038232330589069517 0.0014967010784612226 0 0.038669082645589568 0.0015060382834080704 0 0.038232330589069517 0.0014967010784612226 0 0.038747851835447142 0.0016921685342051298 0 0.038147199268918172 0.0014652958230255725 0 0.038012724570716278 0.0016922472567582319 0 0.038232330589069517 0.0014967010784612226 0 0.03756824809780919 0.00070538401262154236 0 0.036951432190976803 0.0013961194560945336 0 0.03756824809780919 0.00070538401262154236 0 0.038059284659772236 0.00081811728592495585 0 0.03769569617148031 4.9049024098379356e-05 0 0.03769569617148031 4.9049024098379356e-05 0 0.037317658482357824 0.00019395914894332458 0 0.037324109602249009 -3.5181544842916806e-06 0 0.03756824809780919 0.00070538401262154236 0 0.03769569617148031 4.9049024098379356e-05 0 0.037317658482357824 0.00019395914894332458 0 0.037324109602249009 -3.5181544842916806e-06 0 0.037632674461063449 0.00049729775098693372 0 0.036700506683746963 0.00035169657654780611 0 0.037317658482357824 0.00019395914894332458 0 0.037324109602249009 -3.5181544842916806e-06 0 0.037194547979317635 -6.2264755307652307e-07 0 0.037324109602249009 -3.5181544842916806e-06 0 0.037632674461063449 0.00049729775098693372 0 0.037194547979317635 -6.2264755307652307e-07 0 0.037632674461063449 0.00049729775098693372 0 0.036893796091131921 0.001186247791610869 0 0.036700506683746963 0.00035169657654780611 0 0.03680631252332494 -0.00050212105661180055 0 0.036370117850465011 -0.00028921235223347466 0 0.036734690585347229 -0.00044215099681915699 0 0.037632674461063449 0.00049729775098693372 0 0.037652516593283968 0.0017605641988840944 0 0.036893796091131921 0.001186247791610869 0 0.037199263226076584 5.9804779464582985e-05 0 0.037003075935750668 0.00075984048374685726 0 0.037652516593283968 0.0017605641988840944 0 0.036893796091131921 0.001186247791610869 0 0.03648362356443724 0.0025353631521507353 0 0.036002813270824059 0.0012875159205639965 0 0.036623231967843173 0.00040002928444005852 0 0.036192996311531028 0.0011809811309319595 0 0.03591130237960212 0.00044410815813434879 0 0.036700506683746963 0.00035169657654780611 0 0.036893796091131921 0.001186247791610869 0 0.035777983603348967 0.0013665349547782265 0 0.036700506683746963 0.00035169657654780611 0 0.036893796091131921 0.001186247791610869 0 0.035777983603348967 0.0013665349547782265 0 0.03648362356443724 0.0025353631521507353 0 0.036192996311531028 0.0011809811309319595 0 0.03484193516234186 0.0011759040402126374 0 0.035437533265714319 0.0026630728379438517 0 0.036192996311531028 0.0011809811309319595 0 0.03591130237960212 0.00044410815813434879 0 0.03484193516234186 0.0011759040402126374 0 0.03591130237960212 0.00044410815813434879 0 0.036495467275641298 -0.00020333218421000486 0 0.03514965070279736 7.5068564923849718e-05 0 0.037512901452023045 -0.0001856845028146693 0 0.036103816928537265 0.0002472361060907664 0 0.037324109602249009 -3.5181544842916806e-06 0 0.036700506683746963 0.00035169657654780611 0 0.036495467275641298 -0.00020333218421000486 0 0.03591130237960212 0.00044410815813434879 0 0.036700506683746963 0.00035169657654780611 0 0.036495467275641298 -0.00020333218421000486 0 0.03769569617148031 4.9049024098379356e-05 0 0.037324109602249009 -3.5181544842916806e-06 0 0.036495467275641298 -0.00020333218421000486 0 0.037624114091876569 4.6949906930765318e-05 0 0.037512901452023045 -0.0001856845028146693 0 0.039083440752077009 -0.00012410305844904579 0 0.038671168628969917 -0.00027925182249520237 0 0.037863827273606092 -0.00010858730141278149 0 0.037437205096144295 -0.00023261231484444678 0 0.039083440752077009 -0.00012410305844904579 0 0.037863827273606092 -0.00010858730141278149 0 0.038671168628969917 -0.00027925182249520237 0 0.037863827273606092 -0.00010858730141278149 0 0.037158312214051095 0.00057033661157226056 0 0.037437205096144295 -0.00023261231484444678 0 0.037863827273606092 -0.00010858730141278149 0 0.034740718980348792 7.5605939678394997e-05 0 0.037863827273606092 -0.00010858730141278149 0 0.037158312214051095 0.00057033661157226056 0 0.034740718980348792 7.5605939678394997e-05 0 0.03514965070279736 7.5068564923849718e-05 0 0.03484193516234186 0.0011759040402126374 0 0.033971391066036215 0.00062658960053560127 0 0.03591130237960212 0.00044410815813434879 0 0.03514965070279736 7.5068564923849718e-05 0 0.03484193516234186 0.0011759040402126374 0 0.033971391066036215 0.00062658960053560127 0 0.031883315681993901 0.0015464006748901558 0 0.033544175272389579 0.0015681238041795615 0 0.03484193516234186 0.0011759040402126374 0 0.033971391066036215 0.00062658960053560127 0 0.033544175272389579 0.0015681238041795615 0 0.037158312214051095 0.00057033661157226056 0 0.033971391066036215 0.00062658960053560127 0 0.034740718980348792 7.5605939678394997e-05 0 0.036103816928537265 0.0002472361060907664 0 0.034284135205979047 0.00066840668094193811 0 0.033971391066036215 0.00062658960053560127 0 0.027048935026620292 7.5840541517590281e-06 0 0.031883315681993901 0.0015464006748901558 0 0.033615964587641003 -2.748296043454164e-06 0 0.034740718980348792 7.5605939678394997e-05 0 0.027048935026620292 7.5840541517590281e-06 0 0.033971391066036215 0.00062658960053560127 0 0.034740718980348792 7.5605939678394997e-05 0 0.027048935026620292 7.5840541517590281e-06 0 0.037437205096144295 -0.00023261231484444678 0 0.033615964587641003 -2.748296043454164e-06 0 0.034740718980348792 7.5605939678394997e-05 0 0.036618666858591969 -0.0020978405945252638 0 0.0372637061891853 -0.002112795534044152 0 0.037071308402371606 -0.0026329439710633131 0 0.036618666858591969 -0.0020978405945252638 0 0.03692344172292316 -0.0013048985961308709 0 0.0372637061891853 -0.002112795534044152 0 0.036418001167211562 -0.001735471128410602 0 0.035950761788118825 -0.0017267049851946924 0 0.036077354836155338 -0.0021361454942776781 0 0.036418001167211562 -0.001735471128410602 0 0.035950761788118825 -0.0017267049851946924 0 0.036064421012872119 -0.0014125791982935836 0 0.035950761788118825 -0.0017267049851946924 0 0.036064421012872119 -0.0014125791982935836 0 0.035777722521307447 -0.00137340337191104 0 0.036418001167211562 -0.001735471128410602 0 0.036064421012872119 -0.0014125791982935836 0 0.036379969149406242 -0.0011796178086495278 0 0.036064421012872119 -0.0014125791982935836 0 0.035924321747723212 -0.0010502696477623845 0 0.035777722521307447 -0.00137340337191104 0 0.036064421012872119 -0.0014125791982935836 0 0.035924321747723212 -0.0010502696477623845 0 0.036379969149406242 -0.0011796178086495278 0 0.035840458785035313 -0.0025532414760990958 0 0.037146062823843293 -0.0010458763019050698 0 0.036418001167211562 -0.001735471128410602 0 0.036379969149406242 -0.0011796178086495278 0 0.03692344172292316 -0.0013048985961308709 0 0.03692344172292316 -0.0013048985961308709 0 0.037743939470004359 -0.0017955482360970242 0 0.037610977590362166 -0.0010544971951555961 0 0.03692344172292316 -0.0013048985961308709 0 0.037743939470004359 -0.0017955482360970242 0 0.0372637061891853 -0.002112795534044152 0 0.038223492656734359 -0.0014828875343851639 0 0.038502925293377746 -0.0020807970646896366 0 0.037743939470004359 -0.0017955482360970242 0 0.038223492656734359 -0.0014828875343851639 0 0.037743939470004359 -0.0017955482360970242 0 0.037610977590362166 -0.0010544971951555961 0 0.038502925293377746 -0.0020807970646896366 0 0.037743939470004359 -0.0017955482360970242 0 0.038053685359698428 -0.0026723291243728824 0 0.037743939470004359 -0.0017955482360970242 0 0.0372637061891853 -0.002112795534044152 0 0.038053685359698428 -0.0026723291243728824 0 0.0372637061891853 -0.002112795534044152 0 0.037071308402371606 -0.0026329439710633131 0 0.038053685359698428 -0.0026723291243728824 0 0.044617412654924131 -0.0011228475510212214 0 0.044522029547154819 -0.0010346345952025205 0 0.050928749933396973 0.00050921984300696414 0 0.051092156228799604 0.00042113630208054224 0 0.051247187540810243 0.00060331481476031019 0 0.050928749933396973 0.00050921984300696414 0 0.051092156228799604 0.00042113630208054224 0 0.050942394377149446 0.00035395663494862671 0 0.051525333071391198 0.00023639878451715284 0 0.051092156228799604 0.00042113630208054224 0 0.051247187540810243 0.00060331481476031019 0 0.051525333071391198 0.00023639878451715284 0 0.051092156228799604 0.00042113630208054224 0 0.051065772575735302 0.0002476132738519345 0 0.052329479195917829 0.00036882595325954165 0 0.052220782557032421 0.00015326628154360946 0 0.051976383239632384 0.00044527089680810336 0 0.051936678137760615 0.00032305077884283925 0 0.051508723799734986 0.00032920100067977334 0 0.051092156228799604 0.00042113630208054224 0 0.051065772575735302 0.0002476132738519345 0 0.050942394377149446 0.00035395663494862671 0 0.051024048692006052 0.00022389494734753376 0 0.051065772575735302 0.0002476132738519345 0 0.050942394377149446 0.00035395663494862671 0 0.051024048692006052 0.00022389494734753376 0 0.050942394377149446 0.00035395663494862671 0 0.050896090199991674 0.00031803475022283901 0 0.050942394377149446 0.00035395663494862671 0 0.050896090199991674 0.00031803475022283901 0 0.050633316536635789 0.00056063692414649749 0 0.036618666858591969 -0.0020978405945252638 0 0.037071308402371606 -0.0026329439710633131 0 0.036314989324721401 -0.0026472946183214567 0 0.044617412654924131 -0.0011228475510212214 0 0.040637097570781704 -0.00016660347893496461 0 0.050928749933396973 0.00050921984300696414 0 0.050942394377149446 0.00035395663494862671 0 0.050633316536635789 0.00056063692414649749 0 0.035950761788118825 -0.0017267049851946924 0 0.036077354836155338 -0.0021361454942776781 0 0.035740424688004306 -0.0019291554476471636 0 0.035840458785035313 -0.0025532414760990958 0 0.040637097570781704 -0.00016660347893496461 0 0.050633316536635789 0.00056063692414649749 0 0.050553636490599026 0.00025940711702344228 0 0.050235153618026898 0.00020093209874248681 0 0.050633316536635789 0.00056063692414649749 0 0.050757703604469045 0.00031540637332336848 0 0.050553636490599026 0.00025940711702344228 0 0.050896090199991674 0.00031803475022283901 0 0.050633316536635789 0.00056063692414649749 0 0.050757703604469045 0.00031540637332336848 0 0.050848374139679055 0.00028955060427837703 0 0.050896090199991674 0.00031803475022283901 0 0.050757703604469045 0.00031540637332336848 0 0.050583719783906564 6.5904655944683686e-05 0 0.050757703604469045 0.00031540637332336848 0 0.050553636490599026 0.00025940711702344228 0 0.050502511100782119 8.3085468592440209e-05 0 0.050553636490599026 0.00025940711702344228 0 0.050235153618026898 0.00020093209874248681 0 0.040637097570781704 -0.00016660347893496461 0 0.044754871100695266 0.0012496107018871013 0 0.039222222725848487 0.0017995108893528134 0 0.039060659988429398 0.0016314341770249144 0 0.039026388034269027 0.0017272444395988237 0 0.039026388034269027 0.0017272444395988237 0 0.038958252300610868 0.0016718554034181872 0 0.03894872857808427 0.001720674208717863 0 0.039060659988429398 0.0016314341770249144 0 0.039026388034269027 0.0017272444395988237 0 0.038958252300610868 0.0016718554034181872 0 0.038910318419109878 0.0016262432173808064 0 0.038958252300610868 0.0016718554034181872 0 0.038893652531978046 0.0016578548747432384 0 0.038910318419109878 0.0016262432173808064 0 0.039060659988429398 0.0016314341770249144 0 0.038958252300610868 0.0016718554034181872 0 0.038895937759912659 0.0017055650210097051 0 0.038897920633757667 0.0017387733656467619 0 0.038747851835447142 0.0016921685342051298 0 0.038958252300610868 0.0016718554034181872 0 0.038893652531978046 0.0016578548747432384 0 0.038895937759912659 0.0017055650210097051 0 0.038893652531978046 0.0016578548747432384 0 0.038895937759912659 0.0017055650210097051 0 0.038826895730401448 0.0016447037876974916 0 0.038910318419109878 0.0016262432173808064 0 0.038893652531978046 0.0016578548747432384 0 0.038826895730401448 0.0016447037876974916 0 0.039026388034269027 0.0017272444395988237 0 0.03894872857808427 0.001720674208717863 0 0.038911480136302558 0.0017880154203295656 0 0.038958252300610868 0.0016718554034181872 0 0.03894872857808427 0.001720674208717863 0 0.038895937759912659 0.0017055650210097051 0 0.03894872857808427 0.001720674208717863 0 0.038895937759912659 0.0017055650210097051 0 0.038911480136302558 0.0017880154203295656 0 0.037865482099544948 0.0017428028997425935 0 0.036926893986369232 0.00047219057450763075 0 0.03614376841923285 0.0012867192414260525 0 0.036441101208264402 0.00090091331887550959 0 0.036024111305001251 0.00065676903658715949 0 0.036926893986369232 0.00047219057450763075 0 0.035614447136813575 -0.00069985205537703948 0 0.039222222725848487 0.0017995108893528134 0 0.039026388034269027 0.0017272444395988237 0 0.038911480136302558 0.0017880154203295656 0 0.035415044060088628 -0.0021794550270540516 0 0.035740424688004306 -0.0019291554476471636 0 0.035473379096269422 -0.0016424674985784256 0 0.036077354836155338 -0.0021361454942776781 0 0.035415044060088628 -0.0021794550270540516 0 0.035740424688004306 -0.0019291554476471636 0 0.040637097570781704 -0.00016660347893496461 0 0.036926893986369232 0.00047219057450763075 0 0.038740620681458802 0.0015708799156053058 0 0.038669082645589568 0.0015060382834080704 0 0.038747851835447142 0.0016921685342051298 0 0.038740620681458802 0.0015708799156053058 0 0.038747851835447142 0.0016921685342051298 0 0.038826895730401448 0.0016447037876974916 0 0.038895937759912659 0.0017055650210097051 0 0.038747851835447142 0.0016921685342051298 0 0.038826895730401448 0.0016447037876974916 0 0.03614376841923285 0.0012867192414260525 0 0.036951432190976803 0.0013961194560945336 0 0.036441101208264402 0.00090091331887550959 0 0.036926893986369232 0.00047219057450763075 0 0.038012724570716278 0.0016922472567582319 0 0.036951432190976803 0.0013961194560945336 0 0.036813981746189481 0.0005685462459179742 0 0.036441101208264402 0.00090091331887550959 0 0.03756824809780919 0.00070538401262154236 0 0.036951432190976803 0.0013961194560945336 0 0.036813981746189481 0.0005685462459179742 0 0.03756824809780919 0.00070538401262154236 0 0.037317658482357824 0.00019395914894332458 0 0.036813981746189481 0.0005685462459179742 0 0.036813981746189481 0.0005685462459179742 0 0.036441101208264402 0.00090091331887550959 0 0.036353784936750649 0.00052511919859713093 0 0.036813981746189481 0.0005685462459179742 0 0.036494021768216478 0.00027481991382340007 0 0.036353784936750649 0.00052511919859713093 0 0.036813981746189481 0.0005685462459179742 0 0.036494021768216478 0.00027481991382340007 0 0.036906231944183084 0.00020895661081643763 0 0.037317658482357824 0.00019395914894332458 0 0.036813981746189481 0.0005685462459179742 0 0.036906231944183084 0.00020895661081643763 0 0.035950761788118825 -0.0017267049851946924 0 0.035473379096269422 -0.0016424674985784256 0 0.035777722521307447 -0.00137340337191104 0 0.035950761788118825 -0.0017267049851946924 0 0.035740424688004306 -0.0019291554476471636 0 0.035473379096269422 -0.0016424674985784256 0 0.036441101208264402 0.00090091331887550959 0 0.036024111305001251 0.00065676903658715949 0 0.036353784936750649 0.00052511919859713093 0 0.036024111305001251 0.00065676903658715949 0 0.036088538519468798 0.00027777811111522245 0 0.035931208965165676 0.00022661123474994107 0 0.036024111305001251 0.00065676903658715949 0 0.036353784936750649 0.00052511919859713093 0 0.036088538519468798 0.00027777811111522245 0 0.036494021768216478 0.00027481991382340007 0 0.036353784936750649 0.00052511919859713093 0 0.036088538519468798 0.00027777811111522245 0 0.035614447136813575 -0.00069985205537703948 0 0.035721241942802642 -0.00032164489715587509 0 0.035473379096269422 -0.0016424674985784256 0 0.035777722521307447 -0.00137340337191104 0 0.035484315618701259 -0.00098525632035935114 0 0.035924321747723212 -0.0010502696477623845 0 0.035777722521307447 -0.00137340337191104 0 0.035484315618701259 -0.00098525632035935114 0 0.035795659799600976 -0.00063672526910713511 0 0.035484315618701259 -0.00098525632035935114 0 0.035549495693442568 -0.00017078615438122823 0 0.035721241942802642 -0.00032164489715587509 0 0.035675715111107779 2.1299528049878794e-05 0 0.035924321747723212 -0.0010502696477623845 0 0.035795659799600976 -0.00063672526910713511 0 0.035484315618701259 -0.00098525632035935114 0 0.036088538519468798 0.00027777811111522245 0 0.036248511882416491 4.4521170805482296e-05 0 0.035835078555728796 -0.00018399144343302757 0 0.036031820385463882 0.00025959589582105443 0 0.035739505270005655 -1.1345313510582806e-05 0 0.036088538519468798 0.00027777811111522245 0 0.035703361132832789 -0.00026466885393453145 0 0.035835078555728796 -0.00018399144343302757 0 0.036088538519468798 0.00027777811111522245 0 0.035931208965165676 0.00022661123474994107 0 0.035765816331186515 0.000200552664813691 0 0.036494021768216478 0.00027481991382340007 0 0.036088538519468798 0.00027777811111522245 0 0.036248511882416491 4.4521170805482296e-05 0 0.036248511882416491 4.4521170805482296e-05 0 0.035835078555728796 -0.00018399144343302757 0 0.036288643326556957 -0.00012637842765502998 0 0.035795444890691759 -0.00015123601392370338 0 0.03577928241515857 -0.00024824412348529936 0 0.035703361132832789 -0.00026466885393453145 0 0.035835078555728796 -0.00018399144343302757 0 0.034972262925311082 -5.6708878215654116e-05 0 0.035835078555728796 -0.00018399144343302757 0 0.03647287982737283 -0.00032300923673707382 0 0.036618172549124972 -0.00056042675242468976 0 0.035835078555728796 -0.00018399144343302757 0 0.036288643326556957 -0.00012637842765502998 0 0.03647287982737283 -0.00032300923673707382 0 0.035931208965165676 0.00022661123474994107 0 0.035765816331186515 0.000200552664813691 0 0.035789819462587386 0.0002245045270031582 0 0.035765816331186515 0.000200552664813691 0 0.035789819462587386 0.0002245045270031582 0 0.035707260509540831 0.00041952636981166668 0 0.035549495693442568 -0.00017078615438122823 0 0.035873660844628952 0.00027835441643905395 0 0.035867652186187156 -1.041091088178427e-06 0 0.035795659799600976 -0.00063672526910713511 0 0.035549495693442568 -0.00017078615438122823 0 0.035949190587692893 -0.00027360916257153942 0 0.037317658482357824 0.00019395914894332458 0 0.036906231944183084 0.00020895661081643763 0 0.037194547979317635 -6.2264755307652307e-07 0 0.036906231944183084 0.00020895661081643763 0 0.037194547979317635 -6.2264755307652307e-07 0 0.036587233851774835 -2.9873877623098587e-05 0 0.037194547979317635 -6.2264755307652307e-07 0 0.036587233851774835 -2.9873877623098587e-05 0 0.03680247589546564 -0.0002810378137702466 0 0.036494021768216478 0.00027481991382340007 0 0.036906231944183084 0.00020895661081643763 0 0.036587233851774835 -2.9873877623098587e-05 0 0.036494021768216478 0.00027481991382340007 0 0.036248511882416491 4.4521170805482296e-05 0 0.036587233851774835 -2.9873877623098587e-05 0 0.036248511882416491 4.4521170805482296e-05 0 0.036288643326556957 -0.00012637842765502998 0 0.036587233851774835 -2.9873877623098587e-05 0 0.036288643326556957 -0.00012637842765502998 0 0.036587233851774835 -2.9873877623098587e-05 0 0.03647287982737283 -0.00032300923673707382 0 0.03647287982737283 -0.00032300923673707382 0 0.03680247589546564 -0.0002810378137702466 0 0.036739641754892138 -0.00045649854379306299 0 0.036587233851774835 -2.9873877623098587e-05 0 0.03647287982737283 -0.00032300923673707382 0 0.03680247589546564 -0.0002810378137702466 0 0.037199263226076584 5.9804779464582985e-05 0 0.037188599174096941 4.2761407307760259e-05 0 0.03680631252332494 -0.00050212105661180055 0 0.037194547979317635 -6.2264755307652307e-07 0 0.03680247589546564 -0.0002810378137702466 0 0.03680631252332494 -0.00050212105661180055 0 0.036739641754892138 -0.00045649854379306299 0 0.036734690585347229 -0.00044215099681915699 0 0.03680631252332494 -0.00050212105661180055 0 0.03680247589546564 -0.0002810378137702466 0 0.036739641754892138 -0.00045649854379306299 0 0.036739641754892138 -0.00045649854379306299 0 0.036618172549124972 -0.00056042675242468976 0 0.036734690585347229 -0.00044215099681915699 0 0.03647287982737283 -0.00032300923673707382 0 0.036739641754892138 -0.00045649854379306299 0 0.036618172549124972 -0.00056042675242468976 0 0.03577928241515857 -0.00024824412348529936 0 0.03555970804142191 0.0002202662362570153 0 0.036618172549124972 -0.00056042675242468976 0 0.036734690585347229 -0.00044215099681915699 0 0.036881302324441367 -0.00020499384842368007 0 0.034972262925311082 -5.6708878215654116e-05 0 0.034907583786127801 0.00055270638194075618 0 0.034271161237365615 0.00060209416761213225 0 0.036370117850465011 -0.00028921235223347466 0 0.036734690585347229 -0.00044215099681915699 0 0.036881302324441367 -0.00020499384842368007 0 0.035739505270005655 -1.1345313510582806e-05 0 0.035483243277251636 0.00036917259095762493 0 0.035765816331186515 0.000200552664813691 0 0.035707260509540831 0.00041952636981166668 0 0.035554141684748297 0.00061436343850847024 0 0.035675715111107779 2.1299528049878794e-05 0 0.035739765469693784 0.0005508379553664912 0 0.035549495693442568 -0.00017078615438122823 0 0.035741198385300342 0.00059753000942064599 0 0.035873660844628952 0.00027835441643905395 0 0.035789819462587386 0.0002245045270031582 0 0.035707260509540831 0.00041952636981166668 0 0.035741198385300342 0.00059753000942064599 0 0.035707260509540831 0.00041952636981166668 0 0.035554141684748297 0.00061436343850847024 0 0.035741198385300342 0.00059753000942064599 0 0.035703361132832789 -0.00026466885393453145 0 0.034972262925311082 -5.6708878215654116e-05 0 0.035374200272973846 0.00013931828853469579 0 0.034972262925311082 -5.6708878215654116e-05 0 0.035374200272973846 0.00013931828853469579 0 0.034907583786127801 0.00055270638194075618 0 0.035483243277251636 0.00036917259095762493 0 0.035450026631253719 0.0010564264016384528 0 0.035554141684748297 0.00061436343850847024 0 0.035741198385300342 0.00059753000942064599 0 0.035881195366101536 0.00093079221968386686 0 0.035554141684748297 0.00061436343850847024 0 0.035881195366101536 0.00093079221968386686 0 0.035560065152797887 0.0012271388966564008 0 0.035881195366101536 0.00093079221968386686 0 0.036176784894375418 0.000595020282739734 0 0.036429540974715631 0.0011505190715025769 0 0.035741198385300342 0.00059753000942064599 0 0.035881195366101536 0.00093079221968386686 0 0.036176784894375418 0.000595020282739734 0 0.036176784894375418 0.000595020282739734 0 0.036658458972597861 0.00068104749607511897 0 0.036429540974715631 0.0011505190715025769 0 0.036176784894375418 0.000595020282739734 0 0.03654819105756122 0.00011184319207030007 0 0.036658458972597861 0.00068104749607511897 0 0.036176784894375418 0.000595020282739734 0 0.03654819105756122 0.00011184319207030007 0 0.036116745101419316 0.00010187316733001431 0 0.035741198385300342 0.00059753000942064599 0 0.036176784894375418 0.000595020282739734 0 0.035873660844628952 0.00027835441643905395 0 0.036176784894375418 0.000595020282739734 0 0.036116745101419316 0.00010187316733001431 0 0.035873660844628952 0.00027835441643905395 0 0.036116745101419316 0.00010187316733001431 0 0.035873660844628952 0.00027835441643905395 0 0.035867652186187156 -1.041091088178427e-06 0 0.036116745101419316 0.00010187316733001431 0 0.035867652186187156 -1.041091088178427e-06 0 0.035949190587692893 -0.00027360916257153942 0 0.035549495693442568 -0.00017078615438122823 0 0.035867652186187156 -1.041091088178427e-06 0 0.035949190587692893 -0.00027360916257153942 0 0.035949190587692893 -0.00027360916257153942 0 0.03630856623050651 -0.00027072175970595193 0 0.036172291445205396 -0.00071729646935795167 0 0.036116745101419316 0.00010187316733001431 0 0.035949190587692893 -0.00027360916257153942 0 0.03630856623050651 -0.00027072175970595193 0 0.03654819105756122 0.00011184319207030007 0 0.03630856623050651 -0.00027072175970595193 0 0.03678477548392875 -0.00059960560099857254 0 0.03654819105756122 0.00011184319207030007 0 0.036116745101419316 0.00010187316733001431 0 0.03630856623050651 -0.00027072175970595193 0 0.036379969149406242 -0.0011796178086495278 0 0.03678477548392875 -0.00059960560099857254 0 0.036172291445205396 -0.00071729646935795167 0 0.036379969149406242 -0.0011796178086495278 0 0.03692344172292316 -0.0013048985961308709 0 0.03678477548392875 -0.00059960560099857254 0 0.03630856623050651 -0.00027072175970595193 0 0.03678477548392875 -0.00059960560099857254 0 0.036172291445205396 -0.00071729646935795167 0 0.035924321747723212 -0.0010502696477623845 0 0.036379969149406242 -0.0011796178086495278 0 0.036172291445205396 -0.00071729646935795167 0 0.035924321747723212 -0.0010502696477623845 0 0.035795659799600976 -0.00063672526910713511 0 0.036172291445205396 -0.00071729646935795167 0 0.035795659799600976 -0.00063672526910713511 0 0.035949190587692893 -0.00027360916257153942 0 0.036172291445205396 -0.00071729646935795167 0 0.03843885517653807 -0.00083726041494586656 0 0.038223492656734359 -0.0014828875343851639 0 0.037610977590362166 -0.0010544971951555961 0 0.03843885517653807 -0.00083726041494586656 0 0.037610977590362166 -0.0010544971951555961 0 0.037709443810778003 -0.00030745207018707956 0 0.03692344172292316 -0.0013048985961308709 0 0.03678477548392875 -0.00059960560099857254 0 0.037610977590362166 -0.0010544971951555961 0 0.03678477548392875 -0.00059960560099857254 0 0.037610977590362166 -0.0010544971951555961 0 0.037709443810778003 -0.00030745207018707956 0 0.03678477548392875 -0.00059960560099857254 0 0.037709443810778003 -0.00030745207018707956 0 0.037100181160611603 0.00020645327022088741 0 0.03654819105756122 0.00011184319207030007 0 0.03678477548392875 -0.00059960560099857254 0 0.037100181160611603 0.00020645327022088741 0 0.037709443810778003 -0.00030745207018707956 0 0.037771768886802601 0.00048488289865285852 0 0.037100181160611603 0.00020645327022088741 0 0.037771768886802601 0.00048488289865285852 0 0.037100181160611603 0.00020645327022088741 0 0.037116925460892063 0.0011771143365137365 0 0.03654819105756122 0.00011184319207030007 0 0.037100181160611603 0.00020645327022088741 0 0.036658458972597861 0.00068104749607511897 0 0.037100181160611603 0.00020645327022088741 0 0.036658458972597861 0.00068104749607511897 0 0.037116925460892063 0.0011771143365137365 0 0.036658458972597861 0.00068104749607511897 0 0.037116925460892063 0.0011771143365137365 0 0.036429540974715631 0.0011505190715025769 0 0.038648460184450867 0.0015595959567925785 0 0.037771768886802601 0.00048488289865285852 0 0.037116925460892063 0.0011771143365137365 0 0.037116925460892063 0.0011771143365137365 0 0.036911006356649761 0.0013240587318466581 0 0.036791536840461492 0.0014047416533423847 0 0.037116925460892063 0.0011771143365137365 0 0.036791536840461492 0.0014047416533423847 0 0.036429540974715631 0.0011505190715025769 0 0.036791536840461492 0.0014047416533423847 0 0.036252295300470104 0.0016183167978675338 0 0.036429540974715631 0.0011505190715025769 0 0.036791536840461492 0.0014047416533423847 0 0.036753112730383335 0.0017102323031796822 0 0.036252295300470104 0.0016183167978675338 0 0.036791536840461492 0.0014047416533423847 0 0.036753112730383335 0.0017102323031796822 0 0.036742231750253734 0.0014786933250961608 0 0.036911006356649761 0.0013240587318466581 0 0.036791536840461492 0.0014047416533423847 0 0.036742231750253734 0.0014786933250961608 0 0.036343837129749444 0.0017612638124686717 0 0.036694969756726502 0.0015073320972896578 0 0.035949304676825694 0.0017886979506125372 0 0.036742231750253734 0.0014786933250961608 0 0.036726886926209207 0.0016718421485112122 0 0.035949304676825694 0.0017886979506125372 0 0.036231162721646976 0.0021465340846718987 0 0.036726886926209207 0.0016718421485112122 0 0.036343837129749444 0.0017612638124686717 0 0.035856123584557094 0.00215452768906047 0 0.036753112730383335 0.0017102323031796822 0 0.036328557681537303 0.0021317524414627225 0 0.036252295300470104 0.0016183167978675338 0 0.035813209715833579 0.0022809526453797936 0 0.035386940484336639 0.00217299032090471 0 0.035470678615957672 0.0026855671435964783 0 0.035949304676825694 0.0017886979506125372 0 0.035813209715833579 0.0022809526453797936 0 0.035386940484336639 0.00217299032090471 0 0.035949304676825694 0.0017886979506125372 0 0.035813209715833579 0.0022809526453797936 0 0.036231162721646976 0.0021465340846718987 0 0.035813209715833579 0.0022809526453797936 0 0.036231162721646976 0.0021465340846718987 0 0.036022182214062275 0.002557993411592708 0 0.035792567477774498 0.0020717575665584317 0 0.036328557681537303 0.0021317524414627225 0 0.035702693097507905 0.0026039590920395768 0 0.035792567477774498 0.0020717575665584317 0 0.035156840096795733 0.0023980391915773783 0 0.035702693097507905 0.0026039590920395768 0 0.035856123584557094 0.00215452768906047 0 0.03532526185424216 0.0025877145696999778 0 0.035792567477774498 0.0020717575665584317 0 0.036328557681537303 0.0021317524414627225 0 0.036252295300470104 0.0016183167978675338 0 0.035792567477774498 0.0020717575665584317 0 0.036252295300470104 0.0016183167978675338 0 0.035421291641502699 0.0017303874061081214 0 0.036252295300470104 0.0016183167978675338 0 0.035923781565262866 0.001349173986116211 0 0.035421291641502699 0.0017303874061081214 0 0.036252295300470104 0.0016183167978675338 0 0.035923781565262866 0.001349173986116211 0 0.036429540974715631 0.0011505190715025769 0 0.035881195366101536 0.00093079221968386686 0 0.035923781565262866 0.001349173986116211 0 0.035560065152797887 0.0012271388966564008 0 0.035881195366101536 0.00093079221968386686 0 0.035923781565262866 0.001349173986116211 0 0.036429540974715631 0.0011505190715025769 0 0.035374200272973846 0.00013931828853469579 0 0.03535265594255526 0.00086165279649271984 0 0.034907583786127801 0.00055270638194075618 0 0.03535265594255526 0.00086165279649271984 0 0.034907583786127801 0.00055270638194075618 0 0.034550656333656782 0.0013180443073353963 0 0.035923781565262866 0.001349173986116211 0 0.035560065152797887 0.0012271388966564008 0 0.035421291641502699 0.0017303874061081214 0 0.03535265594255526 0.00086165279649271984 0 0.034550656333656782 0.0013180443073353963 0 0.035421291641502699 0.0017303874061081214 0 0.035450026631253719 0.0010564264016384528 0 0.035442699935580212 0.0016984194943027461 0 0.036370117850465011 -0.00028921235223347466 0 0.036881302324441367 -0.00020499384842368007 0 0.036667123788476343 0.00054178967185769999 0 0.034907583786127801 0.00055270638194075618 0 0.034550656333656782 0.0013180443073353963 0 0.034271161237365615 0.00060209416761213225 0 0.034550656333656782 0.0013180443073353963 0 0.034271161237365615 0.00060209416761213225 0 0.033757838693100825 0.0013523744700734436 0 0.03555970804142191 0.0002202662362570153 0 0.035226523707590801 0.00094267670746982116 0 0.033757838693100825 0.0013523744700734436 0 0.033918151107024404 0.0017218753506185517 0 0.03356383904401302 0.0018768080483293139 0 0.034550656333656782 0.0013180443073353963 0 0.033918151107024404 0.0017218753506185517 0 0.034197278933698297 0.0019321436271836376 0 0.034550656333656782 0.0013180443073353963 0 0.033757838693100825 0.0013523744700734436 0 0.033918151107024404 0.0017218753506185517 0 0.033918151107024404 0.0017218753506185517 0 0.034197278933698297 0.0019321436271836376 0 0.033811300178475334 0.0019337225869113434 0 0.034197278933698297 0.0019321436271836376 0 0.033811300178475334 0.0019337225869113434 0 0.033898224506632067 0.0020149607251756779 0 0.034197278933698297 0.0019321436271836376 0 0.033797877428769045 0.0020416391327529523 0 0.033898224506632067 0.0020149607251756779 0 0.033918151107024404 0.0017218753506185517 0 0.033811300178475334 0.0019337225869113434 0 0.03356383904401302 0.0018768080483293139 0 0.033811300178475334 0.0019337225869113434 0 0.033672221872471174 0.0019697187200796462 0 0.03356383904401302 0.0018768080483293139 0 0.034550656333656782 0.0013180443073353963 0 0.034197278933698297 0.0019321436271836376 0 0.034829034807237216 0.0020204422045934814 0 0.034550656333656782 0.0013180443073353963 0 0.035421291641502699 0.0017303874061081214 0 0.034829034807237216 0.0020204422045934814 0 0.034197278933698297 0.0019321436271836376 0 0.034829034807237216 0.0020204422045934814 0 0.03457039426623168 0.0026958250486133865 0 0.034159084833984971 0.0019529944309685378 0 0.034188352860563279 0.0023363183470676593 0 0.034829034807237216 0.0020204422045934814 0 0.035156840096795733 0.0023980391915773783 0 0.03457039426623168 0.0026958250486133865 0 0.035421291641502699 0.0017303874061081214 0 0.034829034807237216 0.0020204422045934814 0 0.035156840096795733 0.0023980391915773783 0 0.035792567477774498 0.0020717575665584317 0 0.035421291641502699 0.0017303874061081214 0 0.035156840096795733 0.0023980391915773783 0 0.034876252594835712 0.0029229382936294015 0 0.03532526185424216 0.0025877145696999778 0 0.035156840096795733 0.0023980391915773783 0 0.03457039426623168 0.0026958250486133865 0 0.034818447022388878 0.0029608587286468046 0 0.035156840096795733 0.0023980391915773783 0 0.034818447022388878 0.0029608587286468046 0 0.035702693097507905 0.0026039590920395768 0 0.033797877428769045 0.0020416391327529523 0 0.033705409704961276 0.0020335317970106306 0 0.033765182382547519 0.0020324130153018005 0 0.03457039426623168 0.0026958250486133865 0 0.03475933453694225 0.0030644156573446019 0 0.034818447022388878 0.0029608587286468046 0 0.034188352860563279 0.0023363183470676593 0 0.034167946094444047 0.0025357739477221077 0 0.033797877428769045 0.0020416391327529523 0 0.033705409704961276 0.0020335317970106306 0 0.03360709087541857 0.0020314529610908844 0 0.033705409704961276 0.0020335317970106306 0 0.033650056520713179 0.002026147933268144 0 0.033644919809861541 0.002023723940523474 0 0.033705409704961276 0.0020335317970106306 0 0.033650056520713179 0.002026147933268144 0 0.03360709087541857 0.0020314529610908844 0 0.03475933453694225 0.0030644156573446019 0 0.034644728333134367 0.0030429021707784778 0 0.034818447022388878 0.0029608587286468046 0 0.034644728333134367 0.0030429021707784778 0 0.034827439266004602 0.0031115692659900323 0 0.034864688570041324 0.0029534185943532079 0 0.034644728333134367 0.0030429021707784778 0 0.034818447022388878 0.0029608587286468046 0 0.034864688570041324 0.0029534185943532079 0 0.033743824269130182 0.0020158612528864504 0 0.033659954933871188 0.0020344594539414376 0 0.033633064832476467 0.0020123012167138484 0 0.033672221872471174 0.0019697187200796462 0 0.033743824269130182 0.0020158612528864504 0 0.033633064832476467 0.0020123012167138484 0 0.033811300178475334 0.0019337225869113434 0 0.033672221872471174 0.0019697187200796462 0 0.033743824269130182 0.0020158612528864504 0 0.033811300178475334 0.0019337225869113434 0 0.033743824269130182 0.0020158612528864504 0 0.033898224506632067 0.0020149607251756779 0 0.033743824269130182 0.0020158612528864504 0 0.033765182382547519 0.0020324130153018005 0 0.033659954933871188 0.0020344594539414376 0 0.033743824269130182 0.0020158612528864504 0 0.033765182382547519 0.0020324130153018005 0 0.033898224506632067 0.0020149607251756779 0 0.033797877428769045 0.0020416391327529523 0 0.033765182382547519 0.0020324130153018005 0 0.033898224506632067 0.0020149607251756779 0 0.033705409704961276 0.0020335317970106306 0 0.033765182382547519 0.0020324130153018005 0 0.033678633189643321 0.0020312877059121136 0 0.033705409704961276 0.0020335317970106306 0 0.033678633189643321 0.0020312877059121136 0 0.033644919809861541 0.002023723940523474 0 0.033765182382547519 0.0020324130153018005 0 0.033678633189643321 0.0020312877059121136 0 0.033659954933871188 0.0020344594539414376 0 0.033678633189643321 0.0020312877059121136 0 0.033659954933871188 0.0020344594539414376 0 0.033616314920842424 0.0020310298216622905 0 0.033659954933871188 0.0020344594539414376 0 0.033616314920842424 0.0020310298216622905 0 0.033570904036747694 0.0020330373770579852 0 0.033565413124171578 0.0020236388541192418 0 0.033570904036747694 0.0020330373770579852 0 0.033528951046276761 0.0020222220327280401 0 0.033565413124171578 0.0020236388541192418 0 0.033616314920842424 0.0020310298216622905 0 0.033570904036747694 0.0020330373770579852 0 0.033565413124171578 0.0020236388541192418 0 0.033616314920842424 0.0020310298216622905 0 0.033592792141908329 0.0020204619492358777 0 0.033565413124171578 0.0020236388541192418 0 0.033592792141908329 0.0020204619492358777 0 0.033528291276457248 0.0020143844168437563 0 0.033678633189643321 0.0020312877059121136 0 0.033616314920842424 0.0020310298216622905 0 0.033592792141908329 0.0020204619492358777 0 0.033678633189643321 0.0020312877059121136 0 0.033592792141908329 0.0020204619492358777 0 0.033644919809861541 0.002023723940523474 0 0.033592792141908329 0.0020204619492358777 0 0.033644919809861541 0.002023723940523474 0 0.033600008260504272 0.0020134773919768512 0 0.033592792141908329 0.0020204619492358777 0 0.033558789058118307 0.0020072431871575218 0 0.033600008260504272 0.0020134773919768512 0 0.033592792141908329 0.0020204619492358777 0 0.033558789058118307 0.0020072431871575218 0 0.033530712917441051 0.0020107826088760984 0 0.033558789058118307 0.0020072431871575218 0 0.033530712917441051 0.0020107826088760984 0 0.033507674907541925 0.0020036772100568991 0 0.033530712917441051 0.0020107826088760984 0 0.033507674907541925 0.0020036772100568991 0 0.033486516188300022 0.0020066211685253396 0 0.033592792141908329 0.0020204619492358777 0 0.033530712917441051 0.0020107826088760984 0 0.033528291276457248 0.0020143844168437563 0 0.033530712917441051 0.0020107826088760984 0 0.033528291276457248 0.0020143844168437563 0 0.033490388609287151 0.00200853586311453 0 0.033528291276457248 0.0020143844168437563 0 0.033503468872593735 0.0020111083582224206 0 0.033490388609287151 0.00200853586311453 0 0.033565413124171578 0.0020236388541192418 0 0.033528951046276761 0.0020222220327280401 0 0.033503468872593735 0.0020111083582224206 0 0.033565413124171578 0.0020236388541192418 0 0.033528291276457248 0.0020143844168437563 0 0.033503468872593735 0.0020111083582224206 0 0.034644728333134367 0.0030429021707784778 0 0.034208907337532853 0.0024516349646103697 0 0.033759119697696384 0.0024041741393631064 0 0.034167946094444047 0.0025357739477221077 0 0.033877211025741961 0.0022404789652923063 0 0.03360709087541857 0.0020314529610908844 0 0.033582040914406926 0.0020069639551348688 0 0.033535529174893643 0.0019808168939005515 0 0.034585068220890407 0.0030365792959366053 0 0.034317201329025521 0.0029332686457751562 0 0.034644728333134367 0.0030429021707784778 0 0.034822763941653866 0.003479006931128245 0 0.034839936306729109 0.0032352051839626048 0 0.03475933453694225 0.0030644156573446019 0 0.034644728333134367 0.0030429021707784778 0 0.034208907337532853 0.0024516349646103697 0 0.033582040914406926 0.0020069639551348688 0 0.033572799368426755 0.0020025164393140849 0 0.033535529174893643 0.0019808168939005515 0 0.034644728333134367 0.0030429021707784778 0 0.034839936306729109 0.0032352051839626048 0 0.034827439266004602 0.0031115692659900323 0 0.03360709087541857 0.0020314529610908844 0 0.033618095715791205 0.0020157185893384774 0 0.033582040914406926 0.0020069639551348688 0 0.033650056520713179 0.002026147933268144 0 0.03360709087541857 0.0020314529610908844 0 0.033618095715791205 0.0020157185893384774 0 0.033650056520713179 0.002026147933268144 0 0.033644919809861541 0.002023723940523474 0 0.033618095715791205 0.0020157185893384774 0 0.033644919809861541 0.002023723940523474 0 0.033618095715791205 0.0020157185893384774 0 0.033600008260504272 0.0020134773919768512 0 0.033618095715791205 0.0020157185893384774 0 0.033600008260504272 0.0020134773919768512 0 0.033572799368426755 0.0020025164393140849 0 0.033558789058118307 0.0020072431871575218 0 0.033600008260504272 0.0020134773919768512 0 0.033572799368426755 0.0020025164393140849 0 0.033618095715791205 0.0020157185893384774 0 0.033582040914406926 0.0020069639551348688 0 0.033572799368426755 0.0020025164393140849 0 0.033558789058118307 0.0020072431871575218 0 0.033572799368426755 0.0020025164393140849 0 0.033528707641473039 0.0019948655962692195 0 0.033558789058118307 0.0020072431871575218 0 0.033507674907541925 0.0020036772100568991 0 0.033528707641473039 0.0019948655962692195 0 0.033877211025741961 0.0022404789652923063 0 0.033653601367341433 0.002061034815478857 0 0.033528707641473039 0.0019948655962692195 0 0.033535529174893643 0.0019808168939005515 0 0.033518594381847011 0.002004446023652893 0 0.033572799368426755 0.0020025164393140849 0 0.033528707641473039 0.0019948655962692195 0 0.033535529174893643 0.0019808168939005515 0 0.034208907337532853 0.0024516349646103697 0 0.033759119697696384 0.0024041741393631064 0 0.033603293609338628 0.0020412434811151602 0 0.034923756108810128 0.0033799359861411901 0 0.034822763941653866 0.003479006931128245 0 0.034922111621561489 0.0035598706538615505 0 0.034923756108810128 0.0033799359861411901 0 0.034822763941653866 0.003479006931128245 0 0.034839936306729109 0.0032352051839626048 0 0.034923756108810128 0.0033799359861411901 0 0.034963878168217402 0.0031551316484980771 0 0.035075928494317919 0.0033756500186926338 0 0.034923756108810128 0.0033799359861411901 0 0.034839936306729109 0.0032352051839626048 0 0.034963878168217402 0.0031551316484980771 0 0.034839936306729109 0.0032352051839626048 0 0.034963878168217402 0.0031551316484980771 0 0.034827439266004602 0.0031115692659900323 0 0.034963878168217402 0.0031551316484980771 0 0.034827439266004602 0.0031115692659900323 0 0.034864688570041324 0.0029534185943532079 0 0.035275944901055331 0.0030628091740846765 0 0.035075928494317919 0.0033756500186926338 0 0.035420110048524155 0.0033119420537918174 0 0.034963878168217402 0.0031551316484980771 0 0.035275944901055331 0.0030628091740846765 0 0.035075928494317919 0.0033756500186926338 0 0.035075928494317919 0.0033756500186926338 0 0.034922111621561489 0.0035598706538615505 0 0.035013308973846295 0.0036606837022657643 0 0.035075928494317919 0.0033756500186926338 0 0.035420110048524155 0.0033119420537918174 0 0.035013308973846295 0.0036606837022657643 0 0.034923756108810128 0.0033799359861411901 0 0.035075928494317919 0.0033756500186926338 0 0.034922111621561489 0.0035598706538615505 0 0.035638831083068999 0.0035523602359493534 0 0.035420110048524155 0.0033119420537918174 0 0.035013308973846295 0.0036606837022657643 0 0.035638831083068999 0.0035523602359493534 0 0.03583829162511961 0.0032734822398562593 0 0.035420110048524155 0.0033119420537918174 0 0.035638831083068999 0.0035523602359493534 0 0.036040195694190723 0.0035141046303852948 0 0.035677858702334968 0.0039667041598779578 0 0.036040195694190723 0.0035141046303852948 0 0.03583829162511961 0.0032734822398562593 0 0.036315592506864981 0.0033056806674569262 0 0.035638831083068999 0.0035523602359493534 0 0.036040195694190723 0.0035141046303852948 0 0.03583829162511961 0.0032734822398562593 0 0.03583829162511961 0.0032734822398562593 0 0.035694788340398291 0.0029697917955498927 0 0.036173233953897196 0.0028886661413914136 0 0.03583829162511961 0.0032734822398562593 0 0.036173233953897196 0.0028886661413914136 0 0.036315592506864981 0.0033056806674569262 0 0.035275944901055331 0.0030628091740846765 0 0.035420110048524155 0.0033119420537918174 0 0.035694788340398291 0.0029697917955498927 0 0.03583829162511961 0.0032734822398562593 0 0.035420110048524155 0.0033119420537918174 0 0.035694788340398291 0.0029697917955498927 0 0.035694788340398291 0.0029697917955498927 0 0.036022182214062275 0.002557993411592708 0 0.035470678615957672 0.0026855671435964783 0 0.035275944901055331 0.0030628091740846765 0 0.035694788340398291 0.0029697917955498927 0 0.035470678615957672 0.0026855671435964783 0 0.035694788340398291 0.0029697917955498927 0 0.036022182214062275 0.002557993411592708 0 0.036173233953897196 0.0028886661413914136 0 0.035813209715833579 0.0022809526453797936 0 0.036022182214062275 0.002557993411592708 0 0.035470678615957672 0.0026855671435964783 0 0.035470678615957672 0.0026855671435964783 0 0.034940380045426093 0.0025900983714350952 0 0.035090094028140062 0.0028873686634180462 0 0.035386940484336639 0.00217299032090471 0 0.035470678615957672 0.0026855671435964783 0 0.034940380045426093 0.0025900983714350952 0 0.034818447022388878 0.0029608587286468046 0 0.034940380045426093 0.0025900983714350952 0 0.034864688570041324 0.0029534185943532079 0 0.034940380045426093 0.0025900983714350952 0 0.034864688570041324 0.0029534185943532079 0 0.035090094028140062 0.0028873686634180462 0 0.034963878168217402 0.0031551316484980771 0 0.034864688570041324 0.0029534185943532079 0 0.035090094028140062 0.0028873686634180462 0 0.035275944901055331 0.0030628091740846765 0 0.035470678615957672 0.0026855671435964783 0 0.035090094028140062 0.0028873686634180462 0 0.034963878168217402 0.0031551316484980771 0 0.035275944901055331 0.0030628091740846765 0 0.035090094028140062 0.0028873686634180462 0 0.027026014148103485 -4.2496025481461285e-07 0 0.02395706469297575 -0.00018587138728911823 0 0.018413145380883376 6.5626713771013917e-07 0 0.02395706469297575 -0.00018587138728911823 0 0.022364372181955947 -0.00016544244598580958 0 0.021530500724659167 -6.9416549934002376e-05 0 0.02395706469297575 -0.00018587138728911823 0 0.018413145380883376 6.5626713771013917e-07 0 0.021530500724659167 -6.9416549934002376e-05 0 0.027360194458555247 0.0015178809920905535 0 0.027672079452773845 0.0022474066056544623 0 0.027048935026620292 7.5840541517590281e-06 0 0.031883315681993901 0.0015464006748901558 0 0.030877464179196235 0.0036235772178848749 0 0.026899275645995473 0.00014480458762178389 0 0.027360194458555247 0.0015178809920905535 0 0.031883315681993901 0.0015464006748901558 0 0.030877464179196235 0.0036235772178848749 0 0.033514580153906133 0.0030323118303917122 0 0.030877464179196235 0.0036235772178848749 0 0.033514580153906133 0.0030323118303917122 0 0.032986287583150156 0.0047432533589971222 0 0.03484193516234186 0.0011759040402126374 0 0.033514580153906133 0.0030323118303917122 0 0.033544175272389579 0.0015681238041795615 0 0.031883315681993901 0.0015464006748901558 0 0.033514580153906133 0.0030323118303917122 0 0.033544175272389579 0.0015681238041795615 0 0.03484193516234186 0.0011759040402126374 0 0.033514580153906133 0.0030323118303917122 0 0.035437533265714319 0.0026630728379438517 0 0.033514580153906133 0.0030323118303917122 0 0.034363572049860167 0.0042991064896017511 0 0.035437533265714319 0.0026630728379438517 0 0.034431146023266926 0.0041918502827022726 0 0.035196582544804636 0.0027343058831513218 0 0.033514580153906133 0.0030323118303917122 0 0.034363572049860167 0.0042991064896017511 0 0.032986287583150156 0.0047432533589971222 0 0.027672079452773845 0.0022474066056544623 0 0.028399468083819428 0.0027075976437715872 0 0.022364372181955947 -0.00016544244598580958 0 0.02255694929901688 -8.5110647028638055e-05 0 0.021530500724659167 -6.9416549934002376e-05 0 0.034363572049860167 0.0042991064896017511 0 0.034218612600354324 0.005517619942449814 0 0.035187873930648643 0.004475848999167832 0 0.034363572049860167 0.0042991064896017511 0 0.032986287583150156 0.0047432533589971222 0 0.034218612600354324 0.005517619942449814 0 0.034218612600354324 0.005517619942449814 0 0.035450458173429705 0.005376955168750381 0 0.035187873930648643 0.004475848999167832 0 0.035450458173429705 0.005376955168750381 0 0.036097743206779317 0.0053492283113145342 0 0.036040100727368171 0.0046017782756263056 0 0.035450458173429705 0.005376955168750381 0 0.036040100727368171 0.0046017782756263056 0 0.035187873930648643 0.004475848999167832 0 0.036097743206779317 0.0053492283113145342 0 0.036040100727368171 0.0046017782756263056 0 0.036885028588557286 0.0048026170581675796 0 0.036040100727368171 0.0046017782756263056 0 0.035187873930648643 0.004475848999167832 0 0.03587800268224467 0.0036734336199686101 0 0.036040100727368171 0.0046017782756263056 0 0.03587800268224467 0.0036734336199686101 0 0.036599193048526553 0.0038413671010066553 0 0.034363572049860167 0.0042991064896017511 0 0.035187873930648643 0.004475848999167832 0 0.034980577708166052 0.0027741311847693743 0 0.035187873930648643 0.004475848999167832 0 0.034980577708166052 0.0027741311847693743 0 0.03587800268224467 0.0036734336199686101 0 0.036002813270824059 0.0012875159205639965 0 0.035196582544804636 0.0027343058831513218 0 0.035777983603348967 0.0013665349547782265 0 0.034980577708166052 0.0027741311847693743 0 0.03648362356443724 0.0025353631521507353 0 0.03648362356443724 0.0025353631521507353 0 0.03587800268224467 0.0036734336199686101 0 0.036599193048526553 0.0038413671010066553 0 0.034980577708166052 0.0027741311847693743 0 0.03648362356443724 0.0025353631521507353 0 0.03587800268224467 0.0036734336199686101 0 0.03648362356443724 0.0025353631521507353 0 0.037361516416567889 0.0032925561288724208 0 0.036599193048526553 0.0038413671010066553 0 0.037652516593283968 0.0017605641988840944 0 0.03648362356443724 0.0025353631521507353 0 0.037361516416567889 0.0032925561288724208 0 0.037003075935750668 0.00075984048374685726 0 0.036670122527853739 0.001897199602708144 0 0.036370117850465011 -0.00028921235223347466 0 0.036667123788476343 0.00054178967185769999 0 0.035988201621126599 0.00045177915098627852 0 0.035226523707590801 0.00094267670746982116 0 0.034818305885579333 0.0017756866569436352 0 0.036667123788476343 0.00054178967185769999 0 0.035988201621126599 0.00045177915098627852 0 0.036210244977080183 0.0015972429439074826 0 0.035988201621126599 0.00045177915098627852 0 0.035588385788352744 0.0014995172497428168 0 0.036210244977080183 0.0015972429439074826 0 0.037361516416567889 0.0032925561288724208 0 0.036599193048526553 0.0038413671010066553 0 0.036885028588557286 0.0048026170581675796 0 0.036040100727368171 0.0046017782756263056 0 0.036599193048526553 0.0038413671010066553 0 0.036885028588557286 0.0048026170581675796 0 0.036670122527853739 0.001897199602708144 0 0.036195086388889831 0.0030650655415180752 0 0.035588385788352744 0.0014995172497428168 0 0.036210244977080183 0.0015972429439074826 0 0.035553695319271564 0.0028435317968536046 0 0.036195086388889831 0.0030650655415180752 0 0.036187597753966766 0.0048503087305862376 0 0.036097743206779317 0.0053492283113145342 0 0.036885028588557286 0.0048026170581675796 0 0.036359672104395023 0.0060775871952489244 0 0.033672221872471174 0.0019697187200796462 0 0.03356383904401302 0.0018768080483293139 0 0.033588211985729005 0.001978730455512973 0 0.034818305885579333 0.0017756866569436352 0 0.034940298629086805 0.002294724196990389 0 0.03356383904401302 0.0018768080483293139 0 0.033588211985729005 0.001978730455512973 0 0.033536793615320332 0.0020206093003473521 0 0.033573587526895432 0.0020171330860543194 0 0.033588211985729005 0.001978730455512973 0 0.033536793615320332 0.0020206093003473521 0 0.033573587526895432 0.0020171330860543194 0 0.033633064832476467 0.0020123012167138484 0 0.033588211985729005 0.001978730455512973 0 0.033672221872471174 0.0019697187200796462 0 0.033633064832476467 0.0020123012167138484 0 0.033588211985729005 0.001978730455512973 0 0.035588385788352744 0.0014995172497428168 0 0.03517849531669643 0.0027678160898299761 0 0.035553695319271564 0.0028435317968536046 0 0.033536793615320332 0.0020206093003473521 0 0.033520172359251997 0.0020321770092160633 0 0.033495129789892913 0.0020380532299175752 0 0.033536793615320332 0.0020206093003473521 0 0.033547174247659378 0.0020283150313362614 0 0.033520172359251997 0.0020321770092160633 0 0.033573587526895432 0.0020171330860543194 0 0.033536793615320332 0.0020206093003473521 0 0.033547174247659378 0.0020283150313362614 0 0.034940298629086805 0.002294724196990389 0 0.031474288675659053 0.0031648944174824355 0 0.03517849531669643 0.0027678160898299761 0 0.035553695319271564 0.0028435317968536046 0 0.034730205278765088 0.0041165398249306401 0 0.033547174247659378 0.0020283150313362614 0 0.033520172359251997 0.0020321770092160633 0 0.03353188970991592 0.0020322805871621718 0 0.033547174247659378 0.0020283150313362614 0 0.033579313390010031 0.0020293387253592461 0 0.03353188970991592 0.0020322805871621718 0 0.033659954933871188 0.0020344594539414376 0 0.033579313390010031 0.0020293387253592461 0 0.033570904036747694 0.0020330373770579852 0 0.033659954933871188 0.0020344594539414376 0 0.033633064832476467 0.0020123012167138484 0 0.033579313390010031 0.0020293387253592461 0 0.033573587526895432 0.0020171330860543194 0 0.033547174247659378 0.0020283150313362614 0 0.033579313390010031 0.0020293387253592461 0 0.033573587526895432 0.0020171330860543194 0 0.033633064832476467 0.0020123012167138484 0 0.033579313390010031 0.0020293387253592461 0 0.033579313390010031 0.0020293387253592461 0 0.033570904036747694 0.0020330373770579852 0 0.03353188970991592 0.0020322805871621718 0 0.033570904036747694 0.0020330373770579852 0 0.03353188970991592 0.0020322805871621718 0 0.033533040705779449 0.0020283077026814166 0 0.033500411324583076 0.0020226623903155444 0 0.033533040705779449 0.0020283077026814166 0 0.033528951046276761 0.0020222220327280401 0 0.03353188970991592 0.0020322805871621718 0 0.033500411324583076 0.0020226623903155444 0 0.033533040705779449 0.0020283077026814166 0 0.033570904036747694 0.0020330373770579852 0 0.033533040705779449 0.0020283077026814166 0 0.033528951046276761 0.0020222220327280401 0 0.033528951046276761 0.0020222220327280401 0 0.03349686713020799 0.0020135284575880075 0 0.033503468872593735 0.0020111083582224206 0 0.03349686713020799 0.0020135284575880075 0 0.033503468872593735 0.0020111083582224206 0 0.033458490625532467 0.0019990214246983153 0 0.033500411324583076 0.0020226623903155444 0 0.033528951046276761 0.0020222220327280401 0 0.03349686713020799 0.0020135284575880075 0 0.033503468872593735 0.0020111083582224206 0 0.033458490625532467 0.0019990214246983153 0 0.033490388609287151 0.00200853586311453 0 0.033500411324583076 0.0020226623903155444 0 0.03349686713020799 0.0020135284575880075 0 0.033458490625532467 0.0019990214246983153 0 0.033500411324583076 0.0020226623903155444 0 0.033458490625532467 0.0019990214246983153 0 0.033483744035087797 0.0020090837150987962 0 0.026358036664085812 0.00065869009878742548 0 0.021062932821978582 0.00095770711272541475 0 0.015989969115604911 -0.00036742379638178904 0 0.016020674927244804 -0.00043640468092766825 0 0.016007078434666876 -0.00025574759528679963 0 0.015989969115604911 -0.00036742379638178904 0 0.016020674927244804 -0.00043640468092766825 0 0.016044097806267987 -0.00045567283849847037 0 0.033459458187292783 0.0024690994701842307 0 0.026358036664085812 0.00065869009878742548 0 0.033500411324583076 0.0020226623903155444 0 0.033483744035087797 0.0020090837150987962 0 0.033505019764559274 0.0020295278486578108 0 0.026358036664085812 0.00065869009878742548 0 0.031474288675659053 0.0031648944174824355 0 0.033483744035087797 0.0020090837150987962 0 0.033505019764559274 0.0020295278486578108 0 0.033495129789892913 0.0020380532299175752 0 0.03353188970991592 0.0020322805871621718 0 0.033500411324583076 0.0020226623903155444 0 0.033505019764559274 0.0020295278486578108 0 0.033520172359251997 0.0020321770092160633 0 0.03353188970991592 0.0020322805871621718 0 0.033505019764559274 0.0020295278486578108 0 0.033520172359251997 0.0020321770092160633 0 0.033505019764559274 0.0020295278486578108 0 0.033495129789892913 0.0020380532299175752 0 0.024585320295558308 0.001908101232067692 0 0.024414757190920677 0.0024870113264844006 0 0.023214001650274745 0.0020841645297600695 0 0.031474288675659053 0.0031648944174824355 0 0.021062932821978582 0.00095770711272541475 0 0.015989969115604911 -0.00036742379638178904 0 0.015991473063657273 -0.00030367520742956625 0 0.016007078434666876 -0.00025574759528679963 0 0.026016856688599373 0.00080385276102765265 0 0.026985293173337515 0.0018688319365689019 0 0.027145332942035832 0.0011831092629727602 0 0.015991473063657273 -0.00030367520742956625 0 0.016010120180726273 -0.00025886381736673096 0 0.016007078434666876 -0.00025574759528679963 0 0.020545306490817629 0.00085477616032930573 0 0.021062932821978582 0.00095770711272541475 0 0.016010120180726273 -0.00025886381736673096 0 0.016022095017402229 -0.00023574410059970627 0 0.016030067837988157 -0.00023813624429953219 0 0.016010120180726273 -0.00025886381736673096 0 0.016030067837988157 -0.00023813624429953219 0 0.015964606914172265 -0.00031798616306375952 0 0.015991473063657273 -0.00030367520742956625 0 0.016010120180726273 -0.00025886381736673096 0 0.015964606914172265 -0.00031798616306375952 0 0.015989969115604911 -0.00036742379638178904 0 0.015964606914172265 -0.00031798616306375952 0 0.015919796007567311 -0.00036809161837005018 0 0.015989969115604911 -0.00036742379638178904 0 0.015991473063657273 -0.00030367520742956625 0 0.015964606914172265 -0.00031798616306375952 0 0.016022095017402229 -0.00023574410059970627 0 0.016030067837988157 -0.00023813624429953219 0 0.016045250706287539 -0.000163860124899595 0 0.016022095017402229 -0.00023574410059970627 0 0.016045250706287539 -0.000163860124899595 0 0.01604605989522331 -0.00012664093606982841 0 0.016045250706287539 -0.000163860124899595 0 0.016037076748950673 -0.00010257397104779982 0 0.016045650493176803 -0.00013348634279973059 0 0.016030067837988157 -0.00023813624429953219 0 0.016045250706287539 -0.000163860124899595 0 0.016045650493176803 -0.00013348634279973059 0 0.024585320295558308 0.001908101232067692 0 0.023214001650274745 0.0020841645297600695 0 0.023596522488439763 0.00085077826098114225 0 0.021062932821978582 0.00095770711272541475 0 0.019478722772577631 0.00096539705584101627 0 0.023214001650274745 0.0020841645297600695 0 0.023596522488439763 0.00085077826098114225 0 0.022731729145702453 0.0010988427317636896 0 0.035962921957841051 0.0071579115301805604 0 0.035166740949233367 0.0063450828090082382 0 0.035811316948839732 0.0064288093105170146 0 0.036359672104395023 0.0060775871952489244 0 0.035962921957841051 0.0071579115301805604 0 0.035811316948839732 0.0064288093105170146 0 0.036187597753966766 0.0048503087305862376 0 0.031474288675659053 0.0031648944174824355 0 0.031474288675659053 0.0031648944174824355 0 0.02924392559499487 0.0037785757758810423 0 0.035166740949233367 0.0063450828090082382 0 0.035811316948839732 0.0064288093105170146 0 0.035774681878424953 0.0059282513512966227 0 0.036359672104395023 0.0060775871952489244 0 0.035811316948839732 0.0064288093105170146 0 0.035774681878424953 0.0059282513512966227 0 0.036097743206779317 0.0053492283113145342 0 0.036359672104395023 0.0060775871952489244 0 0.035774681878424953 0.0059282513512966227 0 0.035450458173429705 0.005376955168750381 0 0.036097743206779317 0.0053492283113145342 0 0.035774681878424953 0.0059282513512966227 0 0.035450458173429705 0.005376955168750381 0 0.035166740949233367 0.0063450828090082382 0 0.035774681878424953 0.0059282513512966227 0 0.034218612600354324 0.005517619942449814 0 0.035450458173429705 0.005376955168750381 0 0.035166740949233367 0.0063450828090082382 0 0.028399468083819428 0.0027075976437715872 0 0.02924392559499487 0.0037785757758810423 0 0.02255694929901688 -8.5110647028638055e-05 0 0.023596522488439763 0.00085077826098114225 0 0.022731729145702453 0.0010988427317636896 0 0.02255694929901688 -8.5110647028638055e-05 0 0.021989389160892256 0.00075341932139398333 0 0.022731729145702453 0.0010988427317636896 0 0.02255694929901688 -8.5110647028638055e-05 0 0.021989389160892256 0.00075341932139398333 0 0.021530500724659167 -6.9416549934002376e-05 0 0.021989389160892256 0.00075341932139398333 0 0.022062102984567355 0.0016948006238080751 0 0.020678572118450554 0.0012551818579694591 0 0.021989389160892256 0.00075341932139398333 0 0.022731729145702453 0.0010988427317636896 0 0.022062102984567355 0.0016948006238080751 0 0.019097166531555892 0.00085402981991800444 0 0.018480746583694502 0.00061903436722735711 0 0.023214001650274745 0.0020841645297600695 0 0.022731729145702453 0.0010988427317636896 0 0.022062102984567355 0.0016948006238080751 0 0.01604605989522331 -0.00012664093606982841 0 0.016026140052492099 -0.00011834349409125303 0 0.016066227746023395 -1.7662680561891077e-05 0 0.019478722772577631 0.00096539705584101627 0 0.019097166531555892 0.00085402981991800444 0 0.016045250706287539 -0.000163860124899595 0 0.01604605989522331 -0.00012664093606982841 0 0.016026140052492099 -0.00011834349409125303 0 0.016045250706287539 -0.000163860124899595 0 0.016026140052492099 -0.00011834349409125303 0 0.016037076748950673 -0.00010257397104779982 0 0.016026140052492099 -0.00011834349409125303 0 0.015967479304109879 -0.00011990641325270591 0 0.016037076748950673 -0.00010257397104779982 0 0.016026140052492099 -0.00011834349409125303 0 0.015967479304109879 -0.00011990641325270591 0 0.016143118588590227 -7.3423854835955133e-05 0 0.016026140052492099 -0.00011834349409125303 0 0.016066227746023395 -1.7662680561891077e-05 0 0.016143118588590227 -7.3423854835955133e-05 0 0.016066227746023395 -1.7662680561891077e-05 0 0.016143118588590227 -7.3423854835955133e-05 0 0.016241503723492569 0.0001330135728559959 0 0.016143118588590227 -7.3423854835955133e-05 0 0.016277081823300225 9.8790479836309657e-06 0 0.016344583808252662 -0.00023546923812984338 0 0.016143118588590227 -7.3423854835955133e-05 0 0.016344583808252662 -0.00023546923812984338 0 0.016241503723492569 0.0001330135728559959 0 0.015967479304109879 -0.00011990641325270591 0 0.016143118588590227 -7.3423854835955133e-05 0 0.016277081823300225 9.8790479836309657e-06 0 0.015950900523826157 -0.0001123328645045075 0 0.015733001249114944 -0.00010041353126528833 0 0.015967479304109879 -0.00011990641325270591 0 0.015223542720505525 -0.00026206222387015871 0 0.015510366177044189 0.00018051279551193207 0 0.016277081823300225 9.8790479836309657e-06 0 0.015204749063234158 -6.9214880505517659e-07 0 0.016344583808252662 -0.00023546923812984338 0 0.015733001249114944 -0.00010041353126528833 0 0.01519859412060762 -1.0007041600512973e-07 0 0.015223542720505525 -0.00026206222387015871 0 0.014312592222295665 6.0905796529497055e-07 0 0.015510366177044189 0.00018051279551193207 0 0.015223542720505525 -0.00026206222387015871 0 0.014312592222295665 6.0905796529497055e-07 0 0.015192183847764957 -8.0114172550691004e-07 0 0.015204749063234158 -6.9214880505517659e-07 0 0.016344583808252662 -0.00023546923812984338 0 0.018394783035372887 6.5857229802372351e-07 0 0.016344583808252662 -0.00023546923812984338 0 0.018394783035372887 6.5857229802372351e-07 0 0.016241503723492569 0.0001330135728559959 0 0.018401190423914766 2.8821935145697104e-07 0 0.018480746583694502 0.00061903436722735711 0 0.018413145380883376 6.5626713771013917e-07 0 0.020678572118450554 0.0012551818579694591 0 0.021530500724659167 -6.9416549934002376e-05 0 0.021989389160892256 0.00075341932139398333 0 0.020678572118450554 0.0012551818579694591 0 0.021530500724659167 -6.9416549934002376e-05 0 0.007581524988691901 -0.00015212721000390595 0 0.0095079325524624232 -1.130533496830303e-06 0 0.0066416671635863541 3.8520714764082142e-07 0 0.007581524988691901 -0.00015212721000390595 0 0.0057301682318317932 0.00038120809530765929 0 0.0066416671635863541 3.8520714764082142e-07 0 0.0072341069893648163 -0.00030808881139846554 0 0.0075374053082278101 1.3657374941227031e-06 0 0.0057301682318317932 0.00038120809530765929 0 0.007581524988691901 -0.00015212721000390595 0 0.0072341069893648163 -0.00030808881139846554 0 0.0057301682318317932 0.00038120809530765929 0 0.0079310893213066364 -0.0001431347989907738 0 0.009106609610826712 -0.00012690864476038409 0 0.007581524988691901 -0.00015212721000390595 0 0.0072341069893648163 -0.00030808881139846554 0 0.0090430097481618565 -7.7686260567385012e-05 0 0.0072341069893648163 -0.00030808881139846554 0 0.0073667409063404065 -0.00036518103659360766 0 0.0090430097481618565 -7.7686260567385012e-05 0 0.007581524988691901 -0.00015212721000390595 0 0.0090430097481618565 -7.7686260567385012e-05 0 0.0095079325524624232 -1.130533496830303e-06 0 0.0090430097481618565 -7.7686260567385012e-05 0 0.0123669081272331 2.379902830241084e-06 0 0.0090069649270793119 0.00028601764990225236 0 0.012371238305497398 -1.1242575336680076e-08 0 0.011151654997650111 0.00026979839965256784 0 0.0090430097481618565 -7.7686260567385012e-05 0 0.0095079325524624232 -1.130533496830303e-06 0 0.0123669081272331 2.379902830241084e-06 0 0.014298221076704016 2.254679997129005e-07 0 0.012380018495166392 -2.3498194284669719e-07 0 0.012940288937181776 -6.8374244039071184e-05 0 0.01430598773734422 -2.3261467851829793e-08 0 0.014200402728628476 1.8481521106980034e-05 0 0.012380018495166392 -2.3498194284669719e-07 0 0.012940288937181776 -6.8374244039071184e-05 0 0.012950912058198078 0.00021935395090479852 0 0.0089388636270281586 0.00012398960309443111 0 0.0090430097481618565 -7.7686260567385012e-05 0 0.0090069649270793119 0.00028601764990225236 0 0.0089388636270281586 0.00012398960309443111 0 0.0090069649270793119 0.00028601764990225236 0 0.0087346542116684984 0.00014446146096281948 0 0.011151654997650111 0.00026979839965256784 0 0.010301392244943553 -0.00019378829852245539 0 0.012950912058198078 0.00021935395090479852 0 0.01335312835752806 0.00034099117463984638 0 0.013315945414921676 0.0001273919021850069 0 0.014200402728628476 1.8481521106980034e-05 0 0.014701894701661699 0.00012962042696023328 0 0.012940288937181776 -6.8374244039071184e-05 0 0.012950912058198078 0.00021935395090479852 0 0.013315945414921676 0.0001273919021850069 0 0.015967479304109879 -0.00011990641325270591 0 0.015510366177044189 0.00018051279551193207 0 0.016020945416139479 4.2725827128793769e-05 0 0.016037076748950673 -0.00010257397104779982 0 0.016020945416139479 4.2725827128793769e-05 0 0.016051394561233327 -4.6700712275492612e-05 0 0.015967479304109879 -0.00011990641325270591 0 0.016037076748950673 -0.00010257397104779982 0 0.016020945416139479 4.2725827128793769e-05 0 0.014701894701661699 0.00012962042696023328 0 0.014668905062968184 -8.73785534974502e-05 0 0.016020945416139479 4.2725827128793769e-05 0 0.016061991669430089 -1.0583297404542603e-05 0 0.016051394561233327 -4.6700712275492612e-05 0 0.010301392244943553 -0.00019378829852245539 0 0.014668905062968184 -8.73785534974502e-05 0 0.01335312835752806 0.00034099117463984638 0 0.013315945414921676 0.0001273919021850069 0 0.013694048707484009 0.00028340574855887512 0 0.0083759199638066446 -0.00123365493965649 0 0.0076901186647051539 -0.00041263986119506878 0 0.0087850582185216488 -0.00028637206548653158 0 0.0083759199638066446 -0.00123365493965649 0 0.0087850582185216488 -0.00028637206548653158 0 0.01007905254258978 -0.00097061006769997042 0 0.010301392244943553 -0.00019378829852245539 0 0.01228135812569359 -0.00044840335646355425 0 0.0073667409063404065 -0.00036518103659360766 0 0.0083759199638066446 -0.00123365493965649 0 0.0076901186647051539 -0.00041263986119506878 0 0.0079310893213066364 -0.0001431347989907738 0 0.010301392244943553 -0.00019378829852245539 0 0.0072341069893648163 -0.00030808881139846554 0 0.0073667409063404065 -0.00036518103659360766 0 0.0076901186647051539 -0.00041263986119506878 0 0.0076901186647051539 -0.00041263986119506878 0 0.0075374053082278101 1.3657374941227031e-06 0 0.0087850582185216488 -0.00028637206548653158 0 0.0072341069893648163 -0.00030808881139846554 0 0.0076901186647051539 -0.00041263986119506878 0 0.0075374053082278101 1.3657374941227031e-06 0 0.0087850582185216488 -0.00028637206548653158 0 0.010131107485123565 0.00048180422146077231 0 0.0085445051664178196 0.0011864718832341344 0 0.0075374053082278101 1.3657374941227031e-06 0 0.0087850582185216488 -0.00028637206548653158 0 0.0085445051664178196 0.0011864718832341344 0 0.0087850582185216488 -0.00028637206548653158 0 0.010131107485123565 0.00048180422146077231 0 0.01007905254258978 -0.00097061006769997042 0 0.01045415708491922 0.00069950811045095529 0 0.01228135812569359 -0.00044840335646355425 0 0.010948967382290757 0.00095156076754095284 0 0.012360943630742157 0.00072338893387375962 0 0.011241983791226463 -0.0011913881864599302 0 0.010948967382290757 0.00095156076754095284 0 0.012360943630742157 0.00072338893387375962 0 0.011763978571613187 0.0020331184567958923 0 0.012360943630742157 0.00072338893387375962 0 0.013911708928986731 0.00086543392550560583 0 0.013323076704077006 0.0020219600235095755 0 0.012360943630742157 0.00072338893387375962 0 0.013183031743685916 -0.00054359890895537815 0 0.013911708928986731 0.00086543392550560583 0 0.015630979590034032 0.00013619472328651626 0 0.015512616273267948 -1.0229524013912211e-05 0 0.015387211044622115 1.8670685283904559e-05 0 0.01459617685116046 -0.00010546652690499396 0 0.01228135812569359 -0.00044840335646355425 0 0.012360943630742157 0.00072338893387375962 0 0.013183031743685916 -0.00054359890895537815 0 0.011241983791226463 -0.0011913881864599302 0 0.015630979590034032 0.00013619472328651626 0 0.015604322957387529 -6.3594432958011607e-05 0 0.015725387538760748 -0.0001096666045989586 0 0.015512616273267948 -1.0229524013912211e-05 0 0.015604322957387529 -6.3594432958011607e-05 0 0.015399659745995161 -0.00017309981208979308 0 0.015630979590034032 0.00013619472328651626 0 0.015512616273267948 -1.0229524013912211e-05 0 0.015604322957387529 -6.3594432958011607e-05 0 0.01228135812569359 -0.00044840335646355425 0 0.015043224285592955 -0.00027469013744494428 0 0.015512616273267948 -1.0229524013912211e-05 0 0.015387211044622115 1.8670685283904559e-05 0 0.015399659745995161 -0.00017309981208979308 0 0.01081434831899354 -0.00033635945354813763 0 0.013268838795107922 0.00051130568267658322 0 0.013177624578511989 -0.00068729362713519898 0 0.015043224285592955 -0.00027469013744494428 0 0.015955889537433002 -0.00018425490495773507 0 0.016061991669430089 -1.0583297404542603e-05 0 0.016051394561233327 -4.6700712275492612e-05 0 0.016089065974516738 -6.4511591587486809e-05 0 0.015781339291423675 -0.00028833461281106975 0 0.015849478581042534 -0.00032406934323038342 0 0.015789929347158872 -0.00029089732640524271 0 0.016061991669430089 -1.0583297404542603e-05 0 0.016069836496650853 -1.1927551120477691e-05 0 0.016089065974516738 -6.4511591587486809e-05 0 0.013268838795107922 0.00051130568267658322 0 0.013177624578511989 -0.00068729362713519898 0 0.013444245939025075 -0.00072652223348734454 0 0.014668905062968184 -8.73785534974502e-05 0 0.015043224285592955 -0.00027469013744494428 0 0.016006537444777601 -0.00021134354084247694 0 0.015955889537433002 -0.00018425490495773507 0 0.016030067837988157 -0.00023813624429953219 0 0.016089065974516738 -6.4511591587486809e-05 0 0.016045650493176803 -0.00013348634279973059 0 0.016051394561233327 -4.6700712275492612e-05 0 0.016089065974516738 -6.4511591587486809e-05 0 0.016045650493176803 -0.00013348634279973059 0 0.016037076748950673 -0.00010257397104779982 0 0.016051394561233327 -4.6700712275492612e-05 0 0.016045650493176803 -0.00013348634279973059 0 0.016030067837988157 -0.00023813624429953219 0 0.015964606914172265 -0.00031798616306375952 0 0.015849478581042534 -0.00032406934323038342 0 0.015964606914172265 -0.00031798616306375952 0 0.015849478581042534 -0.00032406934323038342 0 0.015919796007567311 -0.00036809161837005018 0 0.015849478581042534 -0.00032406934323038342 0 0.015835352792637054 -0.00032339863610775384 0 0.015789929347158872 -0.00029089732640524271 0 0.015849478581042534 -0.00032406934323038342 0 0.015919796007567311 -0.00036809161837005018 0 0.015835352792637054 -0.00032339863610775384 0 0.015835352792637054 -0.00032339863610775384 0 0.015722825778020276 -0.00024966349555118972 0 0.015800411448198083 -0.00023596683834638794 0 0.015835352792637054 -0.00032339863610775384 0 0.015789929347158872 -0.00029089732640524271 0 0.015722825778020276 -0.00024966349555118972 0 0.015781339291423675 -0.00028833461281106975 0 0.015789929347158872 -0.00029089732640524271 0 0.015722825778020276 -0.00024966349555118972 0 0.015604322957387529 -6.3594432958011607e-05 0 0.015357303230779372 -0.00021347290319594388 0 0.015722825778020276 -0.00024966349555118972 0 0.015600316153961744 -3.4703439308283215e-05 0 0.015043224285592955 -0.00027469013744494428 0 0.015043224285592955 -0.00027469013744494428 0 0.015801887221220771 -0.00029554971792069136 0 0.015604322957387529 -6.3594432958011607e-05 0 0.015722825778020276 -0.00024966349555118972 0 0.015725387538760748 -0.0001096666045989586 0 0.015722825778020276 -0.00024966349555118972 0 0.015725387538760748 -0.0001096666045989586 0 0.015800411448198083 -0.00023596683834638794 0 0.015800411448198083 -0.00023596683834638794 0 0.015938238390234231 -0.00036076138129545015 0 0.015791714004463778 -5.2947229354994496e-05 0 0.015725387538760748 -0.0001096666045989586 0 0.015800411448198083 -0.00023596683834638794 0 0.015791714004463778 -5.2947229354994496e-05 0 0.015938238390234231 -0.00036076138129545015 0 0.016115259592739302 -0.00026600729276219124 0 0.015791714004463778 -5.2947229354994496e-05 0 0.015938238390234231 -0.00036076138129545015 0 0.016136282942683988 -0.00044365212487361031 0 0.016115259592739302 -0.00026600729276219124 0 0.015835352792637054 -0.00032339863610775384 0 0.015800411448198083 -0.00023596683834638794 0 0.015938238390234231 -0.00036076138129545015 0 0.015919796007567311 -0.00036809161837005018 0 0.015835352792637054 -0.00032339863610775384 0 0.015938238390234231 -0.00036076138129545015 0 0.015919796007567311 -0.00036809161837005018 0 0.015938238390234231 -0.00036076138129545015 0 0.016044097806267987 -0.00045567283849847037 0 0.015938238390234231 -0.00036076138129545015 0 0.016044097806267987 -0.00045567283849847037 0 0.016136282942683988 -0.00044365212487361031 0 0.015989969115604911 -0.00036742379638178904 0 0.015919796007567311 -0.00036809161837005018 0 0.016044097806267987 -0.00045567283849847037 0 0.033458490625532467 0.0019990214246983153 0 0.03345674252431665 0.0019998208696069392 0 0.033490388609287151 0.00200853586311453 0 0.016020674927244804 -0.00043640468092766825 0 0.016044097806267987 -0.00045567283849847037 0 0.016503646714071073 -0.000660308598484674 0 0.026358036664085812 0.00065869009878742548 0 0.024820369147055751 0.00068641835975417496 0 0.016044097806267987 -0.00045567283849847037 0 0.016503646714071073 -0.000660308598484674 0 0.016136282942683988 -0.00044365212487361031 0 0.033458490625532467 0.0019990214246983153 0 0.033422378462814963 0.0019987779541101071 0 0.03345674252431665 0.0019998208696069392 0 0.016503646714071073 -0.000660308598484674 0 0.016115259592739302 -0.00026600729276219124 0 0.016611734886459759 8.9456834961658724e-05 0 0.016503646714071073 -0.000660308598484674 0 0.016136282942683988 -0.00044365212487361031 0 0.016115259592739302 -0.00026600729276219124 0 0.016611734886459759 8.9456834961658724e-05 0 0.015968583733486429 4.0084866406434679e-05 0 0.015484218401135981 0.0004601272915871262 0 0.016115259592739302 -0.00026600729276219124 0 0.016611734886459759 8.9456834961658724e-05 0 0.015968583733486429 4.0084866406434679e-05 0 0.015968583733486429 4.0084866406434679e-05 0 0.015791714004463778 -5.2947229354994496e-05 0 0.015484218401135981 0.0004601272915871262 0 0.016115259592739302 -0.00026600729276219124 0 0.015968583733486429 4.0084866406434679e-05 0 0.015791714004463778 -5.2947229354994496e-05 0 0.015630979590034032 0.00013619472328651626 0 0.015791714004463778 -5.2947229354994496e-05 0 0.015484218401135981 0.0004601272915871262 0 0.015630979590034032 0.00013619472328651626 0 0.015725387538760748 -0.0001096666045989586 0 0.015791714004463778 -5.2947229354994496e-05 0 0.013183031743685916 -0.00054359890895537815 0 0.015484218401135981 0.0004601272915871262 0 0.013911708928986731 0.00086543392550560583 0 0.01459617685116046 -0.00010546652690499396 0 0.015342245905680707 0.00032274608204501298 0 0.015484218401135981 0.0004601272915871262 0 0.013911708928986731 0.00086543392550560583 0 0.015356970432392829 0.0019038905617528516 0 0.015484218401135981 0.0004601272915871262 0 0.015356970432392829 0.0019038905617528516 0 0.016692084132312233 0.0012705238438831526 0 0.016611734886459759 8.9456834961658724e-05 0 0.015484218401135981 0.0004601272915871262 0 0.016692084132312233 0.0012705238438831526 0 0.015356970432392829 0.0019038905617528516 0 0.015773882100508368 0.0032242794433400218 0 0.016843935889973984 0.0024878427329878407 0 0.015356970432392829 0.0019038905617528516 0 0.016692084132312233 0.0012705238438831526 0 0.016843935889973984 0.0024878427329878407 0 0.015356970432392829 0.0019038905617528516 0 0.014304748565903653 0.0034053666420342404 0 0.015773882100508368 0.0032242794433400218 0 0.013911708928986731 0.00086543392550560583 0 0.015356970432392829 0.0019038905617528516 0 0.013323076704077006 0.0020219600235095755 0 0.015356970432392829 0.0019038905617528516 0 0.014304748565903653 0.0034053666420342404 0 0.013323076704077006 0.0020219600235095755 0 0.014304748565903653 0.0034053666420342404 0 0.015337675115918508 0.0047416426693842563 0 0.013563705209621486 0.0050896081268125342 0 0.014304748565903653 0.0034053666420342404 0 0.013563705209621486 0.0050896081268125342 0 0.012378204388944276 0.003449165200316167 0 0.015337675115918508 0.0047416426693842563 0 0.015773882100508368 0.0032242794433400218 0 0.016868009506524013 0.0037521174607350587 0 0.014304748565903653 0.0034053666420342404 0 0.015337675115918508 0.0047416426693842563 0 0.015773882100508368 0.0032242794433400218 0 0.015619669021468689 0.0065460924426541866 0 0.016694557655954033 0.0055651938111211489 0 0.015337675115918508 0.0047416426693842563 0 0.015520051008159457 0.0062169432287054642 0 0.017099657465545551 0.0053971945452545595 0 0.015337675115918508 0.0047416426693842563 0 0.015520051008159457 0.0062169432287054642 0 0.014441527120683303 0.0058886295047380216 0 0.012992637237016595 0.0087357367701749629 0 0.015867003984989313 0.0084797907654902416 0 0.014337848407538163 0.010347424286411121 0 0.012800271231102792 0.008736283214340031 0 0.015461629260004486 0.0087696556343612696 0 0.014307907357048734 0.0069298631716723088 0 0.012800271231102792 0.008736283214340031 0 0.016440678561308639 0.0081929897058053199 0 0.014307907357048734 0.0069298631716723088 0 0.012800271231102792 0.008736283214340031 0 0.011727091606854813 0.0086096856896068601 0 0.015520051008159457 0.0062169432287054642 0 0.01367947504754996 0.0073169094333824843 0 0.014441527120683303 0.0058886295047380216 0 0.014337848407538163 0.010347424286411121 0 0.012800271231102792 0.008736283214340031 0 0.011727091606854813 0.0086096856896068601 0 0.015619669021468689 0.0065460924426541866 0 0.0075444299592113719 0.0047406294514030422 0 0.015337675115918508 0.0047416426693842563 0 0.013563705209621486 0.0050896081268125342 0 0.014441527120683303 0.0058886295047380216 0 0.01367947504754996 0.0073169094333824843 0 0.013563705209621486 0.0050896081268125342 0 0.014441527120683303 0.0058886295047380216 0 0.013563705209621486 0.0050896081268125342 0 0.011053047473369116 0.005576101265767729 0 0.012378204388944276 0.003449165200316167 0 0.01367947504754996 0.0073169094333824843 0 0.013563705209621486 0.0050896081268125342 0 0.011053047473369116 0.005576101265767729 0 0.0013705427155432267 0.0020252460432067321 0 0.0075444299592113719 0.0047406294514030422 0 0.0075444299592113719 0.0047406294514030422 0 0.0076991276657566322 0.002615315740492848 0 0.0039678601638637656 0.0003374175884780842 0 0.004353472593765278 0.00017861252531668138 0 0.0038361098991678876 -0.00015139015831832497 0 0.0039678601638637656 0.0003374175884780842 0 0.0036959652199347859 0.00015309081409670082 0 0.0038361098991678876 -0.00015139015831832497 0 0.0036959652199347859 0.00015309081409670082 0 0.0038361098991678876 -0.00015139015831832497 0 0.0035480009841199049 -0.00012480333737681758 0 0.011053047473369116 0.005576101265767729 0 0.010390350952476856 0.0026927246687006505 0 0.0081820739220334216 0.0033679790089253814 0 0.011053047473369116 0.005576101265767729 0 0.010390350952476856 0.0026927246687006505 0 0.012378204388944276 0.003449165200316167 0 0.014304748565903653 0.0034053666420342404 0 0.012378204388944276 0.003449165200316167 0 0.013323076704077006 0.0020219600235095755 0 0.012378204388944276 0.003449165200316167 0 0.013323076704077006 0.0020219600235095755 0 0.011763978571613187 0.0020331184567958923 0 0.012360943630742157 0.00072338893387375962 0 0.013323076704077006 0.0020219600235095755 0 0.011763978571613187 0.0020331184567958923 0 0.010948967382290757 0.00095156076754095284 0 0.010390350952476856 0.0026927246687006505 0 0.011763978571613187 0.0020331184567958923 0 0.010390350952476856 0.0026927246687006505 0 0.012378204388944276 0.003449165200316167 0 0.011763978571613187 0.0020331184567958923 0 0.01045415708491922 0.00069950811045095529 0 0.010379517078570847 0.0026032052403119994 0 0.010131107485123565 0.00048180422146077231 0 0.010390350952476856 0.0026927246687006505 0 0.0085445051664178196 0.0011864718832341344 0 0.010390350952476856 0.0026927246687006505 0 0.0085445051664178196 0.0011864718832341344 0 0.0081820739220334216 0.0033679790089253814 0 0.0075374053082278101 1.3657374941227031e-06 0 0.0085445051664178196 0.0011864718832341344 0 0.0057301682318317932 0.00038120809530765929 0 0.0085445051664178196 0.0011864718832341344 0 0.0081820739220334216 0.0033679790089253814 0 0.0057301682318317932 0.00038120809530765929 0 0.0035034207832115158 -0.00013213514760674824 0 0.0035638849675606404 -0.00027286578464722806 0 0.0040328911431850856 -0.00014892100905764124 0 0.0035034207832115158 -0.00013213514760674824 0 0.0040328911431850856 -0.00014892100905764124 0 0.0057301682318317932 0.00038120809530765929 0 0.0058775278033373103 0.0015672005963697912 0 0.0056821201533204446 0.00054099476367377574 0 0.0035034207832115158 -0.00013213514760674824 0 0.0035480009841199049 -0.00012480333737681758 0 0.0035638849675606404 -0.00027286578464722806 0 0.0038361098991678876 -0.00015139015831832497 0 0.0035034207832115158 -0.00013213514760674824 0 0.0035480009841199049 -0.00012480333737681758 0 0.0076991276657566322 0.002615315740492848 0 0.0058775278033373103 0.0015672005963697912 0 0.0034674590628266159 0.00023538906243521023 0 0.0035480009841199049 -0.00012480333737681758 0 0.0032836802875361726 -0.00011193846177725247 0 0.0034674590628266159 0.00023538906243521023 0 0.0036959652199347859 0.00015309081409670082 0 0.0035480009841199049 -0.00012480333737681758 0 0.002834054958105992 0.00031630130000659103 0 0.0032836802875361726 -0.00011193846177725247 0 0.0026365413198811607 -0.00029056738169756173 0 0.003640482096562508 0.00032196897591678071 0 0.002834054958105992 0.00031630130000659103 0 0.0032836802875361726 -0.00011193846177725247 0 0.0036568180356496022 0.0004362046658291894 0 0.0032790400729810843 -0.00010819620731310147 0 0.0032836802875361726 -0.00011193846177725247 0 0.0035638849675606404 -0.00027286578464722806 0 0.0026365413198811607 -0.00029056738169756173 0 0.0035480009841199049 -0.00012480333737681758 0 0.0032836802875361726 -0.00011193846177725247 0 0.0035638849675606404 -0.00027286578464722806 0 0.0026365413198811607 -0.00029056738169756173 0 0.0037791792813453838 -4.2272778728193258e-07 0 0.0040328911431850856 -0.00014892100905764124 0 0.0035638849675606404 -0.00027286578464722806 0 0.0026365413198811607 -0.00029056738169756173 0 0.0040328911431850856 -0.00014892100905764124 0 0.002834054958105992 0.00031630130000659103 0 0.00083675876252900722 6.7416289885988213e-05 0 0.0026365413198811607 -0.00029056738169756173 0 0.00083675876252900722 6.7416289885988213e-05 0 0.0026365413198811607 -0.00029056738169756173 0 0.00091342031554148765 -1.4424091243027901e-06 0 0.0026365413198811607 -0.00029056738169756173 0 0.00091342031554148765 -1.4424091243027901e-06 0 0.0037791792813453838 -4.2272778728193258e-07 0 0.0037791792813453838 -4.2272778728193258e-07 0 0.0040328911431850856 -0.00014892100905764124 0 0.0057301682318317932 0.00038120809530765929 0 0.0037791792813453838 -4.2272778728193258e-07 0 0.0057301682318317932 0.00038120809530765929 0 0.0066416671635863541 3.8520714764082142e-07 0 0.033442931682921645 0.0020556975408841803 0 0.033463463420741628 0.0021235638953864453 0 0.033474897885232377 0.0020661873408273799 0 0.033442931682921645 0.0020556975408841803 0 0.033413316965347079 0.0020573512835040317 0 0.033473215168342063 0.0020238084502350968 0 0.033413316965347079 0.0020573512835040317 0 0.033473215168342063 0.0020238084502350968 0 0.033448592685530805 0.0020347150076746581 0 0.033442931682921645 0.0020556975408841803 0 0.033413316965347079 0.0020573512835040317 0 0.033377224073075092 0.0021094568687944483 0 0.033442931682921645 0.0020556975408841803 0 0.033377224073075092 0.0021094568687944483 0 0.033419608662596897 0.0021202181601722458 0 0.033377224073075092 0.0021094568687944483 0 0.033419608662596897 0.0021202181601722458 0 0.033383658585955739 0.002180749803062727 0 0.033442931682921645 0.0020556975408841803 0 0.033419608662596897 0.0021202181601722458 0 0.033463463420741628 0.0021235638953864453 0 0.033419608662596897 0.0021202181601722458 0 0.033463463420741628 0.0021235638953864453 0 0.033439335484486798 0.0021921136481023429 0 0.031828690102779542 0.0024570142759475998 0 0.033873466414615028 0.0024223839254090742 0 0.033463463420741628 0.0021235638953864453 0 0.033498824880542337 0.0021469647301082294 0 0.033474897885232377 0.0020661873408273799 0 0.033023046459192074 0.0021205280146493512 0 0.032880923739247177 0.0027016625992305871 0 0.033812446137133266 0.0027319993071685386 0 0.031828690102779542 0.0024570142759475998 0 0.032053531897516092 0.0027117345307446847 0 0.030462349165411143 0.0029736206257075766 0 0.031496918840183984 0.003289813516816442 0 0.032191544626416685 0.0027694805409887498 0 0.033023046459192074 0.0021205280146493512 0 0.032880923739247177 0.0027016625992305871 0 0.032191544626416685 0.0027694805409887498 0 0.032880923739247177 0.0027016625992305871 0 0.032191544626416685 0.0027694805409887498 0 0.032521788835752109 0.002847920687184694 0 0.032880923739247177 0.0027016625992305871 0 0.033010967553079758 0.0029444848908090644 0 0.032521788835752109 0.002847920687184694 0 0.033010967553079758 0.0029444848908090644 0 0.032521788835752109 0.002847920687184694 0 0.032683439719862047 0.0029529708997358666 0 0.032880923739247177 0.0027016625992305871 0 0.033010967553079758 0.0029444848908090644 0 0.033812446137133266 0.0027319993071685386 0 0.033812446137133266 0.0027319993071685386 0 0.033620617514401444 0.0032926268066312118 0 0.034695851831298773 0.0037143872328729388 0 0.033010967553079758 0.0029444848908090644 0 0.033812446137133266 0.0027319993071685386 0 0.033620617514401444 0.0032926268066312118 0 0.03295802444808997 0.0032092237746437248 0 0.033245571164528726 0.0038836918396317178 0 0.032605785674342677 0.0030125430034595758 0 0.033010967553079758 0.0029444848908090644 0 0.03295802444808997 0.0032092237746437248 0 0.032683439719862047 0.0029529708997358666 0 0.033010967553079758 0.0029444848908090644 0 0.033620617514401444 0.0032926268066312118 0 0.03295802444808997 0.0032092237746437248 0 0.033620617514401444 0.0032926268066312118 0 0.03295802444808997 0.0032092237746437248 0 0.033245571164528726 0.0038836918396317178 0 0.034976214211338272 0.0036594022178098543 0 0.034317413672484441 0.0031775824140673151 0 0.036040195694190723 0.0035141046303852948 0 0.035677858702334968 0.0039667041598779578 0 0.03628082425808167 0.0037663753748686329 0 0.034976214211338272 0.0036594022178098543 0 0.036322925613379034 0.0035535080313890948 0 0.034976214211338272 0.0036594022178098543 0 0.035216876273777287 0.0037475798778322795 0 0.034976214211338272 0.0036594022178098543 0 0.034379520983818974 0.0037791025059878136 0 0.033620617514401444 0.0032926268066312118 0 0.033245571164528726 0.0038836918396317178 0 0.034695851831298773 0.0037143872328729388 0 0.035638831083068999 0.0035523602359493534 0 0.035677858702334968 0.0039667041598779578 0 0.035013308973846295 0.0036606837022657643 0 0.035164253927378632 0.0037220818731307438 0 0.035013308973846295 0.0036606837022657643 0 0.034695851831298773 0.0037143872328729388 0 0.034922111621561489 0.0035598706538615505 0 0.034903662189537214 0.0036851394720816616 0 0.034925864732676018 0.0037171211085528489 0 0.035013308973846295 0.0036606837022657643 0 0.034903662189537214 0.0036851394720816616 0 0.034695851831298773 0.0037143872328729388 0 0.034922111621561489 0.0035598706538615505 0 0.035013308973846295 0.0036606837022657643 0 0.034903662189537214 0.0036851394720816616 0 0.034903662189537214 0.0036851394720816616 0 0.034925864732676018 0.0037171211085528489 0 0.034695851831298773 0.0037143872328729388 0 0.033873466414615028 0.0024223839254090742 0 0.034130810203414304 0.0028612835269734402 0 0.033812446137133266 0.0027319993071685386 0 0.034925864732676018 0.0037171211085528489 0 0.034695851831298773 0.0037143872328729388 0 0.033442931682921645 0.0020556975408841803 0 0.033474897885232377 0.0020661873408273799 0 0.033436028507080849 0.002018765526099794 0 0.033442931682921645 0.0020556975408841803 0 0.033436028507080849 0.002018765526099794 0 0.033473215168342063 0.0020238084502350968 0 0.033436028507080849 0.002018765526099794 0 0.033473215168342063 0.0020238084502350968 0 0.033603293609338628 0.0020412434811151602 0 0.033473215168342063 0.0020238084502350968 0 0.033448592685530805 0.0020347150076746581 0 0.033503463029026417 0.0020352661337421835 0 0.033473215168342063 0.0020238084502350968 0 0.033603293609338628 0.0020412434811151602 0 0.033503463029026417 0.0020352661337421835 0 0.033759119697696384 0.0024041741393631064 0 0.033436028507080849 0.002018765526099794 0 0.033603293609338628 0.0020412434811151602 0 0.034822763941653866 0.003479006931128245 0 0.034922111621561489 0.0035598706538615505 0 0.034925864732676018 0.0037171211085528489 0 0.034317201329025521 0.0029332686457751562 0 0.034130810203414304 0.0028612835269734402 0 0.033535529174893643 0.0019808168939005515 0 0.033603293609338628 0.0020412434811151602 0 0.033518594381847011 0.002004446023652893 0 0.033603293609338628 0.0020412434811151602 0 0.033490355489765769 0.0020235104588957964 0 0.033503463029026417 0.0020352661337421835 0 0.033603293609338628 0.0020412434811151602 0 0.033490355489765769 0.0020235104588957964 0 0.033518594381847011 0.002004446023652893 0 0.033490355489765769 0.0020235104588957964 0 0.033518594381847011 0.002004446023652893 0 0.033484753052115054 0.0020060653636800665 0 0.033507674907541925 0.0020036772100568991 0 0.033528707641473039 0.0019948655962692195 0 0.033484753052115054 0.0020060653636800665 0 0.033528707641473039 0.0019948655962692195 0 0.033518594381847011 0.002004446023652893 0 0.033484753052115054 0.0020060653636800665 0 0.033507674907541925 0.0020036772100568991 0 0.033484753052115054 0.0020060653636800665 0 0.033435290761804022 0.0020044475784712036 0 0.033484753052115054 0.0020060653636800665 0 0.03344213359196193 0.0020125879035896147 0 0.033435290761804022 0.0020044475784712036 0 0.033490355489765769 0.0020235104588957964 0 0.033484753052115054 0.0020060653636800665 0 0.03344213359196193 0.0020125879035896147 0 0.03344213359196193 0.0020125879035896147 0 0.033435290761804022 0.0020044475784712036 0 0.033361511629349361 0.0019932780393579624 0 0.03344213359196193 0.0020125879035896147 0 0.033361511629349361 0.0019932780393579624 0 0.033401369899261651 0.0020155805193977578 0 0.033361511629349361 0.0019932780393579624 0 0.033401369899261651 0.0020155805193977578 0 0.033374787215628074 0.0020346746250672039 0 0.033401369899261651 0.0020155805193977578 0 0.033434220426814688 0.0020273818815572889 0 0.033374787215628074 0.0020346746250672039 0 0.03344213359196193 0.0020125879035896147 0 0.033401369899261651 0.0020155805193977578 0 0.033434220426814688 0.0020273818815572889 0 0.033434220426814688 0.0020273818815572889 0 0.033448592685530805 0.0020347150076746581 0 0.033503463029026417 0.0020352661337421835 0 0.033490355489765769 0.0020235104588957964 0 0.03344213359196193 0.0020125879035896147 0 0.033434220426814688 0.0020273818815572889 0 0.033490355489765769 0.0020235104588957964 0 0.033434220426814688 0.0020273818815572889 0 0.033503463029026417 0.0020352661337421835 0 0.033490388609287151 0.00200853586311453 0 0.033468463451279927 0.0020019619942615954 0 0.033486516188300022 0.0020066211685253396 0 0.03345674252431665 0.0019998208696069392 0 0.033468463451279927 0.0020019619942615954 0 0.033440252277226329 0.0019916775256165831 0 0.03345674252431665 0.0019998208696069392 0 0.033490388609287151 0.00200853586311453 0 0.033468463451279927 0.0020019619942615954 0 0.033530712917441051 0.0020107826088760984 0 0.033490388609287151 0.00200853586311453 0 0.033486516188300022 0.0020066211685253396 0 0.033507674907541925 0.0020036772100568991 0 0.033435290761804022 0.0020044475784712036 0 0.033486516188300022 0.0020066211685253396 0 0.033468463451279927 0.0020019619942615954 0 0.033486516188300022 0.0020066211685253396 0 0.033440252277226329 0.0019916775256165831 0 0.033435290761804022 0.0020044475784712036 0 0.033486516188300022 0.0020066211685253396 0 0.033440252277226329 0.0019916775256165831 0 0.033435290761804022 0.0020044475784712036 0 0.033361511629349361 0.0019932780393579624 0 0.033440252277226329 0.0019916775256165831 0 0.033361511629349361 0.0019932780393579624 0 0.033440252277226329 0.0019916775256165831 0 0.033422746035384157 0.0019284635796916682 0 0.03345674252431665 0.0019998208696069392 0 0.033440252277226329 0.0019916775256165831 0 0.033422746035384157 0.0019284635796916682 0 0.016503646714071073 -0.000660308598484674 0 0.016611734886459759 8.9456834961658724e-05 0 0.018002860869287748 -0.00015904427026335215 0 0.024820369147055751 0.00068641835975417496 0 0.025244185867510479 0.00082953947531660824 0 0.016611734886459759 8.9456834961658724e-05 0 0.017464724537445461 0.00054675596980069245 0 0.018002860869287748 -0.00015904427026335215 0 0.017464724537445461 0.00054675596980069245 0 0.018002860869287748 -0.00015904427026335215 0 0.018181173785748919 0.0011459093498378684 0 0.025244185867510479 0.00082953947531660824 0 0.029683254170676458 0.0014750685485032953 0 0.033361511629349361 0.0019932780393579624 0 0.033422746035384157 0.0019284635796916682 0 0.03317038590245093 0.0016859595185225911 0 0.018002860869287748 -0.00015904427026335215 0 0.019039213170683241 0.0014395872154324509 0 0.018181173785748919 0.0011459093498378684 0 0.018002860869287748 -0.00015904427026335215 0 0.019039213170683241 0.0014395872154324509 0 0.020229683767164375 0.0014215084322587231 0 0.019039213170683241 0.0014395872154324509 0 0.018181173785748919 0.0011459093498378684 0 0.018526140403307894 0.0021167368617309337 0 0.018181173785748919 0.0011459093498378684 0 0.017610424363795087 0.0017740410136682699 0 0.018526140403307894 0.0021167368617309337 0 0.017464724537445461 0.00054675596980069245 0 0.018181173785748919 0.0011459093498378684 0 0.017610424363795087 0.0017740410136682699 0 0.016611734886459759 8.9456834961658724e-05 0 0.017464724537445461 0.00054675596980069245 0 0.016692084132312233 0.0012705238438831526 0 0.017464724537445461 0.00054675596980069245 0 0.017610424363795087 0.0017740410136682699 0 0.016692084132312233 0.0012705238438831526 0 0.033391871663280545 0.002048519749890604 0 0.033334874648182786 0.0020679068530921785 0 0.033341230930161211 0.002088270835215753 0 0.033391871663280545 0.002048519749890604 0 0.033374787215628074 0.0020346746250672039 0 0.033334874648182786 0.0020679068530921785 0 0.033413316965347079 0.0020573512835040317 0 0.033391871663280545 0.002048519749890604 0 0.033341230930161211 0.002088270835215753 0 0.033413316965347079 0.0020573512835040317 0 0.033448592685530805 0.0020347150076746581 0 0.033391871663280545 0.002048519749890604 0 0.033434220426814688 0.0020273818815572889 0 0.033448592685530805 0.0020347150076746581 0 0.033391871663280545 0.002048519749890604 0 0.033434220426814688 0.0020273818815572889 0 0.033391871663280545 0.002048519749890604 0 0.033374787215628074 0.0020346746250672039 0 0.033361511629349361 0.0019932780393579624 0 0.033334874648182786 0.0020679068530921785 0 0.033254452088231065 0.0021192296138208789 0 0.034366418746032433 0.0023089954038321291 0 0.029683254170676458 0.0014750685485032953 0 0.033361511629349361 0.0019932780393579624 0 0.033374787215628074 0.0020346746250672039 0 0.033334874648182786 0.0020679068530921785 0 0.033334874648182786 0.0020679068530921785 0 0.033254452088231065 0.0021192296138208789 0 0.033286071882006545 0.0021089130405884818 0 0.019039213170683241 0.0014395872154324509 0 0.020229683767164375 0.0014215084322587231 0 0.01974489900435776 0.0019935983975913649 0 0.033254452088231065 0.0021192296138208789 0 0.033226096838991748 0.0021335555013055193 0 0.033286071882006545 0.0021089130405884818 0 0.029683254170676458 0.0014750685485032953 0 0.03136068676129352 0.0025152953121268065 0 0.033226096838991748 0.0021335555013055193 0 0.033295088669921938 0.0021354536808072437 0 0.033286071882006545 0.0021089130405884818 0 0.033295088669921938 0.0021354536808072437 0 0.033286071882006545 0.0021089130405884818 0 0.033341230930161211 0.002088270835215753 0 0.033334874648182786 0.0020679068530921785 0 0.033286071882006545 0.0021089130405884818 0 0.033341230930161211 0.002088270835215753 0 0.033413316965347079 0.0020573512835040317 0 0.033377224073075092 0.0021094568687944483 0 0.033341230930161211 0.002088270835215753 0 0.033377224073075092 0.0021094568687944483 0 0.033295088669921938 0.0021354536808072437 0 0.033341230930161211 0.002088270835215753 0 0.033377224073075092 0.0021094568687944483 0 0.033295088669921938 0.0021354536808072437 0 0.033314051136855302 0.0021879554704462819 0 0.033295088669921938 0.0021354536808072437 0 0.033314051136855302 0.0021879554704462819 0 0.033252106726991436 0.0021890473023576567 0 0.033314051136855302 0.0021879554704462819 0 0.033246309660423301 0.0022573385477636107 0 0.033252106726991436 0.0021890473023576567 0 0.033314051136855302 0.0021879554704462819 0 0.033246309660423301 0.0022573385477636107 0 0.033342980014424005 0.0022824221828016398 0 0.033246309660423301 0.0022573385477636107 0 0.033252106726991436 0.0021890473023576567 0 0.033164253376882648 0.0022388340968687776 0 0.033226096838991748 0.0021335555013055193 0 0.033295088669921938 0.0021354536808072437 0 0.033252106726991436 0.0021890473023576567 0 0.033205796378601986 0.0020989350161322866 0 0.033226096838991748 0.0021335555013055193 0 0.033164253376882648 0.0022388340968687776 0 0.020229683767164375 0.0014215084322587231 0 0.02004191569400935 0.002498820271669768 0 0.020803105885772243 0.0030341901204521465 0 0.029683254170676458 0.0014750685485032953 0 0.026930489725499523 0.0024433803155437779 0 0.033226096838991748 0.0021335555013055193 0 0.033252106726991436 0.0021890473023576567 0 0.033164253376882648 0.0022388340968687776 0 0.020229683767164375 0.0014215084322587231 0 0.01974489900435776 0.0019935983975913649 0 0.02004191569400935 0.002498820271669768 0 0.01974489900435776 0.0019935983975913649 0 0.02004191569400935 0.002498820271669768 0 0.01941343431507217 0.0024706236509072377 0 0.02004191569400935 0.002498820271669768 0 0.019837002364733038 0.0032681515276676318 0 0.01941343431507217 0.0024706236509072377 0 0.02004191569400935 0.002498820271669768 0 0.019837002364733038 0.0032681515276676318 0 0.020803105885772243 0.0030341901204521465 0 0.019837002364733038 0.0032681515276676318 0 0.020803105885772243 0.0030341901204521465 0 0.020347030934673008 0.0038532097622331683 0 0.020347030934673008 0.0038532097622331683 0 0.021325679246357542 0.0047333161005415503 0 0.019416696823610028 0.0043534205325511466 0 0.026930489725499523 0.0024433803155437779 0 0.024765141282317875 0.0051051083988667353 0 0.020803105885772243 0.0030341901204521465 0 0.020347030934673008 0.0038532097622331683 0 0.021325679246357542 0.0047333161005415503 0 0.019837002364733038 0.0032681515276676318 0 0.020347030934673008 0.0038532097622331683 0 0.019416696823610028 0.0043534205325511466 0 0.033246309660423301 0.0022573385477636107 0 0.033135325704485789 0.0024017816565340949 0 0.033342980014424005 0.0022824221828016398 0 0.033246309660423301 0.0022573385477636107 0 0.033164253376882648 0.0022388340968687776 0 0.033135325704485789 0.0024017816565340949 0 0.024765141282317875 0.0051051083988667353 0 0.029306352454582144 0.0030335563460735407 0 0.021824553696254956 0.0054283687519995003 0 0.023367502945895458 0.006251481771548455 0 0.024125780303010158 0.0042882341026813878 0 0.015773882100508368 0.0032242794433400218 0 0.016843935889973984 0.0024878427329878407 0 0.016868009506524013 0.0037521174607350587 0 0.017610424363795087 0.0017740410136682699 0 0.016692084132312233 0.0012705238438831526 0 0.016843935889973984 0.0024878427329878407 0 0.017610424363795087 0.0017740410136682699 0 0.016843935889973984 0.0024878427329878407 0 0.017997680812350082 0.0027996083948481866 0 0.016843935889973984 0.0024878427329878407 0 0.017997680812350082 0.0027996083948481866 0 0.016868009506524013 0.0037521174607350587 0 0.017997680812350082 0.0027996083948481866 0 0.018526140403307894 0.0021167368617309337 0 0.018920893430312141 0.0032893450766180161 0 0.017610424363795087 0.0017740410136682699 0 0.017997680812350082 0.0027996083948481866 0 0.018526140403307894 0.0021167368617309337 0 0.019039213170683241 0.0014395872154324509 0 0.018526140403307894 0.0021167368617309337 0 0.01941343431507217 0.0024706236509072377 0 0.019039213170683241 0.0014395872154324509 0 0.01974489900435776 0.0019935983975913649 0 0.01941343431507217 0.0024706236509072377 0 0.018526140403307894 0.0021167368617309337 0 0.01941343431507217 0.0024706236509072377 0 0.018920893430312141 0.0032893450766180161 0 0.019837002364733038 0.0032681515276676318 0 0.01941343431507217 0.0024706236509072377 0 0.018920893430312141 0.0032893450766180161 0 0.018920893430312141 0.0032893450766180161 0 0.019416696823610028 0.0043534205325511466 0 0.018070401976433999 0.00402073900046045 0 0.019837002364733038 0.0032681515276676318 0 0.018920893430312141 0.0032893450766180161 0 0.019416696823610028 0.0043534205325511466 0 0.019416696823610028 0.0043534205325511466 0 0.018070401976433999 0.00402073900046045 0 0.018316005199832747 0.004999533640923935 0 0.017997680812350082 0.0027996083948481866 0 0.018920893430312141 0.0032893450766180161 0 0.018070401976433999 0.00402073900046045 0 0.015337675115918508 0.0047416426693842563 0 0.016868009506524013 0.0037521174607350587 0 0.017099657465545551 0.0053971945452545595 0 0.017997680812350082 0.0027996083948481866 0 0.018070401976433999 0.00402073900046045 0 0.016868009506524013 0.0037521174607350587 0 0.018070401976433999 0.00402073900046045 0 0.016868009506524013 0.0037521174607350587 0 0.017099657465545551 0.0053971945452545595 0 0.018070401976433999 0.00402073900046045 0 0.017099657465545551 0.0053971945452545595 0 0.018316005199832747 0.004999533640923935 0 0.014307907357048734 0.0069298631716723088 0 0.017099657465545551 0.0053971945452545595 0 0.017417038251866947 0.0069433750234339483 0 0.017099657465545551 0.0053971945452545595 0 0.017417038251866947 0.0069433750234339483 0 0.018649279518010771 0.0062719183527234273 0 0.019416696823610028 0.0043534205325511466 0 0.018649279518010771 0.0062719183527234273 0 0.018316005199832747 0.004999533640923935 0 0.017099657465545551 0.0053971945452545595 0 0.018649279518010771 0.0062719183527234273 0 0.018316005199832747 0.004999533640923935 0 0.0186054518845532 0.0081692130888014313 0 0.015867003984989313 0.0084797907654902416 0 0.016766479333892564 0.010069778619439293 0 0.017650694151933911 0.0086613075476406447 0 0.015461629260004486 0.0087696556343612696 0 0.017417038251866947 0.0069433750234339483 0 0.018649279518010771 0.0062719183527234273 0 0.019542420022360826 0.0077057590560616037 0 0.017865213489560671 0.0099467258506498058 0 0.016766479333892564 0.010069778619439293 0 0.017650694151933911 0.0086613075476406447 0 0.017417038251866947 0.0069433750234339483 0 0.019542420022360826 0.0077057590560616037 0 0.016440678561308639 0.0081929897058053199 0 0.014307907357048734 0.0069298631716723088 0 0.017417038251866947 0.0069433750234339483 0 0.016440678561308639 0.0081929897058053199 0 0.022188590656152678 0.0066936425375588573 0 0.022305838361822365 0.0075596743353551522 0 0.023367502945895458 0.006251481771548455 0 0.024765141282317875 0.0051051083988667353 0 0.022570128545404858 0.0061923537600929992 0 0.021824553696254956 0.0054283687519995003 0 0.022188590656152678 0.0066936425375588573 0 0.023367502945895458 0.006251481771548455 0 0.021814040462154693 0.0050917699488678006 0 0.018649279518010771 0.0062719183527234273 0 0.022188590656152678 0.0066936425375588573 0 0.018649279518010771 0.0062719183527234273 0 0.019542420022360826 0.0077057590560616037 0 0.022188590656152678 0.0066936425375588573 0 0.021325679246357542 0.0047333161005415503 0 0.019416696823610028 0.0043534205325511466 0 0.018649279518010771 0.0062719183527234273 0 0.024765141282317875 0.0051051083988667353 0 0.017445979777822879 0.0063685795362244998 0 0.018969918472450779 0.0098805825458636223 0 0.017650694151933911 0.0086613075476406447 0 0.020292977237137591 0.0079856044889675855 0 0.019542420022360826 0.0077057590560616037 0 0.022188590656152678 0.0066936425375588573 0 0.022305838361822365 0.0075596743353551522 0 0.0186054518845532 0.0081692130888014313 0 0.021392457145554922 0.0077981691896993411 0 0.018969918472450779 0.0098805825458636223 0 0.017865213489560671 0.0099467258506498058 0 0.017650694151933911 0.0086613075476406447 0 0.020123084835047246 0.0098337651239612783 0 0.018969918472450779 0.0098805825458636223 0 0.020292977237137591 0.0079856044889675855 0 0.020123084835047246 0.0098337651239612783 0 0.021601020137698709 0.010155846316287185 0 0.020292977237137591 0.0079856044889675855 0 0.021601020137698709 0.010155846316287185 0 0.020292977237137591 0.0079856044889675855 0 0.024650058861133667 0.0075858230521204453 0 0.024576024017634462 0.011028284731240765 0 0.021601020137698709 0.010155846316287185 0 0.024650058861133667 0.0075858230521204453 0 0.021392457145554922 0.0077981691896993411 0 0.024422104419592819 0.0075670141764950707 0 0.024576024017634462 0.011028284731240765 0 0.026847204411797151 0.0084806580579441428 0 0.028714462956381845 0.0096208001880478903 0 0.024576024017634462 0.011028284731240765 0 0.024650058861133667 0.0075858230521204453 0 0.026847204411797151 0.0084806580579441428 0 0.024650058861133667 0.0075858230521204453 0 0.026847204411797151 0.0084806580579441428 0 0.027408766714319938 0.0066586513272745554 0 0.024650058861133667 0.0075858230521204453 0 0.025613048972094085 0.0054935107381805584 0 0.027408766714319938 0.0066586513272745554 0 0.022305838361822365 0.0075596743353551522 0 0.024650058861133667 0.0075858230521204453 0 0.023367502945895458 0.006251481771548455 0 0.024650058861133667 0.0075858230521204453 0 0.023367502945895458 0.006251481771548455 0 0.025613048972094085 0.0054935107381805584 0 0.023367502945895458 0.006251481771548455 0 0.024125780303010158 0.0042882341026813878 0 0.025613048972094085 0.0054935107381805584 0 0.025613048972094085 0.0054935107381805584 0 0.026891496474944543 0.0031148338778386039 0 0.027566157404306759 0.0049424698600041058 0 0.024125780303010158 0.0042882341026813878 0 0.025613048972094085 0.0054935107381805584 0 0.026891496474944543 0.0031148338778386039 0 0.025613048972094085 0.0054935107381805584 0 0.027566157404306759 0.0049424698600041058 0 0.027408766714319938 0.0066586513272745554 0 0.029306352454582144 0.0030335563460735407 0 0.030030227832365693 0.0026908113026422771 0 0.033419608662596897 0.0021202181601722458 0 0.033439335484486798 0.0021921136481023429 0 0.033383658585955739 0.002180749803062727 0 0.033342980014424005 0.0022824221828016398 0 0.033439335484486798 0.0021921136481023429 0 0.033383658585955739 0.002180749803062727 0 0.033377224073075092 0.0021094568687944483 0 0.033314051136855302 0.0021879554704462819 0 0.033383658585955739 0.002180749803062727 0 0.033314051136855302 0.0021879554704462819 0 0.033342980014424005 0.0022824221828016398 0 0.033383658585955739 0.002180749803062727 0 0.030559630044367632 0.0040965471123331201 0 0.030693973515843898 0.0034052325211146113 0 0.029196439296045623 0.0038592849351819264 0 0.030559630044367632 0.0040965471123331201 0 0.031436117905722295 0.0037443299953889386 0 0.030693973515843898 0.0034052325211146113 0 0.030559630044367632 0.0040965471123331201 0 0.031436117905722295 0.0037443299953889386 0 0.031602675689487519 0.0045209878213483797 0 0.030462349165411143 0.0029736206257075766 0 0.031496918840183984 0.003289813516816442 0 0.030693973515843898 0.0034052325211146113 0 0.031436117905722295 0.0037443299953889386 0 0.031496918840183984 0.003289813516816442 0 0.030693973515843898 0.0034052325211146113 0 0.029868188398753905 0.0020448420902051067 0 0.030693973515843898 0.0034052325211146113 0 0.029196439296045623 0.0038592849351819264 0 0.031828690102779542 0.0024570142759475998 0 0.031000129196678966 0.0027885068863689024 0 0.033463463420741628 0.0021235638953864453 0 0.033498824880542337 0.0021469647301082294 0 0.033439335484486798 0.0021921136481023429 0 0.026891496474944543 0.0031148338778386039 0 0.029196439296045623 0.0038592849351819264 0 0.027566157404306759 0.0049424698600041058 0 0.029868188398753905 0.0020448420902051067 0 0.026891496474944543 0.0031148338778386039 0 0.029196439296045623 0.0038592849351819264 0 0.031828690102779542 0.0024570142759475998 0 0.030030227832365693 0.0026908113026422771 0 0.029196439296045623 0.0038592849351819264 0 0.027566157404306759 0.0049424698600041058 0 0.029513306015820747 0.0050485576144062355 0 0.027566157404306759 0.0049424698600041058 0 0.029513306015820747 0.0050485576144062355 0 0.027408766714319938 0.0066586513272745554 0 0.029513306015820747 0.0050485576144062355 0 0.030192687431093827 0.0069366440532477288 0 0.031602675689487519 0.0045209878213483797 0 0.030559630044367632 0.0040965471123331201 0 0.029513306015820747 0.0050485576144062355 0 0.031602675689487519 0.0045209878213483797 0 0.029574977397370375 0.0065862561653205007 0 0.030663111414559286 0.006143146466978046 0 0.0306974062996925 0.0049926422748837497 0 0.030503938214185296 0.0063274527352751705 0 0.031075109553395808 0.0049039614488919176 0 0.030559630044367632 0.0040965471123331201 0 0.029196439296045623 0.0038592849351819264 0 0.029513306015820747 0.0050485576144062355 0 0.029574977397370375 0.0065862561653205007 0 0.030663111414559286 0.006143146466978046 0 0.03029660879516578 0.0069378895583028285 0 0.029574977397370375 0.0065862561653205007 0 0.029945483175786099 0.0075481331448247662 0 0.03029660879516578 0.0069378895583028285 0 0.029513306015820747 0.0050485576144062355 0 0.030192687431093827 0.0069366440532477288 0 0.027408766714319938 0.0066586513272745554 0 0.030192687431093827 0.0069366440532477288 0 0.027408766714319938 0.0066586513272745554 0 0.028294094409281031 0.0079108549323563867 0 0.026847204411797151 0.0084806580579441428 0 0.027408766714319938 0.0066586513272745554 0 0.028294094409281031 0.0079108549323563867 0 0.030192687431093827 0.0069366440532477288 0 0.028294094409281031 0.0079108549323563867 0 0.028714462956381845 0.0096208001880478903 0 0.026847204411797151 0.0084806580579441428 0 0.028294094409281031 0.0079108549323563867 0 0.028714462956381845 0.0096208001880478903 0 0.030503938214185296 0.0063274527352751705 0 0.02388423860413913 0.0098236075953715574 0 0.029574977397370375 0.0065862561653205007 0 0.028776248941389714 0.0079597206968889927 0 0.029945483175786099 0.0075481331448247662 0 0.02388423860413913 0.0098236075953715574 0 0.027826177146922513 0.0076923547877453397 0 0.019646830212849305 0.009026728049464923 0 0.025588321777824535 0.0078393755973505674 0 0.026180188345858151 0.010002076534266697 0 0.014900083208978301 0.013221781034919739 0 0.015648254408353348 0.013549335256785483 0 0.014751967782615475 0.013447898581025127 0 0.020947807151941431 0.011701633476285776 0 0.023170174587789243 0.010619610678465655 0 0.025588321777824535 0.0078393755973505674 0 0.026180188345858151 0.010002076534266697 0 0.030593689023003343 0.0072373991328662556 0 0.015648254408353348 0.013549335256785483 0 0.014751967782615475 0.013447898581025127 0 0.014283477457309443 0.013768968645265575 0 0.027826177146922513 0.0076923547877453397 0 0.030116497211151644 0.0072276242750794802 0 0.029945483175786099 0.0075481331448247662 0 0.030593689023003343 0.0072373991328662556 0 0.03029660879516578 0.0069378895583028285 0 0.026180188345858151 0.010002076534266697 0 0.030593689023003343 0.0072373991328662556 0 0.032382799530817311 0.0074084796655575717 0 0.014900083208978301 0.013221781034919739 0 0.014751967782615475 0.013447898581025127 0 0.014208687358384405 0.013271603182954212 0 0.014751967782615475 0.013447898581025127 0 0.014208687358384405 0.013271603182954212 0 0.014283477457309443 0.013768968645265575 0 0.013702467424581415 0.012845510157873146 0 0.014208687358384405 0.013271603182954212 0 0.013668612266201214 0.013463908445165641 0 0.014208687358384405 0.013271603182954212 0 0.014283477457309443 0.013768968645265575 0 0.013668612266201214 0.013463908445165641 0 0.030593689023003343 0.0072373991328662556 0 0.032382799530817311 0.0074084796655575717 0 0.031760284003602292 0.0065363400479130449 0 0.023170174587789243 0.010619610678465655 0 0.024198962991683268 0.009945890164089673 0 0.032382799530817311 0.0074084796655575717 0 0.031760284003602292 0.0065363400479130449 0 0.033039049691646255 0.0057000248655405842 0 0.032382799530817311 0.0074084796655575717 0 0.033910026620607173 0.0063214359340268336 0 0.033039049691646255 0.0057000248655405842 0 0.031760284003602292 0.0065363400479130449 0 0.031894538909577511 0.0057556240191609029 0 0.033039049691646255 0.0057000248655405842 0 0.031760284003602292 0.0065363400479130449 0 0.031025136841617718 0.006528474368917847 0 0.031894538909577511 0.0057556240191609029 0 0.030663111414559286 0.006143146466978046 0 0.031025136841617718 0.006528474368917847 0 0.031894538909577511 0.0057556240191609029 0 0.030663111414559286 0.006143146466978046 0 0.03029660879516578 0.0069378895583028285 0 0.031025136841617718 0.006528474368917847 0 0.030593689023003343 0.0072373991328662556 0 0.03029660879516578 0.0069378895583028285 0 0.031025136841617718 0.006528474368917847 0 0.030593689023003343 0.0072373991328662556 0 0.031760284003602292 0.0065363400479130449 0 0.031025136841617718 0.006528474368917847 0 0.012658337525142395 0.013394716238680153 0 0.013184484867754327 0.013500390163948876 0 0.013159988350206167 0.013178939202003087 0 0.013184484867754327 0.013500390163948876 0 0.013668612266201214 0.013463908445165641 0 0.013251611540494954 0.013900449540648622 0 0.014283477457309443 0.013768968645265575 0 0.013668612266201214 0.013463908445165641 0 0.013251611540494954 0.013900449540648622 0 0.013184484867754327 0.013500390163948876 0 0.013159988350206167 0.013178939202003087 0 0.013668612266201214 0.013463908445165641 0 0.013702467424581415 0.012845510157873146 0 0.013159988350206167 0.013178939202003087 0 0.013668612266201214 0.013463908445165641 0 0.012658337525142395 0.013394716238680153 0 0.013251611540494954 0.013900449540648622 0 0.012549750924593319 0.013706573428661273 0 0.013251611540494954 0.013900449540648622 0 0.012573745421516888 0.013910393218942468 0 0.012549750924593319 0.013706573428661273 0 0.012658337525142395 0.013394716238680153 0 0.013184484867754327 0.013500390163948876 0 0.013251611540494954 0.013900449540648622 0 0.024198962991683268 0.009945890164089673 0 0.020833525303275983 0.0099009341994209712 0 0.033910026620607173 0.0063214359340268336 0 0.034639193566628694 0.0054019052693012248 0 0.035214150301390197 0.0054658532540628338 0 0.013251611540494954 0.013900449540648622 0 0.012573745421516888 0.013910393218942468 0 0.012525048217785488 0.013940101575350224 0 0.033910026620607173 0.0063214359340268336 0 0.034639193566628694 0.0054019052693012248 0 0.034197282897018316 0.0051705061461677897 0 0.034940497208534267 0.0051914200229886782 0 0.035214150301390197 0.0054658532540628338 0 0.035123779431482614 0.0049613314402384163 0 0.034940497208534267 0.0051914200229886782 0 0.034639193566628694 0.0054019052693012248 0 0.035214150301390197 0.0054658532540628338 0 0.034777486915929162 0.0049446811658220976 0 0.034940497208534267 0.0051914200229886782 0 0.035123779431482614 0.0049613314402384163 0 0.034777486915929162 0.0049446811658220976 0 0.034940497208534267 0.0051914200229886782 0 0.034639193566628694 0.0054019052693012248 0 0.034777486915929162 0.0049446811658220976 0 0.034639193566628694 0.0054019052693012248 0 0.034197282897018316 0.0051705061461677897 0 0.033780708456190536 0.0045952239162854892 0 0.033039049691646255 0.0057000248655405842 0 0.033037042458152699 0.0046131760688685264 0 0.033910026620607173 0.0063214359340268336 0 0.034197282897018316 0.0051705061461677897 0 0.033039049691646255 0.0057000248655405842 0 0.034197282897018316 0.0051705061461677897 0 0.033780708456190536 0.0045952239162854892 0 0.033039049691646255 0.0057000248655405842 0 0.033780708456190536 0.0045952239162854892 0 0.033037042458152699 0.0046131760688685264 0 0.033293296553539957 0.0037550223597318812 0 0.033780708456190536 0.0045952239162854892 0 0.034212783502925947 0.0040610285242080879 0 0.033293296553539957 0.0037550223597318812 0 0.033780708456190536 0.0045952239162854892 0 0.034212783502925947 0.0040610285242080879 0 0.034502757297536789 0.0045198958896990552 0 0.034197282897018316 0.0051705061461677897 0 0.033780708456190536 0.0045952239162854892 0 0.034502757297536789 0.0045198958896990552 0 0.034777486915929162 0.0049446811658220976 0 0.034197282897018316 0.0051705061461677897 0 0.034502757297536789 0.0045198958896990552 0 0.034212783502925947 0.0040610285242080879 0 0.034502757297536789 0.0045198958896990552 0 0.034912976204228757 0.0039735440815306441 0 0.034502757297536789 0.0045198958896990552 0 0.035050881862496219 0.0044962426439883593 0 0.034912976204228757 0.0039735440815306441 0 0.035050881862496219 0.0044962426439883593 0 0.034912976204228757 0.0039735440815306441 0 0.035427002194162047 0.0041934894789709314 0 0.034777486915929162 0.0049446811658220976 0 0.035050881862496219 0.0044962426439883593 0 0.035123779431482614 0.0049613314402384163 0 0.034777486915929162 0.0049446811658220976 0 0.034502757297536789 0.0045198958896990552 0 0.035050881862496219 0.0044962426439883593 0 0.0306974062996925 0.0049926422748837497 0 0.031894538909577511 0.0057556240191609029 0 0.032116475009900121 0.0045395111804381397 0 0.030663111414559286 0.006143146466978046 0 0.0306974062996925 0.0049926422748837497 0 0.031894538909577511 0.0057556240191609029 0 0.031894538909577511 0.0057556240191609029 0 0.033037042458152699 0.0046131760688685264 0 0.032116475009900121 0.0045395111804381397 0 0.031894538909577511 0.0057556240191609029 0 0.033039049691646255 0.0057000248655405842 0 0.033037042458152699 0.0046131760688685264 0 0.033037042458152699 0.0046131760688685264 0 0.032722317638389876 0.0040390082079507254 0 0.032116475009900121 0.0045395111804381397 0 0.032722317638389876 0.0040390082079507254 0 0.032329696547940448 0.0034096390781311837 0 0.033293296553539957 0.0037550223597318812 0 0.033037042458152699 0.0046131760688685264 0 0.032722317638389876 0.0040390082079507254 0 0.033293296553539957 0.0037550223597318812 0 0.032722317638389876 0.0040390082079507254 0 0.032116475009900121 0.0045395111804381397 0 0.032329696547940448 0.0034096390781311837 0 0.031075109553395808 0.0049039614488919176 0 0.032210405362860871 0.0034485533388955709 0 0.031436117905722295 0.0037443299953889386 0 0.031602675689487519 0.0045209878213483797 0 0.032329696547940448 0.0034096390781311837 0 0.0306974062996925 0.0049926422748837497 0 0.032116475009900121 0.0045395111804381397 0 0.032329696547940448 0.0034096390781311837 0 0.031436117905722295 0.0037443299953889386 0 0.031496918840183984 0.003289813516816442 0 0.032329696547940448 0.0034096390781311837 0 0.031496918840183984 0.003289813516816442 0 0.032329696547940448 0.0034096390781311837 0 0.032191544626416685 0.0027694805409887498 0 0.032329696547940448 0.0034096390781311837 0 0.032191544626416685 0.0027694805409887498 0 0.032645413823363771 0.0030473816713993706 0 0.032191544626416685 0.0027694805409887498 0 0.032521788835752109 0.002847920687184694 0 0.032645413823363771 0.0030473816713993706 0 0.032521788835752109 0.002847920687184694 0 0.032724742045208401 0.0028243531189499791 0 0.032645413823363771 0.0030473816713993706 0 0.032521788835752109 0.002847920687184694 0 0.032724742045208401 0.0028243531189499791 0 0.032683439719862047 0.0029529708997358666 0 0.032724742045208401 0.0028243531189499791 0 0.033424726805360419 0.0031196302379799807 0 0.033292322522392635 0.0024047302624274143 0 0.032724742045208401 0.0028243531189499791 0 0.033424726805360419 0.0031196302379799807 0 0.032645413823363771 0.0030473816713993706 0 0.033424726805360419 0.0031196302379799807 0 0.032645413823363771 0.0030473816713993706 0 0.033293296553539957 0.0037550223597318812 0 0.032329696547940448 0.0034096390781311837 0 0.032645413823363771 0.0030473816713993706 0 0.033293296553539957 0.0037550223597318812 0 0.033424726805360419 0.0031196302379799807 0 0.033293296553539957 0.0037550223597318812 0 0.034376508133507289 0.0035516062047780857 0 0.034212783502925947 0.0040610285242080879 0 0.033293296553539957 0.0037550223597318812 0 0.034376508133507289 0.0035516062047780857 0 0.034212783502925947 0.0040610285242080879 0 0.034376508133507289 0.0035516062047780857 0 0.034912976204228757 0.0039735440815306441 0 0.034376508133507289 0.0035516062047780857 0 0.034912976204228757 0.0039735440815306441 0 0.035173158861691624 0.0034912998289209386 0 0.034912976204228757 0.0039735440815306441 0 0.035173158861691624 0.0034912998289209386 0 0.035462578744240802 0.0037324913826592039 0 0.035259725408341658 0.0029984435909509088 0 0.035709316858511427 0.0032118874357770599 0 0.035638888926135467 0.0033296993027925109 0 0.035173158861691624 0.0034912998289209386 0 0.035259725408341658 0.0029984435909509088 0 0.035638888926135467 0.0033296993027925109 0 0.034376508133507289 0.0035516062047780857 0 0.035173158861691624 0.0034912998289209386 0 0.035259725408341658 0.0029984435909509088 0 0.033424726805360419 0.0031196302379799807 0 0.034376508133507289 0.0035516062047780857 0 0.035259725408341658 0.0029984435909509088 0 0.033424726805360419 0.0031196302379799807 0 0.035259725408341658 0.0029984435909509088 0 0.033292322522392635 0.0024047302624274143 0 0.035259725408341658 0.0029984435909509088 0 0.035724972894722304 0.0033155260973955379 0 0.035991009987546778 0.0032645429739407081 0 0.035208388453318834 0.0029864467578418295 0 0.034684378106230852 0.0028939220094516198 0 0.035724972894722304 0.0033155260973955379 0 0.035966393322304509 0.0034380448159546588 0 0.035991009987546778 0.0032645429739407081 0 0.035259725408341658 0.0029984435909509088 0 0.035724972894722304 0.0033155260973955379 0 0.035709316858511427 0.0032118874357770599 0 0.035724972894722304 0.0033155260973955379 0 0.035998139279240747 0.0033521136575858407 0 0.035709316858511427 0.0032118874357770599 0 0.036063652181688763 0.0034937705690656212 0 0.035966393322304509 0.0034380448159546588 0 0.036202045226610725 0.0036281659295341324 0 0.035724972894722304 0.0033155260973955379 0 0.036063652181688763 0.0034937705690656212 0 0.035966393322304509 0.0034380448159546588 0 0.035724972894722304 0.0033155260973955379 0 0.036063652181688763 0.0034937705690656212 0 0.035998139279240747 0.0033521136575858407 0 0.035966393322304509 0.0034380448159546588 0 0.035991567131717826 0.0034079374435794052 0 0.035991009987546778 0.0032645429739407081 0 0.035976431878060058 0.0034343767542475371 0 0.035991567131717826 0.0034079374435794052 0 0.035992350386114959 0.003434935546314649 0 0.035966393322304509 0.0034380448159546588 0 0.035976431878060058 0.0034343767542475371 0 0.035991567131717826 0.0034079374435794052 0 0.036013239336814849 0.0034019708738914143 0 0.036044837278501184 0.0033870291484990587 0 0.035992350386114959 0.003434935546314649 0 0.035991567131717826 0.0034079374435794052 0 0.036022284630012592 0.0033767430317194706 0 0.035991009987546778 0.0032645429739407081 0 0.035991567131717826 0.0034079374435794052 0 0.036013239336814849 0.0034019708738914143 0 0.035992350386114959 0.003434935546314649 0 0.035991567131717826 0.0034079374435794052 0 0.036022284630012592 0.0033767430317194706 0 0.036013239336814849 0.0034019708738914143 0 0.036022284630012592 0.0033767430317194706 0 0.036013239336814849 0.0034019708738914143 0 0.036044837278501184 0.0033870291484990587 0 0.036021164010266164 0.0033837119377690583 0 0.036044837278501184 0.0033870291484990587 0 0.036044330164580689 0.0033693571217777111 0 0.036022284630012592 0.0033767430317194706 0 0.036044837278501184 0.0033870291484990587 0 0.036044330164580689 0.0033693571217777111 0 0.032724742045208401 0.0028243531189499791 0 0.032605785674342677 0.0030125430034595758 0 0.032683439719862047 0.0029529708997358666 0 0.03295802444808997 0.0032092237746437248 0 0.032605785674342677 0.0030125430034595758 0 0.032683439719862047 0.0029529708997358666 0 0.034317413672484441 0.0031775824140673151 0 0.034684378106230852 0.0028939220094516198 0 0.036022284630012592 0.0033767430317194706 0 0.036044330164580689 0.0033693571217777111 0 0.035991009987546778 0.0032645429739407081 0 0.032724742045208401 0.0028243531189499791 0 0.032605785674342677 0.0030125430034595758 0 0.033292322522392635 0.0024047302624274143 0 0.028774527713957651 0.0040217741502792479 0 0.029378650971925328 0.003879409339251043 0 0.028826220113903771 0.0046701075667845192 0 0.035565983851090124 0.00260272660088013 0 0.035221718720734395 0.0024333000988615737 0 0.035477100459582314 0.0029781544655064461 0 0.035565983851090124 0.00260272660088013 0 0.036078011790473222 0.0022967964675371677 0 0.035350953365568226 0.0023595249275542231 0 0.035565983851090124 0.00260272660088013 0 0.035350953365568226 0.0023595249275542231 0 0.035221718720734395 0.0024333000988615737 0 0.035565983851090124 0.00260272660088013 0 0.035785338823652042 0.0028744860193551901 0 0.036078011790473222 0.0022967964675371677 0 0.033660498315943324 0.0038348878025291073 0 0.035327742420138239 0.0029335745168647151 0 0.035785338823652042 0.0028744860193551901 0 0.036078011790473222 0.0022967964675371677 0 0.036123984508101711 0.0030518358195685109 0 0.033660498315943324 0.0038348878025291073 0 0.028703458096609621 0.0041724300021872499 0 0.020144591844568724 0.0047790534656139434 0 0.021483027659344425 0.00530263935638744 0 0.02250893736755406 0.0041424223833150479 0 0.035419349699528285 0.0022002911932263859 0 0.035221718720734395 0.0024333000988615737 0 0.033445955570311568 0.0021697969425374911 0 0.020144591844568724 0.0047790534656139434 0 0.020177676582337135 0.0060371066037544236 0 0.020672448779953851 0.0055436768046000784 0 0.028703458096609621 0.0041724300021872499 0 0.02777497761548646 0.0031087803118976503 0 0.020144591844568724 0.0047790534656139434 0 0.021483027659344425 0.00530263935638744 0 0.020672448779953851 0.0055436768046000784 0 0.028703458096609621 0.0041724300021872499 0 0.031024194652347584 0.0022857281839534162 0 0.035221718720734395 0.0024333000988615737 0 0.034547131066251138 0.0031314169525946491 0 0.033445955570311568 0.0021697969425374911 0 0.035221718720734395 0.0024333000988615737 0 0.034547131066251138 0.0031314169525946491 0 0.035477100459582314 0.0029781544655064461 0 0.034547131066251138 0.0031314169525946491 0 0.035477100459582314 0.0029781544655064461 0 0.035675823332878782 0.0036416062047999226 0 0.035477100459582314 0.0029781544655064461 0 0.035937211272086031 0.0032632061728860174 0 0.035675823332878782 0.0036416062047999226 0 0.036123984508101711 0.0030518358195685109 0 0.035937211272086031 0.0032632061728860174 0 0.036371000492405638 0.0036263594248330411 0 0.035937211272086031 0.0032632061728860174 0 0.036371000492405638 0.0036263594248330411 0 0.035675823332878782 0.0036416062047999226 0 0.035565983851090124 0.00260272660088013 0 0.035785338823652042 0.0028744860193551901 0 0.035477100459582314 0.0029781544655064461 0 0.035785338823652042 0.0028744860193551901 0 0.035477100459582314 0.0029781544655064461 0 0.035937211272086031 0.0032632061728860174 0 0.035785338823652042 0.0028744860193551901 0 0.036123984508101711 0.0030518358195685109 0 0.035937211272086031 0.0032632061728860174 0 0.036123984508101711 0.0030518358195685109 0 0.036239760693817132 0.0033762211794195517 0 0.036371000492405638 0.0036263594248330411 0 0.036239760693817132 0.0033762211794195517 0 0.036539303775828327 0.0037798371848444755 0 0.036371000492405638 0.0036263594248330411 0 0.036063652181688763 0.0034937705690656212 0 0.036248051848208299 0.0035526740412926863 0 0.036347322763759959 0.0037192919495319218 0 0.036063652181688763 0.0034937705690656212 0 0.036248051848208299 0.0035526740412926863 0 0.035998139279240747 0.0033521136575858407 0 0.036239760693817132 0.0033762211794195517 0 0.036248051848208299 0.0035526740412926863 0 0.036539303775828327 0.0037798371848444755 0 0.036239760693817132 0.0033762211794195517 0 0.036248051848208299 0.0035526740412926863 0 0.035998139279240747 0.0033521136575858407 0 0.036239760693817132 0.0033762211794195517 0 0.035998139279240747 0.0033521136575858407 0 0.035981086757185379 0.0032249830664692379 0 0.035998139279240747 0.0033521136575858407 0 0.035709316858511427 0.0032118874357770599 0 0.035981086757185379 0.0032249830664692379 0 0.035709316858511427 0.0032118874357770599 0 0.035981086757185379 0.0032249830664692379 0 0.035638888926135467 0.0033296993027925109 0 0.036104479241587384 0.0032481367311038892 0 0.035981086757185379 0.0032249830664692379 0 0.036046238023222439 0.0034245564999554386 0 0.036104479241587384 0.0032481367311038892 0 0.036123984508101711 0.0030518358195685109 0 0.035981086757185379 0.0032249830664692379 0 0.036123984508101711 0.0030518358195685109 0 0.036239760693817132 0.0033762211794195517 0 0.035981086757185379 0.0032249830664692379 0 0.035981086757185379 0.0032249830664692379 0 0.035920329840406669 0.0033864062445728535 0 0.036046238023222439 0.0034245564999554386 0 0.035430731317749396 0.004754561848494137 0 0.025496177145284342 0.0074110476330182095 0 0.035920329840406669 0.0033864062445728535 0 0.035763471130900476 0.0035975274400561171 0 0.036162146202842964 0.0037447105182967472 0 0.025496177145284342 0.0074110476330182095 0 0.025715355347505464 0.0050996189312485602 0 0.035920329840406669 0.0033864062445728535 0 0.03594029243747697 0.0035507646323968841 0 0.036046238023222439 0.0034245564999554386 0 0.035981086757185379 0.0032249830664692379 0 0.035920329840406669 0.0033864062445728535 0 0.035638888926135467 0.0033296993027925109 0 0.035638888926135467 0.0033296993027925109 0 0.035462578744240802 0.0037324913826592039 0 0.035763471130900476 0.0035975274400561171 0 0.035920329840406669 0.0033864062445728535 0 0.035638888926135467 0.0033296993027925109 0 0.035763471130900476 0.0035975274400561171 0 0.035173158861691624 0.0034912998289209386 0 0.035638888926135467 0.0033296993027925109 0 0.035462578744240802 0.0037324913826592039 0 0.035462578744240802 0.0037324913826592039 0 0.035763471130900476 0.0035975274400561171 0 0.035731267855268797 0.0039346881157257896 0 0.035462578744240802 0.0037324913826592039 0 0.035731267855268797 0.0039346881157257896 0 0.035427002194162047 0.0041934894789709314 0 0.034912976204228757 0.0039735440815306441 0 0.035462578744240802 0.0037324913826592039 0 0.035427002194162047 0.0041934894789709314 0 0.012691443637028024 0.015258536637133273 0 0.013886896412124605 0.013938628837398539 0 0.012772673687762979 0.01432431673416152 0 0.035731267855268797 0.0039346881157257896 0 0.036162146202842964 0.0037447105182967472 0 0.035788492698714723 0.0044597562518355052 0 0.025496177145284342 0.0074110476330182095 0 0.025211280011717942 0.0090942058688276151 0 0.035763471130900476 0.0035975274400561171 0 0.035731267855268797 0.0039346881157257896 0 0.036162146202842964 0.0037447105182967472 0 0.012691443637028024 0.015258536637133273 0 0.012064714284969814 0.014147132950295079 0 0.012772673687762979 0.01432431673416152 0 0.01994625412092272 0.0073893410526217826 0 0.019060999562235986 0.0064459310969932808 0 0.019409304851606451 0.0084495793294954331 0 0.025715355347505464 0.0050996189312485602 0 0.014136408848586237 0.011507733676587903 0 0.020294264599613625 0.0077197310327106238 0 0.021241954238747991 0.0063726447553240093 0 0.021498758088044457 0.0095851336372736618 0 0.025496177145284342 0.0074110476330182095 0 0.014136408848586237 0.011507733676587903 0 0.01994625412092272 0.0073893410526217826 0 0.020172093636412428 0.0084559019363775762 0 0.019409304851606451 0.0084495793294954331 0 0.020144591844568724 0.0047790534656139434 0 0.019060999562235986 0.0064459310969932808 0 0.020177676582337135 0.0060371066037544236 0 0.028703458096609621 0.0041724300021872499 0 0.025715355347505464 0.0050996189312485602 0 0.019060999562235986 0.0064459310969932808 0 0.019937439579943456 0.006645504946568459 0 0.020177676582337135 0.0060371066037544236 0 0.01994625412092272 0.0073893410526217826 0 0.019060999562235986 0.0064459310969932808 0 0.019937439579943456 0.006645504946568459 0 0.033660498315943324 0.0038348878025291073 0 0.025715355347505464 0.0050996189312485602 0 0.021483027659344425 0.00530263935638744 0 0.020855001329820388 0.0066742515592045871 0 0.022196570181878511 0.0065521181169608603 0 0.021483027659344425 0.00530263935638744 0 0.020672448779953851 0.0055436768046000784 0 0.020855001329820388 0.0066742515592045871 0 0.020177676582337135 0.0060371066037544236 0 0.020672448779953851 0.0055436768046000784 0 0.020855001329820388 0.0066742515592045871 0 0.019937439579943456 0.006645504946568459 0 0.020177676582337135 0.0060371066037544236 0 0.020855001329820388 0.0066742515592045871 0 0.01994625412092272 0.0073893410526217826 0 0.019937439579943456 0.006645504946568459 0 0.020855001329820388 0.0066742515592045871 0 0.020855001329820388 0.0066742515592045871 0 0.020690254031474373 0.0078783297137182146 0 0.021959198304199231 0.0078565847379365988 0 0.01994625412092272 0.0073893410526217826 0 0.020855001329820388 0.0066742515592045871 0 0.020690254031474373 0.0078783297137182146 0 0.01994625412092272 0.0073893410526217826 0 0.020690254031474373 0.0078783297137182146 0 0.020172093636412428 0.0084559019363775762 0 0.020690254031474373 0.0078783297137182146 0 0.020605430090634359 0.0089252805385341867 0 0.021959198304199231 0.0078565847379365988 0 0.020605430090634359 0.0089252805385341867 0 0.020172093636412428 0.0084559019363775762 0 0.020299833148859601 0.0090936726721634036 0 0.020605430090634359 0.0089252805385341867 0 0.020299833148859601 0.0090936726721634036 0 0.020231195373561023 0.0089177917307227839 0 0.020690254031474373 0.0078783297137182146 0 0.020605430090634359 0.0089252805385341867 0 0.020172093636412428 0.0084559019363775762 0 0.014136408848586237 0.011507733676587903 0 0.009669040395278862 0.013952585612107219 0 0.0059478544872483101 0.015233296914384757 0 0.0054574686827065537 0.012188917730578864 0 0.0042420017905824741 0.012968413562813575 0 0.020172093636412428 0.0084559019363775762 0 0.019409304851606451 0.0084495793294954331 0 0.020299833148859601 0.0090936726721634036 0 0.012064714284969814 0.014147132950295079 0 0.011931531570414372 0.013718703870201868 0 0.012261744099835322 0.013858999775992316 0 0.014136408848586237 0.011507733676587903 0 0.013407692275828166 0.0119515634507935 0 0.011931531570414372 0.013718703870201868 0 0.012261744099835322 0.013858999775992316 0 0.0121219039597333 0.013802270182834316 0 0.011931531570414372 0.013718703870201868 0 0.0121219039597333 0.013802270182834316 0 0.011993263685365813 0.013682326324460373 0 0.013407692275828166 0.0119515634507935 0 -0.0015705718819648896 0.0084080938587790949 0 0.020299833148859601 0.0090936726721634036 0 0.020141334822970331 0.0086505364215200518 0 0.020231195373561023 0.0089177917307227839 0 0.0054574686827065537 0.012188917730578864 0 0.0042420017905824741 0.012968413562813575 0 0.0025882656516567808 0.010679133447487169 0 0.035384944837792066 0.0046495874013134965 0 0.035788492698714723 0.0044597562518355052 0 0.035214150301390197 0.0054658532540628338 0 0.035050881862496219 0.0044962426439883593 0 0.035384944837792066 0.0046495874013134965 0 0.035123779431482614 0.0049613314402384163 0 0.035050881862496219 0.0044962426439883593 0 0.035384944837792066 0.0046495874013134965 0 0.035427002194162047 0.0041934894789709314 0 0.035731267855268797 0.0039346881157257896 0 0.035427002194162047 0.0041934894789709314 0 0.035788492698714723 0.0044597562518355052 0 0.035384944837792066 0.0046495874013134965 0 0.035427002194162047 0.0041934894789709314 0 0.035788492698714723 0.0044597562518355052 0 0.012680795209199711 0.013563929987510964 0 0.012000620397244722 0.013895797590369184 0 0.013886896412124605 0.013938628837398539 0 0.013082027024843755 0.013894153361969173 0 0.013762544491049808 0.012660788594332234 0 0.013082027024843755 0.013894153361969173 0 0.012261744099835322 0.013858999775992316 0 0.013762544491049808 0.012660788594332234 0 0.013886896412124605 0.013938628837398539 0 0.013082027024843755 0.013894153361969173 0 0.012772673687762979 0.01432431673416152 0 0.013082027024843755 0.013894153361969173 0 0.012772673687762979 0.01432431673416152 0 0.012261744099835322 0.013858999775992316 0 0.012064714284969814 0.014147132950295079 0 0.012772673687762979 0.01432431673416152 0 0.012261744099835322 0.013858999775992316 0 0.012261744099835322 0.013858999775992316 0 0.0121219039597333 0.013802270182834316 0 0.012209752456745748 0.0138879688242725 0 0.0121219039597333 0.013802270182834316 0 0.012172331740848301 0.013792248372600313 0 0.011993263685365813 0.013682326324460373 0 0.0121219039597333 0.013802270182834316 0 0.012172331740848301 0.013792248372600313 0 0.012209752456745748 0.0138879688242725 0 0.025211280011717942 0.0090942058688276151 0 0.020833525303275983 0.0099009341994209712 0 0.013886896412124605 0.013938628837398539 0 0.013762544491049808 0.012660788594332234 0 0.015699773807232184 0.011659851019237029 0 0.012000620397244722 0.013895797590369184 0 0.020833525303275983 0.0099009341994209712 0 0.012172331740848301 0.013792248372600313 0 0.012209752456745748 0.0138879688242725 0 0.012312831880929189 0.01385497186482434 0 0.012209752456745748 0.0138879688242725 0 0.012312831880929189 0.01385497186482434 0 0.012517329753814598 0.013919885127035065 0 0.012172331740848301 0.013792248372600313 0 0.012312831880929189 0.01385497186482434 0 0.012332250888438761 0.013774132815884349 0 0.012312831880929189 0.01385497186482434 0 0.012437818482417569 0.013853260284138176 0 0.012332250888438761 0.013774132815884349 0 0.012312831880929189 0.01385497186482434 0 0.012437818482417569 0.013853260284138176 0 0.012517329753814598 0.013919885127035065 0 0.012437818482417569 0.013853260284138176 0 0.012475494922099133 0.013802584989681715 0 0.012332250888438761 0.013774132815884349 0 0.012437818482417569 0.013853260284138176 0 0.012573745421516888 0.013910393218942468 0 0.012475494922099133 0.013802584989681715 0 0.019449002739295264 0.01134475757893371 0 0.020833525303275983 0.0099009341994209712 0 0.012437818482417569 0.013853260284138176 0 0.012573745421516888 0.013910393218942468 0 0.012517329753814598 0.013919885127035065 0 0.035384944837792066 0.0046495874013134965 0 0.035214150301390197 0.0054658532540628338 0 0.035123779431482614 0.0049613314402384163 0 0.012549750924593319 0.013706573428661273 0 0.012332250888438761 0.013774132815884349 0 0.012131583515611383 0.013588509154399344 0 0.012658337525142395 0.013394716238680153 0 0.012549750924593319 0.013706573428661273 0 0.012131583515611383 0.013588509154399344 0 0.012549750924593319 0.013706573428661273 0 0.012475494922099133 0.013802584989681715 0 0.012332250888438761 0.013774132815884349 0 0.012573745421516888 0.013910393218942468 0 0.012549750924593319 0.013706573428661273 0 0.012475494922099133 0.013802584989681715 0 0.012172331740848301 0.013792248372600313 0 0.012332250888438761 0.013774132815884349 0 0.012131583515611383 0.013588509154399344 0 0.012131583515611383 0.013588509154399344 0 0.011993263685365813 0.013682326324460373 0 0.011629887321629459 0.01346671428399058 0 0.012172331740848301 0.013792248372600313 0 0.012131583515611383 0.013588509154399344 0 0.011993263685365813 0.013682326324460373 0 0.012131583515611383 0.013588509154399344 0 0.011962559892440158 0.013142821044082618 0 0.011629887321629459 0.01346671428399058 0 -0.0044640664103343273 0.011380165181116682 0 -0.0081957528061134197 0.010160554407836048 0 0.012658337525142395 0.013394716238680153 0 0.012131583515611383 0.013588509154399344 0 0.011962559892440158 0.013142821044082618 0 -0.022645925240437518 0.0071407831329584328 0 -0.022983750459677866 0.007299443820819462 0 -0.022873653063372024 0.0074349908108494569 0 -0.0015705718819648896 0.0084080938587790949 0 -0.0081957528061134197 0.010160554407836048 0 0.0054574686827065537 0.012188917730578864 0 0.0025882656516567808 0.010679133447487169 0 0.0049935461728531274 0.0091444433599368515 0 0.009669040395278862 0.013952585612107219 0 -0.0081957528061134197 0.010160554407836048 0 0.011931531570414372 0.013718703870201868 0 0.011993263685365813 0.013682326324460373 0 0.011629887321629459 0.01346671428399058 0 -0.023977335368702554 0.0077673970191991758 0 -0.0081957528061134197 0.010160554407836048 0 -0.023189846708062619 0.0090049038640052596 0 -0.021795119907684898 0.0093476356796384774 0 -0.022922317870050831 0.010050546187658242 0 -0.022645925240437518 0.0071407831329584328 0 -0.022873653063372024 0.0074349908108494569 0 -0.022612694649908099 0.0073522725804822586 0 -0.023151678349406971 0.0076019173952618898 0 -0.022983750459677866 0.007299443820819462 0 -0.022873653063372024 0.0074349908108494569 0 -0.022728531018190969 0.0075721768237823634 0 -0.022873653063372024 0.0074349908108494569 0 -0.022612694649908099 0.0073522725804822586 0 -0.022478222064711478 0.0076005601304755333 0 -0.022728531018190969 0.0075721768237823634 0 -0.022612694649908099 0.0073522725804822586 0 -0.021296721655597244 0.0082784189186637901 0 -0.014515701850656808 0.0066270653347492948 0 -0.0049302101358437954 0.0079498149534410617 0 -0.0053458252583787795 0.0071644350320176934 0 -0.0047644650276614485 0.006617448836777051 0 -0.0057824204904011016 0.0064069868007199885 0 -0.0053458252583787795 0.0071644350320176934 0 -0.0047644650276614485 0.006617448836777051 0 -0.0057824204904011016 0.0064069868007199885 0 -0.0047644650276614485 0.006617448836777051 0 -0.0049590060375311763 0.0058931020127395897 0 -0.0015705718819648896 0.0084080938587790949 0 -0.014515701850656808 0.0066270653347492948 0 -0.0047644650276614485 0.006617448836777051 0 -0.0039692364172404003 0.0067990767421922524 0 -0.004120063427072768 0.0053872423487839908 0 -0.0049302101358437954 0.0079498149534410617 0 -0.0047644650276614485 0.006617448836777051 0 -0.0039692364172404003 0.0067990767421922524 0 -0.021296721655597244 0.0082784189186637901 0 -0.02616503887394217 0.008100210475696 0 -0.021296721655597244 0.0082784189186637901 0 -0.010074451307394403 0.0068595206616146182 0 -0.018996310280650835 0.00862805409916244 0 -0.017664413443603501 0.007915608635190299 0 -0.017993828324793557 0.0072861857503772462 0 -0.03312620608705151 0.0082619613914272395 0 -0.03318159504642984 0.0081986833549119471 0 -0.032985946348033847 0.0077305767342660814 0 -0.02616503887394217 0.008100210475696 0 -0.025506396019387735 0.0077368277141180103 0 -0.017664413443603501 0.007915608635190299 0 -0.017242200993273511 0.0072518942841476074 0 -0.016523109446199238 0.0071621047465957538 0 -0.016888942542851858 0.006697352943538004 0 -0.016523109446199238 0.0071621047465957538 0 -0.016260151688073678 0.0063272348122087223 0 -0.017242200993273511 0.0072518942841476074 0 -0.016888942542851858 0.006697352943538004 0 -0.016523109446199238 0.0071621047465957538 0 -0.016888942542851858 0.006697352943538004 0 -0.017993828324793557 0.0072861857503772462 0 -0.017053396311483261 0.0061082437058743956 0 -0.010074451307394403 0.0068595206616146182 0 -0.0064740990575332452 0.0056580572382956612 0 -0.017242200993273511 0.0072518942841476074 0 -0.016888942542851858 0.006697352943538004 0 -0.017993828324793557 0.0072861857503772462 0 -0.017664413443603501 0.007915608635190299 0 -0.017242200993273511 0.0072518942841476074 0 -0.017993828324793557 0.0072861857503772462 0 -0.0064740990575332452 0.0056580572382956612 0 0.012263307299228575 0.0072830459198468239 0 -0.0039692364172404003 0.0067990767421922524 0 -0.0030909289500656457 0.0056331135523017732 0 -0.004120063427072768 0.0053872423487839908 0 0.0040341739297688377 0.0033111867276577689 0 0.0012962908821650772 0.0046402221557577819 0 -0.0013279022241871835 0.0020952238446168663 0 -0.0064740990575332452 0.0056580572382956612 0 -0.0076275111324439291 0.0044446104841374323 0 -0.016888942542851858 0.006697352943538004 0 -0.017053396311483261 0.0061082437058743956 0 -0.016260151688073678 0.0063272348122087223 0 0.0035455466147268524 0.0040293200440913038 0 0.0040341739297688377 0.0033111867276577689 0 0.0012962908821650772 0.0046402221557577819 0 -0.0049286491649543412 0.0043939134111103317 0 -0.0064740990575332452 0.0056580572382956612 0 0.0035455466147268524 0.0040293200440913038 0 0.0040386883536642475 0.0033165337096848586 0 0.0051803137925377314 0.0084008661168542883 0 0.0051803137925377314 0.0084008661168542883 0 0.0015732693081634476 0.0071478062785830625 0 -0.00045161676119035555 0.01198122588539938 0 0.0012962908821650772 0.0046402221557577819 0 0.0015732693081634476 0.0071478062785830625 0 -0.0013519511191674373 0.0066185461162146554 0 0.0035455466147268524 0.0040293200440913038 0 0.0012962908821650772 0.0046402221557577819 0 0.0015732693081634476 0.0071478062785830625 0 0.0035455466147268524 0.0040293200440913038 0 0.0051803137925377314 0.0084008661168542883 0 0.0015732693081634476 0.0071478062785830625 0 0.0040386883536642475 0.0033165337096848586 0 0.0051803137925377314 0.0084008661168542883 0 0.010840822411235233 0.0048541534229045655 0 0.015967932862692606 0.008457193479237405 0 0.012263307299228575 0.0072830459198468239 0 0.025650496665698148 0.0084313807898052824 0 0.024156846797363993 0.0095956725585937784 0 0.024609753137396748 0.0078745052960345653 0 0.024156846797363993 0.0095956725585937784 0 0.023366199949773261 0.0083981115611062879 0 0.024609753137396748 0.0078745052960345653 0 0.012263307299228575 0.0072830459198468239 0 0.022907463169902196 0.0095986730145438039 0 0.024156846797363993 0.0095956725585937784 0 0.023366199949773261 0.0083981115611062879 0 0.022574080440505639 0.0093705234681653836 0 0.020605430090634359 0.0089252805385341867 0 0.022574080440505639 0.0093705234681653836 0 0.021959198304199231 0.0078565847379365988 0 0.020605430090634359 0.0089252805385341867 0 0.019896745408332361 0.0091603086257201222 0 0.020231195373561023 0.0089177917307227839 0 0.020056284765888874 0.0088669612193616274 0 0.022907463169902196 0.0095986730145438039 0 0.023366199949773261 0.0083981115611062879 0 0.022574080440505639 0.0093705234681653836 0 0.021959198304199231 0.0078565847379365988 0 -0.0015705718819648896 0.0084080938587790949 0 0.0080195680288727925 0.0069854293153862141 0 0.020141334822970331 0.0086505364215200518 0 0.020231195373561023 0.0089177917307227839 0 0.019807777609902724 0.0087331397268653362 0 0.019896745408332361 0.0091603086257201222 0 0.020231195373561023 0.0089177917307227839 0 0.019807777609902724 0.0087331397268653362 0 0.012263307299228575 0.0072830459198468239 0 0.0080195680288727925 0.0069854293153862141 0 0.019156235182642919 0.0090345747046555094 0 0.019896745408332361 0.0091603086257201222 0 0.019807777609902724 0.0087331397268653362 0 -0.0047644650276614485 0.006617448836777051 0 -0.004120063427072768 0.0053872423487839908 0 -0.0049590060375311763 0.0058931020127395897 0 -0.033205018122485844 0.0078143195760218467 0 -0.033316855397059128 0.0077186723056290344 0 -0.033127106601017926 0.0078126344085739704 0 -0.033421544770678671 0.0076567504430196552 0 -0.033174849347709166 0.0078468917335461057 0 -0.033316855397059128 0.0077186723056290344 0 -0.033174849347709166 0.0078468917335461057 0 -0.033316855397059128 0.0077186723056290344 0 -0.033127106601017926 0.0078126344085739704 0 -0.033127106601017926 0.0078126344085739704 0 -0.033147608358828275 0.0078358095885587078 0 -0.033004807952449658 0.0078248048965173043 0 -0.034310709364443054 0.008540219977388807 0 -0.021316252275505619 0.0059503509181705379 0 -0.032374115603629378 0.0078522552922754684 0 -0.032137806428634688 0.00713357714797337 0 -0.031644137508494638 0.0068490009158893332 0 -0.032374115603629378 0.0078522552922754684 0 -0.032214811387802626 0.0071282840308506028 0 -0.032137806428634688 0.00713357714797337 0 -0.032493659352468507 0.0075513085690858926 0 -0.034310709364443054 0.008540219977388807 0 -0.033174849347709166 0.0078468917335461057 0 -0.033127106601017926 0.0078126344085739704 0 -0.033147608358828275 0.0078358095885587078 0 -0.033174849347709166 0.0078468917335461057 0 -0.032995130461605696 0.0079726216079576088 0 -0.033147608358828275 0.0078358095885587078 0 -0.032995130461605696 0.0079726216079576088 0 -0.032374115603629378 0.0078522552922754684 0 -0.03285837729613468 0.0079959202188101229 0 -0.03312620608705151 0.0082619613914272395 0 -0.03285837729613468 0.0079959202188101229 0 -0.032985946348033847 0.0077305767342660814 0 -0.032374115603629378 0.0078522552922754684 0 -0.03285837729613468 0.0079959202188101229 0 -0.032985946348033847 0.0077305767342660814 0 -0.032374115603629378 0.0078522552922754684 0 -0.032985946348033847 0.0077305767342660814 0 -0.032214811387802626 0.0071282840308506028 0 -0.025506396019387735 0.0077368277141180103 0 -0.019115225267324027 0.0059255972887720986 0 -0.016523109446199238 0.0071621047465957538 0 -0.016260151688073678 0.0063272348122087223 0 -0.015509462271186766 0.0064945495431287716 0 -0.0076275111324439291 0.0044446104841374323 0 -0.019115225267324027 0.0059255972887720986 0 -0.0013279022241871835 0.0020952238446168663 0 -0.0013519511191674373 0.0066185461162146554 0 -0.0065928923581498886 0.0047024926319317812 0 0.0012962908821650772 0.0046402221557577819 0 -0.0013279022241871835 0.0020952238446168663 0 -0.0013519511191674373 0.0066185461162146554 0 -0.0013519511191674373 0.0066185461162146554 0 -0.0055871896762510649 0.008390127479673026 0 -0.00045161676119035555 0.01198122588539938 0 0.0015732693081634476 0.0071478062785830625 0 -0.0013519511191674373 0.0066185461162146554 0 -0.00045161676119035555 0.01198122588539938 0 0.0014656348035016361 0.0042918349997148643 0 -0.0060116644284410048 -1.9504545480371184e-05 0 -0.0013519511191674373 0.0066185461162146554 0 -0.0055871896762510649 0.008390127479673026 0 -0.0065928923581498886 0.0047024926319317812 0 -0.0055871896762510649 0.008390127479673026 0 -0.0065928923581498886 0.0047024926319317812 0 -0.010731660856289089 0.0047544136563351953 0 -0.0013279022241871835 0.0020952238446168663 0 -0.0065928923581498886 0.0047024926319317812 0 -0.006750939022684822 0.00089922005463437173 0 -0.0065928923581498886 0.0047024926319317812 0 -0.009992178954049101 0.0028739491868578089 0 -0.010731660856289089 0.0047544136563351953 0 -0.0065928923581498886 0.0047024926319317812 0 -0.006750939022684822 0.00089922005463437173 0 -0.009992178954049101 0.0028739491868578089 0 -0.019115225267324027 0.0059255972887720986 0 -0.021316252275505619 0.0059503509181705379 0 -0.032217259282937817 0.0071093755269378755 0 -0.032137806428634688 0.00713357714797337 0 -0.031644137508494638 0.0068490009158893332 0 -0.019115225267324027 0.0059255972887720986 0 -0.020403816070616001 0.0057506769353022997 0 -0.033205018122485844 0.0078143195760218467 0 -0.033127106601017926 0.0078126344085739704 0 -0.032982716544627075 0.0078361531495796857 0 -0.033127106601017926 0.0078126344085739704 0 -0.032982716544627075 0.0078361531495796857 0 -0.033004807952449658 0.0078248048965173043 0 -0.0099005367329365827 0.0003818437000398009 0 -0.015009660678195272 0.0035084279422977218 0 -0.012877236454680901 -0.0017671777103492067 0 -0.012145060069191988 -0.00080073497398988472 0 -0.0060116644284410048 -1.9504545480371184e-05 0 -0.012145060069191988 -0.00080073497398988472 0 -0.021316252275505619 0.0059503509181705379 0 -0.021316252275505619 0.0059503509181705379 0 -0.0060116644284410048 -1.9504545480371184e-05 0 0.0093364931409431716 0.00036779946068477638 0 0.0052955885141361073 -0.0025094196129496586 0 0.0028980768490833187 0.0036550988958512754 0 -0.0016716976361752804 -0.0029936601492877584 0 -0.0017183068817175687 -0.0030320509126647373 0 -0.0013414927093075332 -0.0032211048275006759 0 -0.0060116644284410048 -1.9504545480371184e-05 0 0.0060640744430778357 -0.0016141368880427196 0 -0.0017183068817175687 -0.0030320509126647373 0 -0.0013414927093075332 -0.0032211048275006759 0 -0.0014599418047531497 -0.0033770340775346442 0 -0.0014312850536272262 -0.0033066182987484885 0 -0.0013414927093075332 -0.0032211048275006759 0 -0.0014164888369523308 -0.0033356653910361633 0 -0.012145060069191988 -0.00080073497398988472 0 0.0024042592616465744 -0.0048649839659453253 0 -0.0014400192996476132 -0.0033341350167886206 0 -0.0013414927093075332 -0.0032211048275006759 0 -0.0014164888369523308 -0.0033356653910361633 0 -0.018122317505814136 0.0023910259587370288 0 -0.012145060069191988 -0.00080073497398988472 0 -0.0014400192996476132 -0.0033341350167886206 0 -0.0014717893312668677 -0.0034747803893544903 0 -0.0014164888369523308 -0.0033356653910361633 0 -0.0014717893312668677 -0.0034747803893544903 0 -0.0014312850536272262 -0.0033066182987484885 0 -0.0014164888369523308 -0.0033356653910361633 0 -0.0010383650210386384 -0.0029686660820915029 0 -0.00073978632226469278 -0.0028346574046488357 0 -0.00059514687245905472 -0.0031699574587101898 0 0.0093205165188820077 -0.00032478179773585281 0 0.0060640744430778357 -0.0016141368880427196 0 -0.0010383650210386384 -0.0029686660820915029 0 -0.00096488226022223571 -0.0027414047690368691 0 -0.00073978632226469278 -0.0028346574046488357 0 -0.0012040509569012298 -0.0032353597763277223 0 -0.0010383650210386384 -0.0029686660820915029 0 -0.00059514687245905472 -0.0031699574587101898 0 -0.0012040509569012298 -0.0032353597763277223 0 -0.0013414927093075332 -0.0032211048275006759 0 -0.0014599418047531497 -0.0033770340775346442 0 -0.0038169579304052044 -0.0038278816474506673 0 0.0060640744430778357 -0.0016141368880427196 0 0.02001411750079099 0.00060280418868733558 0 0.019982731985110979 0.00055475881639779402 0 0.019510554547285602 0.00089030869210983735 0 0.0202877635613802 0.00061452557186203731 0 0.020052316831608352 0.00098265195421170484 0 0.02001411750079099 0.00060280418868733558 0 0.020052316831608352 0.00098265195421170484 0 0.02001411750079099 0.00060280418868733558 0 0.019510554547285602 0.00089030869210983735 0 0.0202877635613802 0.00061452557186203731 0 0.02001411750079099 0.00060280418868733558 0 0.019971255651757242 0.00053597636524110133 0 0.029057059155263319 -0.00014722047273798061 0 0.031263080457941517 0.0012787182141025591 0 0.03080329315914735 0.0053367999148808114 0 0.029183634773538195 0.0064411370174943571 0 0.029237451324902436 0.005154625782092955 0 0.031263080457941517 0.0012787182141025591 0 0.021254091999416507 0.0049971664051585533 0 0.0093364931409431716 0.00036779946068477638 0 0.0028980768490833187 0.0036550988958512754 0 0.010215852804496162 0.0052596846397824377 0 0.0060640744430778357 -0.0016141368880427196 0 0.021254091999416507 0.0049971664051585533 0 0.0093364931409431716 0.00036779946068477638 0 0.010215852804496162 0.0052596846397824377 0 0.013388742040745276 0.0032708838363715623 0 0.0014656348035016361 0.0042918349997148643 0 0.01365114620650996 0.0068636661581793802 0 0.026851676208924844 0.007115874702866125 0 0.026473598390992406 0.0073774151329807922 0 0.026375133905932581 0.0073006579349353343 0 0.021254091999416507 0.0049971664051585533 0 0.01365114620650996 0.0068636661581793802 0 0.01365114620650996 0.0068636661581793802 0 0.019988649091203157 0.0094497347539651815 0 0.026851676208924844 0.007115874702866125 0 0.026375133905932581 0.0073006579349353343 0 0.026246168258765783 0.006865148264982259 0 0.021254091999416507 0.0049971664051585533 0 0.028299669349923718 0.0069210404936634624 0 0.029183634773538195 0.0064411370174943571 0 0.028547584650712561 0.0057146219874012697 0 0.027690157468519279 0.0063890210214409705 0 0.029183634773538195 0.0064411370174943571 0 0.028547584650712561 0.0057146219874012697 0 0.029237451324902436 0.005154625782092955 0 0.028537150660804131 0.004723015108619652 0 0.029185201045107797 0.0036669509010248897 0 0.029237451324902436 0.005154625782092955 0 0.028547584650712561 0.0057146219874012697 0 0.028537150660804131 0.004723015108619652 0 0.027852699942737345 0.0054550135541077517 0 0.028547584650712561 0.0057146219874012697 0 0.028537150660804131 0.004723015108619652 0 0.029237451324902436 0.005154625782092955 0 0.028537150660804131 0.004723015108619652 0 0.029185201045107797 0.0036669509010248897 0 0.028512641954229825 0.0034200395461710894 0 0.029185201045107797 0.0036669509010248897 0 0.028512641954229825 0.0034200395461710894 0 0.028577055526761923 0.0043567276527299199 0 0.044623526156554592 -0.0018409415911971945 0 0.041710459186996861 -0.0012492434063892065 0 0.044171076180553201 0.00043739544711620309 0 0.03080329315914735 0.0053367999148808114 0 0.029185201045107797 0.0036669509010248897 0 0.029237451324902436 0.005154625782092955 0 0.031263080457941517 0.0012787182141025591 0 0.037673519127515202 0.00096871333957651497 0 0.042133728386329436 -0.0047822132422239514 0 0.041710459186996861 -0.0012492434063892065 0 0.039590409207695687 -0.003244317439176113 0 0.042133728386329436 -0.0047822132422239514 0 0.044623526156554592 -0.0018409415911971945 0 0.041710459186996861 -0.0012492434063892065 0 0.038616069732910048 -0.0009872015731078774 0 0.041710459186996861 -0.0012492434063892065 0 0.039590409207695687 -0.003244317439176113 0 0.031263080457941517 0.0012787182141025591 0 0.024897382359918986 -0.0018590750706219228 0 0.0202877635613802 0.00061452557186203731 0 0.019971255651757242 0.00053597636524110133 0 0.020514243774065327 0.00013296926035969564 0 -0.00096488226022223571 -0.0027414047690368691 0 -0.00073978632226469278 -0.0028346574046488357 0 -0.00075087120310000184 -0.0026383753789567649 0 0.0093205165188820077 -0.00032478179773585281 0 0.024897382359918986 -0.0018590750706219228 0 0.023317123736395984 0.0056195348320677999 0 0.023391835070598471 0.0072575802290338427 0 0.025232941162808203 0.0062287770550923313 0 0.021483027659344425 0.00530263935638744 0 0.023317123736395984 0.0056195348320677999 0 0.022196570181878511 0.0065521181169608603 0 0.023317123736395984 0.0056195348320677999 0 0.022196570181878511 0.0065521181169608603 0 0.023391835070598471 0.0072575802290338427 0 0.022196570181878511 0.0065521181169608603 0 0.021959198304199231 0.0078565847379365988 0 0.023391835070598471 0.0072575802290338427 0 0.020855001329820388 0.0066742515592045871 0 0.022196570181878511 0.0065521181169608603 0 0.021959198304199231 0.0078565847379365988 0 0.023366199949773261 0.0083981115611062879 0 0.021959198304199231 0.0078565847379365988 0 0.023391835070598471 0.0072575802290338427 0 0.023391835070598471 0.0072575802290338427 0 0.024609753137396748 0.0078745052960345653 0 0.025232941162808203 0.0062287770550923313 0 0.023366199949773261 0.0083981115611062879 0 0.023391835070598471 0.0072575802290338427 0 0.024609753137396748 0.0078745052960345653 0 0.024609753137396748 0.0078745052960345653 0 0.025675494287826076 0.0073627652644689878 0 0.025232941162808203 0.0062287770550923313 0 0.025650496665698148 0.0084313807898052824 0 0.024609753137396748 0.0078745052960345653 0 0.025675494287826076 0.0073627652644689878 0 0.015967932862692606 0.008457193479237405 0 0.01365114620650996 0.0068636661581793802 0 0.025650496665698148 0.0084313807898052824 0 0.026602804675543788 0.0074817527625168391 0 0.026375133905932581 0.0073006579349353343 0 0.025650496665698148 0.0084313807898052824 0 0.025675494287826076 0.0073627652644689878 0 0.026375133905932581 0.0073006579349353343 0 0.025675494287826076 0.0073627652644689878 0 0.026375133905932581 0.0073006579349353343 0 0.026246168258765783 0.006865148264982259 0 0.028299669349923718 0.0069210404936634624 0 0.024787721459871077 0.0061389271963826148 0 0.025675494287826076 0.0073627652644689878 0 0.026246168258765783 0.006865148264982259 0 0.025232941162808203 0.0062287770550923313 0 0.027690157468519279 0.0063890210214409705 0 0.026941789625414877 0.0057294554526238625 0 0.025232941162808203 0.0062287770550923313 0 0.028547584650712561 0.0057146219874012697 0 0.027690157468519279 0.0063890210214409705 0 0.027852699942737345 0.0054550135541077517 0 0.027690157468519279 0.0063890210214409705 0 0.026941789625414877 0.0057294554526238625 0 0.027852699942737345 0.0054550135541077517 0 0.026941789625414877 0.0057294554526238625 0 0.025232941162808203 0.0062287770550923313 0 0.027213256786098837 0.004826897923961195 0 0.025232941162808203 0.0062287770550923313 0 0.027213256786098837 0.004826897923961195 0 0.025230761433275115 0.0035148132703808313 0 0.028537150660804131 0.004723015108619652 0 0.027213256786098837 0.004826897923961195 0 0.028512641954229825 0.0034200395461710894 0 0.028537150660804131 0.004723015108619652 0 0.027852699942737345 0.0054550135541077517 0 0.027213256786098837 0.004826897923961195 0 0.026941789625414877 0.0057294554526238625 0 0.027852699942737345 0.0054550135541077517 0 0.027213256786098837 0.004826897923961195 0 0.028438641204726584 0.0033295411406796425 0 0.028188891394790923 0.0030774051134563217 0 0.027213256786098837 0.004826897923961195 0 0.028512641954229825 0.0034200395461710894 0 0.025230761433275115 0.0035148132703808313 0 0.028512641954229825 0.0034200395461710894 0 0.031048862901552138 0.0025073276797512607 0 0.030160256480851723 0.0040285542883287551 0 0.028188891394790923 0.0030774051134563217 0 0.02777497761548646 0.0031087803118976503 0 0.031048862901552138 0.0025073276797512607 0 0.033445955570311568 0.0021697969425374911 0 0.032441546387436231 0.0042590831774183069 0 0.023317123736395984 0.0056195348320677999 0 0.025230761433275115 0.0035148132703808313 0 0.02250893736755406 0.0041424223833150479 0 0.023317123736395984 0.0056195348320677999 0 0.025232941162808203 0.0062287770550923313 0 0.025230761433275115 0.0035148132703808313 0 0.021483027659344425 0.00530263935638744 0 0.023317123736395984 0.0056195348320677999 0 0.02250893736755406 0.0041424223833150479 0 0.034547131066251138 0.0031314169525946491 0 0.033445955570311568 0.0021697969425374911 0 0.032441546387436231 0.0042590831774183069 0 0.034547131066251138 0.0031314169525946491 0 0.032441546387436231 0.0042590831774183069 0 0.034971341113904909 0.0045872867609556833 0 0.033794997444642941 0.0057777003680463124 0 0.034798420603103342 0.0047540111571195334 0 0.033145287494803687 0.0061343471745597686 0 0.032441546387436231 0.0042590831774183069 0 0.034971341113904909 0.0045872867609556833 0 0.033145287494803687 0.0061343471745597686 0 0.032441546387436231 0.0042590831774183069 0 0.031792843102679144 0.0061672689619991158 0 0.032441546387436231 0.0042590831774183069 0 0.030590305767473375 0.0054133353383994448 0 0.031792843102679144 0.0061672689619991158 0 0.032441546387436231 0.0042590831774183069 0 0.030160256480851723 0.0040285542883287551 0 0.030590305767473375 0.0054133353383994448 0 0.031048862901552138 0.0025073276797512607 0 0.032441546387436231 0.0042590831774183069 0 0.030160256480851723 0.0040285542883287551 0 0.030160256480851723 0.0040285542883287551 0 0.030590305767473375 0.0054133353383994448 0 0.028577055526761923 0.0043567276527299199 0 0.028512641954229825 0.0034200395461710894 0 0.030160256480851723 0.0040285542883287551 0 0.028577055526761923 0.0043567276527299199 0 0.034950914024235689 0.0058649757090672812 0 0.038101088554099688 0.0027604663472367698 0 0.030590305767473375 0.0054133353383994448 0 0.030311125209886002 0.0068200706156946169 0 0.028577055526761923 0.0043567276527299199 0 0.047411813416987143 0.0033354289603866713 0 0.046550197748079503 0.0012472362534747077 0 0.046353488444705174 0.0029808218954154191 0 0.03087403495230814 0.0061949408480903908 0 0.034950914024235689 0.0058649757090672812 0 0.030590305767473375 0.0054133353383994448 0 0.031199440784981755 0.0065445164727725323 0 0.031792843102679144 0.0061672689619991158 0 0.030590305767473375 0.0054133353383994448 0 0.031199440784981755 0.0065445164727725323 0 0.030517577337969715 0.0066446304289792821 0 0.034950914024235689 0.0058649757090672812 0 0.032342644705115282 0.0058343237062725021 0 0.031199440784981755 0.0065445164727725323 0 0.031095424049499054 0.0071524431713178406 0 0.031467470521701631 0.0072977413644400267 0 0.031199440784981755 0.0065445164727725323 0 0.030517577337969715 0.0066446304289792821 0 0.031095424049499054 0.0071524431713178406 0 0.047411813416987143 0.0033354289603866713 0 0.046614599669227347 0.0036309664444114467 0 0.046353488444705174 0.0029808218954154191 0 0.046614599669227347 0.0036309664444114467 0 0.046353488444705174 0.0029808218954154191 0 0.046088487433404698 0.0040647670917719038 0 0.047411813416987143 0.0033354289603866713 0 0.046614599669227347 0.0036309664444114467 0 0.046568851338932779 0.0041204819378873178 0 0.047411813416987143 0.0033354289603866713 0 0.046568851338932779 0.0041204819378873178 0 0.046768077459772295 0.0046262936948229198 0 0.046568851338932779 0.0041204819378873178 0 0.046088487433404698 0.0040647670917719038 0 0.046078365900751699 0.0044495938080134183 0 0.046614599669227347 0.0036309664444114467 0 0.046568851338932779 0.0041204819378873178 0 0.046088487433404698 0.0040647670917719038 0 0.046568851338932779 0.0041204819378873178 0 0.046392490009715182 0.0045520493677538168 0 0.046768077459772295 0.0046262936948229198 0 0.046568851338932779 0.0041204819378873178 0 0.046392490009715182 0.0045520493677538168 0 0.046078365900751699 0.0044495938080134183 0 0.046392490009715182 0.0045520493677538168 0 0.046078365900751699 0.0044495938080134183 0 0.046087200257469443 0.0046194926890344122 0 0.031171084283872399 0.0076771446640382483 0 0.038281696537227836 0.0062859097963102115 0 0.030925402529493416 0.0069164354334258103 0 0.031095424049499054 0.0071524431713178406 0 0.030751610839664462 0.0077764607104868827 0 0.031095424049499054 0.0071524431713178406 0 0.031467470521701631 0.0072977413644400267 0 0.030751610839664462 0.0077764607104868827 0 0.034950914024235689 0.0058649757090672812 0 0.038281696537227836 0.0062859097963102115 0 0.033136745054726177 0.0074173814216696365 0 0.033152163358453487 0.0070014404955919905 0 0.032851530817267424 0.0074778332903993371 0 0.033136745054726177 0.0074173814216696365 0 0.03330338098312817 0.0073091875175374226 0 0.033152163358453487 0.0070014404955919905 0 0.033136745054726177 0.0074173814216696365 0 0.03330338098312817 0.0073091875175374226 0 0.033509631212108745 0.0075774615151831329 0 0.03330338098312817 0.0073091875175374226 0 0.033821636305815327 0.0069744297277304843 0 0.033152163358453487 0.0070014404955919905 0 0.03330338098312817 0.0073091875175374226 0 0.033509631212108745 0.0075774615151831329 0 0.033821636305815327 0.0069744297277304843 0 0.033509631212108745 0.0075774615151831329 0 0.033821636305815327 0.0069744297277304843 0 0.035123307789179069 0.0076994364767955592 0 0.039630434532365519 0.0077876737967211597 0 0.039365643832103878 0.0077114301842264449 0 0.033884003598728174 0.0058109469677178754 0 0.033821636305815327 0.0069744297277304843 0 0.035123307789179069 0.0076994364767955592 0 0.033145287494803687 0.0061343471745597686 0 0.031792843102679144 0.0061672689619991158 0 0.031467470521701631 0.0072977413644400267 0 0.033794997444642941 0.0057777003680463124 0 0.031171084283872399 0.0076771446640382483 0 0.033884003598728174 0.0058109469677178754 0 0.033821636305815327 0.0069744297277304843 0 0.033152163358453487 0.0070014404955919905 0 0.031199440784981755 0.0065445164727725323 0 0.031792843102679144 0.0061672689619991158 0 0.031467470521701631 0.0072977413644400267 0 0.037208081060014844 0.0014447017169369177 0 0.040076544328681581 0.0024037304138706029 0 0.040119271219135978 0.00050977963134607506 0 0.040076544328681581 0.0024037304138706029 0 0.040119271219135978 0.00050977963134607506 0 0.042552591444348357 0.0016097597032107118 0 0.040076544328681581 0.0024037304138706029 0 0.042552591444348357 0.0016097597032107118 0 0.041171414104792491 0.0044587396663678964 0 0.038616069732910048 -0.0009872015731078774 0 0.041710459186996861 -0.0012492434063892065 0 0.040119271219135978 0.00050977963134607506 0 0.041710459186996861 -0.0012492434063892065 0 0.040119271219135978 0.00050977963134607506 0 0.042552591444348357 0.0016097597032107118 0 0.041710459186996861 -0.0012492434063892065 0 0.042552591444348357 0.0016097597032107118 0 0.044171076180553201 0.00043739544711620309 0 0.042552591444348357 0.0016097597032107118 0 0.044973407853421944 0.0022945977985226744 0 0.044171076180553201 0.00043739544711620309 0 0.042552591444348357 0.0016097597032107118 0 0.044973407853421944 0.0022945977985226744 0 0.044359574813405196 0.0042290156424005269 0 0.044623526156554592 -0.0018409415911971945 0 0.044171076180553201 0.00043739544711620309 0 0.046550197748079503 0.0012472362534747077 0 0.037673519127515202 0.00096871333957651497 0 0.038101088554099688 0.0027604663472367698 0 0.044973407853421944 0.0022945977985226744 0 0.044171076180553201 0.00043739544711620309 0 0.046550197748079503 0.0012472362534747077 0 0.044973407853421944 0.0022945977985226744 0 0.046550197748079503 0.0012472362534747077 0 0.046353488444705174 0.0029808218954154191 0 0.044973407853421944 0.0022945977985226744 0 0.046353488444705174 0.0029808218954154191 0 0.045412376685417373 0.0038278428110780334 0 0.046353488444705174 0.0029808218954154191 0 0.045412376685417373 0.0038278428110780334 0 0.046088487433404698 0.0040647670917719038 0 0.045412376685417373 0.0038278428110780334 0 0.046088487433404698 0.0040647670917719038 0 0.045652298682426019 0.0044992405390242296 0 0.046088487433404698 0.0040647670917719038 0 0.046078365900751699 0.0044495938080134183 0 0.045652298682426019 0.0044992405390242296 0 0.046078365900751699 0.0044495938080134183 0 0.045652298682426019 0.0044992405390242296 0 0.045831355969911829 0.0046084527047444415 0 0.045412376685417373 0.0038278428110780334 0 0.045652298682426019 0.0044992405390242296 0 0.045210305043890966 0.0045015330774063828 0 0.045652298682426019 0.0044992405390242296 0 0.045210305043890966 0.0045015330774063828 0 0.045714402700701214 0.0045141931388722493 0 0.045412376685417373 0.0038278428110780334 0 0.045210305043890966 0.0045015330774063828 0 0.044359574813405196 0.0042290156424005269 0 0.044973407853421944 0.0022945977985226744 0 0.045412376685417373 0.0038278428110780334 0 0.044359574813405196 0.0042290156424005269 0 0.042552591444348357 0.0016097597032107118 0 0.044359574813405196 0.0042290156424005269 0 0.041171414104792491 0.0044587396663678964 0 0.044444831723254134 0.0043788435689118528 0 0.044049737285254645 0.0060301141908830451 0 0.044359574813405196 0.0042290156424005269 0 0.041171414104792491 0.0044587396663678964 0 0.041800773709529018 0.0078749449957129826 0 0.045210305043890966 0.0045015330774063828 0 0.044359574813405196 0.0042290156424005269 0 0.046130771677670164 0.0046569169797609552 0 0.039438770549909019 0.0069708450918301986 0 0.041171414104792491 0.0044587396663678964 0 0.041800773709529018 0.0078749449957129826 0 0.038759417497914186 0.0044003784632535769 0 0.039438770549909019 0.0069708450918301986 0 0.041171414104792491 0.0044587396663678964 0 0.038759417497914186 0.0044003784632535769 0 0.040076544328681581 0.0024037304138706029 0 0.041171414104792491 0.0044587396663678964 0 0.047206732208430933 0.0041206176454092096 0 0.046130771677670164 0.0046569169797609552 0 0.046713603039256243 0.0041815057849284559 0 0.0472343749388143 0.0040974645533884326 0 0.046915787557419292 0.003980815902919637 0 0.046713603039256243 0.0041815057849284559 0 0.0472343749388143 0.0040974645533884326 0 0.047206732208430933 0.0041206176454092096 0 0.046713603039256243 0.0041815057849284559 0 0.039514792618442027 0.010980831329564933 0 0.039239186667494701 0.0090238823225036215 0 0.041800773709529018 0.0078749449957129826 0 0.042966064793021383 0.0080052551618079847 0 0.044049737285254645 0.0060301141908830451 0 0.039438770549909019 0.0069708450918301986 0 0.039239186667494701 0.0090238823225036215 0 0.041800773709529018 0.0078749449957129826 0 0.046130771677670164 0.0046569169797609552 0 0.046205523207548713 0.004275601695325643 0 0.045714402700701214 0.0045141931388722493 0 0.046130771677670164 0.0046569169797609552 0 0.046205523207548713 0.004275601695325643 0 0.046713603039256243 0.0041815057849284559 0 0.045210305043890966 0.0045015330774063828 0 0.046130771677670164 0.0046569169797609552 0 0.045714402700701214 0.0045141931388722493 0 0.046915787557419292 0.003980815902919637 0 0.046713603039256243 0.0041815057849284559 0 0.046579315583698856 0.0039820985428310569 0 0.046205523207548713 0.004275601695325643 0 0.046579315583698856 0.0039820985428310569 0 0.046233327819856111 0.0040021035840341144 0 0.046205523207548713 0.004275601695325643 0 0.046713603039256243 0.0041815057849284559 0 0.046579315583698856 0.0039820985428310569 0 0.046233327819856111 0.0040021035840341144 0 0.045882662424311001 0.0042331634477390532 0 0.046050753543434055 0.0038985005473642018 0 0.046233327819856111 0.0040021035840341144 0 0.045939690780304264 0.0043685580200860438 0 0.045882662424311001 0.0042331634477390532 0 0.046205523207548713 0.004275601695325643 0 0.046233327819856111 0.0040021035840341144 0 0.045939690780304264 0.0043685580200860438 0 0.046205523207548713 0.004275601695325643 0 0.045939690780304264 0.0043685580200860438 0 0.045714402700701214 0.0045141931388722493 0 0.045652298682426019 0.0044992405390242296 0 0.045714402700701214 0.0045141931388722493 0 0.045791755779416035 0.0045435008684919856 0 0.045939690780304264 0.0043685580200860438 0 0.045791755779416035 0.0045435008684919856 0 0.045856741049023812 0.0044249194772937924 0 0.045939690780304264 0.0043685580200860438 0 0.045714402700701214 0.0045141931388722493 0 0.045791755779416035 0.0045435008684919856 0 0.045822184412536632 0.0045648754660632075 0 0.045791755779416035 0.0045435008684919856 0 0.045856741049023812 0.0044249194772937924 0 0.045822184412536632 0.0045648754660632075 0 0.045797566955464365 0.0044271187571667293 0 0.045856741049023812 0.0044249194772937924 0 0.045822184412536632 0.0045648754660632075 0 0.045791755779416035 0.0045435008684919856 0 0.045831355969911829 0.0046084527047444415 0 0.045652298682426019 0.0044992405390242296 0 0.045791755779416035 0.0045435008684919856 0 0.045831355969911829 0.0046084527047444415 0 0.046078365900751699 0.0044495938080134183 0 0.045831355969911829 0.0046084527047444415 0 0.046087200257469443 0.0046194926890344122 0 0.045831355969911829 0.0046084527047444415 0 0.045839571298522813 0.0046808198371000899 0 0.046087200257469443 0.0046194926890344122 0 0.045839571298522813 0.0046808198371000899 0 0.045753484570993659 0.0045182050959713697 0 0.045630031111542839 0.0045708545242900021 0 0.045822184412536632 0.0045648754660632075 0 0.045831355969911829 0.0046084527047444415 0 0.045839571298522813 0.0046808198371000899 0 0.045822184412536632 0.0045648754660632075 0 0.045839571298522813 0.0046808198371000899 0 0.045753484570993659 0.0045182050959713697 0 0.045822184412536632 0.0045648754660632075 0 0.045753484570993659 0.0045182050959713697 0 0.045797566955464365 0.0044271187571667293 0 0.045753484570993659 0.0045182050959713697 0 0.045630031111542839 0.0045708545242900021 0 0.045604584254118737 0.0043847335928134954 0 0.045753484570993659 0.0045182050959713697 0 0.045797566955464365 0.0044271187571667293 0 0.045604584254118737 0.0043847335928134954 0 0.045882662424311001 0.0042331634477390532 0 0.045604584254118737 0.0043847335928134954 0 0.045464831829330567 0.0039410242340786423 0 0.045882662424311001 0.0042331634477390532 0 0.046050753543434055 0.0038985005473642018 0 0.045464831829330567 0.0039410242340786423 0 0.045797566955464365 0.0044271187571667293 0 0.045882662424311001 0.0042331634477390532 0 0.045604584254118737 0.0043847335928134954 0 0.045797566955464365 0.0044271187571667293 0 0.045856741049023812 0.0044249194772937924 0 0.045882662424311001 0.0042331634477390532 0 0.045939690780304264 0.0043685580200860438 0 0.045856741049023812 0.0044249194772937924 0 0.045882662424311001 0.0042331634477390532 0 0.0460421667725519 0.0035718305133024641 0 0.045956874163308403 0.0032995630996864398 0 0.045464831829330567 0.0039410242340786423 0 0.046050753543434055 0.0038985005473642018 0 0.0460421667725519 0.0035718305133024641 0 0.045464831829330567 0.0039410242340786423 0 0.046050753543434055 0.0038985005473642018 0 0.0460421667725519 0.0035718305133024641 0 0.046255683935020442 0.0036934853835101852 0 0.045956874163308403 0.0032995630996864398 0 0.045788360315734966 0.0029569113349709603 0 0.045464831829330567 0.0039410242340786423 0 0.046242315288383226 0.0026451025120383313 0 0.045788360315734966 0.0029569113349709603 0 0.046099796912995421 0.002941562580771169 0 0.045956874163308403 0.0032995630996864398 0 0.045788360315734966 0.0029569113349709603 0 0.046099796912995421 0.002941562580771169 0 0.045956874163308403 0.0032995630996864398 0 0.046099796912995421 0.002941562580771169 0 0.046282229800057945 0.0030350276858830808 0 0.04641182833991913 0.0027603862150836849 0 0.046099796912995421 0.002941562580771169 0 0.046282229800057945 0.0030350276858830808 0 0.046282229800057945 0.0030350276858830808 0 0.046182795139991351 0.0032811549364150962 0 0.046448649598051173 0.0031169986780788081 0 0.0460421667725519 0.0035718305133024641 0 0.045956874163308403 0.0032995630996864398 0 0.046182795139991351 0.0032811549364150962 0 0.0460421667725519 0.0035718305133024641 0 0.046182795139991351 0.0032811549364150962 0 0.046352819245620069 0.0033571826642450884 0 0.045956874163308403 0.0032995630996864398 0 0.046282229800057945 0.0030350276858830808 0 0.046182795139991351 0.0032811549364150962 0 0.046352819245620069 0.0033571826642450884 0 0.046448649598051173 0.0031169986780788081 0 0.046674127644547807 0.0031727492587027115 0 0.046182795139991351 0.0032811549364150962 0 0.046352819245620069 0.0033571826642450884 0 0.046448649598051173 0.0031169986780788081 0 0.04641182833991913 0.0027603862150836849 0 0.046282229800057945 0.0030350276858830808 0 0.046609743951478516 0.0028610895573552178 0 0.046282229800057945 0.0030350276858830808 0 0.046448649598051173 0.0031169986780788081 0 0.046609743951478516 0.0028610895573552178 0 0.046448649598051173 0.0031169986780788081 0 0.046609743951478516 0.0028610895573552178 0 0.046674127644547807 0.0031727492587027115 0 0.046900442615317402 0.0027111438424177936 0 0.046609743951478516 0.0028610895573552178 0 0.046841503316160299 0.0029232024588180874 0 0.046609743951478516 0.0028610895573552178 0 0.046841503316160299 0.0029232024588180874 0 0.046674127644547807 0.0031727492587027115 0 0.046900442615317402 0.0027111438424177936 0 0.04705847686678144 0.0027910804585241982 0 0.046841503316160299 0.0029232024588180874 0 0.046841503316160299 0.0029232024588180874 0 0.046674127644547807 0.0031727492587027115 0 0.046958292966888075 0.0030453413988363763 0 0.046352819245620069 0.0033571826642450884 0 0.046674127644547807 0.0031727492587027115 0 0.046588112440462272 0.0035942830985342717 0 0.0460421667725519 0.0035718305133024641 0 0.046352819245620069 0.0033571826642450884 0 0.046255683935020442 0.0036934853835101852 0 0.046352819245620069 0.0033571826642450884 0 0.046588112440462272 0.0035942830985342717 0 0.046255683935020442 0.0036934853835101852 0 0.046233327819856111 0.0040021035840341144 0 0.046050753543434055 0.0038985005473642018 0 0.046255683935020442 0.0036934853835101852 0 0.046579315583698856 0.0039820985428310569 0 0.046233327819856111 0.0040021035840341144 0 0.046588112440462272 0.0035942830985342717 0 0.046233327819856111 0.0040021035840341144 0 0.046588112440462272 0.0035942830985342717 0 0.046255683935020442 0.0036934853835101852 0 0.046579315583698856 0.0039820985428310569 0 0.046588112440462272 0.0035942830985342717 0 0.04684436944444096 0.0036757014390361915 0 0.046915787557419292 0.003980815902919637 0 0.046579315583698856 0.0039820985428310569 0 0.04684436944444096 0.0036757014390361915 0 0.046915787557419292 0.003980815902919637 0 0.04684436944444096 0.0036757014390361915 0 0.047119483799412054 0.0037271833256834809 0 0.04684436944444096 0.0036757014390361915 0 0.047070671823150348 0.0034271489387746427 0 0.046876291462787878 0.0033494273551600154 0 0.04684436944444096 0.0036757014390361915 0 0.047070671823150348 0.0034271489387746427 0 0.047119483799412054 0.0037271833256834809 0 0.046588112440462272 0.0035942830985342717 0 0.04684436944444096 0.0036757014390361915 0 0.046876291462787878 0.0033494273551600154 0 0.046674127644547807 0.0031727492587027115 0 0.046876291462787878 0.0033494273551600154 0 0.046958292966888075 0.0030453413988363763 0 0.046674127644547807 0.0031727492587027115 0 0.046588112440462272 0.0035942830985342717 0 0.046876291462787878 0.0033494273551600154 0 0.046876291462787878 0.0033494273551600154 0 0.046958292966888075 0.0030453413988363763 0 0.047129695747728906 0.0031478163378029361 0 0.04705847686678144 0.0027910804585241982 0 0.046958292966888075 0.0030453413988363763 0 0.047202353613474475 0.0028905990442336382 0 0.04705847686678144 0.0027910804585241982 0 0.046841503316160299 0.0029232024588180874 0 0.046958292966888075 0.0030453413988363763 0 0.0474389525951786 0.0027087011817713241 0 0.047202353613474475 0.0028905990442336382 0 0.0473650347789192 0.0029888935355303499 0 0.046958292966888075 0.0030453413988363763 0 0.047202353613474475 0.0028905990442336382 0 0.047129695747728906 0.0031478163378029361 0 0.047202353613474475 0.0028905990442336382 0 0.047129695747728906 0.0031478163378029361 0 0.0473650347789192 0.0029888935355303499 0 0.047129695747728906 0.0031478163378029361 0 0.047285072958749383 0.0032196838598147473 0 0.0473650347789192 0.0029888935355303499 0 0.047070671823150348 0.0034271489387746427 0 0.046876291462787878 0.0033494273551600154 0 0.047129695747728906 0.0031478163378029361 0 0.047070671823150348 0.0034271489387746427 0 0.047129695747728906 0.0031478163378029361 0 0.047285072958749383 0.0032196838598147473 0 0.047070671823150348 0.0034271489387746427 0 0.047285072958749383 0.0032196838598147473 0 0.047311900043548717 0.0034055781086000624 0 0.047559938484456346 0.0031294244041586497 0 0.04759687352379275 0.0034557143662425076 0 0.047311900043548717 0.0034055781086000624 0 0.047559938484456346 0.0031294244041586497 0 0.047285072958749383 0.0032196838598147473 0 0.047311900043548717 0.0034055781086000624 0 0.047559938484456346 0.0031294244041586497 0 0.047285072958749383 0.0032196838598147473 0 0.0473650347789192 0.0029888935355303499 0 0.047559938484456346 0.0031294244041586497 0 0.0473650347789192 0.0029888935355303499 0 0.047637829061132855 0.0027859368162086191 0 0.0474389525951786 0.0027087011817713241 0 0.0473650347789192 0.0029888935355303499 0 0.047637829061132855 0.0027859368162086191 0 0.047559938484456346 0.0031294244041586497 0 0.047637829061132855 0.0027859368162086191 0 0.04785442947003557 0.0028997527536168831 0 0.04798380629869399 0.0031175049544369935 0 0.047559938484456346 0.0031294244041586497 0 0.04785442947003557 0.0028997527536168831 0 0.04798380629869399 0.0031175049544369935 0 0.047559938484456346 0.0031294244041586497 0 0.04759687352379275 0.0034557143662425076 0 0.047577533723364922 0.0036779768765747662 0 0.04759687352379275 0.0034557143662425076 0 0.047119483799412054 0.0037271833256834809 0 0.047070671823150348 0.0034271489387746427 0 0.047311900043548717 0.0034055781086000624 0 0.047119483799412054 0.0037271833256834809 0 0.04759687352379275 0.0034557143662425076 0 0.047311900043548717 0.0034055781086000624 0 0.047119483799412054 0.0037271833256834809 0 0.0472343749388143 0.0040974645533884326 0 0.046915787557419292 0.003980815902919637 0 0.047119483799412054 0.0037271833256834809 0 0.0472343749388143 0.0040974645533884326 0 0.047577533723364922 0.0036779768765747662 0 0.047119483799412054 0.0037271833256834809 0 0.046451527426277776 0.0050451371357836108 0 0.045405128745422504 0.0055705684267435239 0 0.045993040284491575 0.004097670862493687 0 0.046451527426277776 0.0050451371357836108 0 0.045405128745422504 0.0055705684267435239 0 0.046790612776942228 0.0058866135454791859 0 0.047255561591285106 0.0050971963866577067 0 0.046790612776942228 0.0058866135454791859 0 0.04763639157319538 0.0056470036358249355 0 0.047255561591285106 0.0050971963866577067 0 0.046451527426277776 0.0050451371357836108 0 0.046790612776942228 0.0058866135454791859 0 0.047255561591285106 0.0050971963866577067 0 0.047706506013344051 0.0041557405893983875 0 0.046912829424866909 0.0044149843867603263 0 0.047255561591285106 0.0050971963866577067 0 0.046451527426277776 0.0050451371357836108 0 0.046912829424866909 0.0044149843867603263 0 0.046451527426277776 0.0050451371357836108 0 0.046912829424866909 0.0044149843867603263 0 0.045993040284491575 0.004097670862493687 0 0.045405128745422504 0.0055705684267435239 0 0.044342525253965384 0.0041328157327057708 0 0.043637958654371048 0.0057069152228077782 0 0.045405128745422504 0.0055705684267435239 0 0.045993040284491575 0.004097670862493687 0 0.044342525253965384 0.0041328157327057708 0 0.046356446100347982 0.0073536654619698735 0 0.045405128745422504 0.0055705684267435239 0 0.043360856614847426 0.0079815685114715991 0 0.046356446100347982 0.0073536654619698735 0 0.046790612776942228 0.0058866135454791859 0 0.047563230564703296 0.0063357798772823134 0 0.046356446100347982 0.0073536654619698735 0 0.045405128745422504 0.0055705684267435239 0 0.046790612776942228 0.0058866135454791859 0 0.039630434532365519 0.0077876737967211597 0 0.042071829294085351 0.0051801723285455166 0 0.046356446100347982 0.0073536654619698735 0 0.047563230564703296 0.0063357798772823134 0 0.048886634452875853 0.0066991656502442759 0 0.033136745054726177 0.0074173814216696365 0 0.033509631212108745 0.0075774615151831329 0 0.032822656244820871 0.0075580939289957155 0 0.033136745054726177 0.0074173814216696365 0 0.032851530817267424 0.0074778332903993371 0 0.032822656244820871 0.0075580939289957155 0 0.047563230564703296 0.0063357798772823134 0 0.048886634452875853 0.0066991656502442759 0 0.048348901872577517 0.0056981660431208603 0 0.047563230564703296 0.0063357798772823134 0 0.04763639157319538 0.0056470036358249355 0 0.048348901872577517 0.0056981660431208603 0 0.046790612776942228 0.0058866135454791859 0 0.047563230564703296 0.0063357798772823134 0 0.04763639157319538 0.0056470036358249355 0 0.045861417501056156 0.004415642935074896 0 0.044779141392345671 0.0042601303429075071 0 0.045839571298522813 0.0046808198371000899 0 0.046087200257469443 0.0046194926890344122 0 0.0463485741882683 0.0048208589180477124 0 0.046392490009715182 0.0045520493677538168 0 0.046087200257469443 0.0046194926890344122 0 0.0463485741882683 0.0048208589180477124 0 0.044779141392345671 0.0042601303429075071 0 0.042071829294085351 0.0051801723285455166 0 0.043273915974667176 0.0039923796500852572 0 0.040446731972607917 0.0063923108437783328 0 0.040880871364517513 0.0044879012501311639 0 0.044779141392345671 0.0042601303429075071 0 0.038281696537227836 0.0062859097963102115 0 0.046392490009715182 0.0045520493677538168 0 0.0463485741882683 0.0048208589180477124 0 0.046768077459772295 0.0046262936948229198 0 0.038281696537227836 0.0062859097963102115 0 0.042071829294085351 0.0051801723285455166 0 0.045458660566719308 0.0047055618018685894 0 0.045630031111542839 0.0045708545242900021 0 0.045604584254118737 0.0043847335928134954 0 0.045839571298522813 0.0046808198371000899 0 0.045356470021120053 0.0048018208030893789 0 0.045630031111542839 0.0045708545242900021 0 0.045458660566719308 0.0047055618018685894 0 0.045261021013087203 0.0047442857992823469 0 0.045604584254118737 0.0043847335928134954 0 0.044779141392345671 0.0042601303429075071 0 0.04519106378734182 0.0042863208237771339 0 0.048886634452875853 0.0066991656502442759 0 0.048348901872577517 0.0056981660431208603 0 0.04937467867321714 0.0043698533310351133 0 0.045261021013087203 0.0047442857992823469 0 0.045604584254118737 0.0043847335928134954 0 0.045464831829330567 0.0039410242340786423 0 0.042071829294085351 0.0051801723285455166 0 0.048082854368461145 0.0041789001316431679 0 0.048348901872577517 0.0056981660431208603 0 0.048153372813009521 0.0048365855564729259 0 0.04937467867321714 0.0043698533310351133 0 0.047255561591285106 0.0050971963866577067 0 0.04763639157319538 0.0056470036358249355 0 0.048153372813009521 0.0048365855564729259 0 0.04763639157319538 0.0056470036358249355 0 0.048348901872577517 0.0056981660431208603 0 0.048153372813009521 0.0048365855564729259 0 0.047255561591285106 0.0050971963866577067 0 0.048153372813009521 0.0048365855564729259 0 0.047706506013344051 0.0041557405893983875 0 0.048153372813009521 0.0048365855564729259 0 0.047706506013344051 0.0041557405893983875 0 0.048390690878017804 0.0039941960383477791 0 0.048390690878017804 0.0039941960383477791 0 0.047973192976220547 0.0034134319033772686 0 0.048730870623591493 0.0032387924395086976 0 0.047706506013344051 0.0041557405893983875 0 0.048390690878017804 0.0039941960383477791 0 0.047973192976220547 0.0034134319033772686 0 0.047973192976220547 0.0034134319033772686 0 0.047433517097563792 0.0028589394450975322 0 0.047193211470459497 0.0036022522894573277 0 0.047706506013344051 0.0041557405893983875 0 0.047973192976220547 0.0034134319033772686 0 0.047193211470459497 0.0036022522894573277 0 0.04937467867321714 0.0043698533310351133 0 0.048730870623591493 0.0032387924395086976 0 0.04935893531949672 0.0024378144552449454 0 0.047662490703770308 0.0027012501586996468 0 0.048082854368461145 0.0041789001316431679 0 0.048153372813009521 0.0048365855564729259 0 0.048390690878017804 0.0039941960383477791 0 0.04937467867321714 0.0043698533310351133 0 0.048390690878017804 0.0039941960383477791 0 0.04937467867321714 0.0043698533310351133 0 0.048730870623591493 0.0032387924395086976 0 0.049696576108845328 0.0023778669154949786 0 0.04937467867321714 0.0043698533310351133 0 0.04935893531949672 0.0024378144552449454 0 0.048899313118780513 0.0018755868943196854 0 0.048741484992708931 0.00249972273902612 0 0.04935893531949672 0.0024378144552449454 0 0.048730870623591493 0.0032387924395086976 0 0.048741484992708931 0.00249972273902612 0 0.04935893531949672 0.0024378144552449454 0 0.047973192976220547 0.0034134319033772686 0 0.048229530086273995 0.0027651626488352085 0 0.047433517097563792 0.0028589394450975322 0 0.047973192976220547 0.0034134319033772686 0 0.048730870623591493 0.0032387924395086976 0 0.048229530086273995 0.0027651626488352085 0 0.048730870623591493 0.0032387924395086976 0 0.048741484992708931 0.00249972273902612 0 0.048229530086273995 0.0027651626488352085 0 0.048434620766233935 0.0021644285561757256 0 0.048741484992708931 0.00249972273902612 0 0.048229530086273995 0.0027651626488352085 0 0.0477324532669086 0.0020898567036725141 0 0.048434620766233935 0.0021644285561757256 0 0.048229530086273995 0.0027651626488352085 0 0.0477324532669086 0.0020898567036725141 0 0.048229530086273995 0.0027651626488352085 0 0.047433517097563792 0.0028589394450975322 0 0.0477324532669086 0.0020898567036725141 0 0.046932161423960277 0.0022788095993227096 0 0.047433517097563792 0.0028589394450975322 0 0.046160479510020558 0.0020605430613820806 0 0.046932161423960277 0.0022788095993227096 0 0.046508977519663083 0.0029762858526659742 0 0.046932161423960277 0.0022788095993227096 0 0.046508977519663083 0.0029762858526659742 0 0.047433517097563792 0.0028589394450975322 0 0.046508977519663083 0.0029762858526659742 0 0.047433517097563792 0.0028589394450975322 0 0.047193211470459497 0.0036022522894573277 0 0.046508977519663083 0.0029762858526659742 0 0.047193211470459497 0.0036022522894573277 0 0.045993040284491575 0.004097670862493687 0 0.047193211470459497 0.0036022522894573277 0 0.046912829424866909 0.0044149843867603263 0 0.045993040284491575 0.004097670862493687 0 0.047706506013344051 0.0041557405893983875 0 0.047193211470459497 0.0036022522894573277 0 0.046912829424866909 0.0044149843867603263 0 0.045993040284491575 0.004097670862493687 0 0.045341459352592324 0.0030688917683730174 0 0.044342525253965384 0.0041328157327057708 0 0.046508977519663083 0.0029762858526659742 0 0.045993040284491575 0.004097670862493687 0 0.045341459352592324 0.0030688917683730174 0 0.046160479510020558 0.0020605430613820806 0 0.046508977519663083 0.0029762858526659742 0 0.045341459352592324 0.0030688917683730174 0 0.046160479510020558 0.0020605430613820806 0 0.045341459352592324 0.0030688917683730174 0 0.044957697805606545 0.0021897084035254108 0 0.044957697805606545 0.0021897084035254108 0 0.044113483867558582 0.0020870636303976617 0 0.043948587993270317 0.0030416574214764164 0 0.044113483867558582 0.0020870636303976617 0 0.043948587993270317 0.0030416574214764164 0 0.043386492903509405 0.0026625541758841719 0 0.045341459352592324 0.0030688917683730174 0 0.044957697805606545 0.0021897084035254108 0 0.043948587993270317 0.0030416574214764164 0 0.042462151577515664 0.0020582026023671018 0 0.042584685660759604 0.0026120386330051506 0 0.043157637605157118 0.0021946812060622762 0 0.042584685660759604 0.0026120386330051506 0 0.042249855642784662 0.0027152471356523115 0 0.042180846596629434 0.0023223009649353987 0 0.042462151577515664 0.0020582026023671018 0 0.042584685660759604 0.0026120386330051506 0 0.042180846596629434 0.0023223009649353987 0 0.042584685660759604 0.0026120386330051506 0 0.043386492903509405 0.0026625541758841719 0 0.043157637605157118 0.0021946812060622762 0 0.044113483867558582 0.0020870636303976617 0 0.043386492903509405 0.0026625541758841719 0 0.043157637605157118 0.0021946812060622762 0 0.042584685660759604 0.0026120386330051506 0 0.043386492903509405 0.0026625541758841719 0 0.042894851177547905 0.0031666796727210446 0 0.043948587993270317 0.0030416574214764164 0 0.043386492903509405 0.0026625541758841719 0 0.042894851177547905 0.0031666796727210446 0 0.042331015529331564 0.0030588942532002424 0 0.042249468523491873 0.0037185815916245032 0 0.041904342356416435 0.0028422897473082119 0 0.042584685660759604 0.0026120386330051506 0 0.042894851177547905 0.0031666796727210446 0 0.042331015529331564 0.0030588942532002424 0 0.042584685660759604 0.0026120386330051506 0 0.042331015529331564 0.0030588942532002424 0 0.042249855642784662 0.0027152471356523115 0 0.042331015529331564 0.0030588942532002424 0 0.042249855642784662 0.0027152471356523115 0 0.041904342356416435 0.0028422897473082119 0 0.042249468523491873 0.0037185815916245032 0 0.042649575210658215 0.0046013394316908804 0 0.041043515975524532 0.0045524100325181702 0 0.042894851177547905 0.0031666796727210446 0 0.042331015529331564 0.0030588942532002424 0 0.042249468523491873 0.0037185815916245032 0 0.042894851177547905 0.0031666796727210446 0 0.042249468523491873 0.0037185815916245032 0 0.04314748715094497 0.0037209762062948033 0 0.042249468523491873 0.0037185815916245032 0 0.04314748715094497 0.0037209762062948033 0 0.042649575210658215 0.0046013394316908804 0 0.04314748715094497 0.0037209762062948033 0 0.044342525253965384 0.0041328157327057708 0 0.042649575210658215 0.0046013394316908804 0 0.045341459352592324 0.0030688917683730174 0 0.043948587993270317 0.0030416574214764164 0 0.044342525253965384 0.0041328157327057708 0 0.043948587993270317 0.0030416574214764164 0 0.042894851177547905 0.0031666796727210446 0 0.04314748715094497 0.0037209762062948033 0 0.043948587993270317 0.0030416574214764164 0 0.04314748715094497 0.0037209762062948033 0 0.044342525253965384 0.0041328157327057708 0 0.044342525253965384 0.0041328157327057708 0 0.043637958654371048 0.0057069152228077782 0 0.042649575210658215 0.0046013394316908804 0 0.042649575210658215 0.0046013394316908804 0 0.041769586063112964 0.0057239103792458661 0 0.041043515975524532 0.0045524100325181702 0 0.043637958654371048 0.0057069152228077782 0 0.042649575210658215 0.0046013394316908804 0 0.041769586063112964 0.0057239103792458661 0 0.041769586063112964 0.0057239103792458661 0 0.041001027139637658 0.0065854329823350445 0 0.042344417376461448 0.0065503295786429562 0 0.041769586063112964 0.0057239103792458661 0 0.041001027139637658 0.0065854329823350445 0 0.040000579078885094 0.006631726851802436 0 0.041001027139637658 0.0065854329823350445 0 0.04111060293998603 0.0070730472215900985 0 0.040122432276708482 0.0069462090473071548 0 0.041001027139637658 0.0065854329823350445 0 0.042344417376461448 0.0065503295786429562 0 0.04111060293998603 0.0070730472215900985 0 0.043637958654371048 0.0057069152228077782 0 0.042344417376461448 0.0065503295786429562 0 0.043360856614847426 0.0079815685114715991 0 0.045405128745422504 0.0055705684267435239 0 0.043637958654371048 0.0057069152228077782 0 0.043360856614847426 0.0079815685114715991 0 0.043637958654371048 0.0057069152228077782 0 0.041769586063112964 0.0057239103792458661 0 0.042344417376461448 0.0065503295786429562 0 0.037547502427945828 0.0021534050622402582 0 0.037535856682542237 0.0019366877733235754 0 0.03735611908164245 0.0021714743848918134 0 0.037547502427945828 0.0021534050622402582 0 0.03735611908164245 0.0021714743848918134 0 0.037498912272590869 0.0023018569941594927 0 0.037547502427945828 0.0021534050622402582 0 0.037587981379213688 0.0022445379170578802 0 0.037558125892510508 0.0022997206544085216 0 0.037547502427945828 0.0021534050622402582 0 0.037558125892510508 0.0022997206544085216 0 0.037498912272590869 0.0023018569941594927 0 0.037587981379213688 0.0022445379170578802 0 0.037758471648614692 0.0021974653334008573 0 0.037388948530738736 0.0027427026607580512 0 0.041001027139637658 0.0065854329823350445 0 0.040000579078885094 0.006631726851802436 0 0.040122432276708482 0.0069462090473071548 0 0.037547502427945828 0.0021534050622402582 0 0.037587981379213688 0.0022445379170578802 0 0.037657426412957891 0.0020544151778413918 0 0.037587981379213688 0.0022445379170578802 0 0.037758471648614692 0.0021974653334008573 0 0.037657426412957891 0.0020544151778413918 0 0.037657426412957891 0.0020544151778413918 0 0.037804353193273736 0.0018615754096336621 0 0.037535856682542237 0.0019366877733235754 0 0.037804353193273736 0.0018615754096336621 0 0.037535856682542237 0.0019366877733235754 0 0.037633098001951568 0.0016929581921757341 0 0.041769586063112964 0.0057239103792458661 0 0.040000579078885094 0.006631726851802436 0 0.041043515975524532 0.0045524100325181702 0 0.037758471648614692 0.0021974653334008573 0 0.037657426412957891 0.0020544151778413918 0 0.037804353193273736 0.0018615754096336621 0 0.038842874489917877 0.004459552916720933 0 0.039416682483464797 0.003302810259364063 0 0.037547502427945828 0.0021534050622402582 0 0.037657426412957891 0.0020544151778413918 0 0.037535856682542237 0.0019366877733235754 0 0.037535856682542237 0.0019366877733235754 0 0.037633098001951568 0.0016929581921757341 0 0.037455855924729858 0.0017637073202836895 0 0.037633098001951568 0.0016929581921757341 0 0.037455855924729858 0.0017637073202836895 0 0.037497373012686387 0.0015001121482902796 0 0.037804353193273736 0.0018615754096336621 0 0.037633098001951568 0.0016929581921757341 0 0.037848981505283374 0.0015644659114543969 0 0.039416682483464797 0.003302810259364063 0 0.039783772278412954 0.0020553445920104716 0 0.042249468523491873 0.0037185815916245032 0 0.041043515975524532 0.0045524100325181702 0 0.041834769206961088 0.0029998586732597307 0 0.041904342356416435 0.0028422897473082119 0 0.041889381401000257 0.0030165846144954342 0 0.039939246727080123 0.0026806906183387338 0 0.04169350836114092 0.001307259603454106 0 0.041904342356416435 0.0028422897473082119 0 0.039939246727080123 0.0026806906183387338 0 0.04169350836114092 0.001307259603454106 0 0.041904342356416435 0.0028422897473082119 0 0.042180846596629434 0.0023223009649353987 0 0.042249468523491873 0.0037185815916245032 0 0.041904342356416435 0.0028422897473082119 0 0.041834769206961088 0.0029998586732597307 0 0.039881398203239077 0.0021917494623379585 0 0.039783772278412954 0.0020553445920104716 0 0.042249855642784662 0.0027152471356523115 0 0.041904342356416435 0.0028422897473082119 0 0.042180846596629434 0.0023223009649353987 0 0.037633098001951568 0.0016929581921757341 0 0.037848981505283374 0.0015644659114543969 0 0.037497373012686387 0.0015001121482902796 0 0.039783772278412954 0.0020553445920104716 0 0.039235313773766753 0.0018815068719387612 0 0.037613735463965826 0.0013866680053417103 0 0.037166501655857102 0.0013341182502454867 0 0.037398011539406681 0.001548744322744862 0 0.040675136637315812 0.0013218704162930811 0 0.041216815629443085 0.0020290589716331579 0 0.039947640192614584 0.0017978967909195898 0 0.039235313773766753 0.0018815068719387612 0 0.03859928657511346 0.0015523412228664523 0 0.039235313773766753 0.0018815068719387612 0 0.037267446744801244 0.0017276069530085484 0 0.037166501655857102 0.0013341182502454867 0 0.037135355105986471 0.0015086929991988726 0 0.036951036931098788 0.0014936606187158539 0 0.037166501655857102 0.0013341182502454867 0 0.037135355105986471 0.0015086929991988726 0 0.037398011539406681 0.001548744322744862 0 0.037135355105986471 0.0015086929991988726 0 0.037182326850488202 0.0017064844408575084 0 0.036951036931098788 0.0014936606187158539 0 0.037135355105986471 0.0015086929991988726 0 0.037182326850488202 0.0017064844408575084 0 0.037398011539406681 0.001548744322744862 0 0.037455855924729858 0.0017637073202836895 0 0.037497373012686387 0.0015001121482902796 0 0.037330121355208135 0.0016236229900961298 0 0.037182326850488202 0.0017064844408575084 0 0.037330121355208135 0.0016236229900961298 0 0.037331277574207247 0.0018810451787120853 0 0.037455855924729858 0.0017637073202836895 0 0.037330121355208135 0.0016236229900961298 0 0.037331277574207247 0.0018810451787120853 0 0.037249125889142087 0.0016671104268301349 0 0.037267446744801244 0.0017276069530085484 0 0.036874373039169774 0.0013306596866898741 0 0.036850557429785172 0.001405311739229553 0 0.036951036931098788 0.0014936606187158539 0 0.036874373039169774 0.0013306596866898741 0 0.037116925460892063 0.0011771143365137365 0 0.036911006356649761 0.0013240587318466581 0 0.036911006356649761 0.0013240587318466581 0 0.036850557429785172 0.001405311739229553 0 0.036742231750253734 0.0014786933250961608 0 0.036874373039169774 0.0013306596866898741 0 0.036911006356649761 0.0013240587318466581 0 0.036850557429785172 0.001405311739229553 0 0.03775154978017848 0.0014266959156079167 0 0.03859928657511346 0.0015523412228664523 0 0.036874373039169774 0.0013306596866898741 0 0.037166501655857102 0.0013341182502454867 0 0.036951036931098788 0.0014936606187158539 0 0.036845886488599273 0.0015311521290023102 0 0.036726886926209207 0.0016718421485112122 0 0.036956506007291584 0.0017276406177200532 0 0.037182326850488202 0.0017064844408575084 0 0.036951036931098788 0.0014936606187158539 0 0.036956506007291584 0.0017276406177200532 0 0.036951036931098788 0.0014936606187158539 0 0.036845886488599273 0.0015311521290023102 0 0.036956506007291584 0.0017276406177200532 0 0.036850557429785172 0.001405311739229553 0 0.036951036931098788 0.0014936606187158539 0 0.036845886488599273 0.0015311521290023102 0 0.036850557429785172 0.001405311739229553 0 0.036845886488599273 0.0015311521290023102 0 0.036742231750253734 0.0014786933250961608 0 0.036845886488599273 0.0015311521290023102 0 0.036742231750253734 0.0014786933250961608 0 0.036726886926209207 0.0016718421485112122 0 0.03669559968222063 0.0016999787733702871 0 0.036638655507445828 0.002251034095798955 0 0.036726886926209207 0.0016718421485112122 0 0.036908285852212237 0.0019579291884611744 0 0.036684821759787142 0.0022048850196061736 0 0.036726886926209207 0.0016718421485112122 0 0.036956506007291584 0.0017276406177200532 0 0.036908285852212237 0.0019579291884611744 0 0.036956506007291584 0.0017276406177200532 0 0.036908285852212237 0.0019579291884611744 0 0.037130417407916297 0.0019569881787047916 0 0.036908285852212237 0.0019579291884611744 0 0.036684821759787142 0.0022048850196061736 0 0.037049384350458646 0.0022448347500747434 0 0.036231162721646976 0.0021465340846718987 0 0.036726886926209207 0.0016718421485112122 0 0.036573105506215182 0.0023257796249450727 0 0.036231162721646976 0.0021465340846718987 0 0.036022182214062275 0.002557993411592708 0 0.036573105506215182 0.0023257796249450727 0 0.037535856682542237 0.0019366877733235754 0 0.037331277574207247 0.0018810451787120853 0 0.03735611908164245 0.0021714743848918134 0 0.037331277574207247 0.0018810451787120853 0 0.037130417407916297 0.0019569881787047916 0 0.03735611908164245 0.0021714743848918134 0 0.037535856682542237 0.0019366877733235754 0 0.037455855924729858 0.0017637073202836895 0 0.037331277574207247 0.0018810451787120853 0 0.037182326850488202 0.0017064844408575084 0 0.036956506007291584 0.0017276406177200532 0 0.037130417407916297 0.0019569881787047916 0 0.037182326850488202 0.0017064844408575084 0 0.037331277574207247 0.0018810451787120853 0 0.037130417407916297 0.0019569881787047916 0 0.037130417407916297 0.0019569881787047916 0 0.037049384350458646 0.0022448347500747434 0 0.03735611908164245 0.0021714743848918134 0 0.036908285852212237 0.0019579291884611744 0 0.037130417407916297 0.0019569881787047916 0 0.037049384350458646 0.0022448347500747434 0 0.03735611908164245 0.0021714743848918134 0 0.037426869032049073 0.0024375651096880373 0 0.037218760665883276 0.0025837332262229535 0 0.03735611908164245 0.0021714743848918134 0 0.037426869032049073 0.0024375651096880373 0 0.037498912272590869 0.0023018569941594927 0 0.037049384350458646 0.0022448347500747434 0 0.036972552662466955 0.0025567403307261583 0 0.037218760665883276 0.0025837332262229535 0 0.037049384350458646 0.0022448347500747434 0 0.03735611908164245 0.0021714743848918134 0 0.037218760665883276 0.0025837332262229535 0 0.037218760665883276 0.0025837332262229535 0 0.037220842990602895 0.0030010297409824634 0 0.036982205002842425 0.0029138639196211969 0 0.036972552662466955 0.0025567403307261583 0 0.037218760665883276 0.0025837332262229535 0 0.036982205002842425 0.0029138639196211969 0 0.037426869032049073 0.0024375651096880373 0 0.037218760665883276 0.0025837332262229535 0 0.037495050561310431 0.0028988995031501248 0 0.037218760665883276 0.0025837332262229535 0 0.037495050561310431 0.0028988995031501248 0 0.037220842990602895 0.0030010297409824634 0 0.036022182214062275 0.002557993411592708 0 0.036573105506215182 0.0023257796249450727 0 0.036173233953897196 0.0028886661413914136 0 0.036684821759787142 0.0022048850196061736 0 0.036972552662466955 0.0025567403307261583 0 0.036676812593619455 0.0027450914959153815 0 0.036684821759787142 0.0022048850196061736 0 0.037049384350458646 0.0022448347500747434 0 0.036972552662466955 0.0025567403307261583 0 0.036638655507445828 0.002251034095798955 0 0.03663405448493904 0.0028341281560683583 0 0.036972552662466955 0.0025567403307261583 0 0.036676812593619455 0.0027450914959153815 0 0.036982205002842425 0.0029138639196211969 0 0.036573105506215182 0.0023257796249450727 0 0.036579298622054099 0.0028962588490946831 0 0.036173233953897196 0.0028886661413914136 0 0.036579298622054099 0.0028962588490946831 0 0.036173233953897196 0.0028886661413914136 0 0.036315592506864981 0.0033056806674569262 0 0.03663405448493904 0.0028341281560683583 0 0.036715740737291468 0.0034229043446657777 0 0.036579298622054099 0.0028962588490946831 0 0.036315592506864981 0.0033056806674569262 0 0.036715834996396739 0.0034493504836981674 0 0.036676812593619455 0.0027450914959153815 0 0.036715834996396739 0.0034493504836981674 0 0.036982205002842425 0.0029138639196211969 0 0.036322925613379034 0.0035535080313890948 0 0.036393603124925393 0.0034918007683525675 0 0.03628082425808167 0.0037663753748686329 0 0.036809616874315498 0.003555992589082453 0 0.036449103869839593 0.0035204615385145484 0 0.036315592506864981 0.0033056806674569262 0 0.036715834996396739 0.0034493504836981674 0 0.036449103869839593 0.0035204615385145484 0 0.036715834996396739 0.0034493504836981674 0 0.036809616874315498 0.003555992589082453 0 0.037021272649640266 0.0032599124746898267 0 0.036715834996396739 0.0034493504836981674 0 0.036809616874315498 0.003555992589082453 0 0.036449103869839593 0.0035204615385145484 0 0.036040195694190723 0.0035141046303852948 0 0.03628082425808167 0.0037663753748686329 0 0.036449103869839593 0.0035204615385145484 0 0.036040195694190723 0.0035141046303852948 0 0.036315592506864981 0.0033056806674569262 0 0.036449103869839593 0.0035204615385145484 0 0.036436180600784261 0.0038177909251377235 0 0.036447976963019164 0.0037545912877554122 0 0.036304620063051421 0.0037390460570477417 0 0.036447976963019164 0.0037545912877554122 0 0.036304620063051421 0.0037390460570477417 0 0.036284744515479805 0.0037350922528608535 0 0.037495050561310431 0.0028988995031501248 0 0.037220842990602895 0.0030010297409824634 0 0.037321226246681945 0.0033587814883786465 0 0.036986021631649831 0.0033182230032081611 0 0.036503358980695268 0.0034704636335217416 0 0.036715834996396739 0.0034493504836981674 0 0.036982205002842425 0.0029138639196211969 0 0.037021272649640266 0.0032599124746898267 0 0.037220842990602895 0.0030010297409824634 0 0.037021272649640266 0.0032599124746898267 0 0.037321226246681945 0.0033587814883786465 0 0.037220842990602895 0.0030010297409824634 0 0.036982205002842425 0.0029138639196211969 0 0.037021272649640266 0.0032599124746898267 0 0.035921350156860286 0.0035677436237517074 0 0.036503358980695268 0.0034704636335217416 0 0.035976431878060058 0.0034343767542475371 0 0.035992350386114959 0.003434935546314649 0 0.035970453673149862 0.0034406754225538632 0 0.036809616874315498 0.003555992589082453 0 0.037021272649640266 0.0032599124746898267 0 0.037321226246681945 0.0033587814883786465 0 0.035966393322304509 0.0034380448159546588 0 0.035976431878060058 0.0034343767542475371 0 0.035970453673149862 0.0034406754225538632 0 0.036393603124925393 0.0034918007683525675 0 0.036503358980695268 0.0034704636335217416 0 0.035966393322304509 0.0034380448159546588 0 0.036269659352872352 0.0036901844233879722 0 0.036202045226610725 0.0036281659295341324 0 0.036304620063051421 0.0037390460570477417 0 0.036269659352872352 0.0036901844233879722 0 0.036202045226610725 0.0036281659295341324 0 0.036407553354465994 0.0035198181411710576 0 0.036503358980695268 0.0034704636335217416 0 0.036436180600784261 0.0038177909251377235 0 0.036304620063051421 0.0037390460570477417 0 0.036347322763759959 0.0037192919495319218 0 0.036063652181688763 0.0034937705690656212 0 0.036202045226610725 0.0036281659295341324 0 0.036347322763759959 0.0037192919495319218 0 0.036304620063051421 0.0037390460570477417 0 0.036202045226610725 0.0036281659295341324 0 0.036347322763759959 0.0037192919495319218 0 0.036248051848208299 0.0035526740412926863 0 0.036347322763759959 0.0037192919495319218 0 0.036539303775828327 0.0037798371848444755 0 0.036539303775828327 0.0037798371848444755 0 0.036611790684946494 0.0039423398522266994 0 0.03718332493124616 0.0042704377138633627 0 0.036436180600784261 0.0038177909251377235 0 0.036347322763759959 0.0037192919495319218 0 0.036611790684946494 0.0039423398522266994 0 0.036347322763759959 0.0037192919495319218 0 0.036539303775828327 0.0037798371848444755 0 0.036611790684946494 0.0039423398522266994 0 0.036611790684946494 0.0039423398522266994 0 0.03718332493124616 0.0042704377138633627 0 0.036910935308464274 0.0035981622866688621 0 0.036447976963019164 0.0037545912877554122 0 0.036611790684946494 0.0039423398522266994 0 0.036910935308464274 0.0035981622866688621 0 0.036436180600784261 0.0038177909251377235 0 0.036447976963019164 0.0037545912877554122 0 0.036611790684946494 0.0039423398522266994 0 0.03718332493124616 0.0042704377138633627 0 0.036224667414104489 0.0043366681955881387 0 0.036871738053940749 0.005474210324466296 0 0.03718332493124616 0.0042704377138633627 0 0.036371000492405638 0.0036263594248330411 0 0.036224667414104489 0.0043366681955881387 0 0.036539303775828327 0.0037798371848444755 0 0.03718332493124616 0.0042704377138633627 0 0.036371000492405638 0.0036263594248330411 0 0.036371000492405638 0.0036263594248330411 0 0.036224667414104489 0.0043366681955881387 0 0.035675823332878782 0.0036416062047999226 0 0.036224667414104489 0.0043366681955881387 0 0.035675823332878782 0.0036416062047999226 0 0.034971341113904909 0.0045872867609556833 0 0.034547131066251138 0.0031314169525946491 0 0.035675823332878782 0.0036416062047999226 0 0.034971341113904909 0.0045872867609556833 0 0.033884003598728174 0.0058109469677178754 0 0.034971341113904909 0.0045872867609556833 0 0.03567611876581378 0.0056266452481708168 0 0.036224667414104489 0.0043366681955881387 0 0.034971341113904909 0.0045872867609556833 0 0.03567611876581378 0.0056266452481708168 0 0.036224667414104489 0.0043366681955881387 0 0.03567611876581378 0.0056266452481708168 0 0.036871738053940749 0.005474210324466296 0 0.03567611876581378 0.0056266452481708168 0 0.037148279934876856 0.0065683713726620262 0 0.035123307789179069 0.0076994364767955592 0 0.03567611876581378 0.0056266452481708168 0 0.036871738053940749 0.005474210324466296 0 0.037148279934876856 0.0065683713726620262 0 0.033884003598728174 0.0058109469677178754 0 0.03567611876581378 0.0056266452481708168 0 0.035123307789179069 0.0076994364767955592 0 0.039365643832103878 0.0077114301842264449 0 0.038957092269600979 0.0075078738624158627 0 0.042344417376461448 0.0065503295786429562 0 0.043360856614847426 0.0079815685114715991 0 0.04111060293998603 0.0070730472215900985 0 0.043360856614847426 0.0079815685114715991 0 0.04111060293998603 0.0070730472215900985 0 0.038873623242162071 0.007424239993809827 0 0.037148279934876856 0.0065683713726620262 0 0.035123307789179069 0.0076994364767955592 0 0.038873623242162071 0.007424239993809827 0 0.04111060293998603 0.0070730472215900985 0 0.040122432276708482 0.0069462090473071548 0 0.038873623242162071 0.007424239993809827 0 0.037587981379213688 0.0022445379170578802 0 0.037388948530738736 0.0027427026607580512 0 0.036832625997238549 0.0030778936366047316 0 0.040000579078885094 0.006631726851802436 0 0.038873623242162071 0.007424239993809827 0 0.038573607758330755 0.0073711808650747286 0 0.040000579078885094 0.006631726851802436 0 0.040122432276708482 0.0069462090473071548 0 0.038873623242162071 0.007424239993809827 0 0.037758471648614692 0.0021974653334008573 0 0.037388948530738736 0.0027427026607580512 0 0.037483012355682147 0.0031773383992052479 0 0.038842874489917877 0.004459552916720933 0 0.0379992556187351 0.0052653561949815453 0 0.037204500619849146 0.0030533037333755472 0 0.037388948530738736 0.0027427026607580512 0 0.037483012355682147 0.0031773383992052479 0 0.037587981379213688 0.0022445379170578802 0 0.037558125892510508 0.0022997206544085216 0 0.037605367995302487 0.0025012812090550005 0 0.037558125892510508 0.0022997206544085216 0 0.037498912272590869 0.0023018569941594927 0 0.037605367995302487 0.0025012812090550005 0 0.037534389725917709 0.0023064314616139847 0 0.037227987492183215 0.0028008262622695171 0 0.037426869032049073 0.0024375651096880373 0 0.037498912272590869 0.0023018569941594927 0 0.037605367995302487 0.0025012812090550005 0 0.037204500619849146 0.0030533037333755472 0 0.037388948530738736 0.0027427026607580512 0 0.036832625997238549 0.0030778936366047316 0 0.037204500619849146 0.0030533037333755472 0 0.036832625997238549 0.0030778936366047316 0 0.036910935308464274 0.0035981622866688621 0 0.036447976963019164 0.0037545912877554122 0 0.036832625997238549 0.0030778936366047316 0 0.036910935308464274 0.0035981622866688621 0 0.037426869032049073 0.0024375651096880373 0 0.037495050561310431 0.0028988995031501248 0 0.037605367995302487 0.0025012812090550005 0 0.036986021631649831 0.0033182230032081611 0 0.037227987492183215 0.0028008262622695171 0 0.03718332493124616 0.0042704377138633627 0 0.036910935308464274 0.0035981622866688621 0 0.037483012355682147 0.0031773383992052479 0 0.037372828371092091 0.004453636339483656 0 0.0379992556187351 0.0052653561949815453 0 0.03718332493124616 0.0042704377138633627 0 0.036871738053940749 0.005474210324466296 0 0.038573607758330755 0.0073711808650747286 0 0.036871738053940749 0.005474210324466296 0 0.037148279934876856 0.0065683713726620262 0 0.038573607758330755 0.0073711808650747286 0 0.037148279934876856 0.0065683713726620262 0 0.038873623242162071 0.007424239993809827 0 0.038573607758330755 0.0073711808650747286 0 0.037204500619849146 0.0030533037333755472 0 0.036910935308464274 0.0035981622866688621 0 0.037483012355682147 0.0031773383992052479 0 
</DataArray>
</PointData>
<CellData Scalars="region_id,cross_section_updated," Vectors="" Tensors="stress,">
<DataArray type="Float64" Name="region_id" format="ascii">
5 5 5 6 6 5 5 5 5 5 5 5 6 5 5 6 5 5 6 5 5 5 5 5 5 5 5 5 5 5 5 5 5 5 6 5 5 5 6 5 5 5 5 5 5 5 5 5 6 5 5 5 5 5 6 5 5 5 5 5 5 5 6 5 5 5 5 5 5 5 5 5 5 5 5 5 5 5 5 5 5 5 5 5 5 5 5 5 5 5 5 5 5 5 5 5 5 5 5 5 5 5 5 5 5 5 5 5 5 5 5 5 5 6 5 5 5 5 5 5 6 5 5 5 5 5 5 5 6 5 6 5 5 6 5 5 5 5 5 5 5 5 5 5 5 5 5 5 5 5 5 5 5 5 5 5 5 5 5 5 5 5 5 5 5 5 5 5 5 5 5 5 5 5 5 5 5 6 5 5 5 5 6 5 5 5 5 5 5 5 5 5 5 5 5 5 5 5 5 5 5 5 5 5 5 5 5 5 5 5 5 5 5 5 5 5 5 5 5 5 5 5 5 5 5 5 5 5 5 5 5 5 5 5 5 5 5 5 5 5 5 6 5 5 5 5 5 5 5 5 5 5 5 5 5 5 5 5 5 5 5 5 5 5 5 5 5 5 6 5 6 5 5 5 5 6 5 5 6 6 6 5 6 5 5 6 5 5 6 5 6 6 5 5 5 5 5 6 5 5 5 5 6 5 6 5 5 5 5 5 5 6 5 5 5 5 5 5 5 5 5 5 5 5 5 5 5 5 5 5 6 5 6 6 5 6 5 6 5 5 5 5 5 5 6 5 5 5 5 5 5 6 5 5 5 5 5 6 5 5 5 5 6 5 5 5 5 5 5 5 5 6 5 5 5 5 5 5 5 5 5 5 5 5 5 5 6 5 5 5 5 6 5 5 6 5 5 5 5 5 5 5 5 6 5 6 5 6 5 5 6 5 5 6 5 6 5 6 5 6 5 5 6 5 6 6 5 5 6 5 6 6 5 6 5 5 6 5 6 5 5 5 5 5 5 5 5 5 5 5 5 5 5 5 5 6 5 5 5 5 5 5 5 5 5 5 5 5 5 5 5 6 5 5 5 5 5 5 5 6 5 5 5 5 5 5 5 5 5 5 5 5 5 5 5 5 5 5 5 5 5 5 5 5 5 5 5 5 5 5 6 5 5 6 5 5 5 5 5 5 5 5 6 5 5 5 5 6 5 5 5 5 5 6 5 5 5 6 5 5 6 6 5 5 5 5 5 6 6 5 5 5 5 6 5 5 5 5 5 5 5 5 5 6 5 5 5 5 6 5 5 6 5 5 5 5 5 6 5 5 5 5 5 5 5 5 5 5 5 5 5 5 5 5 5 5 5 5 5 6 5 5 5 5 5 5 5 5 5 5 5 5 5 5 5 5 6 5 5 5 6 5 5 6 5 6 6 5 5 5 5 5 5 5 5 6 5 5 6 5 5 5 5 5 5 5 5 6 5 5 5 5 6 5 5 5 5 5 5 5 5 5 5 5 5 5 5 5 5 5 5 5 5 5 5 5 5 5 5 5 5 5 5 6 6 5 5 5 5 5 5 5 6 5 5 5 5 5 5 6 5 5 6 6 5 6 6 5 5 5 5 5 5 6 5 6 5 6 5 5 6 5 5 5 6 5 5 5 5 5 5 6 5 5 6 5 5 5 5 5 5 5 5 6 5 5 5 5 5 5 5 5 5 5 5 5 6 5 5 5 6 5 5 5 5 5 5 6 5 5 5 6 5 5 5 5 5 5 5 5 6 5 6 5 5 5 5 5 5 5 5 5 5 6 5 5 5 6 5 5 5 6 5 5 5 6 6 5 5 6 5 5 5 6 5 5 6 5 5 5 5 6 5 6 5 5 5 5 5 5 5 5 6 5 5 5 5 5 6 5 6 5 6 5 5 5 5 5 5 5 5 5 5 5 5 5 5 5 5 5 6 5 5 5 5 5 5 6 5 5 5 5 5 5 5 5 5 5 5 5 5 5 5 5 5 5 6 5 5 5 5 5 5 5 5 5 5 5 5 6 6 5 5 5 5 5 6 6 5 5 6 5 5 5 6 5 5 5 6 5 6 5 5 5 5 5 6 5 5 5 5 6 5 5 5 6 5 5 5 6 5 5 6 5 5 5 5 5 5 5 5 6 5 5 5 5 6 5 5 5 5 5 5 5 5 5 5 5 5 5 5 5 5 6 5 5 6 5 5 5 5 5 5 5 5 6 5 5 6 5 5 5 5 5 6 5 5 5 5 6 5 5 5 5 6 5 5 6 5 5 5 5 5 5 5 5 5 6 6 5 5 5 5 5 6 5 6 5 5 5 5 5 5 5 6 5 5 5 6 5 5 5 6 5 5 5 5 5 6 6 6 6 5 5 5 5 6 5 5 5 5 5 5 5 5 5 5 5 5 5 5 5 5 5 5 6 5 5 5 6 5 5 5 5 5 5 5 5 5 5 5 5 5 5 5 5 6 5 5 5 5 5 5 5 5 5 5 5 5 5 6 5 6 5 5 5 5 5 6 6 5 5 6 5 6 5 5 5 5 5 5 5 5 5 5 6 5 5 5 5 5 5 5 5 5 5 5 5 5 5 5 5 5 6 5 5 5 5 5 5 5 5 5 5 5 5 5 5 5 5 5 5 5 5 5 5 5 6 5 6 5 5 6 5 5 5 6 5 5 5 5 5 5 5 5 5 5 5 5 5 5 5 5 5 6 5 5 5 5 5 5 5 5 5 5 5 5 5 5 5 6 5 5 5 5 5 5 5 5 5 5 5 5 5 5 5 5 5 5 5 5 5 5 6 5 5 5 5 5 5 5 5 5 5 6 5 5 5 5 5 5 6 5 5 5 5 5 5 5 5 5 5 5 5 5 5 5 5 5 5 5 5 6 5 5 5 5 5 5 5 5 5 5 5 5 6 5 5 5 6 5 5 5 5 5 6 5 5 5 6 6 5 5 5 5 5 5 5 6 5 5 5 5 5 5 5 5 5 5 5 5 5 5 6 5 5 5 6 5 5 5 5 5 5 5 5 5 5 5 5 5 5 5 5 5 6 5 5 5 5 6 5 5 6 5 5 5 6 5 5 5 5 5 5 5 5 5 5 5 5 5 5 5 5 5 5 5 5 5 5 5 5 5 6 5 5 5 5 5 5 5 5 5 5 5 5 6 5 5 5 5 5 5 5 5 5 5 5 5 5 5 5 5 5 5 6 5 5 5 5 5 5 5 5 5 5 5 6 5 5 5 5 5 6 5 6 5 5 5 5 5 5 5 5 5 5 5 5 5 5 6 5 5 5 5 5 5 5 5 5 5 5 5 5 5 5 5 5 5 5 5 5 5 5 5 5 5 5 5 5 5 5 5 5 5 5 5 5 5 5 5 5 5 5 5 5 5 5 5 5 5 5 5 5 5 5 5 5 5 5 5 5 5 5 5 5 5 5 5 5 5 5 5 5 5 5 5 5 5 5 5 5 5 5 5 5 5 5 5 5 5 5 5 5 5 5 5 5 5 5 5 5 5 5 5 5 5 5 5 5 5 5 5 5 5 5 5 5 5 5 5 5 5 5 5 5 5 5 5 6 5 5 5 5 5 5 5 5 5 5 5 5 5 5 5 5 5 6 5 6 6 5 5 5 5 5 5 5 5 5 5 5 5 5 5 5 5 5 5 6 5 5 5 5 5 5 5 6 5 5 5 5 5 5 5 5 5 5 5 5 5 5 5 5 5 5 5 6 5 5 5 6 5 6 5 5 6 5 5 5 5 6 5 6 5 5 5 6 5 5 6 5 5 5 5 6 5 5 5 6 5 5 6 5 6 5 6 5 6 5 6 5 5 5 5 5 5 5 5 6 5 5 5 5 5 6 5 6 5 5 5 5 5 5 5 5 5 5 5 5 5 5 5 5 5 5 5 5 5 5 5 5 5 5 5 5 5 5 5 5 5 5 5 5 5 6 5 5 5 5 6 5 5 5 5 5 6 5 5 5 5 5 6 5 5 5 5 5 5 5 5 5 6 6 5 5 5 5 5 5 5 5 5 5 5 5 5 5 5 5 5 5 5 5 5 5 5 5 5 5 5 5 5 5 5 5 5 6 5 6 5 5 5 5 5 5 5 5 5 5 5 5 5 6 5 5 5 5 5 5 5 5 5 5 5 5 5 6 6 5 5 5 5 5 5 5 5 5 5 6 5 5 5 5 5 5 5 5 6 5 5 5 5 5 5 5 6 5 5 5 5 5 5 5 5 5 5 5 5 5 5 5 6 5 5 6 5 5 5 5 6 5 5 5 5 6 5 5 5 5 5 5 5 5 5 5 5 5 5 5 6 5 6 5 5 5 5 5 5 6 5 5 5 5 5 5 5 5 5 5 5 5 5 5 6 5 5 5 5 5 5 6 5 5 5 5 5 5 5 6 5 6 6 5 6 5 5 5 5 5 5 5 5 5 5 5 5 5 5 5 5 5 5 5 5 5 5 5 5 5 5 5 5 5 5 5 5 5 5 5 5 5 5 5 6 5 5 5 5 5 5 5 5 5 5 5 6 5 5 5 5 5 6 5 5 5 5 5 5 5 5 5 6 5 5 5 6 5 5 5 5 5 5 5 5 5 5 5 5 5 5 6 5 5 6 5 5 5 5 5 5 5 5 5 5 5 6 5 5 5 6 5 5 5 6 5 5 5 5 5 5 5 5 5 5 5 5 5 5 5 5 5 5 5 5 6 5 5 5 5 5 5 5 5 5 5 5 6 5 6 5 5 5 5 5 5 5 5 5 6 5 5 5 5 5 5 5 5 5 5 5 5 5 6 5 5 5 5 5 5 5 5 5 5 5 5 5 5 5 5 5 5 5 5 5 5 5 5 5 5 5 5 5 5 5 5 5 5 5 5 5 5 5 5 5 5 5 5 5 5 5 5 5 5 5 5 5 5 5 5 5 5 5 5 5 5 5 6 5 5 5 5 5 5 5 5 5 5 5 5 5 6 5 5 5 6 5 5 5 6 5 6 5 6 5 5 5 5 6 5 6 5 5 5 5 5 5 5 6 5 5 5 5 5 5 5 5 6 5 5 5 5 6 5 5 5 5 5 5 5 5 5 5 5 6 5 5 5 5 5 5 5 5 5 5 6 5 5 5 5 5 5 5 6 5 5 5 5 5 5 5 5 6 5 5 5 5 5 5 5 5 5 5 5 5 5 5 5 5 5 5 5 5 5 5 5 6 5 6 5 5 5 5 5 5 5 5 5 5 5 5 5 5 5 5 5 5 5 5 6 5 5 5 5 5 5 5 5 5 5 5 5 5 5 5 5 5 6 6 5 5 6 5 5 6 5 5 5 5 5 5 5 5 5 5 5 5 5 5 5 5 5 5 5 5 5 5 5 5 5 5 5 5 5 5 5 5 5 5 5 5 5 5 5 5 5 5 5 5 5 5 5 6 5 5 5 5 5 5 6 5 6 6 5 6 5 5 5 6 5 5 5 6 5 5 5 5 5 5 6 5 5 5 5 5 5 5 6 5 5 6 5 6 5 5 5 6 5 5 5 5 5 5 5 5 6 5 5 5 6 5 5 5 5 5 5 5 5 5 6 5 5 6 5 6 5 5 5 6 5 5 5 5 6 6 5 5 5 5 5 5 5 5 6 5 5 6 5 5 6 5 5 5 6 6 5 5 6 5 5 5 5 5 6 5 5 5 5 5 5 5 5 5 5 5 5 5 5 5 5 5 5 5 5 6 6 5 5 5 5 6 6 5 5 5 5 6 5 5 5 5 5 5 5 5 5 5 5 5 5 5 5 5 5 5 5 5 5 5 5 5 5 5 5 5 5 5 5 5 5 5 5 5 5 6 5 5 5 5 5 6 5 5 5 5 6 5 5 6 5 5 5 5 5 5 5 5 6 5 5 5 5 5 5 5 6 5 5 6 5 5 5 5 5 5 5 5 5 5 5 5 5 5 5 5 5 5 6 5 5 6 5 5 6 5 5 5 5 6 5 5 5 5 5 6 6 5 6 5 5 5 5 5 5 5 5 5 5 5 5 5 5 5 5 5 5 5 5 5 5 5 5 5 5 5 5 5 5 5 5 5 5 5 5 5 5 5 5 6 6 5 5 5 5 6 5 6 5 5 5 5 5 6 6 5 5 5 5 6 5 5 6 5 5 6 5 5 5 5 5 5 5 5 6 5 5 5 5 6 5 5 5 5 6 5 5 5 5 5 6 5 6 5 5 5 5 5 5 5 6 5 5 6 5 5 6 6 5 6 5 6 5 5 5 5 5 5 5 5 5 5 5 5 5 5 5 5 5 5 5 5 5 5 5 5 5 5 5 5 6 5 5 5 5 5 5 6 5 5 5 5 5 5 5 5 5 5 5 5 5 5 5 5 5 5 5 5 5 5 5 5 5 5 5 5 5 5 5 6 5 6 5 5 5 5 6 5 5 5 5 5 5 5 5 5 5 5 5 5 5 5 5 5 5 5 5 5 5 5 5 5 5 5 5 5 5 5 5 5 5 5 5 5 5 5 5 5 5 5 6 5 5 5 5 5 5 5 5 5 5 5 5 6 5 5 5 5 5 6 5 5 5 5 5 5 5 5 6 5 5 5 5 5 5 5 5 5 5 5 5 5 5 5 5 6 5 5 5 6 6 5 5 6 5 5 5 6 5 5 5 5 6 5 5 5 5 5 5 5 5 5 5 5 5 5 5 5 5 5 5 6 5 5 5 5 5 5 5 6 5 5 5 5 5 5 5 5 5 5 5 5 5 5 5 5 5 5 5 5 6 5 5 5 5 5 5 5 6 5 5 5 5 5 5 5 6 6 5 5 5 5 5 5 5 5 5 5 6 5 6 5 6 5 5 5 5 5 5 5 5 5 5 6 5 5 6 5 5 5 5 6 5 5 5 5 5 5 5 5 6 5 5 5 5 5 5 5 5 5 5 5 5 5 5 5 5 6 5 5 5 5 5 5 5 5 5 5 6 5 5 5 5 5 6 5 5 5 5 6 5 5 6 5 5 5 5 5 5 5 5 6 5 5 5 5 5 5 5 5 5 5 5 5 5 5 6 5 5 5 5 5 5 5 5 5 5 5 5 5 5 6 5 6 5 5 5 5 5 6 5 6 5 5 5 5 5 5 5 6 5 5 5 5 5 5 5 5 5 5 5 5 5 5 5 6 5 5 5 5 5 5 6 5 5 5 5 5 6 5 5 6 5 5 5 6 6 5 5 5 5 6 5 6 5 5 5 5 5 5 5 5 5 5 6 5 5 5 5 5 6 5 5 5 5 5 5 5 5 5 5 5 5 5 5 5 5 5 5 5 6 5 5 5 5 5 5 5 5 5 5 6 5 5 5 5 6 5 5 6 6 5 5 5 6 5 5 5 5 5 5 5 5 5 5 5 5 5 6 5 6 5 6 5 5 5 5 5 5 6 5 5 5 5 5 5 5 5 5 5 5 5 5 5 5 5 5 5 5 5 5 5 5 5 5 5 5 5 5 5 5 5 6 5 5 5 5 6 5 5 5 5 5 5 5 5 5 5 5 5 5 5 5 5 5 5 5 5 5 5 5 5 5 5 5 5 5 5 5 5 5 5 6 5 5 5 5 5 6 5 5 6 5 5 5 5 5 5 5 6 5 6 5 5 5 5 5 5 5 5 5 5 5 5 5 5 5 5 5 5 5 5 5 5 6 5 5 5 5 5 6 5 5 5 5 5 5 5 5 5 5 5 5 5 5 5 5 5 5 5 5 5 5 5 5 5 5 5 5 5 6 6 5 5 5 5 6 6 5 5 5 5 6 6 5 5 6 5 5 5 6 5 5 5 5 6 5 5 5 6 5 5 5 5 5 5 5 5 5 5 5 5 6 5 5 5 5 5 5 5 5 5 5 5 5 5 5 5 5 5 5 5 5 5 5 5 5 5 5 5 5 6 5 6 5 5 6 5 5 6 5 5 5 5 5 5 5 5 5 5 5 5 5 5 5 5 5 5 5 5 5 5 5 5 5 5 5 5 5 5 6 5 5 6 6 6 5 5 6 5 5 5 5 5 5 5 6 6 5 5 5 6 5 6 6 5 5 5 5 6 5 5 5 5 5 6 5 5 5 5 5 5 6 6 5 5 5 6 5 6 6 5 5 6 5 5 5 5 6 5 5 5 5 6 5 5 5 5 5 5 5 5 6 5 5 5 5 6 5 6 5 5 5 5 5 5 5 6 6 5 6 5 5 5 5 5 5 6 5 6 5 6 5 5 5 5 5 5 5 5 5 5 5 5 6 5 5 5 6 5 5 6 6 5 5 5 5 5 5 5 5 5 5 5 5 5 5 6 5 5 5 5 5 5 5 6 6 5 5 6 5 5 5 5 5 6 5 5 5 5 5 5 5 5 5 5 5 5 5 5 5 5 5 6 6 5 6 6 5 5 5 5 5 5 5 6 5 5 5 6 5 5 6 5 5 5 5 5 5 6 5 5 5 6 5 5 6 5 5 5 5 5 5 5 5 5 5 5 5 5 5 5 5 5 5 6 5 5 5 5 5 6 5 5 5 5 5 5 5 5 5 5 5 5 5 5 5 5 5 5 6 5 5 5 5 5 6 5 5 5 5 5 5 5 5 5 5 5 5 5 5 5 5 6 5 5 5 5 5 5 5 6 5 6 5 5 5 5 5 5 5 5 5 5 5 5 5 5 6 5 5 5 5 6 5 5 6 5 5 5 5 5 6 5 5 5 5 5 5 5 5 6 5 5 5 5 5 5 5 5 5 5 5 5 5 5 5 5 5 5 5 5 5 5 5 5 5 5 5 5 5 5 5 5 5 5 6 5 5 6 5 5 5 5 6 5 5 5 5 5 6 5 5 6 6 5 5 5 6 6 5 5 5 6 5 5 6 5 5 5 5 5 6 5 5 5 5 6 5 5 5 5 5 5 5 5 6 6 5 6 5 5 5 5 5 5 5 6 5 5 6 5 5 6 5 5 6 5 6 5 6 5 6 5 6 5 6 5 5 5 5 5 5 5 5 5 5 6 6 6 5 5 6 6 5 5 6 6 5 5 5 6 5 6 6 5 6 5 5 5 5 5 5 6 5 5 5 5 6 5 5 5 5 5 5 5 5 5 5 5 5 6 6 5 5 5 5 5 5 5 5 5 5 5 5 6 5 5 5 6 5 5 5 5 6 5 5 5 5 6 5 5 6 6 5 5 5 5 5 5 5 5 5 5 5 5 5 5 5 5 5 5 6 5 5 5 6 5 5 6 5 5 5 5 5 6 5 5 5 5 5 5 5 5 5 5 5 5 5 5 6 5 5 5 5 5 5 5 5 5 5 5 5 5 5 5 5 6 5 5 5 5 5 5 5 5 5 5 5 6 5 5 5 5 5 5 6 5 5 5 5 5 5 6 5 5 5 6 5 5 5 5 5 5 5 5 5 5 5 5 5 5 6 5 5 6 5 6 5 5 5 5 6 5 6 5 5 6 5 6 5 5 5 5 5 6 5 5 5 5 5 5 6 5 5 5 5 5 6 6 5 5 5 5 5 5 5 5 6 5 5 6 5 5 5 5 5 5 6 5 5 5 5 6 5 5 5 5 6 6 5 5 5 5 5 5 5 5 5 5 6 5 5 6 5 5 5 5 5 5 5 5 5 5 5 5 5 5 5 5 5 5 5 6 5 5 5 5 6 5 5 5 5 5 5 5 5 6 5 5 5 5 5 5 5 5 5 6 5 5 5 5 5 6 5 5 5 5 5 5 5 5 6 5 5 5 5 5 5 5 5 5 5 5 5 5 5 5 5 5 5 5 5 5 5 5 6 5 5 5 5 5 6 5 5 6 5 5 6 6 5 6 5 5 5 5 5 5 6 5 6 5 5 5 5 5 5 5 6 5 5 6 5 5 5 5 5 6 5 5 5 5 5 5 5 5 5 5 6 5 5 5 5 5 6 5 5 5 6 6 5 5 6 5 5 5 6 6 5 5 6 5 5 5 5 5 5 5 5 5 5 5 5 5 5 5 5 5 5 5 5 5 5 6 5 5 5 5 5 5 5 5 5 5 5 5 5 5 5 5 5 6 5 5 5 5 5 6 5 5 5 5 6 5 5 5 5 5 6 5 5 5 5 5 6 5 5 5 5 5 5 5 5 5 5 6 5 5 6 5 5 5 6 5 5 5 5 6 5 5 5 5 5 6 5 5 5 5 5 5 5 5 5 5 6 5 5 5 5 5 5 5 5 6 5 5 5 5 6 5 5 5 5 5 5 5 5 5 5 6 5 6 5 5 6 5 5 5 6 5 5 5 5 5 5 6 5 5 6 5 6 6 5 5 6 5 5 5 6 5 5 5 5 5 5 6 6 5 5 5 6 6 5 5 5 6 5 5 5 6 5 5 5 5 5 6 5 5 5 5 6 5 5 6 5 6 5 5 5 5 5 5 5 5 5 6 5 5 5 5 5 5 5 5 5 6 5 5 6 5 5 6 5 5 5 5 6 5 5 5 5 5 5 5 5 5 5 5 5 5 5 5 5 5 5 5 5 5 5 5 5 5 5 5 5 5 6 5 5 5 5 5 5 6 5 5 6 5 5 5 5 5 5 5 5 6 5 5 5 5 6 5 5 5 5 6 5 5 5 5 5 6 5 5 5 5 5 6 5 5 5 5 5 5 5 5 6 5 5 5 5 6 5 5 5 5 5 5 5 5 5 5 5 5 5 6 5 5 5 5 5 5 5 6 5 5 5 5 5 5 5 5 5 5 5 5 5 5 5 5 5 5 5 5 5 5 5 5 5 5 5 5 5 5 5 5 5 5 5 5 5 5 5 5 5 5 6 5 5 6 5 6 6 5 5 5 5 5 5 5 5 5 5 5 5 5 6 5 5 5 5 5 5 5 6 5 5 5 5 5 5 5 5 5 5 5 5 5 5 5 5 5 5 5 5 5 5 5 5 5 5 5 5 6 5 5 6 5 5 5 6 5 5 5 5 5 5 5 5 5 5 5 5 5 5 5 5 5 5 5 5 5 5 5 6 5 5 5 5 5 5 5 5 6 5 5 5 5 5 5 5 5 6 5 5 5 5 5 5 5 5 5 5 6 5 5 5 5 5 5 6 5 5 5 5 5 5 5 5 5 5 5 6 6 5 5 5 5 5 6 5 5 5 5 5 5 6 5 5 5 5 5 5 6 5 6 5 5 5 5 5 5 5 5 5 5 5 5 5 5 5 5 5 5 5 5 5 5 5 5 5 5 5 5 5 5 5 6 5 5 5 5 5 5 5 5 5 5 5 6 5 5 5 5 5 6 5 6 5 5 5 5 5 5 5 6 5 5 5 5 5 5 5 5 6 5 5 5 5 5 5 5 5 5 6 5 5 5 5 5 5 5 5 5 5 5 5 6 5 5 5 5 6 5 5 5 5 5 5 5 5 5 5 6 5 5 5 5 5 5 5 5 6 5 5 6 5 5 5 5 5 5 5 5 5 5 6 5 6 5 6 5 6 5 5 5 6 5 5 5 6 6 5 5 5 5 6 5 5 6 6 5 5 5 6 5 5 5 6 5 5 6 5 5 6 5 6 5 5 5 6 5 5 5 5 5 5 5 5 5 5 5 5 5 5 6 5 5 5 5 5 6 5 5 5 5 6 5 5 5 5 5 5 5 5 5 6 5 5 5 5 5 5 6 5 5 5 6 5 5 5 6 5 5 5 5 5 5 5 5 6 5 5 5 5 5 5 5 5 6 5 5 5 6 5 5 6 5 5 5 5 5 5 6 5 5 6 5 6 5 5 5 6 5 5 6 5 5 5 5 5 6 5 5 6 5 5 5 5 5 5 5 5 5 5 5 5 6 5 5 5 5 5 5 5 5 5 5 5 5 5 5 5 5 5 5 5 5 5 6 5 5 5 5 5 5 5 5 5 6 5 5 5 6 5 6 5 5 5 5 6 6 5 5 6 6 5 5 5 6 5 5 6 5 6 5 5 5 6 5 5 5 5 5 5 5 5 6 5 5 5 5 5 5 5 6 5 5 6 5 5 5 6 5 6 5 5 6 5 6 6 5 5 5 5 6 5 5 6 6 5 5 5 5 5 5 5 5 5 6 5 5 5 5 6 5 5 5 5 5 5 5 5 5 5 5 5 5 5 5 5 5 5 5 5 5 5 5 5 5 5 5 5 5 5 6 5 5 6 5 5 5 5 5 5 5 5 5 5 5 6 6 5 5 5 5 5 5 5 5 5 5 5 5 5 5 5 5 5 5 5 5 6 5 5 5 5 5 5 5 5 5 5 5 5 5 5 5 5 6 5 5 5 6 5 5 5 5 5 5 6 5 5 5 5 5 5 5 5 6 6 5 5 5 5 5 5 5 6 5 5 5 5 5 5 5 6 5 5 5 5 5 5 6 5 5 5 5 5 6 5 5 6 5 5 5 5 5 5 5 6 5 5 5 6 5 5 5 5 5 5 5 5 5 5 5 5 5 5 5 5 5 5 5 5 5 5 5 5 5 5 5 5 5 5 5 5 5 5 5 5 5 6 6 5 5 5 5 5 6 5 5 5 5 6 5 5 6 5 5 5 5 5 5 5 5 5 5 5 5 5 5 5 5 5 6 5 5 5 5 6 5 5 5 6 5 5 5 5 5 6 5 6 5 5 5 5 5 5 5 6 5 5 6 5 6 5 5 5 6 5 5 6 5 5 6 5 5 5 5 5 5 5 5 5 5 5 5 5 6 5 6 5 5 5 5 5 5 5 6 5 5 6 5 5 6 5 5 5 5 5 6 5 5 5 5 6 5 5 5 6 5 5 5 5 5 5 5 5 5 5 5 5 5 5 5 5 5 5 5 6 5 5 5 6 5 5 6 5 5 5 6 5 5 5 5 5 5 5 5 5 6 5 6 5 5 5 5 5 5 5 5 5 5 5 6 5 5 5 5 5 5 5 5 5 5 5 5 5 6 5 5 5 5 5 6 6 5 5 5 5 5 5 5 5 5 5 5 5 5 5 5 5 5 5 5 5 5 5 5 6 5 5 5 5 5 5 5 5 5 5 5 5 5 5 6 5 5 5 5 5 5 5 5 5 6 5 5 5 6 5 5 5 5 5 5 5 5 5 5 5 5 5 5 5 5 5 5 5 6 5 5 5 5 5 6 5 5 5 5 5 6 5 5 6 5 5 5 6 5 5 5 5 5 5 5 5 6 5 5 6 5 5 5 6 5 5 6 5 5 6 5 6 5 5 5 6 5 5 5 5 5 5 5 5 6 5 5 5 6 5 5 5 5 5 5 5 5 5 5 5 5 6 5 6 5 5 6 5 5 5 6 5 5 5 6 6 5 5 5 5 5 5 5 5 5 5 5 5 5 5 5 5 6 6 5 5 5 6 5 5 5 5 5 6 5 5 5 5 5 5 5 5 5 5 5 5 5 5 6 5 5 5 5 5 5 5 5 5 5 5 5 5 5 5 5 5 5 5 5 5 5 5 5 5 5 6 5 6 5 5 6 5 5 5 5 5 5 6 5 5 5 5 5 6 5 5 5 5 5 5 6 5 6 5 5 5 5 5 5 5 5 5 5 5 5 5 5 5 5 5 5 5 5 5 5 5 5 6 5 5 6 5 5 5 5 5 5 5 5 5 5 5 6 5 5 5 5 5 5 5 5 5 5 6 5 5 5 5 5 5 5 6 5 5 5 5 5 6 6 5 6 6 5 5 5 6 5 5 5 5 6 5 5 5 5 6 5 5 6 5 5 6 5 5 6 5 5 5 5 5 5 5 5 5 5 5 6 5 5 5 6 5 5 6 6 6 5 5 5 6 5 5 6 6 5 5 5 5 5 5 5 5 5 5 5 5 5 5 5 5 6 5 5 5 5 5 5 5 5 5 5 5 5 5 5 5 5 5 5 5 5 5 5 5 6 6 5 5 5 6 5 5 5 5 5 5 5 5 5 6 5 5 5 5 5 6 5 5 6 5 6 5 5 5 5 6 6 5 5 5 5 5 5 5 5 5 5 5 5 5 5 5 5 5 5 5 5 5 5 5 6 5 5 5 5 5 5 5 5 5 5 5 5 5 6 5 5 6 5 5 5 5 5 5 5 5 5 5 5 5 5 6 5 5 6 5 5 5 5 5 5 5 5 5 5 5 5 5 5 5 5 5 5 6 5 5 5 5 5 5 5 5 5 5 5 6 6 5 5 5 6 5 5 5 5 6 5 5 6 5 5 5 5 5 5 5 5 5 5 5 5 5 5 5 5 5 5 5 5 5 6 5 5 5 5 5 6 5 5 5 5 5 5 5 5 5 5 5 5 5 6 5 5 5 5 5 5 5 6 5 5 5 5 5 5 5 5 5 5 5 5 5 5 5 5 5 5 6 5 5 5 6 5 5 5 5 5 5 6 6 5 5 5 5 5 6 5 5 5 5 6 5 5 5 6 5 6 6 5 5 5 5 5 5 5 5 5 5 5 5 5 5 5 6 5 5 5 5 5 5 6 5 5 5 6 5 5 6 5 5 5 6 5 6 5 5 5 5 5 5 6 5 6 5 5 5 6 6 5 5 5 5 6 5 6 6 5 5 5 5 5 5 5 6 5 5 5 5 5 5 5 5 5 6 5 5 5 5 5 5 5 5 6 6 5 5 6 5 5 6 5 5 5 6 5 5 6 5 5 5 5 5 6 5 5 5 5 5 5 5 5 5 5 5 5 5 5 5 5 5 5 5 5 6 6 5 5 5 5 6 5 5 6 5 5 5 5 5 5 5 5 5 6 6 5 5 5 5 5 5 5 5 5 5 5 5 6 5 5 5 5 5 5 5 5 5 5 5 5 5 5 6 5 5 6 5 5 5 5 5 5 5 5 5 5 5 5 5 5 5 6 5 5 5 6 5 5 5 5 5 5 5 5 5 5 5 6 5 5 5 5 5 5 5 5 5 5 5 5 5 5 5 5 5 6 5 5 5 5 5 5 5 5 5 5 5 5 5 5 5 5 5 5 5 5 5 5 5 5 5 5 5 5 5 5 5 5 6 5 5 5 5 5 5 5 5 5 5 5 5 5 5 5 5 5 5 5 5 5 5 5 5 6 6 5 5 5 5 5 5 5 5 5 5 5 5 5 5 5 5 5 5 5 5 5 5 5 5 5 5 5 5 5 5 5 5 5 5 5 5 5 5 5 5 5 5 5 5 5 5 5 5 5 5 5 5 5 5 5 5 5 6 5 5 5 6 5 5 5 5 5 5 5 5 5 5 5 5 5 5 5 5 5 5 5 5 5 5 5 5 5 6 5 5 5 5 5 5 5 5 5 5 5 5 5 5 6 5 5 5 5 5 6 5 5 6 5 5 5 5 5 5 5 6 5 6 5 5 5 5 5 6 5 5 5 5 5 5 5 6 5 5 5 5 5 5 5 6 5 5 6 5 5 5 6 5 5 5 5 5 5 5 5 5 5 5 5 5 5 6 5 5 5 5 5 5 5 5 5 5 5 5 5 5 5 5 5 5 5 6 5 6 5 6 5 6 6 5 5 5 5 5 5 5 5 5 6 5 5 5 5 5 6 5 6 5 5 5 5 5 6 5 5 6 5 5 5 5 5 5 5 6 5 5 5 5 5 5 5 5 5 5 6 5 5 6 6 5 5 5 6 5 5 5 5 5 5 5 5 6 5 5 5 5 5 5 5 5 5 5 5 5 5 5 5 5 5 5 5 5 5 5 5 5 6 5 6 6 5 5 5 5 5 5 5 5 5 5 5 5 5 5 5 5 5 5 5 5 5 5 6 5 5 6 6 5 5 5 5 5 5 5 5 5 5 5 5 5 5 5 5 5 5 5 5 6 5 5 6 5 5 6 5 5 5 5 5 5 5 5 5 5 5 5 5 5 5 5 5 5 5 5 5 6 5 5 5 6 5 5 5 5 5 6 5 5 5 5 5 6 5 5 5 5 5 5 5 5 5 5 5 5 5 6 5 6 5 5 5 5 6 5 5 5 5 5 6 5 6 5 5 5 5 5 5 5 5 5 5 5 5 6 5 5 5 5 5 5 5 5 6 5 5 5 5 5 5 5 5 5 5 5 6 5 5 5 6 5 5 6 5 6 5 5 5 5 5 5 6 5 5 5 5 5 5 5 5 5 5 5 5 5 5 5 6 5 5 5 6 5 5 5 5 5 5 5 5 6 5 6 5 5 5 5 6 5 5 5 5 5 5 5 5 5 5 5 5 5 5 5 6 5 5 5 5 5 5 6 5 5 5 5 5 5 5 5 5 5 5 5 5 5 5 5 5 5 5 5 5 5 5 5 5 5 6 5 5 6 5 5 5 5 5 5 5 5 5 5 5 5 5 5 6 5 5 5 5 5 5 5 5 5 5 5 6 5 6 5 5 6 5 5 6 6 5 6 5 5 6 5 5 5 5 5 5 5 5 5 5 5 5 5 5 5 5 5 5 5 5 5 5 5 5 5 5 5 6 5 5 6 5 5 6 5 6 5 5 5 6 5 5 5 5 6 5 5 5 5 5 5 5 5 5 5 6 5 5 5 6 5 5 5 6 5 5 5 5 5 5 5 5 5 5 5 5 5 6 6 5 5 5 5 5 5 5 5 5 5 5 5 5 5 5 5 5 5 5 5 5 5 5 5 6 6 5 5 5 5 5 5 5 5 5 5 5 5 5 6 6 5 6 5 5 5 5 5 6 5 5 5 5 5 5 5 5 6 6 5 6 5 5 6 5 6 5 5 5 5 5 5 5 5 5 5 5 6 5 5 5 5 5 5 5 6 5 5 5 5 5 6 5 6 5 5 5 5 5 5 5 5 6 5 5 5 5 6 6 6 5 5 6 5 5 5 6 5 5 6 5 5 5 5 6 5 5 5 5 5 5 5 6 5 5 5 5 5 5 5 5 5 5 5 5 5 5 5 6 5 6 5 5 5 5 6 5 5 6 5 5 6 5 6 5 5 5 5 5 5 6 5 5 5 5 5 5 5 5 5 6 6 5 5 5 5 6 5 5 5 5 6 5 5 5 5 5 5 5 5 5 5 5 5 5 5 5 5 5 5 5 5 5 5 5 5 5 5 5 5 5 5 5 5 5 5 6 5 5 5 5 6 5 5 5 5 5 5 6 5 5 5 5 5 5 5 6 5 6 5 5 6 6 5 5 6 5 5 5 5 5 5 5 5 6 5 5 6 5 5 6 5 5 5 6 5 5 6 6 6 5 5 6 5 5 6 5 5 5 5 5 5 5 5 5 5 5 5 5 5 6 5 5 5 5 5 5 5 5 5 6 5 5 5 5 5 6 5 6 5 6 5 5 5 5 6 5 5 5 5 6 5 6 5 6 6 5 5 5 5 5 5 6 5 5 6 5 5 5 5 5 6 5 5 5 6 5 5 6 5 5 5 5 6 5 5 5 5 5 5 5 5 5 5 5 5 5 6 5 5 5 6 5 5 5 5 5 5 5 5 5 5 5 5 5 5 5 5 5 5 5 5 5 5 5 5 5 5 5 5 5 5 6 5 5 5 5 5 5 5 5 5 5 5 5 5 6 5 5 5 5 6 5 5 5 6 5 5 5 5 5 5 5 5 5 5 6 5 5 5 5 6 5 5 5 6 5 6 5 5 5 5 5 5 5 5 6 6 5 5 5 5 5 5 5 5 5 5 5 5 5 5 5 5 5 5 5 5 5 5 5 5 5 6 5 5 5 5 5 5 5 5 5 5 6 5 5 5 5 6 6 5 5 5 5 6 5 5 6 6 5 5 6 5 5 5 5 5 5 5 5 5 5 6 5 5 5 5 5 5 5 6 5 6 5 5 6 5 5 5 6 5 6 5 6 5 5 6 5 5 5 5 5 5 5 5 6 5 5 5 5 5 5 5 6 5 5 5 5 6 5 5 6 5 5 5 5 5 5 5 5 5 5 5 5 5 5 5 5 6 5 5 5 5 5 5 6 5 5 5 6 5 5 6 5 5 5 6 5 5 5 5 5 5 5 5 5 5 5 5 5 5 5 5 5 6 5 5 5 5 5 5 5 5 6 5 5 6 5 5 5 5 5 5 5 5 5 5 5 5 5 5 5 5 5 6 5 5 5 5 5 5 6 5 5 6 5 5 5 5 5 5 5 5 5 5 5 5 5 5 5 5 5 5 5 5 5 5 5 5 5 5 5 5 5 5 5 5 5 5 5 5 5 5 6 5 5 5 5 5 6 6 5 5 5 6 5 6 5 6 5 5 6 5 5 5 5 5 5 5 5 5 5 6 5 5 5 5 5 6 5 5 5 5 5 5 5 5 5 5 5 5 6 6 5 5 5 5 5 5 5 5 5 5 5 5 5 5 5 5 5 5 5 6 5 5 5 5 5 5 5 5 5 5 5 5 5 5 5 6 5 6 5 5 5 6 5 5 5 5 6 5 6 5 5 5 5 5 5 5 5 5 5 5 5 5 5 5 5 5 5 5 5 5 6 5 5 6 5 5 5 5 5 5 5 5 5 5 5 6 5 5 5 5 5 5 5 5 5 5 5 5 5 5 6 5 5 5 6 5 5 5 6 5 6 5 5 5 5 5 5 5 6 6 5 5 5 5 5 5 5 5 5 5 5 5 6 5 5 5 5 5 5 5 5 5 5 5 5 5 5 5 5 5 5 5 5 5 5 5 5 5 5 6 5 5 5 5 5 5 5 5 5 5 5 5 5 5 5 6 5 5 5 6 5 5 5 6 5 5 5 5 5 5 5 5 5 5 5 5 5 5 5 5 5 5 5 5 5 5 6 5 5 6 5 5 5 5 5 5 5 5 5 5 5 5 5 5 5 5 5 5 5 6 5 5 5 6 5 6 5 5 5 5 5 5 6 5 5 5 5 5 5 5 5 6 5 5 5 5 5 5 5 5 5 5 5 5 5 5 5 5 6 5 5 5 5 5 5 5 5 5 5 5 5 5 5 5 5 5 5 5 5 5 5 5 5 5 5 5 5 5 5 5 5 6 5 5 5 5 5 5 5 5 5 5 5 5 5 5 5 5 5 5 5 5 5 5 5 5 5 5 5 5 5 5 5 5 5 5 5 5 5 5 5 5 5 5 5 5 5 5 5 5 5 5 5 5 5 5 5 5 5 5 5 5 5 6 5 5 5 6 5 5 5 5 5 5 5 5 5 5 5 5 5 5 5 5 5 5 5 5 5 5 5 5 5 5 5 5 5 5 5 5 5 5 5 5 5 5 5 5 5 5 5 5 5 5 5 5 5 5 5 5 5 5 5 5 5 5 6 5 5 5 5 5 5 5 6 5 5 5 5 5 5 5 5 5 5 5 5 5 5 5 5 5 5 5 5 5 6 5 5 5 5 5 5 5 6 5 5 5 5 5 5 5 6 5 5 5 5 5 5 5 5 5 5 5 6 5 5 5 5 5 6 5 5 5 5 5 5 5 5 5 5 6 5 5 5 5 5 5 6 5 5 5 5 6 5 5 5 5 5 6 5 5 5 5 6 5 5 6 5 5 5 5 5 6 5 5 5 6 5 5 5 5 6 5 5 5 6 5 5 5 5 6 5 5 6 5 5 5 5 5 6 5 5 5 5 5 6 5 5 5 5 5 5 5 5 5 6 5 5 5 5 6 6 5 5 5 5 5 5 5 5 5 5 5 5 5 5 5 6 5 5 6 5 5 5 5 6 5 6 5 5 5 5 5 5 5 5 5 6 5 5 5 5 5 5 5 5 5 6 5 5 6 5 5 5 5 5 5 6 5 5 5 6 6 5 5 5 5 5 5 5 5 5 5 5 5 5 5 5 5 5 5 6 5 5 5 5 5 5 5 6 5 6 5 5 5 5 5 5 5 5 5 5 5 5 5 6 5 5 5 5 6 5 5 5 5 5 5 5 5 5 6 5 5 5 5 5 6 5 5 5 5 5 5 5 5 5 5 5 5 5 5 5 5 5 5 5 5 5 5 5 5 5 5 5 5 5 5 5 5 5 5 5 5 5 5 5 5 5 5 5 5 5 5 5 5 5 5 5 5 6 5 6 5 5 5 5 5 5 5 6 5 5 6 5 5 5 5 5 5 6 5 5 5 5 6 5 6 5 5 5 5 5 5 6 5 5 6 5 5 5 5 5 5 5 5 5 5 5 5 6 5 5 5 5 5 5 5 6 5 5 6 5 5 5 5 5 5 5 5 5 5 5 6 5 5 5 5 5 6 5 6 5 5 6 5 5 6 6 5 5 5 6 5 6 5 5 5 5 5 6 5 5 5 5 5 5 5 5 6 5 5 5 5 5 5 5 5 6 6 5 6 5 5 5 5 5 5 5 5 5 5 5 5 6 5 5 5 5 5 5 5 5 5 5 5 5 6 5 5 5 5 5 5 6 5 5 5 5 6 5 5 5 5 5 5 5 5 6 5 5 6 5 5 6 6 5 6 5 6 5 5 5 5 5 5 5 5 5 6 5 5 6 5 6 5 5 5 5 5 5 6 5 5 5 5 5 5 6 5 5 5 5 5 5 5 5 5 6 5 5 5 5 5 5 5 5 5 5 5 5 5 5 5 5 5 5 5 5 5 5 6 5 5 5 5 5 6 6 5 5 5 5 5 6 5 5 5 5 5 5 5 5 5 5 6 5 6 5 5 5 5 5 5 6 5 5 5 6 5 5 5 5 5 5 5 5 5 5 6 5 5 5 5 5 5 5 5 5 5 5 5 6 5 5 5 5 5 5 5 5 6 5 5 5 5 5 6 5 5 5 5 5 6 5 5 6 5 5 5 5 5 5 6 5 5 5 5 5 5 5 5 5 5 5 5 6 5 6 5 5 5 6 5 5 5 5 6 5 5 5 5 5 5 5 5 5 5 5 5 5 6 5 5 5 6 5 5 6 5 5 5 5 6 5 5 5 5 5 5 5 5 5 5 5 5 5 5 5 5 6 5 5 5 5 5 6 5 5 5 6 5 6 5 5 5 5 5 6 5 5 5 5 5 5 5 5 5 5 5 5 5 5 5 5 5 5 5 5 5 5 5 5 5 5 5 5 5 5 5 5 5 5 5 5 5 5 5 5 6 5 5 6 5 5 5 5 5 5 5 6 5 5 5 5 5 5 5 5 5 5 6 5 5 5 6 5 5 5 5 5 5 5 5 5 5 5 6 5 5 5 6 5 5 5 5 6 5 5 5 5 5 5 5 5 5 5 5 5 5 5 5 5 5 5 5 5 5 5 5 5 5 5 5 5 5 5 5 5 5 5 5 6 5 6 5 5 5 5 5 5 5 5 5 5 5 5 5 6 5 5 5 5 5 5 5 5 5 5 5 5 5 5 5 5 5 5 5 5 5 5 5 5 5 5 5 5 5 5 5 5 5 5 5 5 5 6 5 6 5 5 5 5 5 5 6 5 6 5 5 5 5 5 5 5 5 5 5 5 6 5 5 5 5 5 6 5 6 5 5 5 5 6 5 6 5 5 6 5 5 5 5 5 5 5 5 6 5 5 5 5 5 5 5 5 5 5 5 5 5 5 5 5 5 5 6 5 5 6 5 6 5 5 5 5 5 6 5 5 5 6 5 5 5 5 5 5 5 5 5 5 6 5 5 5 6 6 5 5 5 5 5 5 6 5 5 5 5 5 6 5 5 6 5 5 5 5 5 5 5 5 5 6 5 5 6 5 5 5 5 6 5 5 5 5 5 5 6 5 5 5 5 6 5 5 6 5 5 5 6 5 6 5 5 5 5 6 5 6 5 5 5 6 5 6 5 5 5 5 5 5 6 5 5 5 5 5 6 5 5 5 5 6 5 5 6 5 5 5 5 6 6 5 5 5 5 5 5 5 5 5 5 5 6 6 5 5 5 5 5 5 5 5 5 5 5 5 5 6 5 5 5 5 5 5 5 5 5 5 5 6 5 5 5 5 5 5 5 5 5 5 5 5 6 5 5 6 5 5 5 5 5 6 5 5 5 5 6 6 5 5 5 5 5 5 5 5 5 5 6 5 5 5 5 5 5 6 5 5 6 5 5 5 5 6 5 5 5 5 5 5 5 5 5 5 5 5 5 5 5 5 5 6 5 5 6 5 5 5 5 5 5 5 5 5 5 5 5 6 5 6 6 6 5 5 5 5 5 5 5 6 5 5 5 5 5 5 5 5 6 5 5 5 5 5 5 5 5 5 5 5 5 5 5 5 5 5 5 5 5 5 5 5 5 5 5 5 5 6 5 5 6 5 5 5 5 5 5 5 5 5 5 5 5 5 5 5 6 5 5 5 5 6 5 5 5 5 5 5 5 5 5 5 5 5 5 6 5 5 5 5 5 5 5 6 5 5 5 5 6 5 5 5 5 5 5 5 5 5 5 5 5 5 5 5 5 5 5 5 5 5 5 5 6 5 5 5 5 5 5 6 5 5 5 5 6 5 5 6 5 5 5 5 5 6 5 5 5 5 5 5 5 5 5 5 6 5 5 5 5 5 5 5 5 5 5 6 5 5 5 6 5 5 5 5 5 6 5 5 5 5 5 5 5 5 6 5 6 5 5 6 5 5 6 5 5 5 5 5 5 5 6 5 5 5 5 5 5 5 5 5 5 5 5 5 5 5 5 6 5 5 5 5 5 5 5 5 5 5 5 5 5 5 5 5 5 5 5 5 5 5 5 5 5 5 5 5 5 6 5 5 5 5 5 5 5 5 5 5 5 5 5 5 5 5 5 5 5 5 5 5 5 6 5 5 5 5 5 5 5 5 5 5 5 5 5 5 5 5 5 5 6 5 5 5 5 5 5 5 6 5 6 5 5 5 6 5 6 5 5 5 5 5 5 5 5 5 5 5 5 5 5 5 5 5 5 5 5 5 5 6 5 6 5 5 5 5 5 5 5 5 5 5 6 5 5 5 6 5 6 5 5 6 5 5 6 5 5 5 5 5 5 5 5 5 5 5 5 6 5 5 5 6 5 5 6 5 5 5 5 5 5 5 6 5 5 5 5 5 5 5 5 6 5 6 5 5 5 5 5 5 5 6 5 5 5 5 5 5 5 5 5 5 6 5 5 6 5 6 5 6 5 5 5 5 5 6 5 5 5 6 5 5 6 6 5 5 6 5 5 5 5 6 5 5 6 5 5 6 5 5 6 5 5 5 5 5 5 6 5 5 6 5 5 5 6 5 6 5 5 6 5 5 5 5 5 5 6 5 5 6 5 5 5 5 5 5 6 5 6 5 5 5 5 6 5 5 5 5 5 6 5 6 5 5 5 6 6 6 5 5 6 5 5 6 5 6 5 5 5 6 5 5 5 6 5 5 5 5 6 5 6 5 6 5 6 5 6 6 5 6 5 5 5 5 5 5 5 5 5 6 5 5 5 6 5 5 6 5 5 5 5 5 5 5 5 5 5 6 5 5 5 6 5 5 5 5 5 5 5 5 5 6 5 5 6 5 5 5 5 5 5 6 5 5 5 5 5 5 5 6 5 5 6 5 5 6 5 5 5 5 5 5 5 5 5 5 5 6 5 5 6 5 5 5 5 5 5 6 5 5 6 5 5 5 5 5 5 5 5 5 5 5 6 5 5 5 5 5 5 5 5 5 5 5 5 6 5 5 5 5 5 5 5 5 5 6 5 5 5 5 5 5 5 5 5 5 5 5 5 5 5 5 5 5 5 5 5 5 5 5 5 5 5 5 5 5 5 5 5 5 5 5 5 5 5 5 5 5 5 5 5 5 5 5 5 5 5 5 5 5 5 5 5 5 5 5 5 5 5 5 5 5 5 5 5 5 5 5 5 5 5 5 5 5 5 5 5 5 5 5 5 5 5 5 5 5 5 5 5 5 5 5 5 5 5 5 5 6 5 5 5 5 5 5 6 5 5 6 5 6 5 6 5 5 5 6 5 5 6 5 5 5 5 5 5 5 5 5 5 6 5 5 5 5 5 5 5 5 5 5 5 5 5 5 5 5 5 5 5 5 5 5 5 5 5 5 5 5 5 5 5 5 5 5 5 5 5 5 5 5 5 5 5 5 5 5 5 5 5 5 5 5 5 5 5 5 5 5 5 5 5 5 5 5 5 5 6 5 5 5 5 6 5 5 5 5 5 6 5 5 6 5 5 6 6 5 5 5 5 5 5 5 6 5 5 5 5 6 5 5 5 5 5 5 5 6 5 5 5 5 5 5 5 5 5 5 5 5 5 5 5 5 5 5 5 5 5 5 5 5 6 5 5 5 6 5 5 6 5 5 5 5 5 5 5 5 5 6 5 5 5 6 5 5 5 6 5 5 6 5 5 5 5 5 5 5 5 5 5 5 5 5 5 5 5 5 5 5 5 5 5 6 5 5 5 5 5 5 5 5 6 5 5 5 6 5 5 5 5 5 6 5 6 5 5 5 5 
</DataArray>
<DataArray type="Float64" Name="stress" NumberOfComponents="9" format="ascii">
3375.3504978602577 -1751.9604901253404 0 -1751.9604901253404 925.9986646321637 0 0 0 0 5486.2369737616973 -2.5183558847527538 0 -2.5183558847527538 -2.8973059958896958 0 0 0 0 35.240296113945078 3.4521462201410609 0 3.4521462201410609 0.0073416722649753702 0 0 0 0 11.396409207874626 4.1896214835439309 0 4.1896214835439309 -0.55178866988016728 0 0 0 0 27.944206560955593 8.4616937752061574 0 8.4616937752061574 3.5000394672013297 0 0 0 0 1389.8725326552376 1853.4300346846419 0 1853.4300346846419 956.17418212577627 0 0 0 0 5488.9756146800937 1987.9661200935184 0 1987.9661200935184 -1061.6141277890283 0 0 0 0 129.26041334093316 -817.75398081506819 0 -817.75398081506819 -859.96666722182283 0 0 0 0 2780.3394493169617 1078.9941317339856 0 1078.9941317339856 -328.07525954408811 0 0 0 0 2944.7088819681376 846.08641534976914 0 846.08641534976914 -1001.1950846763112 0 0 0 0 -40.274416895903414 -1452.9190249054359 0 -1452.9190249054359 37.558342579011764 0 0 0 0 6807.0418796225422 143.72576684566008 0 143.72576684566008 59.124057986067996 0 0 0 0 15.270414117667542 -10.714416402190125 0 -10.714416402190125 2.2464928913344844 0 0 0 0 4363.2736803615408 926.86063204982327 0 926.86063204982327 -181.69337451140888 0 0 0 0 2414.1165847683624 549.91315962092824 0 549.91315962092824 81.464451512408402 0 0 0 0 33.28308225105701 -16.537639280337572 0 -16.537639280337572 -2.916292469169866 0 0 0 0 1833.8704642327357 -657.36278920869154 0 -657.36278920869154 200.68553320717888 0 0 0 0 35.190821241369122 3.3997788492842171 0 3.3997788492842171 -0.0080637757727251309 0 0 0 0 11.493353905764025 -0.72924593879793065 0 -0.72924593879793065 -0.4499497038375605 0 0 0 0 3177.0231511378079 -533.5824299660967 0 -533.5824299660967 73.463119185338243 0 0 0 0 3726.5085574594668 666.65934734745611 0 666.65934734745611 -54.304528588113499 0 0 0 0 3919.9704354168207 -156.69268576641957 0 -156.69268576641957 -352.38132612367707 0 0 0 0 4239.8592465811671 234.68957898175293 0 234.68957898175293 -0.2072413332182329 0 0 0 0 3586.4402945373076 44.342307018820193 0 44.342307018820193 -0.62878565449410939 0 0 0 0 4603.6407027823298 -762.54875067197338 0 -762.54875067197338 -348.51385518346541 0 0 0 0 4679.4905599425401 358.49223541934737 0 358.49223541934737 -131.40423312446711 0 0 0 0 490.65341523371171 -169.4684953742495 0 -169.4684953742495 0.56011434950651773 0 0 0 0 1155.2852099021693 1.6530402134340036 0 1.6530402134340036 -80.419580240060739 0 0 0 0 1976.0656339867419 -747.54747670809547 0 -747.54747670809547 31.467973553334261 0 0 0 0 1998.3934377114929 -614.12956849205352 0 -614.12956849205352 -67.236683125499709 0 0 0 0 -71.922847977300989 -153.7132428366923 0 -153.7132428366923 642.97734010234058 0 0 0 0 619.48340151101002 -691.25631596916446 0 -691.25631596916446 562.66977306181082 0 0 0 0 731.1817787997079 210.72038355793507 0 210.72038355793507 -83.247392082396118 0 0 0 0 1051.0163894357665 -1817.7101156444228 0 -1817.7101156444228 1315.5502003127831 0 0 0 0 23.304440969892028 -8.0336009906940973 0 -8.0336009906940973 4.3097345789297439 0 0 0 0 423.59100421314361 342.43573793439009 0 342.43573793439009 620.04581163919784 0 0 0 0 3642.4632813837816 1742.157767368948 0 1742.157767368948 293.31140801358708 0 0 0 0 578.23920759762223 -315.30696173158401 0 -315.30696173158401 -251.5548897445222 0 0 0 0 52.60756296892049 -24.051277590563117 0 -24.051277590563117 2.3719183529790486 0 0 0 0 122.86100831991644 -42.13418189148797 0 -42.13418189148797 -39.791389328452624 0 0 0 0 4678.1414578361582 -519.16242286189924 0 -519.16242286189924 1249.2034664399791 0 0 0 0 5331.0212547912743 -458.21831231271824 0 -458.21831231271824 -139.82828608566683 0 0 0 0 4598.4297822557273 -1116.9577672572127 0 -1116.9577672572127 1023.118066908743 0 0 0 0 5084.2567391004413 -1203.7072014893681 0 -1203.7072014893681 260.53764325254815 0 0 0 0 3730.7534926082881 -539.27385031179153 0 -539.27385031179153 299.47800368678139 0 0 0 0 4126.3485130696063 -337.47361159770867 0 -337.47361159770867 -413.4501677921379 0 0 0 0 2931.5403574761003 459.22940895672241 0 459.22940895672241 -147.32213537035921 0 0 0 0 2867.6941387611296 -38.707463170080956 0 -38.707463170080956 23.087119831887094 0 0 0 0 18.961086771540518 -6.5131876425838016 0 -6.5131876425838016 -21.412495796177069 0 0 0 0 -402.86583997905836 -127.12817850145336 0 -127.12817850145336 256.83253426149003 0 0 0 0 2930.7107117381092 442.25626134580705 0 442.25626134580705 -297.93410460275163 0 0 0 0 1437.0433453098522 250.54288476457714 0 250.54288476457714 39.997884342560269 0 0 0 0 2920.0912242027407 194.71384738627916 0 194.71384738627916 -366.53797873629503 0 0 0 0 1406.3424832522142 -52.179083187034053 0 -52.179083187034053 -354.201679477938 0 0 0 0 -0.2048517153741507 1.8140711600063923 0 1.8140711600063923 -6.4432068859091061 0 0 0 0 -616.53976488052285 -345.55404685474605 0 -345.55404685474605 130.35423360882965 0 0 0 0 -346.97305970516754 -683.00318125777085 0 -683.00318125777085 705.80175094504239 0 0 0 0 2238.8743004244898 -305.44893432752866 0 -305.44893432752866 -450.70102377851453 0 0 0 0 2169.5959276706881 561.80448182493319 0 561.80448182493319 575.65525983833231 0 0 0 0 2183.8440450282505 -28.29660508070171 0 -28.29660508070171 937.03848625247747 0 0 0 0 3389.2997653115817 665.83135748089478 0 665.83135748089478 716.60998274459359 0 0 0 0 -654.09130879188888 -423.56474464044641 0 -423.56474464044641 597.30999455273786 0 0 0 0 10.053013054746373 -7.6858374574072457 0 -7.6858374574072457 7.7806887880438032 0 0 0 0 3081.4396124003688 -351.91471069522657 0 -351.91471069522657 268.35903715444834 0 0 0 0 3374.0005779906205 -729.8571107263034 0 -729.8571107263034 240.7890257385028 0 0 0 0 2231.7824977134587 -236.05383908537709 0 -236.05383908537709 461.92399708223513 0 0 0 0 2285.5648767808889 -95.47575127026731 0 -95.47575127026731 820.41077769767048 0 0 0 0 2881.8775065873197 -638.86736827163861 0 -638.86736827163861 522.84739828879071 0 0 0 0 3319.7255706078722 -860.97865008447479 0 -860.97865008447479 -59.128503916208274 0 0 0 0 3674.2618312017294 -1221.390342568804 0 -1221.390342568804 -101.74493260972753 0 0 0 0 4179.2336154507793 -1371.8847894539772 0 -1371.8847894539772 -63.977288859410734 0 0 0 0 4177.9742428642348 -1265.8610104196366 0 -1265.8610104196366 -422.5426790956999 0 0 0 0 5499.31293000812 -617.25629231418463 0 -617.25629231418463 -683.42575310363213 0 0 0 0 4370.578251371131 -1122.1948117073152 0 -1122.1948117073152 -388.73741676081886 0 0 0 0 4044.0284713383735 -895.39817180836098 0 -895.39817180836098 -203.53224013722104 0 0 0 0 3567.6345971500814 -829.30865229428503 0 -829.30865229428503 -152.58863676841293 0 0 0 0 3875.6794154483941 -174.69152122931251 0 -174.69152122931251 -782.34406004703442 0 0 0 0 5500.4778742630215 340.66153457968028 0 340.66153457968028 -980.76734341247595 0 0 0 0 3723.8068276280974 -1015.9142481088363 0 -1015.9142481088363 66.057508489622904 0 0 0 0 3916.4282033693635 -869.11210665689907 0 -869.11210665689907 -59.514196720781456 0 0 0 0 44.298074615566293 -136.21424329400168 0 -136.21424329400168 163.16660643007344 0 0 0 0 14.036825758339546 -58.329108922223234 0 -58.329108922223234 53.346060995510243 0 0 0 0 -28.809798913513077 -30.118056204827369 0 -30.118056204827369 133.54706619584712 0 0 0 0 199.77953864829033 -206.44741131519299 0 -206.44741131519299 144.30147899844985 0 0 0 0 179.81565208666143 -215.76859306747332 0 -215.76859306747332 153.71229650657293 0 0 0 0 123.72115735846455 -121.13842721464722 0 -121.13842721464722 69.510741639330661 0 0 0 0 123.94734592249733 -179.83855967732177 0 -179.83855967732177 96.14746896337067 0 0 0 0 114.52315032845218 -122.69744349033058 0 -122.69744349033058 20.838579411194644 0 0 0 0 13.376432624063455 -119.38754611689157 0 -119.38754611689157 89.054071562630043 0 0 0 0 61.488417656859383 -108.10834343022808 0 -108.10834343022808 44.601135072831958 0 0 0 0 89.614746855164412 -141.0670779252122 0 -141.0670779252122 51.186778660743187 0 0 0 0 155.68155749926518 -146.61975143259625 0 -146.61975143259625 20.947294876997603 0 0 0 0 283.84141230606474 -171.65717852493142 0 -171.65717852493142 3.1432775627726226 0 0 0 0 181.30044319093213 -110.14437886153536 0 -110.14437886153536 0.053912495392515025 0 0 0 0 238.5782340785081 -135.35829883053248 0 -135.35829883053248 0.009583224528341816 0 0 0 0 409.28584208944812 -172.42827341451681 0 -172.42827341451681 -16.830808796362021 0 0 0 0 282.02880315204675 -148.1228798436145 0 -148.1228798436145 -16.875041271724857 0 0 0 0 344.47645336424466 -103.88495427538638 0 -103.88495427538638 -0.088329712051960246 0 0 0 0 364.0069304665376 -99.614512457932349 0 -99.614512457932349 -42.054861542766446 0 0 0 0 397.38232170451738 -110.39695859910177 0 -110.39695859910177 -68.286718202254775 0 0 0 0 405.60746507437216 -207.46209447514627 0 -207.46209447514627 42.101952259078985 0 0 0 0 559.44283248680586 -167.75211484925399 0 -167.75211484925399 -48.158341579507635 0 0 0 0 415.15699806588236 -240.24232824614793 0 -240.24232824614793 44.922082944613777 0 0 0 0 277.87032509619894 -199.08725596230244 0 -199.08725596230244 33.204197711532174 0 0 0 0 187.89752127633255 -203.47961525076298 0 -203.47961525076298 160.46761202992241 0 0 0 0 202.87658637363347 -192.2564575399972 0 -192.2564575399972 156.51657491801788 0 0 0 0 361.58759473974237 -316.57799685328024 0 -316.57799685328024 241.61325638150981 0 0 0 0 361.65182857797481 -321.023061167999 0 -321.023061167999 311.14276355227219 0 0 0 0 678.33299038463156 -270.26099630939007 0 -270.26099630939007 53.252569006622565 0 0 0 0 680.04719652702624 -292.81845571154747 0 -292.81845571154747 158.57965344372678 0 0 0 0 998.74642433191184 119.79659303977678 0 119.79659303977678 -45.069992331082005 0 0 0 0 129.19309239504219 155.31334619174856 0 155.31334619174856 54.289325165084904 0 0 0 0 363.44356903531298 -11.846781214090463 0 -11.846781214090463 -40.341217693357095 0 0 0 0 3.2289136946379529 -2.3202099117784769 0 -2.3202099117784769 -0.26075980259958631 0 0 0 0 493.49677121307468 192.56958896385046 0 192.56958896385046 8.0752045639458174 0 0 0 0 438.38974760280689 70.755261710699472 0 70.755261710699472 -4.0759976410501082 0 0 0 0 253.99950240339967 38.57728931330557 0 38.57728931330557 -30.125546696361852 0 0 0 0 257.54398063800181 -58.72169673328078 0 -58.72169673328078 -0.099264993486641681 0 0 0 0 385.97045536893711 -28.321133722729073 0 -28.321133722729073 -55.305315271356136 0 0 0 0 134.50202647165861 3.3526049811283798 0 3.3526049811283798 29.346312904720762 0 0 0 0 1.4214318227098488 -0.7990431353528038 0 -0.7990431353528038 -0.35101831656147514 0 0 0 0 665.51300122840621 134.11633632246074 0 134.11633632246074 -19.571649967574885 0 0 0 0 409.61124261432269 203.54777843363922 0 203.54777843363922 41.17180639704187 0 0 0 0 367.61631799320458 21.317548409330072 0 21.317548409330072 0.050398888857881879 0 0 0 0 114.02701836075721 -110.47518002848071 0 -110.47518002848071 -54.122871710662679 0 0 0 0 412.20620563378907 -75.004778529669494 0 -75.004778529669494 187.09535689835914 0 0 0 0 392.43547500134446 -17.696024906872907 0 -17.696024906872907 21.651558995130667 0 0 0 0 162.76118534413399 61.918293584988966 0 61.918293584988966 155.66754316057862 0 0 0 0 -1.6697724600396242 1.2944743587785865 0 1.2944743587785865 -2.7983184632938332 0 0 0 0 250.00234531474416 -1.3490362242095557 0 -1.3490362242095557 22.358333124795337 0 0 0 0 12.870601437154292 -2.4578632090325527 0 -2.4578632090325527 -14.784746878821956 0 0 0 0 198.11206716991728 3.8033321360387617 0 3.8033321360387617 5.6546368919578072 0 0 0 0 102.69779728807043 46.464202431356284 0 46.464202431356284 62.375945541959936 0 0 0 0 42.646842519747395 -23.725086133694091 0 -23.725086133694091 6.8370379832471944 0 0 0 0 82.031270852927264 -61.915300591318555 0 -61.915300591318555 -25.597960775303363 0 0 0 0 -97.747123574285069 48.420894795399477 0 48.420894795399477 521.20695518018147 0 0 0 0 175.47591675903277 -157.68029864641744 0 -157.68029864641744 182.24180227090619 0 0 0 0 29.967458028608235 16.05475638284156 0 16.05475638284156 3.0290015537985369 0 0 0 0 -76.59406468171801 -353.94726434892732 0 -353.94726434892732 99.366153638027981 0 0 0 0 -402.04759988102342 -374.39417542647709 0 -374.39417542647709 419.2585541826279 0 0 0 0 -23.456570308575465 37.759236452428468 0 37.759236452428468 -6.0425376080647766 0 0 0 0 -649.61614241229836 -176.89214441922149 0 -176.89214441922149 454.14612253520602 0 0 0 0 504.89165053813485 -328.230497735678 0 -328.230497735678 39.575721133633806 0 0 0 0 186.89238993386971 -373.46137497986547 0 -373.46137497986547 395.26547540657975 0 0 0 0 336.76058745363844 -353.38709583249857 0 -353.38709583249857 66.617455898713501 0 0 0 0 -56.4773466093975 -251.70594982522707 0 -251.70594982522707 352.74787385003401 0 0 0 0 616.03249614717788 -604.4032942001943 0 -604.4032942001943 306.67132310015904 0 0 0 0 152.00512266138685 -390.43044468236667 0 -390.43044468236667 641.0007590407813 0 0 0 0 700.56161808526667 -408.00074073142508 0 -408.00074073142508 331.37250954206365 0 0 0 0 939.29526414960856 -434.33894270151137 0 -434.33894270151137 63.588705111666982 0 0 0 0 351.90067084574912 -435.37933345904042 0 -435.37933345904042 198.62048514087064 0 0 0 0 455.21039501362247 -516.63711195615497 0 -516.63711195615497 -6.2060770163329835 0 0 0 0 381.30500588522409 -216.94963149802788 0 -216.94963149802788 -60.910526166736418 0 0 0 0 496.42627025864203 -382.25184788221804 0 -382.25184788221804 -303.07829660132575 0 0 0 0 402.13570835377323 -53.917035409355776 0 -53.917035409355776 -149.06139122306593 0 0 0 0 606.12093899970932 -135.42817783023611 0 -135.42817783023611 -286.36312296748292 0 0 0 0 653.58049523946829 -63.786902808366676 0 -63.786902808366676 17.375054010976783 0 0 0 0 688.59542261587922 -420.21410648445203 0 -420.21410648445203 67.486482786340275 0 0 0 0 779.28357296803733 -86.045688970232732 0 -86.045688970232732 -148.96005321406309 0 0 0 0 1072.5861816136166 -160.45570440780341 0 -160.45570440780341 11.05714375648223 0 0 0 0 913.95506703602587 -195.8529673357576 0 -195.8529673357576 213.86182954330172 0 0 0 0 1081.3573669413454 -628.31513643897006 0 -628.31513643897006 442.79293020731234 0 0 0 0 1591.3623987932806 -128.67216585484164 0 -128.67216585484164 219.66390722883548 0 0 0 0 846.778303306608 80.674785581160776 0 80.674785581160776 360.56242638405979 0 0 0 0 1204.0413434904331 -41.887744361534516 0 -41.887744361534516 546.18664261530716 0 0 0 0 1316.1226133450982 139.54410141896847 0 139.54410141896847 357.60957391669672 0 0 0 0 880.9473683842225 227.46099841372052 0 227.46099841372052 950.34669059996452 0 0 0 0 1079.7021539208654 -82.458140220923838 0 -82.458140220923838 2201.7030164750113 0 0 0 0 1066.1147095419874 53.127245158329089 0 53.127245158329089 1068.3995837838738 0 0 0 0 842.57860303024063 -113.7702040955154 0 -113.7702040955154 950.44307244339507 0 0 0 0 713.65901312814094 -167.16257334112152 0 -167.16257334112152 1355.8791791062238 0 0 0 0 2157.1651534579578 -961.02262462658803 0 -961.02262462658803 603.93804995706159 0 0 0 0 1823.7556275817333 -527.831025741242 0 -527.831025741242 455.89991477598278 0 0 0 0 2042.7355079760309 412.30485186233727 0 412.30485186233727 783.16042415411835 0 0 0 0 151.62449554228806 -318.05533387021137 0 -318.05533387021137 909.57392841233445 0 0 0 0 852.27804560319055 -725.8554974811384 0 -725.8554974811384 795.51672097858773 0 0 0 0 703.20782835019054 264.53061601643822 0 264.53061601643822 232.14846951295362 0 0 0 0 14.392010380671593 -8.5446255283616921 0 -8.5446255283616921 6.8975531976017121 0 0 0 0 414.17875649911002 370.77949982932375 0 370.77949982932375 214.65959974755197 0 0 0 0 1543.0461605009914 -89.017415408276975 0 -89.017415408276975 21.358496532785466 0 0 0 0 415.61915428508655 -109.96610545244994 0 -109.96610545244994 289.78249199542188 0 0 0 0 1359.769848077769 -628.22532582757481 0 -628.22532582757481 489.72194069397801 0 0 0 0 2.74708230966408 -1.4834222882834069 0 -1.4834222882834069 -0.059185675848004493 0 0 0 0 613.38215889740968 -478.15022878276602 0 -478.15022878276602 591.28309220716767 0 0 0 0 821.91492813627701 -435.47442692477375 0 -435.47442692477375 520.91191179093096 0 0 0 0 989.61212202740717 -233.65954869681684 0 -233.65954869681684 168.07687289607088 0 0 0 0 523.35858837596606 -280.61331207507772 0 -280.61331207507772 285.44883277262261 0 0 0 0 124.9654112404678 -168.49308088962212 0 -168.49308088962212 303.72319064774729 0 0 0 0 329.92164719346329 -376.74659791936796 0 -376.74659791936796 467.19785716111471 0 0 0 0 138.06686588423327 -123.3088118194903 0 -123.3088118194903 563.15000123191146 0 0 0 0 91.708584584703203 -213.01784074321901 0 -213.01784074321901 389.90186681069497 0 0 0 0 -0.040172958753828425 -37.242536974562839 0 -37.242536974562839 335.20081012258061 0 0 0 0 -53.503758615988772 -46.607425237571817 0 -46.607425237571817 474.33054521625263 0 0 0 0 -30.093782790776459 -2.2009239345034501 0 -2.2009239345034501 225.29286534006792 0 0 0 0 160.6451356750913 -0.14072859652395664 0 -0.14072859652395664 596.60521824741977 0 0 0 0 154.73904833447887 -54.066277489824131 0 -54.066277489824131 233.49867144036614 0 0 0 0 383.89045682912547 14.497636603379121 0 14.497636603379121 278.0758498930702 0 0 0 0 379.48098732513608 25.030737301405907 0 25.030737301405907 606.5452910604231 0 0 0 0 571.01596025528852 26.42655949523359 0 26.42655949523359 506.84527308452277 0 0 0 0 501.15729766624281 -151.61281701666405 0 -151.61281701666405 792.94656991193904 0 0 0 0 365.03890697137103 -178.45658024864395 0 -178.45658024864395 421.51691652213663 0 0 0 0 366.0744320433123 -243.27560167193022 0 -243.27560167193022 807.95277134632897 0 0 0 0 856.65103807370178 -643.02357344657833 0 -643.02357344657833 1103.9745902469322 0 0 0 0 686.09800181438914 -338.10840745052849 0 -338.10840745052849 896.49828968711381 0 0 0 0 735.88461603154428 56.441244504179508 0 56.441244504179508 923.40076185426813 0 0 0 0 559.0553025813133 -53.053581440625713 0 -53.053581440625713 872.28112396064103 0 0 0 0 868.90839383832645 135.70596619989215 0 135.70596619989215 481.88541552629221 0 0 0 0 603.31211927009281 90.81293987145466 0 90.81293987145466 499.43596774206094 0 0 0 0 435.73358820955036 76.698759183093671 0 76.698759183093671 214.46243334843643 0 0 0 0 312.0341889623669 194.0916411378706 0 194.0916411378706 356.15533624455441 0 0 0 0 605.56206720217233 216.24326201660654 0 216.24326201660654 327.54251997743131 0 0 0 0 362.83266532598645 129.71556965095624 0 129.71556965095624 -75.440983672038783 0 0 0 0 548.81112495035632 296.26338836220793 0 296.26338836220793 73.641433717174323 0 0 0 0 939.26502583318506 196.85380081455742 0 196.85380081455742 127.753979832607 0 0 0 0 630.55310754838865 43.386751068100011 0 43.386751068100011 54.321875527808515 0 0 0 0 634.17550398283493 212.26749037618129 0 212.26749037618129 -52.782797056814616 0 0 0 0 460.20115846913541 91.234499240510559 0 91.234499240510559 -136.81574064824417 0 0 0 0 447.7261744455227 307.04566141629391 0 307.04566141629391 -189.63748422753451 0 0 0 0 205.80122496458353 234.14606990910079 0 234.14606990910079 -167.13875588836981 0 0 0 0 583.63887631442049 141.91985381131963 0 141.91985381131963 -239.85393626952327 0 0 0 0 -173.86697975994321 453.76430392559996 0 453.76430392559996 -183.52218278812234 0 0 0 0 205.20949523255695 353.0121217549995 0 353.0121217549995 -268.05557773871897 0 0 0 0 -37.145390213408973 324.03117132083048 0 324.03117132083048 -113.21636226830151 0 0 0 0 -43.002522135910112 279.79857438498857 0 279.79857438498857 -396.59906488788238 0 0 0 0 -114.49887031628168 193.21434694804179 0 193.21434694804179 65.532363022213303 0 0 0 0 172.79695162852295 171.21774144335654 0 171.21774144335654 -269.48979646037276 0 0 0 0 210.74252809341124 288.49132896441216 0 288.49132896441216 76.210080866445423 0 0 0 0 43.814929275336908 115.66508312067523 0 115.66508312067523 319.92893051422539 0 0 0 0 268.5177456009551 67.112936698938199 0 67.112936698938199 -6.8950011144500536 0 0 0 0 25.437210103380494 19.043405881176966 0 19.043405881176966 -61.375111641981221 0 0 0 0 -207.95375919470098 96.961589473049912 0 96.961589473049912 95.237333587969403 0 0 0 0 -597.0887687697541 31.648201865977853 0 31.648201865977853 95.016492151656848 0 0 0 0 -270.94148672081064 28.957842814979983 0 28.957842814979983 296.24167988035219 0 0 0 0 -343.49929823756975 431.45073665281984 0 431.45073665281984 -304.19599160504868 0 0 0 0 -114.69723025451822 109.60135190944504 0 109.60135190944504 -472.20271238470241 0 0 0 0 -331.86709710702416 405.07059568551495 0 405.07059568551495 -212.90153703612123 0 0 0 0 -366.56783069309313 355.95683765464491 0 355.95683765464491 -209.48395185705658 0 0 0 0 22.419125234665444 11.489066707160147 0 11.489066707160147 -137.85118254493045 0 0 0 0 -130.91573654906824 58.135740788164526 0 58.135740788164526 -19.368887808065665 0 0 0 0 22.229827310162364 16.890514558647737 0 16.890514558647737 -178.08135643352023 0 0 0 0 0.14582768667605706 68.870911316384365 0 68.870911316384365 -299.43652612339002 0 0 0 0 1.0612256595793497 5.7883618888293427 0 5.7883618888293427 -2.1792735198122779 0 0 0 0 -21.557471332198475 135.09649632094784 0 135.09649632094784 -266.72416496356743 0 0 0 0 -20.074280096839175 101.67736148368735 0 101.67736148368735 21.400840879894076 0 0 0 0 -88.601710299670231 200.43961045504273 0 200.43961045504273 -17.362565938635555 0 0 0 0 -140.89164935912663 217.25834351061144 0 217.25834351061144 -22.549801705343043 0 0 0 0 -141.18249961227411 189.16564898470233 0 189.16564898470233 -21.046705220289368 0 0 0 0 -80.70097352124867 177.19872576966222 0 177.19872576966222 50.990820338027447 0 0 0 0 -80.784557926657726 161.9841383123738 0 161.9841383123738 53.415038873804519 0 0 0 0 -116.64498563378584 138.11489420723632 0 138.11489420723632 136.29024446031679 0 0 0 0 -163.63482175813988 188.894768192969 0 188.894768192969 112.55829317491157 0 0 0 0 -111.39770540845348 139.00370415429722 0 139.00370415429722 120.36620565687633 0 0 0 0 -369.1848843274347 140.81548685278685 0 140.81548685278685 253.93552640311918 0 0 0 0 -205.17324048135197 262.11354888083923 0 262.11354888083923 -15.107782072504207 0 0 0 0 -167.56342549793771 -67.305778915820042 0 -67.305778915820042 396.55116782393549 0 0 0 0 -114.71733251190744 30.964349279635641 0 30.964349279635641 223.37357238387153 0 0 0 0 -185.35479230125202 105.36118222026886 0 105.36118222026886 209.03021457652045 0 0 0 0 -2.3459411872536293 -59.406715361729511 0 -59.406715361729511 197.76554788264221 0 0 0 0 -105.67301019321894 6.6396528910158281 0 6.6396528910158281 282.42025167027634 0 0 0 0 78.754119376826566 -204.64931686747758 0 -204.64931686747758 345.67055913433978 0 0 0 0 4.2336086154100485 -145.86106667981781 0 -145.86106667981781 296.18300385408111 0 0 0 0 -19.421255960449344 -98.951390719379447 0 -98.951390719379447 266.5268950231092 0 0 0 0 26.114539857037016 -109.22264886440797 0 -109.22264886440797 232.14174557353027 0 0 0 0 -28.583304838859476 -25.665135969711269 0 -25.665135969711269 150.37052830942801 0 0 0 0 -63.064268313944922 27.284603001560185 0 27.284603001560185 74.446822437445519 0 0 0 0 -91.666818163255812 84.362923447439186 0 84.362923447439186 128.39544308125923 0 0 0 0 -104.41206103103468 89.242551318232202 0 89.242551318232202 132.86293255860443 0 0 0 0 22.054497807548614 34.300300308818805 0 34.300300308818805 18.527677803035431 0 0 0 0 5.3807774272203801 3.6968875437812549 0 3.6968875437812549 -1.0916612894374866 0 0 0 0 8.9646882912784349 14.530190501388688 0 14.530190501388688 -8.8323795433107222 0 0 0 0 27.470979776617583 10.057271118708229 0 10.057271118708229 -9.4994631765502504 0 0 0 0 30.855653112012078 3.7340774525516736 0 3.7340774525516736 -8.3915838786633685 0 0 0 0 41.742370961990673 17.918675482189428 0 17.918675482189428 -21.874529290327473 0 0 0 0 53.733258236461552 4.7214181622221076 0 4.7214181622221076 -2.8440342012982001 0 0 0 0 66.533390144526493 3.8570481872184246 0 3.8570481872184246 -9.3746027068773401 0 0 0 0 27.185248974079286 9.864532339712305 0 9.864532339712305 -9.2319805751637176 0 0 0 0 126.49516332827625 1.8787843304594389 0 1.8787843304594389 -29.647143282214529 0 0 0 0 34.932589251868194 25.480825751074008 0 25.480825751074008 7.645438148334506 0 0 0 0 11.33065568588097 -1.6911540861433139 0 -1.6911540861433139 -2.3233367906821201 0 0 0 0 59.629335246371625 13.407755109863192 0 13.407755109863192 -16.035660946865114 0 0 0 0 29.400128834276387 7.7149616314348179 0 7.7149616314348179 -8.6161069280692431 0 0 0 0 85.729156749439426 17.734194007744009 0 17.734194007744009 -5.4531133006184973 0 0 0 0 31.627908409801933 19.468224430554642 0 19.468224430554642 -13.63996324249122 0 0 0 0 119.09871333190677 -17.126804410982913 0 -17.126804410982913 -39.845632098244096 0 0 0 0 29.374696324754041 46.444614995070424 0 46.444614995070424 -7.0165310314336296 0 0 0 0 31.774840260480772 24.933887916978051 0 24.933887916978051 -7.99911860034155 0 0 0 0 66.441731671031448 28.755892071973904 0 28.755892071973904 -61.879218497151669 0 0 0 0 124.16022031372995 -15.111643380992973 0 -15.111643380992973 -55.998787483249316 0 0 0 0 33.913457879005605 -0.74671293478778011 0 -0.74671293478778011 -3.6155873531042175 0 0 0 0 50.935701069640345 -6.9046383225113459 0 -6.9046383225113459 -56.420650442280021 0 0 0 0 19.532132098095474 24.489298479443761 0 24.489298479443761 -6.4601677093803609 0 0 0 0 7.554312774871164 -0.17948757680053973 0 -0.17948757680053973 -0.88979373032443831 0 0 0 0 -15.800398278573994 65.952307574170163 0 65.952307574170163 55.372201570240122 0 0 0 0 9.0112225868215319 19.870706443726704 0 19.870706443726704 -11.266752249112869 0 0 0 0 148.87650361993292 -70.394550998920295 0 -70.394550998920295 -80.941673617155175 0 0 0 0 94.717950411140919 77.451704669908395 0 77.451704669908395 169.05576394821946 0 0 0 0 143.11137269518804 42.964650816237736 0 42.964650816237736 -62.708927685821436 0 0 0 0 25.037984936379246 24.284695141179043 0 24.284695141179043 -3.6305382847491963 0 0 0 0 69.998569152114214 -19.969187352804624 0 -19.969187352804624 17.892136301267783 0 0 0 0 97.969981822214322 -19.350727497607068 0 -19.350727497607068 37.146736327451435 0 0 0 0 58.487628313683672 -2.9758207919071538 0 -2.9758207919071538 35.342144839707544 0 0 0 0 54.747421861306066 -28.332508034396824 0 -28.332508034396824 13.311341957457444 0 0 0 0 45.843402583406373 -3.5024947079367621 0 -3.5024947079367621 -2.4199844612780073 0 0 0 0 117.47249046238721 99.64136585514143 0 99.64136585514143 -25.099478386169721 0 0 0 0 -2.4350064948707484 3.2036703955639609 0 3.2036703955639609 -0.73766118886894283 0 0 0 0 -390.14866177474323 226.19953288237889 0 226.19953288237889 -3.9917535896111076 0 0 0 0 37.776432495331392 -13.48608584901649 0 -13.48608584901649 30.008566128326493 0 0 0 0 -107.01588707283372 93.521055333402273 0 93.521055333402273 10.143612374318309 0 0 0 0 78.512133455165895 16.016695602188975 0 16.016695602188975 10.430558286942869 0 0 0 0 92.873794733750401 42.725185718622015 0 42.725185718622015 -36.621649747374249 0 0 0 0 121.33731932034425 61.959522922233418 0 61.959522922233418 -46.429156894297194 0 0 0 0 9.9132948096452793 4.7380207764423972 0 4.7380207764423972 -4.3972314841224502 0 0 0 0 61.944238329684595 90.042510783368925 0 90.042510783368925 -71.937684702471643 0 0 0 0 111.7769335990597 105.42025834945298 0 105.42025834945298 -143.19714793154526 0 0 0 0 26.522396280750399 275.74109983548578 0 275.74109983548578 -134.52763137739385 0 0 0 0 134.79995999720995 177.75326454496962 0 177.75326454496962 -128.29178110520661 0 0 0 0 -56.172984653559979 259.54726020232692 0 259.54726020232692 -136.7212018921291 0 0 0 0 294.10537726964685 81.481327542551298 0 81.481327542551298 -248.09657318358859 0 0 0 0 367.18790976298624 232.9089169723693 0 232.9089169723693 -252.41950854114657 0 0 0 0 151.14791313215392 178.94571143941994 0 178.94571143941994 -262.20504355956655 0 0 0 0 208.86151548267208 -2.9101853334776422 0 -2.9101853334776422 -373.77741258490278 0 0 0 0 216.58435521530919 113.09071100338861 0 113.09071100338861 -196.75892792395553 0 0 0 0 132.14639063220238 76.41879514887296 0 76.41879514887296 -202.38358119846635 0 0 0 0 58.301635916606756 -41.57658307633119 0 -41.57658307633119 -52.621694890241088 0 0 0 0 73.596344245997898 -5.5976641351489889 0 -5.5976641351489889 -118.60439274952478 0 0 0 0 58.255494876531884 -45.580006920753249 0 -45.580006920753249 -113.72554148140989 0 0 0 0 77.235199350892799 -9.5631379605774782 0 -9.5631379605774782 -144.27417445403808 0 0 0 0 85.992957896436565 23.321396065085537 0 23.321396065085537 -77.381239282314709 0 0 0 0 97.401125156320632 11.94778250019408 0 11.94778250019408 -87.023708168967687 0 0 0 0 74.013116232439643 -3.8302996846960013 0 -3.8302996846960013 -3.1638687157628738 0 0 0 0 54.030125877306432 -10.045753590963383 0 -10.045753590963383 -0.065536940196258886 0 0 0 0 40.352657422539778 -10.522509996396366 0 -10.522509996396366 -4.1368722437566134 0 0 0 0 28.633098397021172 -8.3295073545575349 0 -8.3295073545575349 -4.6702909889559514 0 0 0 0 22.749555753062452 -16.470427468094584 0 -16.470427468094584 11.027794804538861 0 0 0 0 -132.53512905171374 104.77110399322555 0 104.77110399322555 445.75520839714181 0 0 0 0 10.137860610972098 -3.1133734768671602 0 -3.1133734768671602 3.0877023549302143 0 0 0 0 301.01892072430928 -269.05757408446334 0 -269.05757408446334 227.54944549381003 0 0 0 0 66.938311313042277 -45.737854307812569 0 -45.737854307812569 9.2335653953571075 0 0 0 0 1983.6497107430732 2100.002998015696 0 2100.002998015696 325.42448729343846 0 0 0 0 537.82976180384867 -991.90912949249969 0 -991.90912949249969 508.57921319908428 0 0 0 0 603.32807077086181 345.96341865652448 0 345.96341865652448 -1069.0005170805607 0 0 0 0 -521.55540599799133 265.8451871686766 0 265.8451871686766 -135.06404621615002 0 0 0 0 753.37647148423639 -161.97188632470659 0 -161.97188632470659 -253.75049531437253 0 0 0 0 723.81871584794135 614.71682990682575 0 614.71682990682575 -228.03876933954632 0 0 0 0 11.562924042481541 -9.4806989353017741 0 -9.4806989353017741 6.2614727178691929 0 0 0 0 28.695621683553327 -60.053723715392607 0 -60.053723715392607 -184.64271136296975 0 0 0 0 29.374006201652946 -217.08890432638839 0 -217.08890432638839 -404.58728393871024 0 0 0 0 302.76950207227492 99.178344168683907 0 99.178344168683907 -286.34608549730456 0 0 0 0 213.10998939654019 -216.02208436323946 0 -216.02208436323946 -297.56788261495785 0 0 0 0 -124.82980117348961 -776.43190453045042 0 -776.43190453045042 -459.82826442085479 0 0 0 0 -87.915184779951232 -66.16339545438268 0 -66.16339545438268 -247.83206714024891 0 0 0 0 2.9549694771534405 -2.6167335074049163 0 -2.6167335074049163 2.5926124553605554 0 0 0 0 683.39142500466551 677.63021236767509 0 677.63021236767509 564.61270089276604 0 0 0 0 625.93891493936826 21.832419234247141 0 21.832419234247141 -495.43661222171067 0 0 0 0 807.54619889422611 -22.905551388927506 0 -22.905551388927506 -727.00338680613368 0 0 0 0 -400.99993251030537 -753.87848128661267 0 -753.87848128661267 18.114547368520562 0 0 0 0 1568.5728885681456 1114.165779488181 0 1114.165779488181 925.64443888821938 0 0 0 0 29.087113064497885 -22.940891427347509 0 -22.940891427347509 14.097156951618445 0 0 0 0 1735.0286835064617 954.76213465882029 0 954.76213465882029 606.05555600073694 0 0 0 0 942.90493582106137 644.08221591293432 0 644.08221591293432 833.34984682485288 0 0 0 0 1759.2083640618948 1718.6307267156635 0 1718.6307267156635 1189.7075182007343 0 0 0 0 -424.06747556233313 -727.73295235707428 0 -727.73295235707428 -131.98748311028248 0 0 0 0 47.366985870061086 -34.132583962246287 0 -34.132583962246287 13.186674996343292 0 0 0 0 966.47700366456411 884.99453622727492 0 884.99453622727492 1588.0676572946877 0 0 0 0 1814.7489867271652 448.88789886761572 0 448.88789886761572 586.53472656996041 0 0 0 0 391.16862760676304 105.76851770204121 0 105.76851770204121 490.3939993170917 0 0 0 0 683.97549787373282 674.16687653939687 0 674.16687653939687 905.48396594271901 0 0 0 0 1255.617935225906 854.8622734179196 0 854.8622734179196 428.09952793217781 0 0 0 0 755.20893040053488 146.60376008448037 0 146.60376008448037 -914.05504915339179 0 0 0 0 1000.3555416198942 1035.1178268748058 0 1035.1178268748058 213.92699268901083 0 0 0 0 -2.4007025079336017 -349.83876345054114 0 -349.83876345054114 -694.42225387704616 0 0 0 0 115.31775488910176 0.82955811052975292 0 0.82955811052975292 -4.4229783793259552 0 0 0 0 791.20911166820588 105.01792347502578 0 105.01792347502578 -2802.9888285758125 0 0 0 0 16.603433168551419 -71.969015093823657 0 -71.969015093823657 -947.2201943347261 0 0 0 0 186.50947307598108 -175.58961843699171 0 -175.58961843699171 150.24307218674517 0 0 0 0 562.89429543250299 -414.95325241338162 0 -414.95325241338162 104.74382238283602 0 0 0 0 356.67254841954855 -128.63116864173981 0 -128.63116864173981 -177.04565401423679 0 0 0 0 55.380634783534333 -313.11719962226061 0 -313.11719962226061 484.86418827138732 0 0 0 0 815.77838453190634 -315.25183346244739 0 -315.25183346244739 33.822164316069575 0 0 0 0 799.58241362089757 -319.14136351130219 0 -319.14136351130219 32.948997604381816 0 0 0 0 781.16103593309526 -427.41698313145821 0 -427.41698313145821 74.102721106858098 0 0 0 0 664.92702030747023 -173.88148770361772 0 -173.88148770361772 -13.439122832774501 0 0 0 0 1171.2801475758679 -146.42449105270998 0 -146.42449105270998 -73.198251077488749 0 0 0 0 800.20308799746272 24.854543793949233 0 24.854543793949233 190.37220157872889 0 0 0 0 1002.2340528102795 -499.98378574976596 0 -499.98378574976596 180.78603427951202 0 0 0 0 1737.1973900139565 -794.22182915155099 0 -794.22182915155099 205.78009306081515 0 0 0 0 91.102308171811273 -58.908703721651221 0 -58.908703721651221 15.348974429651545 0 0 0 0 2398.1363341434189 683.68726260440735 0 683.68726260440735 -258.69636997445923 0 0 0 0 4540.9939233184559 -2096.3903746579745 0 -2096.3903746579745 -2737.3261599273101 0 0 0 0 1925.8384813379962 409.38305141533056 0 409.38305141533056 1621.7037651792489 0 0 0 0 117.82790445609135 -123.52941993605828 0 -123.52941993605828 -170.80904196617121 0 0 0 0 -33.265271568573837 -16.342902588968457 0 -16.342902588968457 19.68902856991442 0 0 0 0 4377.6324313464302 4003.3856985419498 0 4003.3856985419498 -7667.659570438329 0 0 0 0 838.43884979355062 -1118.7420759649413 0 -1118.7420759649413 1313.4203270884964 0 0 0 0 45.336031669647411 2.8934628171703949 0 2.8934628171703949 -0.93265319223683907 0 0 0 0 2233.1526533441502 1396.3539014828189 0 1396.3539014828189 -2116.6399758744296 0 0 0 0 -35.563140502162241 1333.0481316000685 0 1333.0481316000685 792.17943720092126 0 0 0 0 226.28975710214581 42.47390813237871 0 42.47390813237871 -289.09074586712086 0 0 0 0 -338.91708687675418 447.68924904164714 0 447.68924904164714 117.98361519438231 0 0 0 0 300.51967314742797 125.50872022268391 0 125.50872022268391 -18.587523659795352 0 0 0 0 163.74851082829991 58.49730427935765 0 58.49730427935765 13.083971568452398 0 0 0 0 163.28342885462916 -21.639213129147606 0 -21.639213129147606 -68.78732211808682 0 0 0 0 58.29749046251527 -7.2909113241936438 0 -7.2909113241936438 -6.1280741870687052 0 0 0 0 31.501717908080821 6.4570255691207876 0 6.4570255691207876 -4.1313196974080233 0 0 0 0 181.50017366479733 23.541125916153135 0 23.541125916153135 5.8622630983857107 0 0 0 0 29.934904872422806 -9.6011471293389263 0 -9.6011471293389263 -1.4149452343466171 0 0 0 0 110.7507469879929 -8.1385787156382321 0 -8.1385787156382321 -2.7452068858819985 0 0 0 0 25.95647021373469 9.516964072666525 0 9.516964072666525 7.8247995986374903 0 0 0 0 122.28361978070461 -45.640602379725806 0 -45.640602379725806 -7.1147881291039994 0 0 0 0 120.06261257290316 -27.403638479236179 0 -27.403638479236179 25.546936907288909 0 0 0 0 36.451082097811565 -14.230187423479634 0 -14.230187423479634 13.737162503924043 0 0 0 0 39.759244344371837 -7.3827117509922573 0 -7.3827117509922573 7.1731453155462077 0 0 0 0 796.54542214381217 -33.295788924856879 0 -33.295788924856879 -11.807804641382972 0 0 0 0 64.762601698310732 -24.189384826059566 0 -24.189384826059566 5.4233360051864157 0 0 0 0 540.33423614197818 87.690508185147564 0 87.690508185147564 83.414290994934504 0 0 0 0 18.659820022167793 10.2114669951537 0 10.2114669951537 10.502336874214372 0 0 0 0 62.320383568607213 5.8159853325685589 0 5.8159853325685589 10.51839969553248 0 0 0 0 32.443859369911991 -11.454126543972706 0 -11.454126543972706 3.4118653539600361 0 0 0 0 61.732694250182249 8.9441862234983773 0 8.9441862234983773 7.1155005344484437 0 0 0 0 41.456657026244045 -2.9126204406972533 0 -2.9126204406972533 0.97006492155671076 0 0 0 0 46.768401803354209 -1.1847024173761724 0 -1.1847024173761724 7.1973728162854513 0 0 0 0 63.401857162192755 -0.089643432481523178 0 -0.089643432481523178 8.6271065813070891 0 0 0 0 62.049512897107718 -7.5538434917327208 0 -7.5538434917327208 5.6727033862735823 0 0 0 0 43.773834132880438 1.4994474794002599 0 1.4994474794002599 6.8095953422081266 0 0 0 0 6.9220150800767613 -2.6354511758405579 0 -2.6354511758405579 2.8085265451325117 0 0 0 0 30.14390003177391 -5.1715912400523507 0 -5.1715912400523507 3.3815808928677304 0 0 0 0 16.352932585687086 -8.9960476104345162 0 -8.9960476104345162 0.30510783689464915 0 0 0 0 48.830960151404724 -6.7397196322139052 0 -6.7397196322139052 -0.76746728961325061 0 0 0 0 25.148315507355164 -9.4809455381716106 0 -9.4809455381716106 0.31145075593287608 0 0 0 0 50.917274824445485 -8.0083562487456703 0 -8.0083562487456703 -1.8568621889253336 0 0 0 0 31.696239783172643 7.9502876785693672 0 7.9502876785693672 0.31730871142735984 0 0 0 0 17.889104117526216 -8.0245825646865399 0 -8.0245825646865399 2.7819783309504533 0 0 0 0 20.427081218454987 -16.870072916721483 0 -16.870072916721483 -45.598130161581821 0 0 0 0 7.3221242118804071 -11.451064387605854 0 -11.451064387605854 -2.1327837977562671 0 0 0 0 -10.333181113412138 -17.450688920206176 0 -17.450688920206176 -14.560989006075943 0 0 0 0 -1.4748266764217988 -7.8139538116747644 0 -7.8139538116747644 -4.20046669293788 0 0 0 0 16.443578379437213 -16.223789228942053 0 -16.223789228942053 -11.51756252394652 0 0 0 0 37.659455996239558 -15.855190715008121 0 -15.855190715008121 -24.284174690763393 0 0 0 0 13.102938211550907 -5.3958254342280441 0 -5.3958254342280441 -2.8274537786331391 0 0 0 0 36.261518650688231 -4.9305953625589609 0 -4.9305953625589609 -1.5839599996830884 0 0 0 0 24.245585775148356 30.41759259515652 0 30.41759259515652 90.637800450776467 0 0 0 0 37.461776513577206 -20.164753918205065 0 -20.164753918205065 31.594166888571181 0 0 0 0 78.021124197301106 66.926565160158447 0 66.926565160158447 73.221399936761372 0 0 0 0 54.676029435708188 41.345695410488702 0 41.345695410488702 49.622333049078406 0 0 0 0 108.442859458155 13.806632878310666 0 13.806632878310666 -5.6514052366933356 0 0 0 0 219.84733655891614 50.6907086966078 0 50.6907086966078 6.5533848861181809 0 0 0 0 15.086393046338344 74.317742860141379 0 74.317742860141379 74.226515958667278 0 0 0 0 77.727383941295557 30.414421002950803 0 30.414421002950803 53.567638526415521 0 0 0 0 -61.365996937816817 -88.98758723925701 0 -88.98758723925701 -18.579809159102609 0 0 0 0 93.060557309509022 -3.8557892389140704 0 -3.8557892389140704 -140.12517078024882 0 0 0 0 102.02177443640539 -72.466947987792537 0 -72.466947987792537 -112.18715696080699 0 0 0 0 268.7446664958261 2.6260938403510465 0 2.6260938403510465 -163.69595992047314 0 0 0 0 -97.037055309181596 91.686821318549008 0 91.686821318549008 186.02258154373573 0 0 0 0 133.23210445255972 156.7464596601265 0 156.7464596601265 104.68338995361017 0 0 0 0 41.211515934381168 8.9430195334932705 0 8.9430195334932705 23.107216568429578 0 0 0 0 20.880851922645064 -7.1318167825322973 0 -7.1318167825322973 -0.33753030050063093 0 0 0 0 32.673909488803474 56.485633853095663 0 56.485633853095663 124.14037245675053 0 0 0 0 87.266873220738489 42.585470258504074 0 42.585470258504074 4.8008881679548949 0 0 0 0 188.6974436382734 124.24884712260716 0 124.24884712260716 -7.3024397984720508 0 0 0 0 96.671721690028789 42.188718632317375 0 42.188718632317375 -27.442129729026874 0 0 0 0 98.472441748948768 41.301006695667411 0 41.301006695667411 -57.870456090010066 0 0 0 0 83.994139135631485 13.285014282663724 0 13.285014282663724 -26.331170367302548 0 0 0 0 83.185910883345059 23.60075647216604 0 23.60075647216604 -12.945911204668391 0 0 0 0 108.72619564356864 27.019706672964503 0 27.019706672964503 -38.773297294877011 0 0 0 0 88.547622228390537 18.033723520061358 0 18.033723520061358 -21.88058559621868 0 0 0 0 92.790080269682221 11.83478331069216 0 11.83478331069216 -53.061246422071235 0 0 0 0 94.628293028566986 -4.1865581375323018 0 -4.1865581375323018 1.5138374517582633 0 0 0 0 49.028898995544296 4.4556710655820098 0 4.4556710655820098 -34.106245210941779 0 0 0 0 88.370243451237911 37.754706224871654 0 37.754706224871654 -15.535226715403041 0 0 0 0 -4.3804975587845547 14.345106869633014 0 14.345106869633014 -3.4355980642635586 0 0 0 0 3.6748471674218308 -40.036122093952713 0 -40.036122093952713 -24.940168153616469 0 0 0 0 4.7205763093213164 0.077707727464741083 0 0.077707727464741083 -3.3158188279297818 0 0 0 0 9.6903692273917841 8.9362520678641886 0 8.9362520678641886 -11.914078937870954 0 0 0 0 31.889996185025666 22.26208360732744 0 22.26208360732744 -7.2402385559594222 0 0 0 0 7.9062603256315924 33.995156229008074 0 33.995156229008074 -46.810942022026893 0 0 0 0 2892.0206081144643 -2001.6227178086092 0 -2001.6227178086092 335.54516837638778 0 0 0 0 797.44377239432652 -1993.146484688107 0 -1993.146484688107 597.27970775420033 0 0 0 0 -1039.2953748468426 -957.11735256225711 0 -957.11735256225711 166.71097424795425 0 0 0 0 6720.3517395103918 -2036.5706794594585 0 -2036.5706794594585 143.75806178947312 0 0 0 0 5.3261908067392625 -9.1263009491439391 0 -9.1263009491439391 11.164206772536064 0 0 0 0 4753.4532823053523 -2294.5673249786146 0 -2294.5673249786146 296.87859577180029 0 0 0 0 5499.6799890794646 -2093.6332990096544 0 -2093.6332990096544 -38.270362072944806 0 0 0 0 4772.9353229255357 -2681.8754285142422 0 -2681.8754285142422 842.62563336854828 0 0 0 0 3833.7702333454072 -2064.9482115812311 0 -2064.9482115812311 439.04827156556706 0 0 0 0 4609.8165992628055 -1615.748313684446 0 -1615.748313684446 -294.87406351184563 0 0 0 0 5498.7871417693314 -1730.5427923536899 0 -1730.5427923536899 -424.08502355270377 0 0 0 0 2898.3425355861982 -1682.3118833888514 0 -1682.3118833888514 292.58139792723233 0 0 0 0 3596.9965266242434 -1505.1067545830253 0 -1505.1067545830253 152.09561997534266 0 0 0 0 2958.2926998022194 -1279.8340210705439 0 -1279.8340210705439 472.3103130923418 0 0 0 0 1910.365102441021 -785.02126292074365 0 -785.02126292074365 578.01772234049736 0 0 0 0 2330.6550651836733 -387.6568550920847 0 -387.6568550920847 704.59895055727372 0 0 0 0 999.44266894251632 -361.62365236015444 0 -361.62365236015444 713.56127042901869 0 0 0 0 1674.8966070567403 -554.72896042130253 0 -554.72896042130253 511.38240956704931 0 0 0 0 1264.609645633609 -1399.0935411483242 0 -1399.0935411483242 596.66691650020721 0 0 0 0 1116.2231121727091 616.20810678354042 0 616.20810678354042 835.93917999124301 0 0 0 0 2246.5714956199809 -394.87473888111651 0 -394.87473888111651 763.00726868900483 0 0 0 0 1883.6873213513463 749.35811014226897 0 749.35811014226897 853.46995624562749 0 0 0 0 1841.4216815266846 129.08266771309695 0 129.08266771309695 555.04252080134665 0 0 0 0 692.77495230908971 824.87625107772612 0 824.87625107772612 702.70474925958456 0 0 0 0 519.92556132868049 255.20975853633001 0 255.20975853633001 543.67834186768755 0 0 0 0 828.88238165480925 -56.06032570514693 0 -56.06032570514693 -133.286981167661 0 0 0 0 -327.07495229261986 -182.50360545213641 0 -182.50360545213641 -23.480727677761962 0 0 0 0 333.53175554444897 22.459889146444084 0 22.459889146444084 48.790549130092415 0 0 0 0 922.72524359382805 429.38370571588223 0 429.38370571588223 -145.28483901986965 0 0 0 0 1067.0989204497746 -322.51880916069081 0 -322.51880916069081 -258.77756043428553 0 0 0 0 731.13628244124993 -840.55188258299347 0 -840.55188258299347 427.29717459759399 0 0 0 0 683.3453340552951 -611.58164088073977 0 -611.58164088073977 -2079.0329521279673 0 0 0 0 95.92083699759678 -828.04896152532569 0 -828.04896152532569 -461.48844539441529 0 0 0 0 548.93042440704994 -239.70757418153011 0 -239.70757418153011 -1306.2796534806507 0 0 0 0 80.637795382353943 -93.665806561244608 0 -93.665806561244608 -993.92554039745528 0 0 0 0 -2.6387318492040208 -6.7102115695324187 0 -6.7102115695324187 -8.1096725321230014 0 0 0 0 54.924519189966077 878.96947316395472 0 878.96947316395472 -2866.6298837428103 0 0 0 0 616.77211346676631 -170.98517877126255 0 -170.98517877126255 -1025.9607604772991 0 0 0 0 -11.222174738482749 -16.546041540637361 0 -16.546041540637361 -17.164738421460264 0 0 0 0 -54.916654041386209 -561.25961034791953 0 -561.25961034791953 712.81408107729385 0 0 0 0 283.71614611908444 90.763615325188312 0 90.763615325188312 -1241.7675308163548 0 0 0 0 584.44799575900106 -75.451846851196763 0 -75.451846851196763 -1320.9748418065265 0 0 0 0 84.455821621260839 -332.92487181755553 0 -332.92487181755553 -1147.3852854660806 0 0 0 0 63.389611252205214 -777.7180757035967 0 -777.7180757035967 727.8317062711933 0 0 0 0 342.75517713126465 -433.80936371927197 0 -433.80936371927197 -1700.4276076490034 0 0 0 0 132.98080270711944 6.1462598048528889 0 6.1462598048528889 59.903746328149737 0 0 0 0 264.1780561617561 81.856638122455934 0 81.856638122455934 -125.05638321048218 0 0 0 0 154.28249453918329 -0.71522640219389189 0 -0.71522640219389189 -4.8346036226699702 0 0 0 0 225.35489522470743 -7.317816192907685 0 -7.317816192907685 -262.83774952655494 0 0 0 0 130.45599619541099 79.575665959419894 0 79.575665959419894 -98.085159641729661 0 0 0 0 215.18139662334579 -8.1971726623191898 0 -8.1971726623191898 -77.214284855494554 0 0 0 0 210.75851432650234 87.942866200223762 0 87.942866200223762 -218.66576228740996 0 0 0 0 178.74590562608171 -0.11742690378665799 0 -0.11742690378665799 -3.6973700567117112 0 0 0 0 207.34500160724565 38.033181553621944 0 38.033181553621944 -150.72772035266053 0 0 0 0 200.93122648558347 52.900710388687457 0 52.900710388687457 -128.3855563032248 0 0 0 0 197.55854397519579 64.482229730193126 0 64.482229730193126 -199.34463192561634 0 0 0 0 167.42345739730808 -49.2831403596158 0 -49.2831403596158 -162.73000089941121 0 0 0 0 187.5769022041568 122.13961503116229 0 122.13961503116229 -189.06136376012523 0 0 0 0 34.468623193005847 2.4480638226844178 0 2.4480638226844178 -16.735213274778484 0 0 0 0 -439.70626823679777 -655.12891063800703 0 -655.12891063800703 -522.64891639967948 0 0 0 0 102.52182840808655 -197.62703378160808 0 -197.62703378160808 -1223.752400669609 0 0 0 0 116.52775648378156 -74.948606266835299 0 -74.948606266835299 -193.52465540227422 0 0 0 0 93.215659619516629 -12.341409241907623 0 -12.341409241907623 -16.943762338022054 0 0 0 0 58.394445781130344 -29.282803831400514 0 -29.282803831400514 -15.428054850468939 0 0 0 0 -459.39674139395356 943.99654323083541 0 943.99654323083541 -478.74423697455768 0 0 0 0 64.633454758400205 -28.934788474572272 0 -28.934788474572272 -2.53684076909048 0 0 0 0 155.21319658100509 -48.738848147365985 0 -48.738848147365985 -16.7685861959785 0 0 0 0 495.77716973924544 164.82265332846328 0 164.82265332846328 -299.43489838539824 0 0 0 0 -32.64832047917298 -474.20110780192584 0 -474.20110780192584 514.38677115840801 0 0 0 0 806.92589406687694 -1192.8872460277289 0 -1192.8872460277289 596.12693511122961 0 0 0 0 9.1038887994363904 -151.62231278346917 0 -151.62231278346917 112.84734490867049 0 0 0 0 446.46651862432918 -340.93177311628347 0 -340.93177311628347 -455.97357065356772 0 0 0 0 193.34489934674727 -4.8232690117347552 0 -4.8232690117347552 -9.543989273635674 0 0 0 0 -0.16648449894506712 -37.734278935973634 0 -37.734278935973634 -21.349422572979613 0 0 0 0 94.241651954165718 57.35995009181579 0 57.35995009181579 -21.363301458712158 0 0 0 0 -130.90888918640849 -289.20163299711658 0 -289.20163299711658 -264.69906924848055 0 0 0 0 1175.8650051800796 -1081.3589185799535 0 -1081.3589185799535 1035.5315258267981 0 0 0 0 1414.8026344351674 -660.3022708007087 0 -660.3022708007087 426.27499475215188 0 0 0 0 14.325081218451373 -26.510596119497166 0 -26.510596119497166 24.23139065195296 0 0 0 0 636.71822828544919 -807.67756367636616 0 -807.67756367636616 -605.54504046744614 0 0 0 0 137.97205611083518 -210.04342776969116 0 -210.04342776969116 -524.81011368632971 0 0 0 0 5500.1445919050748 -2669.0862687576846 0 -2669.0862687576846 483.26197589805042 0 0 0 0 4499.6679702162583 -3094.6209184753952 0 -3094.6209184753952 557.15726398118704 0 0 0 0 3855.8091067531495 -1062.4860032341169 0 -1062.4860032341169 -124.98079694531037 0 0 0 0 1653.3569582928903 -907.46190551334439 0 -907.46190551334439 583.03190616099209 0 0 0 0 2640.1512364864248 -2612.7329856093265 0 -2612.7329856093265 1948.2376361362972 0 0 0 0 5006.8830093020078 -3463.2583989381919 0 -3463.2583989381919 904.31165561865487 0 0 0 0 3483.3704562218045 -2492.6222852631636 0 -2492.6222852631636 386.11640750994883 0 0 0 0 28.676397621935166 -8.4478667609538221 0 -8.4478667609538221 2.7635817307844457 0 0 0 0 2788.7886448089703 -4144.4516734278977 0 -4144.4516734278977 5320.1013731044595 0 0 0 0 5493.7050438356237 -4279.9924402341048 0 -4279.9924402341048 2097.1677668953685 0 0 0 0 1109.059265145057 -2668.2708742960558 0 -2668.2708742960558 4104.6180722831914 0 0 0 0 1291.2835406699305 -529.70933771862428 0 -529.70933771862428 59.793747181674917 0 0 0 0 64.219514656580998 -1.3821575839943634 0 -1.3821575839943634 -0.27927807499029189 0 0 0 0 333.07855382966227 -520.80187416696754 0 -520.80187416696754 900.07158139093963 0 0 0 0 519.50465819808596 -474.30907369199736 0 -474.30907369199736 -1074.7777771395827 0 0 0 0 41.60321327155583 1.8718825617351911 0 1.8718825617351911 5.4459691262352008 0 0 0 0 -820.19850063559716 -282.00487329910175 0 -282.00487329910175 -44.816681452445351 0 0 0 0 -732.32314942407902 -554.3307867098323 0 -554.3307867098323 485.68755445547492 0 0 0 0 -426.59673533804016 482.52269179781467 0 482.52269179781467 178.74664202547223 0 0 0 0 5493.2457347746022 1654.5295452545822 0 1654.5295452545822 1050.7088858969494 0 0 0 0 3768.554665007483 1267.7528229290529 0 1267.7528229290529 157.15818879137706 0 0 0 0 11.258679130013263 7.7738546952147303 0 7.7738546952147303 3.8574106244631015 0 0 0 0 4220.5945413237205 250.53602824071291 0 250.53602824071291 584.59136796547216 0 0 0 0 1016.5581561919826 2325.0949005021134 0 2325.0949005021134 106.33312974055991 0 0 0 0 5792.4692586744786 1055.3662830810795 0 1055.3662830810795 -416.05064442644357 0 0 0 0 5729.6490629146938 1867.5914015988621 0 1867.5914015988621 -959.54687224051963 0 0 0 0 1733.0926330185757 1365.1777831569339 0 1365.1777831569339 -210.79376452010456 0 0 0 0 3872.9338382503483 2923.9996717947174 0 2923.9996717947174 -160.08766498544816 0 0 0 0 2016.94697504754 1025.4009070348841 0 1025.4009070348841 -117.59381370229056 0 0 0 0 858.80099144500127 33.284778548290433 0 33.284778548290433 -129.56259725935706 0 0 0 0 2674.2385991462725 602.39002922087161 0 602.39002922087161 -448.24795376766008 0 0 0 0 2527.4415655078483 924.63838528423037 0 924.63838528423037 6.4589219919328116 0 0 0 0 5501.4879844609677 1168.0580042503107 0 1168.0580042503107 -1029.4540911617833 0 0 0 0 3966.4532875841396 1885.786850508498 0 1885.786850508498 -887.38068256403801 0 0 0 0 4019.8671427781228 1511.2191764124318 0 1511.2191764124318 -474.37042905433043 0 0 0 0 240.40082622984482 10.094740676557137 0 10.094740676557137 -666.85571038531373 0 0 0 0 715.90151115726621 156.40612238550483 0 156.40612238550483 -202.37852065914046 0 0 0 0 605.08034013868746 -733.26520847581605 0 -733.26520847581605 -1155.6686471767825 0 0 0 0 1020.2524752017998 -539.74774251681572 0 -539.74774251681572 605.22593195387549 0 0 0 0 47.455515836052655 371.69192574421112 0 371.69192574421112 69.492204924443669 0 0 0 0 -275.0568442783042 -721.39011723627755 0 -721.39011723627755 588.49717440175141 0 0 0 0 -261.11327500081825 -185.73559758277656 0 -185.73559758277656 737.66759930143587 0 0 0 0 947.31803264356495 -1.3795088933999153 0 -1.3795088933999153 582.20786807987736 0 0 0 0 21.618918902372002 -10.173960728147101 0 -10.173960728147101 6.8884546953685604 0 0 0 0 345.84840824389539 -835.7568195284166 0 -835.7568195284166 1228.9533969634808 0 0 0 0 254.61415811234474 -599.44048272001862 0 -599.44048272001862 995.83213211551492 0 0 0 0 -285.2826060945863 345.7252064624704 0 345.7252064624704 736.91152601477961 0 0 0 0 4650.0154567559875 1040.3197516476607 0 1040.3197516476607 13.711646195296112 0 0 0 0 4123.4356756206253 461.51692528149704 0 461.51692528149704 -216.15022912099823 0 0 0 0 3430.3357579089134 -1646.7490972870701 0 -1646.7490972870701 883.46228816504549 0 0 0 0 5497.0109659123045 -70.637754097449545 0 -70.637754097449545 1177.9457923187526 0 0 0 0 5623.5195286511225 -467.92242589421227 0 -467.92242589421227 -199.53392078513357 0 0 0 0 4725.6920129461723 -980.42759673911064 0 -980.42759673911064 348.79087786312726 0 0 0 0 5501.7002956147771 -391.28668571868923 0 -391.28668571868923 -144.47275972232708 0 0 0 0 6600.4398101658444 1047.8670715049595 0 1047.8670715049595 1383.0296887921054 0 0 0 0 3166.6976819570418 -494.92959701763937 0 -494.92959701763937 -420.64838346972431 0 0 0 0 6790.3609264197803 -1201.6066644150428 0 -1201.6066644150428 -882.72046074883315 0 0 0 0 3255.2265906758112 -1328.5837477826003 0 -1328.5837477826003 -7.1114983731205257 0 0 0 0 4286.9309918913423 692.69750052493475 0 692.69750052493475 738.05133862599018 0 0 0 0 -146.3728061312795 -262.5222875636839 0 -262.5222875636839 -176.3187432453492 0 0 0 0 56.102211772621814 -27.450588074555114 0 -27.450588074555114 13.309277616776859 0 0 0 0 327.24817347277713 -56.474587852261095 0 -56.474587852261095 -104.24867909407811 0 0 0 0 134.38166456385352 803.36831960901452 0 803.36831960901452 268.12319453787461 0 0 0 0 -130.10739969646966 33.032345584456067 0 33.032345584456067 788.03105748454891 0 0 0 0 20.335539570608049 3.9403002358863404 0 3.9403002358863404 -13.241035112782562 0 0 0 0 -40.085251982163754 843.98946207342442 0 843.98946207342442 -210.07292609650443 0 0 0 0 -445.10895241656544 489.80905590573849 0 489.80905590573849 -455.24516236175486 0 0 0 0 67.879397466472696 -9.5593894834765258 0 -9.5593894834765258 -8.9847364867022055 0 0 0 0 -33.690296579683491 -42.165766987047959 0 -42.165766987047959 -21.66856774085727 0 0 0 0 55.258496671342812 -13.932637489156038 0 -13.932637489156038 -1.39406932552198 0 0 0 0 13.740618253719397 4.6719390619359373 0 4.6719390619359373 -20.12620302828995 0 0 0 0 332.83938182152633 68.340973559416625 0 68.340973559416625 7.7504813022344479 0 0 0 0 126.6229785335745 18.569097446262276 0 18.569097446262276 -101.50440286913874 0 0 0 0 -139.42360711814399 -43.287571558801517 0 -43.287571558801517 449.30778778790113 0 0 0 0 1263.25823082438 196.80182112381817 0 196.80182112381817 -467.77853964805854 0 0 0 0 812.16738517775957 664.77698685846804 0 664.77698685846804 520.83656058566544 0 0 0 0 3653.2498738326176 1522.9583747336128 0 1522.9583747336128 -123.80747690594131 0 0 0 0 6913.3013309224552 724.89297374014802 0 724.89297374014802 -691.23788780811742 0 0 0 0 5500.311513546927 213.0397820514242 0 213.0397820514242 2138.4430860555167 0 0 0 0 28.579159949749339 -3.1325979225126233 0 -3.1325979225126233 0.90352248158684501 0 0 0 0 4456.4919612354461 3285.6653307791094 0 3285.6653307791094 1651.0398103719519 0 0 0 0 2601.7532529531309 -2105.755915975707 0 -2105.755915975707 -184.85182598574011 0 0 0 0 101.88955494345228 -52.543211973301574 0 -52.543211973301574 22.783625904809284 0 0 0 0 132.23690441236249 -529.20111568697848 0 -529.20111568697848 -804.8583088645064 0 0 0 0 196.76220421928156 213.26413517801348 0 213.26413517801348 -208.06608289729047 0 0 0 0 -56.430496781125839 -529.24330440976655 0 -529.24330440976655 130.13550672460951 0 0 0 0 -725.92478567813669 -162.07476749287321 0 -162.07476749287321 1102.4719985282518 0 0 0 0 388.11744852663833 -16.735680948949266 0 -16.735680948949266 -951.20857884096586 0 0 0 0 1264.1750394639603 -527.78642610503039 0 -527.78642610503039 -773.45140584359342 0 0 0 0 195.69147672464169 456.00286250352747 0 456.00286250352747 467.30054738271383 0 0 0 0 317.96836221469857 -388.5575510218855 0 -388.5575510218855 326.91786823416624 0 0 0 0 19.102602008047711 -4.649737347330916 0 -4.649737347330916 2.4916612172970805 0 0 0 0 450.8084682003755 233.38365254106549 0 233.38365254106549 -54.476511516716258 0 0 0 0 181.97959380743123 195.7931552932809 0 195.7931552932809 -59.343272536603536 0 0 0 0 128.74609936421621 -205.04193115396583 0 -205.04193115396583 -152.38773622176404 0 0 0 0 -340.71831044633291 -557.97173720508772 0 -557.97173720508772 -124.82743561289226 0 0 0 0 82.640066890673381 -40.509692244427193 0 -40.509692244427193 17.651932095380623 0 0 0 0 -201.04820656889933 -29.57020996632059 0 -29.57020996632059 317.04514517384928 0 0 0 0 22.394892422047633 -148.9614726139913 0 -148.9614726139913 356.06118436206589 0 0 0 0 772.07929749707546 -224.64370411994469 0 -224.64370411994469 -98.199812920014892 0 0 0 0 481.80068293841759 -24.358671407766451 0 -24.358671407766451 320.16737372044599 0 0 0 0 -80.288216795575863 -197.08308374319864 0 -197.08308374319864 472.91744066274623 0 0 0 0 366.35804119287786 -74.012946036814967 0 -74.012946036814967 348.23115378010914 0 0 0 0 330.33856691434539 -217.60858981187698 0 -217.60858981187698 552.1878682048964 0 0 0 0 -75.454729540870176 -199.07545969363355 0 -199.07545969363355 405.41961502786012 0 0 0 0 -262.08830067535018 -224.99842167269543 0 -224.99842167269543 450.33761827444596 0 0 0 0 90.675772539088939 -224.13582599877051 0 -224.13582599877051 -91.197231006457514 0 0 0 0 -67.694109696371015 -590.62771494705623 0 -590.62771494705623 -462.38322022505463 0 0 0 0 5.6561497205402702 -316.27595448545264 0 -316.27595448545264 481.28954486400681 0 0 0 0 161.39362238802278 -28.562861926769756 0 -28.562861926769756 26.395163330993682 0 0 0 0 397.01716394679534 -99.190276442086997 0 -99.190276442086997 18.494143041022426 0 0 0 0 100.31742361942815 -158.33870295439996 0 -158.33870295439996 337.71888716675272 0 0 0 0 538.53874099079985 -197.46700680169667 0 -197.46700680169667 -4.4968963651331819 0 0 0 0 326.20279170080539 -148.64286747091228 0 -148.64286747091228 262.17986767068601 0 0 0 0 633.69532460485061 -57.358229197536275 0 -57.358229197536275 287.00656455195065 0 0 0 0 578.22373053006595 -257.19311815573428 0 -257.19311815573428 202.77305513852042 0 0 0 0 675.60663362742343 -393.98617527636429 0 -393.98617527636429 300.54290336648978 0 0 0 0 451.70122100842491 -295.47013888578101 0 -295.47013888578101 191.19796582134791 0 0 0 0 702.47867907136242 -277.51214763220025 0 -277.51214763220025 114.15725740409175 0 0 0 0 864.70422428334859 -212.73027928606655 0 -212.73027928606655 7.7783134100395728 0 0 0 0 839.32932446899576 -249.9584436028133 0 -249.9584436028133 -10.058602532837085 0 0 0 0 729.15181638241484 -153.94544041254471 0 -153.94544041254471 122.00843260757983 0 0 0 0 600.31177457264857 -267.70028067200928 0 -267.70028067200928 117.86179380296664 0 0 0 0 457.34806226033834 423.82891511023013 0 423.82891511023013 399.7967484145056 0 0 0 0 -3.6330442105536349 17.282094022220008 0 17.282094022220008 107.90644896708545 0 0 0 0 1293.6659880304724 352.12471203542282 0 352.12471203542282 98.468977539944262 0 0 0 0 1410.1307278094901 -133.18360966249656 0 -133.18360966249656 113.89177918653411 0 0 0 0 4.6247635920426262 4.2460807094076927 0 4.2460807094076927 0.80350485658629012 0 0 0 0 4.0764088709037765 4.4283338383866351 0 4.4283338383866351 4.806045662202024 0 0 0 0 -162.39191796202795 272.64381997743931 0 272.64381997743931 560.95008980437888 0 0 0 0 1228.824347601636 378.58578982349923 0 378.58578982349923 326.38094183563226 0 0 0 0 181.97845021789544 331.89859038306167 0 331.89859038306167 557.76906959034204 0 0 0 0 46.574826616793871 -132.90862014784125 0 -132.90862014784125 479.4532427274238 0 0 0 0 163.04959112682263 -544.45433725475596 0 -544.45433725475596 -659.98392575990829 0 0 0 0 -275.89812180519948 262.58932832454639 0 262.58932832454639 -5.5952727596877594 0 0 0 0 83.349568002275191 -231.39978121246168 0 -231.39978121246168 473.99966696708657 0 0 0 0 2.145745874748286 -3.0969148166020943 0 -3.0969148166020943 3.8110338302400883 0 0 0 0 -1119.3001738076237 -570.86471282367756 0 -570.86471282367756 475.90574025970409 0 0 0 0 1008.7016726421425 -360.28215733390562 0 -360.28215733390562 309.99443253628601 0 0 0 0 1345.7670561495688 197.97132099007445 0 197.97132099007445 98.860405455705404 0 0 0 0 20.176122641878464 -524.58993184758742 0 -524.58993184758742 293.71934413254667 0 0 0 0 36.85078679234266 -4.6726217379492283 0 -4.6726217379492283 15.231379946723791 0 0 0 0 38.174080963653978 -23.506638806459932 0 -23.506638806459932 -4.4093397487503125 0 0 0 0 30.158492306629796 -10.610702314112899 0 -10.610702314112899 -17.728928697874949 0 0 0 0 62.265448663419193 2.8896135198652946 0 2.8896135198652946 -12.674812221035609 0 0 0 0 62.073668096025187 24.42020390571227 0 24.42020390571227 18.201375160618227 0 0 0 0 35.188988465323234 7.5017837571160584 0 7.5017837571160584 -2.1930109838193257 0 0 0 0 22.615915260574411 -36.875659299788538 0 -36.875659299788538 -28.611636484601899 0 0 0 0 -36.34621203149436 -48.404561682161784 0 -48.404561682161784 -61.881334561457152 0 0 0 0 -6.6905610293155178 -2.0021983773803242 0 -2.0021983773803242 0.84578874348807531 0 0 0 0 29.741600537272831 -8.1794082430338619 0 -8.1794082430338619 1.2951497786480459 0 0 0 0 53.206715467065806 -6.2546295664074023 0 -6.2546295664074023 -3.9154430188627884 0 0 0 0 55.792267452296073 1.2223586292697064 0 1.2223586292697064 3.2521562501558492 0 0 0 0 49.643938713532407 13.249015796640379 0 13.249015796640379 8.0478126129128214 0 0 0 0 52.492220193597859 35.597069506418222 0 35.597069506418222 21.233188163669183 0 0 0 0 31.376893866588944 -95.678628322389159 0 -95.678628322389159 -24.542587515322452 0 0 0 0 -3.6205815152188734 -32.878003243834883 0 -32.878003243834883 193.85763854999095 0 0 0 0 12.131430922907867 4.5205288101963248 0 4.5205288101963248 6.4706388651335196 0 0 0 0 54.750157476446475 24.005160994670405 0 24.005160994670405 -3.7954194495259799 0 0 0 0 19.814862879428972 11.611245608356001 0 11.611245608356001 12.23876686873572 0 0 0 0 86.335875532808132 -13.800930182586171 0 -13.800930182586171 3.0288858351136128 0 0 0 0 6.8867584238223003 9.2109803916575572 0 9.2109803916575572 5.7889600126095067 0 0 0 0 31.838705606474832 15.541982745870314 0 15.541982745870314 34.983904304758653 0 0 0 0 135.98732736952661 -64.392947371059108 0 -64.392947371059108 -27.800481285842125 0 0 0 0 8.0855864169037375 10.582618882290049 0 10.582618882290049 11.423505138167618 0 0 0 0 25.565303003066219 315.34450642358661 0 315.34450642358661 145.9492302578692 0 0 0 0 370.21028328253306 -187.57140763658663 0 -187.57140763658663 108.10633253267588 0 0 0 0 417.18917212577071 -343.91129135187202 0 -343.91129135187202 -659.73594396999306 0 0 0 0 0.27322700959737745 1.1933234084296345 0 1.1933234084296345 3.5931678185850142 0 0 0 0 -205.60845793921908 -24.398755792326938 0 -24.398755792326938 809.66178486223362 0 0 0 0 140.670170146288 37.340565863505617 0 37.340565863505617 346.71399112381732 0 0 0 0 197.64250608775365 192.48867292067484 0 192.48867292067484 192.73050321572737 0 0 0 0 128.76823136700841 101.28112194132973 0 101.28112194132973 143.06928046061694 0 0 0 0 42.144508574958309 93.374331893070575 0 93.374331893070575 180.65866730997823 0 0 0 0 67.526665897443308 99.27134559177648 0 99.27134559177648 76.610860272970058 0 0 0 0 3.4963809306906626 -2.4990184894316485 0 -2.4990184894316485 1.049194492095161 0 0 0 0 30.812455281007715 5.9781155506727828 0 5.9781155506727828 115.4004486505055 0 0 0 0 -1.8747226276027504 72.936004356192825 0 72.936004356192825 176.35001692402648 0 0 0 0 1.8527438267414595 1.2152232645345293 0 1.2152232645345293 1.8987204123172958 0 0 0 0 28.154347634268561 21.175895272107368 0 21.175895272107368 28.200320571972043 0 0 0 0 25.448351935789105 -3.0771635989131028 0 -3.0771635989131028 9.9896648251450983 0 0 0 0 71.878951350867283 20.434995882660132 0 20.434995882660132 8.7941104078895478 0 0 0 0 75.677865430614474 103.27395784196489 0 103.27395784196489 -158.67427337776462 0 0 0 0 86.08304919407874 15.229068060528547 0 15.229068060528547 -80.623203595332598 0 0 0 0 63.856015968965949 76.62360220717801 0 76.62360220717801 -77.840441966605795 0 0 0 0 81.756984465491769 61.744493956908798 0 61.744493956908798 -127.55656900876875 0 0 0 0 96.234523640123371 89.305318213197779 0 89.305318213197779 48.868449475129182 0 0 0 0 3.2447505375828314 -1.1847937708725738 0 -1.1847937708725738 -0.32065845250613023 0 0 0 0 65.121860011073295 89.602075988759225 0 89.602075988759225 50.632555691659945 0 0 0 0 203.07475148935919 117.91913939953247 0 117.91913939953247 -87.91794847893425 0 0 0 0 101.40769798484689 94.907791835668377 0 94.907791835668377 -25.134184513997752 0 0 0 0 140.39545009092217 182.83509025854812 0 182.83509025854812 70.869816646044455 0 0 0 0 442.75389533316775 239.36614871830625 0 239.36614871830625 -177.51606846353025 0 0 0 0 136.10692258125346 189.69598673176461 0 189.69598673176461 206.44676766560951 0 0 0 0 181.08936568483477 57.720318121343553 0 57.720318121343553 -163.08992426966142 0 0 0 0 224.25432465541235 75.691167612036679 0 75.691167612036679 -202.53390849797415 0 0 0 0 174.20916774194848 -9.5247661770556533 0 -9.5247661770556533 -108.44091748138726 0 0 0 0 166.44458249524905 10.08516665109687 0 10.08516665109687 -157.16193993703746 0 0 0 0 137.04682924113877 -12.036085977135144 0 -12.036085977135144 -106.6911794043333 0 0 0 0 142.32351418097096 2.2315874122853074 0 2.2315874122853074 -75.383210285078121 0 0 0 0 129.92402425636362 30.354062981239068 0 30.354062981239068 -14.46767019053237 0 0 0 0 164.44251194201934 28.965371621284248 0 28.965371621284248 -95.480151337122379 0 0 0 0 132.45422259697807 66.383431634675389 0 66.383431634675389 -118.58387623312683 0 0 0 0 140.60964311977659 76.86314343306276 0 76.86314343306276 -137.66162114666258 0 0 0 0 120.87438465764089 21.671986685663718 0 21.671986685663718 -14.450911694287093 0 0 0 0 -27.466133266578254 357.89513790373894 0 357.89513790373894 -263.43509329741198 0 0 0 0 10.632554311909189 109.25381061599779 0 109.25381061599779 -162.2681087106069 0 0 0 0 -102.88517516681804 97.021517232349424 0 97.021517232349424 -152.94404374099759 0 0 0 0 168.09588137570245 250.3218400510907 0 250.3218400510907 -67.606219673401029 0 0 0 0 311.1107700571265 332.62653798016197 0 332.62653798016197 87.409635607318705 0 0 0 0 1506.7048635855099 754.67424780705051 0 754.67424780705051 363.85243854107688 0 0 0 0 4.4592348788423237 -1.8600311350394492 0 -1.8600311350394492 0.40195480728478472 0 0 0 0 24.830618916012099 -390.42727828882039 0 -390.42727828882039 -152.27974469186211 0 0 0 0 -583.99386450962629 -984.17484139881481 0 -984.17484139881481 -224.5256888716176 0 0 0 0 -336.48571603915479 -48.512067806873802 0 -48.512067806873802 -197.96459683650528 0 0 0 0 9.9764957888586139 -8.3672337499597518 0 -8.3672337499597518 -0.54604633404004232 0 0 0 0 933.84294426014822 -305.97564467208713 0 -305.97564467208713 -280.54183502300839 0 0 0 0 704.42017639752885 538.82487885877572 0 538.82487885877572 160.71373090079305 0 0 0 0 -53.488098180154338 -215.58245193485345 0 -215.58245193485345 -276.36829392763548 0 0 0 0 385.86631243747252 -35.834314406664816 0 -35.834314406664816 -418.55826628694831 0 0 0 0 391.23042870235804 -126.4794379667419 0 -126.4794379667419 -299.91875516415439 0 0 0 0 438.19457025273186 291.22462561858066 0 291.22462561858066 -102.90445420084325 0 0 0 0 34.087216764964978 146.84707761503523 0 146.84707761503523 125.60341300686196 0 0 0 0 -123.70249140799569 -283.36628914500488 0 -283.36628914500488 -100.94730014666993 0 0 0 0 9.2247705160618239 -7.792521985925589 0 -7.792521985925589 -8.1698150067885678 0 0 0 0 81.137349554002867 -98.474147492726843 0 -98.474147492726843 -58.942828484717666 0 0 0 0 35.537138682205978 -0.384236436015442 0 -0.384236436015442 -16.38079322815188 0 0 0 0 256.18600472890694 84.472740363794202 0 84.472740363794202 -65.217795989632577 0 0 0 0 252.89531665691584 -59.977606402700957 0 -59.977606402700957 -120.28619047621214 0 0 0 0 1439.1703387482921 133.22832051969203 0 133.22832051969203 -393.70017294535319 0 0 0 0 450.6316418449569 -93.168318045852629 0 -93.168318045852629 594.15805668141547 0 0 0 0 71.320870827476028 510.58213702462035 0 510.58213702462035 -298.436985791388 0 0 0 0 -290.49944860173855 -448.66215329051374 0 -448.66215329051374 -486.50812119469083 0 0 0 0 81.974287884309888 -144.94005533525888 0 -144.94005533525888 -1492.0661056233439 0 0 0 0 -11.17392174777342 112.45070718827083 0 112.45070718827083 317.86599943503461 0 0 0 0 1100.2312330237874 303.55439275538492 0 303.55439275538492 -194.52066023611951 0 0 0 0 964.74884087542887 1152.1442693329677 0 1152.1442693329677 531.33863545049098 0 0 0 0 13.541609100992048 -8.829900338561103 0 -8.829900338561103 -0.39157180842827799 0 0 0 0 688.09301278056228 -103.07187906001491 0 -103.07187906001491 -58.839711232455556 0 0 0 0 182.40700257928256 100.5519385561247 0 100.5519385561247 398.44266815204446 0 0 0 0 266.09344351025356 -554.1612960412067 0 -554.1612960412067 -892.35966183498249 0 0 0 0 107.43469444197532 -50.334836841717198 0 -50.334836841717198 23.852213843748686 0 0 0 0 217.8248216547654 -100.35043102885902 0 -100.35043102885902 15.920076529715516 0 0 0 0 298.07431410919526 -352.88479970612207 0 -352.88479970612207 -652.19240022308804 0 0 0 0 -118.79306899462244 -335.19163738429415 0 -335.19163738429415 -542.79557254029078 0 0 0 0 25.857123192230887 13.797344519881733 0 13.797344519881733 21.827546185966064 0 0 0 0 -286.90043470629462 159.84677635560843 0 159.84677635560843 -4.6493471616424529 0 0 0 0 -97.412973234109813 41.443792012782524 0 41.443792012782524 13.53006161056237 0 0 0 0 -68.446962022891967 190.27083885084448 0 190.27083885084448 -1028.3187954600435 0 0 0 0 26.718137688131023 -3.9918973833139688 0 -3.9918973833139688 -2.4813176012238536 0 0 0 0 146.79721189140031 -20.838730699478802 0 -20.838730699478802 2.4237937339676296 0 0 0 0 174.10557112425158 -30.827945703740625 0 -30.827945703740625 10.866270369802805 0 0 0 0 170.40681564816623 -39.438060523354579 0 -39.438060523354579 69.964815942639689 0 0 0 0 40.678746721083414 13.714145792685819 0 13.714145792685819 10.196152653408941 0 0 0 0 92.279597773202113 10.731236816294768 0 10.731236816294768 29.60083741586277 0 0 0 0 107.66349504007667 5.8615264389773074 0 5.8615264389773074 -11.275565419825398 0 0 0 0 129.51129514729109 -27.510302548389518 0 -27.510302548389518 18.202908869307976 0 0 0 0 136.22236103583214 6.9506137734415798 0 6.9506137734415798 -6.9055758157415941 0 0 0 0 166.44396427890752 -148.64521526923636 0 -148.64521526923636 -369.38577925040317 0 0 0 0 112.92410277212912 35.256627277402231 0 35.256627277402231 5.2578541533821408 0 0 0 0 129.28470038927122 -28.856117238704933 0 -28.856117238704933 -0.94928548459224338 0 0 0 0 193.37899608245061 -413.89758162918088 0 -413.89758162918088 -302.30769861247978 0 0 0 0 154.7912178352326 13.685935471899256 0 13.685935471899256 8.8947114363436413 0 0 0 0 -433.7137822190125 -380.67883216568362 0 -380.67883216568362 -301.87834663380909 0 0 0 0 114.26648296078201 381.94711897303205 0 381.94711897303205 -1092.7930690911307 0 0 0 0 38.231517336812061 -20.2762656192115 0 -20.2762656192115 -10.173878384644441 0 0 0 0 651.57025501944008 -374.80115480764835 0 -374.80115480764835 -721.6532407479458 0 0 0 0 37.256155873907602 -17.642749883950643 0 -17.642749883950643 3.3919893618482817 0 0 0 0 614.72057080330978 227.15523485407394 0 227.15523485407394 -148.8599583310297 0 0 0 0 1073.2021182164717 894.05966625066878 0 894.05966625066878 -12.167778297215591 0 0 0 0 196.1494743534131 805.61588515948029 0 805.61588515948029 375.56323595743652 0 0 0 0 664.62337331398157 114.85822645147891 0 114.85822645147891 -181.47954384572927 0 0 0 0 -271.15035257666023 40.968299547974993 0 40.968299547974993 116.06148508924684 0 0 0 0 104.2558327493216 50.707889381383666 0 50.707889381383666 6.653259939099371 0 0 0 0 167.04886846161389 53.919375506973665 0 53.919375506973665 -45.388318162210396 0 0 0 0 180.3827348073537 165.37451815087707 0 165.37451815087707 -15.758532136105941 0 0 0 0 117.5934281093719 19.274413301124653 0 19.274413301124653 -16.470145859690334 0 0 0 0 172.24351378812571 144.88036620770328 0 144.88036620770328 -51.177701226823046 0 0 0 0 442.56054224216859 582.45856336387237 0 582.45856336387237 215.50744280308754 0 0 0 0 583.99414438154781 -213.07121696635659 0 -213.07121696635659 328.41859935155713 0 0 0 0 350.69888184790034 139.32673693483571 0 139.32673693483571 -202.5788703925391 0 0 0 0 203.50686657728511 180.59318689824886 0 180.59318689824886 -41.858164056310969 0 0 0 0 -19.017165596709205 33.072201026611225 0 33.072201026611225 -10.020178181668793 0 0 0 0 165.21167276670724 5.1904788663050567 0 5.1904788663050567 -24.645017308339447 0 0 0 0 197.401199957448 -39.114929214499526 0 -39.114929214499526 -44.784992226732257 0 0 0 0 144.20360375673044 3.0214458542268403 0 3.0214458542268403 -57.131108564764872 0 0 0 0 136.49017421074564 15.991282261326504 0 15.991282261326504 -17.836645544957911 0 0 0 0 542.87151386683399 -291.58326836641436 0 -291.58326836641436 -587.91989607307119 0 0 0 0 123.61212158428418 -47.407206403067903 0 -47.407206403067903 -2.8209847577472829 0 0 0 0 83.220986947738766 -106.95478280020143 0 -106.95478280020143 -84.029366700888204 0 0 0 0 165.10345679390858 -0.7672941652897407 0 -0.7672941652897407 -112.32783744565677 0 0 0 0 199.51018283693895 -29.613924594757464 0 -29.613924594757464 -74.874958884749503 0 0 0 0 197.26548047706865 -21.401469192833247 0 -21.401469192833247 -77.748774001749553 0 0 0 0 187.99899411073557 33.968253608545638 0 33.968253608545638 32.098654382463792 0 0 0 0 163.90456666572337 16.044692552223523 0 16.044692552223523 39.829572775761335 0 0 0 0 180.45315486625782 -16.198621569045372 0 -16.198621569045372 -46.530083979734627 0 0 0 0 304.23877951559189 171.72150434289506 0 171.72150434289506 188.75642803651317 0 0 0 0 529.72869538529267 328.64876646666744 0 328.64876646666744 132.39629762077175 0 0 0 0 271.58816736055087 -13.925581861036335 0 -13.925581861036335 46.753365913111793 0 0 0 0 260.35641176868512 -0.63087874212487804 0 -0.63087874212487804 31.844880955370172 0 0 0 0 193.63539417305537 -64.921421212261521 0 -64.921421212261521 16.185254658648773 0 0 0 0 140.44851825795331 -7.3235638120022486 0 -7.3235638120022486 31.899316309416463 0 0 0 0 306.52398885518892 -96.5696087020915 0 -96.5696087020915 -38.886010927853931 0 0 0 0 392.55361417613858 94.662903229971562 0 94.662903229971562 72.531508703843429 0 0 0 0 102.38110672637887 20.301396205014932 0 20.301396205014932 6.6084922362203322 0 0 0 0 788.91800412540306 333.81517932003408 0 333.81517932003408 -278.95427231505164 0 0 0 0 681.7405127214879 92.899447200627037 0 92.899447200627037 -114.36015965651677 0 0 0 0 408.12774339390489 -5.2003267075087933 0 -5.2003267075087933 -30.75102882553756 0 0 0 0 517.44126259529367 -110.11592259081408 0 -110.11592259081408 -168.27192491276219 0 0 0 0 1657.4314755327287 1429.5960772557883 0 1429.5960772557883 869.99921982975502 0 0 0 0 -1173.1880781685929 -612.51857901099629 0 -612.51857901099629 355.00827115200082 0 0 0 0 2.8828201532093862 -8.4721434228948347 0 -8.4721434228948347 6.334676438410753 0 0 0 0 -48.853413612929671 135.28364397776022 0 135.28364397776022 295.16493279194401 0 0 0 0 52.673175223196495 -63.973039657996111 0 -63.973039657996111 107.07964069513078 0 0 0 0 89.670489578915294 -55.512772292922925 0 -55.512772292922925 84.486331635801434 0 0 0 0 -58.012145460974352 44.486578016179124 0 44.486578016179124 211.88292171764965 0 0 0 0 -29.11816868709866 91.651670297184864 0 91.651670297184864 -38.402517663681692 0 0 0 0 50.937681916399015 11.431629421258265 0 11.431629421258265 53.566111730323314 0 0 0 0 76.384883664388326 1.2749152775498374 0 1.2749152775498374 -7.7594228506643503 0 0 0 0 38.94699355144985 32.417486769614698 0 32.417486769614698 21.276150422299963 0 0 0 0 158.23686124701635 2.9193839799384023 0 2.9193839799384023 28.34153100227087 0 0 0 0 112.23013535382051 93.919021529432484 0 93.919021529432484 77.637213787853 0 0 0 0 80.384073159613763 104.02586550581293 0 104.02586550581293 -86.620287410767787 0 0 0 0 89.906260958909115 40.25224578541831 0 40.25224578541831 35.180824159279865 0 0 0 0 15.214002582027206 199.74455884308159 0 199.74455884308159 -184.5913063262692 0 0 0 0 107.98863013291702 56.916727263311259 0 56.916727263311259 -169.51894622783493 0 0 0 0 11.735659663914703 160.02844275436519 0 160.02844275436519 -164.65513916595771 0 0 0 0 -12.166027700324776 71.207139104217958 0 71.207139104217958 -59.137996509381765 0 0 0 0 -21.964756805549769 177.06877306241933 0 177.06877306241933 -111.62296419220729 0 0 0 0 172.23932173043431 -1.9273060750313107 0 -1.9273060750313107 -321.57706279973354 0 0 0 0 54.166301856252105 -2.5920133920265442 0 -2.5920133920265442 -24.087834149861575 0 0 0 0 168.81622998206876 -5.614462982186069 0 -5.614462982186069 -196.58998815548512 0 0 0 0 129.45605151567725 134.10075214869221 0 134.10075214869221 -95.806329965367922 0 0 0 0 127.26896961044986 159.0012465718471 0 159.0012465718471 -312.55933465047713 0 0 0 0 171.70413050401839 157.28499802268084 0 157.28499802268084 -121.69814480450373 0 0 0 0 201.91792432699003 115.16874119805017 0 115.16874119805017 -21.790865851975941 0 0 0 0 208.95342427770083 172.30107167360987 0 172.30107167360987 -53.461024244564825 0 0 0 0 102.11461917003908 154.53053486129392 0 154.53053486129392 -37.312249218173065 0 0 0 0 126.16300708637573 130.85171463975803 0 130.85171463975803 -97.20319669126269 0 0 0 0 49.887369379342999 49.722411466814151 0 49.722411466814151 -51.889279793419803 0 0 0 0 129.77438018350222 119.51427436027848 0 119.51427436027848 -13.107972138288304 0 0 0 0 98.233679233002476 98.616077547294154 0 98.616077547294154 114.0453129772709 0 0 0 0 493.40552956991451 132.60323273153062 0 132.60323273153062 -33.483890406127102 0 0 0 0 176.41714568974442 -15.449967936018787 0 -15.449967936018787 -46.836528445236226 0 0 0 0 3.1376458123265536 34.858398936170985 0 34.858398936170985 30.340728099091542 0 0 0 0 208.51394953744602 191.68983356916988 0 191.68983356916988 109.33531983633395 0 0 0 0 188.23108173472974 -1.226217401039321 0 -1.226217401039321 -64.74435469441778 0 0 0 0 177.34616308583372 45.541266124466347 0 45.541266124466347 28.187634410118335 0 0 0 0 221.48946684088878 10.048827930400876 0 10.048827930400876 -81.401841410111047 0 0 0 0 119.27555777219823 -75.358122896022905 0 -75.358122896022905 -104.62095394107746 0 0 0 0 47.777157932731853 25.407553990472458 0 25.407553990472458 11.699023632622691 0 0 0 0 144.67492527284148 15.873909875305202 0 15.873909875305202 -23.825339634410795 0 0 0 0 356.11047460299778 25.487393268950882 0 25.487393268950882 -42.111967688044388 0 0 0 0 211.67917632091576 17.804860818250745 0 17.804860818250745 -31.286358061070132 0 0 0 0 202.84821325370589 43.942058801047551 0 43.942058801047551 -11.529493924095917 0 0 0 0 286.22448351156345 86.647100638914708 0 86.647100638914708 -47.351005414944666 0 0 0 0 191.80234487834241 104.57500464604288 0 104.57500464604288 122.31257812201432 0 0 0 0 188.45810491255725 64.087890155319741 0 64.087890155319741 83.972037245443744 0 0 0 0 72.083302333467103 3.9853988795821351 0 3.9853988795821351 -0.30493910766292842 0 0 0 0 66.818124367629935 -16.418732812633948 0 -16.418732812633948 94.330149452356977 0 0 0 0 201.17468413876418 -23.979617716418385 0 -23.979617716418385 94.499908316559981 0 0 0 0 137.0105304524659 -210.44775238759394 0 -210.44775238759394 -35.292765084308485 0 0 0 0 254.3676066745856 -47.269890108247608 0 -47.269890108247608 -16.941521185939422 0 0 0 0 105.59949742687877 -76.463421500689549 0 -76.463421500689549 95.087706744570824 0 0 0 0 21.104372559397234 15.953871227708554 0 15.953871227708554 10.09965592256887 0 0 0 0 235.42528907075757 -193.47581244889807 0 -193.47581244889807 175.38442252127561 0 0 0 0 203.68784740152842 -194.81310482176514 0 -194.81310482176514 -46.657947961670288 0 0 0 0 299.21819865042744 -171.30195107463442 0 -171.30195107463442 -111.71832069174343 0 0 0 0 525.93352213982143 -164.87173262080978 0 -164.87173262080978 -131.29878126107178 0 0 0 0 299.74649607934407 -181.8229315116987 0 -181.8229315116987 -45.360838379161578 0 0 0 0 249.81381836836741 -67.535601171107899 0 -67.535601171107899 -18.306146060675275 0 0 0 0 464.40784901030202 6.6415945887702037 0 6.6415945887702037 -128.81060045716731 0 0 0 0 357.73479031486204 22.395779133887117 0 22.395779133887117 -112.22226208814755 0 0 0 0 404.58806673136132 91.575691828449635 0 91.575691828449635 -243.12808146360658 0 0 0 0 334.19171031768929 84.805362650779898 0 84.805362650779898 -99.925100939017284 0 0 0 0 165.76887895839917 62.77238197170746 0 62.77238197170746 14.73667686901215 0 0 0 0 278.1142993745616 223.57131327740808 0 223.57131327740808 59.585699957387988 0 0 0 0 177.50039355262743 -4.0039817446486268 0 -4.0039817446486268 56.830999775638702 0 0 0 0 395.42248729886342 -817.23440513032256 0 -817.23440513032256 -340.60039479060652 0 0 0 0 26.416610520545731 22.278731096698955 0 22.278731096698955 3.1622979601280576 0 0 0 0 192.40626834414434 -531.51326856738342 0 -531.51326856738342 1265.306833648985 0 0 0 0 66.854595167915477 117.32923664861897 0 117.32923664861897 -333.49527641671739 0 0 0 0 827.78243066022696 1214.6886670398962 0 1214.6886670398962 868.93178515639011 0 0 0 0 30.534974817351269 -6.232958432798192 0 -6.232958432798192 3.5200316232456643 0 0 0 0 214.56899030497152 -166.11885524614991 0 -166.11885524614991 427.1179182913711 0 0 0 0 8.1734756384103093 -196.92764171472299 0 -196.92764171472299 422.52370814790629 0 0 0 0 86.532560141688066 -23.699545093764652 0 -23.699545093764652 1.2150103688800797 0 0 0 0 547.81714830828423 -32.985173596935056 0 -32.985173596935056 -261.1420159662689 0 0 0 0 44.240221428442737 -255.25868418721586 0 -255.25868418721586 256.78402088642179 0 0 0 0 889.38298070514429 335.99124377167391 0 335.99124377167391 118.65437626045605 0 0 0 0 805.11710436469093 -274.3028525266318 0 -274.3028525266318 -277.14654103454086 0 0 0 0 809.53895789933449 -299.6243416869911 0 -299.6243416869911 -304.75989458244294 0 0 0 0 2081.2391172968055 -354.31687157707347 0 -354.31687157707347 -467.15300405095695 0 0 0 0 -261.15475430936203 121.3833680691896 0 121.3833680691896 579.07096132896913 0 0 0 0 1850.3313698517968 4914.9159816117863 0 4914.9159816117863 5249.0083998660266 0 0 0 0 32.584580188526402 9.3258377175013152 0 9.3258377175013152 -31.546274035932498 0 0 0 0 4477.8706493532663 -2538.4675191511305 0 -2538.4675191511305 -3045.4600315912776 0 0 0 0 958.61547873239033 -706.03657295057928 0 -706.03657295057928 -380.45762693337019 0 0 0 0 138.84175981092267 -501.62684574230661 0 -501.62684574230661 -87.45022041167249 0 0 0 0 238.04766291801934 -698.28225566557376 0 -698.28225566557376 -377.46507550609749 0 0 0 0 51.61866562555133 -16.562814697944514 0 -16.562814697944514 4.6440260121790331 0 0 0 0 1328.44911646115 1904.3558375259208 0 1904.3558375259208 1485.8929252646885 0 0 0 0 -429.1188392588374 -287.08857286255807 0 -287.08857286255807 -205.49809558101697 0 0 0 0 -398.57336614408996 -61.043981997027004 0 -61.043981997027004 -461.6972496908711 0 0 0 0 -307.7812228511757 -403.64413354036515 0 -403.64413354036515 -122.59072391168593 0 0 0 0 189.90566476184722 -368.55954205451508 0 -368.55954205451508 -122.09648736817326 0 0 0 0 103.90728145993489 -426.38675048779987 0 -426.38675048779987 -44.086161436607654 0 0 0 0 294.04799129602907 -369.2677150019008 0 -369.2677150019008 -58.249545057355135 0 0 0 0 679.81287405616604 -553.63839727424056 0 -553.63839727424056 -99.075206134765722 0 0 0 0 263.14872177844518 -346.2705731931128 0 -346.2705731931128 -62.291595223061449 0 0 0 0 154.01185264607602 52.493604433275777 0 52.493604433275777 96.918560115675973 0 0 0 0 211.37952395247271 53.356781728335136 0 53.356781728335136 23.715907919426172 0 0 0 0 132.41287718155399 105.80734940484035 0 105.80734940484035 8.4271350224030357 0 0 0 0 131.87807139388588 30.427316638569209 0 30.427316638569209 82.984504617029415 0 0 0 0 160.98276287446333 5.0549120975938422 0 5.0549120975938422 54.312188043943024 0 0 0 0 194.77582291561521 -18.73145423900587 0 -18.73145423900587 71.033173012001498 0 0 0 0 183.30266422252544 -33.090630738588231 0 -33.090630738588231 57.058181287291518 0 0 0 0 45.505346441056645 -4.36896531310515 0 -4.36896531310515 21.039779175308496 0 0 0 0 151.12361612420455 132.2710198654886 0 132.2710198654886 72.590041629199732 0 0 0 0 64.863150474257054 570.5031014933104 0 570.5031014933104 -1013.5293244206223 0 0 0 0 133.06757487240321 70.570354223486248 0 70.570354223486248 39.596507120655218 0 0 0 0 -438.99515851272008 796.30093089367256 0 796.30093089367256 1569.0773533027132 0 0 0 0 1612.8012266710139 161.22424200508249 0 161.22424200508249 -914.5310787362223 0 0 0 0 1726.8562412559977 -227.85397246546609 0 -227.85397246546609 58.687378053073189 0 0 0 0 1569.5303903019794 887.72704496165898 0 887.72704496165898 459.39594016709452 0 0 0 0 501.36376625053526 -957.16100102718337 0 -957.16100102718337 1296.2479077882431 0 0 0 0 -202.48460961911769 -147.1149434878389 0 -147.1149434878389 397.70453710784204 0 0 0 0 -220.3783160732637 -206.46155284299584 0 -206.46155284299584 394.55190315355139 0 0 0 0 -294.14059474883834 -78.495190747764354 0 -78.495190747764354 613.80364678498881 0 0 0 0 123.78514823528201 75.6267905374593 0 75.6267905374593 43.224872459825704 0 0 0 0 -280.73168971459381 1040.6229571650215 0 1040.6229571650215 -439.91466334799043 0 0 0 0 138.92535498274037 63.287566840641375 0 63.287566840641375 36.457622967514908 0 0 0 0 112.07137663120395 69.59692280756758 0 69.59692280756758 41.180627062611435 0 0 0 0 167.63487949437877 28.482858280629443 0 28.482858280629443 42.481885254313966 0 0 0 0 -383.02033474365362 216.67877158518263 0 216.67877158518263 106.63644949773152 0 0 0 0 134.4542423814637 -82.18497768870111 0 -82.18497768870111 183.24349160689871 0 0 0 0 126.67323095899997 27.985972079117346 0 27.985972079117346 73.796221153487295 0 0 0 0 105.37225627388511 18.908644170788648 0 18.908644170788648 75.787139964643984 0 0 0 0 100.98612964752319 55.639217392605268 0 55.639217392605268 40.751558478252562 0 0 0 0 141.44364940557216 6.5036055005757589 0 6.5036055005757589 62.93334572636013 0 0 0 0 189.70724761490555 -4.6699571010321961 0 -4.6699571010321961 64.459253236286486 0 0 0 0 174.69279965886381 54.692882406582612 0 54.692882406582612 89.961973068582665 0 0 0 0 162.35591245039024 -16.983553397380319 0 -16.983553397380319 145.91639099407621 0 0 0 0 0.22861424605255554 -0.45312536475145748 0 -0.45312536475145748 1.8942310853594435 0 0 0 0 75.498621997553954 38.724006469323399 0 38.724006469323399 37.595446782557701 0 0 0 0 68.62823248725681 -42.308310512439675 0 -42.308310512439675 100.80110749324558 0 0 0 0 87.734846096385013 38.064587312865115 0 38.064587312865115 31.367807931464085 0 0 0 0 17.3250979552937 32.613588683305807 0 32.613588683305807 91.134269455775211 0 0 0 0 64.79780610060331 55.880401659136957 0 55.880401659136957 37.611465240404627 0 0 0 0 -30.543704437308406 105.50387733109164 0 105.50387733109164 73.380459819343741 0 0 0 0 42.145976409757154 82.894850936133025 0 82.894850936133025 45.966826760530239 0 0 0 0 19.261865119998017 20.637693130524575 0 20.637693130524575 11.291964522627858 0 0 0 0 100.16919511056221 63.862781838852243 0 63.862781838852243 52.976504886883049 0 0 0 0 181.75591834028947 -18.327951799921266 0 -18.327951799921266 56.205900082946755 0 0 0 0 199.94878178137469 -45.330209330468278 0 -45.330209330468278 77.428302628191886 0 0 0 0 181.21718386877592 104.54882722219372 0 104.54882722219372 114.31737438525124 0 0 0 0 -78.354029649242875 -3.4465873937906508 0 -3.4465873937906508 37.541942356749701 0 0 0 0 1897.1238843269821 -366.70643421800742 0 -366.70643421800742 -815.93733864891237 0 0 0 0 -91.75062115347464 -7.2333644149127849 0 -7.2333644149127849 126.01032565502915 0 0 0 0 -52.409638230368728 60.706503647335722 0 60.706503647335722 160.63219009495927 0 0 0 0 -361.85961254699168 -22.186416090474566 0 -22.186416090474566 392.91167145266354 0 0 0 0 43.097740910547799 1.9011209811304965 0 1.9011209811304965 13.856124907926565 0 0 0 0 54.389237458834799 46.412869050017576 0 46.412869050017576 38.857744105796407 0 0 0 0 117.68282092020529 13.710694839545795 0 13.710694839545795 5.5832273769108269 0 0 0 0 81.766342952578484 61.733189172997299 0 61.733189172997299 21.834764846866165 0 0 0 0 -93.898926404068334 76.853526448196703 0 76.853526448196703 78.034358678202807 0 0 0 0 6.3083299009995244 120.35635583052277 0 120.35635583052277 -13.893933947501864 0 0 0 0 -96.794768848470994 89.871388554615237 0 89.871388554615237 166.29424798808475 0 0 0 0 54.831106504153169 39.028128508796328 0 39.028128508796328 32.041869697124127 0 0 0 0 3.4244268292895867 205.48568078371807 0 205.48568078371807 10.277912606640712 0 0 0 0 0.39074338498234429 7.8094493496290873 0 7.8094493496290873 12.006381418887088 0 0 0 0 39.849230247410262 96.653019056975609 0 96.653019056975609 102.43892456968388 0 0 0 0 107.09658594431849 30.448509796557119 0 30.448509796557119 124.90057088879439 0 0 0 0 86.066193627256652 0.66083849582355469 0 0.66083849582355469 108.23549911706687 0 0 0 0 113.39715770118573 64.273464482830605 0 64.273464482830605 75.884168725274321 0 0 0 0 125.97928130050968 32.486187322444493 0 32.486187322444493 52.104034834418144 0 0 0 0 55.180858078969322 -38.747717381525035 0 -38.747717381525035 90.705027697595142 0 0 0 0 41.662815660061824 0.59345957619552792 0 0.59345957619552792 52.39417002576738 0 0 0 0 37.487062499583942 -23.959779630853923 0 -23.959779630853923 17.888824778272674 0 0 0 0 74.860546518890089 -28.690672529857693 0 -28.690672529857693 78.118514849135011 0 0 0 0 57.985484962680857 -46.521074110452702 0 -46.521074110452702 56.79203521990479 0 0 0 0 -60.89611399946989 -52.767205199826549 0 -52.767205199826549 11.953582832097709 0 0 0 0 11.06373718960554 -10.932440077934508 0 -10.932440077934508 2.179932594588454 0 0 0 0 -115.82318713063069 -143.82647249859633 0 -143.82647249859633 250.01012158180788 0 0 0 0 526.070561835646 -217.56789490674282 0 -217.56789490674282 -292.12924496171172 0 0 0 0 123.61726459875717 197.96053599802372 0 197.96053599802372 -409.04834432681901 0 0 0 0 106.46507335441262 -0.86437331043876231 0 -0.86437331043876231 0.8462919295157364 0 0 0 0 575.23771146126091 323.65904251618088 0 323.65904251618088 -403.31370769358887 0 0 0 0 212.77176107911146 104.45699550586801 0 104.45699550586801 -615.42715481171138 0 0 0 0 92.125478490534078 143.0929413118109 0 143.0929413118109 -51.476178782022998 0 0 0 0 90.573621681764052 118.78488756151364 0 118.78488756151364 -202.22971780987803 0 0 0 0 37.793185264701606 10.43457266450514 0 10.43457266450514 -17.759904915688821 0 0 0 0 65.728979831284988 12.11019763851214 0 12.11019763851214 5.7079529451658582 0 0 0 0 56.166257860572685 -12.56144926640938 0 -12.56144926640938 19.604652834856545 0 0 0 0 78.501297979694328 8.4697236246207179 0 8.4697236246207179 6.9990281438827848 0 0 0 0 16.029681439304547 17.184786618722814 0 17.184786618722814 -1.8345170603679497 0 0 0 0 2574.7842175209944 2526.3218117973302 0 2526.3218117973302 2551.5682069486179 0 0 0 0 5489.2639307188556 2597.611890470288 0 2597.611890470288 236.39202529859597 0 0 0 0 -344.74633571233881 349.06069891600828 0 349.06069891600828 1082.313466798114 0 0 0 0 199.36027744115199 -822.78464798565835 0 -822.78464798565835 1185.9963630379305 0 0 0 0 44.040971761384355 0.29247535710766792 0 0.29247535710766792 4.7961627974720686 0 0 0 0 2568.8424115414455 -2866.2362749522981 0 -2866.2362749522981 2873.9508395988928 0 0 0 0 5490.4060095816385 -2772.4815870101102 0 -2772.4815870101102 224.18628885711249 0 0 0 0 3822.3266064972104 -1738.5475864557311 0 -1738.5475864557311 -258.4778769014307 0 0 0 0 2510.3457830902662 -2203.8133017295831 0 -2203.8133017295831 1059.4409564554678 0 0 0 0 1174.3137794385129 -490.77037070115421 0 -490.77037070115421 269.01398307965036 0 0 0 0 3142.847220697251 -533.06880060600861 0 -533.06880060600861 -212.51295304976031 0 0 0 0 3942.5308050072854 -1860.7268787024823 0 -1860.7268787024823 -258.79228115184708 0 0 0 0 5500.6980354270818 -1244.656854546718 0 -1244.656854546718 -541.24937391344793 0 0 0 0 45.661616291195969 240.75332389637708 0 240.75332389637708 314.47933159198635 0 0 0 0 255.02919176299474 183.33006837954053 0 183.33006837954053 -64.692900919454814 0 0 0 0 74.242484376503853 263.28359175939369 0 263.28359175939369 144.02063945571791 0 0 0 0 452.75475973335415 -632.8419780789136 0 -632.8419780789136 529.94104454732235 0 0 0 0 84.144048762189414 23.925971810807965 0 23.925971810807965 423.57396413523816 0 0 0 0 1241.7921332292171 -825.3103798467846 0 -825.3103798467846 467.902886444469 0 0 0 0 1281.9619933195463 -43.402701527889349 0 -43.402701527889349 205.9489146078871 0 0 0 0 20.02839463755663 -225.68874990320296 0 -225.68874990320296 505.12323973815501 0 0 0 0 341.61463180902501 286.74661381208387 0 286.74661381208387 464.60360869185547 0 0 0 0 83.933704152179416 -38.79028386892125 0 -38.79028386892125 216.1174236826358 0 0 0 0 28.786814873701459 -15.893259199190078 0 -15.893259199190078 6.8160250587147466 0 0 0 0 -94.433844943298027 16.644909749337501 0 16.644909749337501 266.81767467682249 0 0 0 0 161.31293794269004 -239.51662767175876 0 -239.51662767175876 -113.25683955611055 0 0 0 0 2267.8852241817258 787.50943326524691 0 787.50943326524691 -75.457132964897198 0 0 0 0 13.210973404745232 -5.4621716200662398 0 -5.4621716200662398 3.0088880256988064 0 0 0 0 1175.9185064239537 -1256.8844909213465 0 -1256.8844909213465 1114.4902168726608 0 0 0 0 3948.2764344889256 103.85790513809837 0 103.85790513809837 -611.00293434798607 0 0 0 0 215.98117362679113 125.699605481061 0 125.699605481061 184.96681708231202 0 0 0 0 4072.5753568196524 -895.8770956185964 0 -895.8770956185964 -520.90716793802426 0 0 0 0 3911.7631384441447 -641.79931579915956 0 -641.79931579915956 567.38230692300294 0 0 0 0 3528.4086432471586 -1080.7715987894144 0 -1080.7715987894144 64.734261080149679 0 0 0 0 3815.2852213166698 -117.35156163173394 0 -117.35156163173394 379.80598918115368 0 0 0 0 5498.6711237117961 -406.3432832781433 0 -406.3432832781433 -492.22350402961945 0 0 0 0 4528.7746008044014 299.34795530081078 0 299.34795530081078 -728.26929432928205 0 0 0 0 3836.0190907038523 490.72883949475744 0 490.72883949475744 -778.93144170412438 0 0 0 0 3466.4268659960944 -323.14354772630463 0 -323.14354772630463 -489.48982792164372 0 0 0 0 5499.5044815938854 722.83818820707791 0 722.83818820707791 -1002.0601878711793 0 0 0 0 4178.699358032387 645.12311635773278 0 645.12311635773278 -496.03723507392215 0 0 0 0 1495.7551897397443 -169.24736873751129 0 -169.24736873751129 -363.3592112090555 0 0 0 0 1896.4538840134555 613.57158375295467 0 613.57158375295467 -399.46362469995802 0 0 0 0 -530.69278809256684 -617.41459130567932 0 -617.41459130567932 754.76573209476282 0 0 0 0 -3.1282944038365059 1.0275217264631635 0 1.0275217264631635 -1.9035238353664035 0 0 0 0 1.8352542344582616 36.745999332260453 0 36.745999332260453 89.742605560712491 0 0 0 0 569.40061647627954 -151.09635159618017 0 -151.09635159618017 3.2760250203076566 0 0 0 0 350.95380598076736 -118.64649732475164 0 -118.64649732475164 60.188098405601721 0 0 0 0 345.49438434645504 -299.89741308521496 0 -299.89741308521496 16.852980285920239 0 0 0 0 406.06414799856339 -174.38316299904329 0 -174.38316299904329 -113.24154758490204 0 0 0 0 381.48810482950648 -271.75102212260663 0 -271.75102212260663 36.658355970953608 0 0 0 0 479.7725194389277 -430.30372217970216 0 -430.30372217970216 139.15334522368721 0 0 0 0 97.140908850780761 -246.58670554056823 0 -246.58670554056823 259.37752288177307 0 0 0 0 482.99088218279485 -154.98351131317929 0 -154.98351131317929 -39.354679362110801 0 0 0 0 1253.4009464907576 -373.69025480554956 0 -373.69025480554956 12.529621894864249 0 0 0 0 -415.47889734042838 -431.72090742754835 0 -431.72090742754835 -13.519866147290486 0 0 0 0 -288.93175217905082 141.5597920781272 0 141.5597920781272 190.80385040097644 0 0 0 0 658.1653730816397 664.06190785264243 0 664.06190785264243 479.05843821033613 0 0 0 0 29.714886399143694 24.917943990548928 0 24.917943990548928 17.468844028051716 0 0 0 0 6.6517429488230846 -40.135931024523416 0 -40.135931024523416 12.801343477681257 0 0 0 0 42.012603918435673 18.094153066162136 0 18.094153066162136 11.88232504719609 0 0 0 0 245.0443675479255 -181.00795534023632 0 -181.00795534023632 -20.305205561323874 0 0 0 0 603.32941290081362 225.78068176601823 0 225.78068176601823 -267.70739832188156 0 0 0 0 2.3773905233247206 311.3804947236315 0 311.3804947236315 -175.95879315996751 0 0 0 0 -66.402684788753021 -91.801339325515769 0 -91.801339325515769 97.256919246488906 0 0 0 0 -67.481334296840942 112.78089243757722 0 112.78089243757722 51.861172072948875 0 0 0 0 -3.7945346805508393 8.1781578353609454 0 8.1781578353609454 11.596374202962053 0 0 0 0 68.620367743623746 49.138059476436723 0 49.138059476436723 30.201366636854889 0 0 0 0 192.67484812684415 -76.97783809344125 0 -76.97783809344125 -46.126201987081174 0 0 0 0 181.16824278854983 -149.45332730476972 0 -149.45332730476972 -276.98322975116361 0 0 0 0 3.1065289516856183 20.594608696476655 0 20.594608696476655 22.444261172886947 0 0 0 0 194.89539721969049 -20.493062248663136 0 -20.493062248663136 66.080836720513389 0 0 0 0 22.673863535679402 18.367162319777815 0 18.367162319777815 17.230577969556229 0 0 0 0 -125.31634773321002 -127.38022043567616 0 -127.38022043567616 89.561231315372424 0 0 0 0 60.748399030002474 59.999752184285171 0 59.999752184285171 22.62930728153151 0 0 0 0 162.79684705076284 -187.23886886580567 0 -187.23886886580567 -59.858830872461112 0 0 0 0 -166.15416041594798 157.41357267413559 0 157.41357267413559 8.8155085623766354 0 0 0 0 66.505940158024714 -47.406592950443155 0 -47.406592950443155 65.57515403772959 0 0 0 0 15.034878798934869 14.870534508592755 0 14.870534508592755 32.531997809623135 0 0 0 0 -330.63065401290805 363.59437106570749 0 363.59437106570749 132.23496888053705 0 0 0 0 71.612638055128627 174.55514854934245 0 174.55514854934245 -87.656476840844334 0 0 0 0 961.58168485317583 -314.17845901931992 0 -314.17845901931992 129.55983157891433 0 0 0 0 56.87248179009498 -263.67472248256797 0 -263.67472248256797 311.92391135594426 0 0 0 0 7.7704916631329013 5.8822734747094856 0 5.8822734747094856 5.5408105253346287 0 0 0 0 -799.17451831532526 1121.1677327222617 0 1121.1677327222617 893.14099540489178 0 0 0 0 -502.26183796631085 -324.35534883934861 0 -324.35534883934861 159.00574373549921 0 0 0 0 -148.74421448275098 143.78123741383254 0 143.78123741383254 184.84000073491603 0 0 0 0 1080.8887419402745 286.7683998981106 0 286.7683998981106 155.89385204367545 0 0 0 0 497.43646601380897 -60.931508731447877 0 -60.931508731447877 112.4808922917899 0 0 0 0 393.40369768496021 -208.89907913905358 0 -208.89907913905358 99.272030122011586 0 0 0 0 392.65893987557502 -186.86600449658263 0 -186.86600449658263 -23.128742036429543 0 0 0 0 336.38915093965988 -210.39017630534352 0 -210.39017630534352 10.246912615833139 0 0 0 0 170.39460620834507 -56.90207811555311 0 -56.90207811555311 17.974767073558667 0 0 0 0 339.02845915526268 -211.7187744660541 0 -211.7187744660541 127.01077224093051 0 0 0 0 566.31278833957913 -625.21024549977483 0 -625.21024549977483 354.44761664221369 0 0 0 0 644.52650543912023 -442.67350130608611 0 -442.67350130608611 633.4821566739447 0 0 0 0 763.53252396546122 -110.59337086818459 0 -110.59337086818459 256.07702778567545 0 0 0 0 854.59819420621898 -484.98593324570493 0 -484.98593324570493 246.64674097103125 0 0 0 0 312.66124290357402 -219.71530630275265 0 -219.71530630275265 190.83006931614955 0 0 0 0 565.35415922297398 -632.43298464247891 0 -632.43298464247891 428.4915822664916 0 0 0 0 411.2321369634883 -496.54558499113409 0 -496.54558499113409 544.31680335408328 0 0 0 0 -0.8361369056200374 1.5419373492870818 0 1.5419373492870818 10.116570252061287 0 0 0 0 -236.62836314075685 -3.9486479314409735 0 -3.9486479314409735 10.931162673494327 0 0 0 0 -511.45909150477382 74.302038582385649 0 74.302038582385649 -33.577757032187947 0 0 0 0 -342.30618090483767 81.890860780618823 0 81.890860780618823 -46.567880660873925 0 0 0 0 -399.63255125113574 -137.93507430708655 0 -137.93507430708655 11.781206132687657 0 0 0 0 -269.95599044390838 -138.08476585931248 0 -138.08476585931248 120.77842263718048 0 0 0 0 -335.69998332385876 -0.31157408024523647 0 -0.31157408024523647 70.185366976882506 0 0 0 0 -159.0804968586308 -62.566233356371413 0 -62.566233356371413 87.180890843788347 0 0 0 0 -251.41073207833688 60.083396814485923 0 60.083396814485923 14.184349844377721 0 0 0 0 -111.32301740458934 30.265824746848011 0 30.265824746848011 17.685234719147275 0 0 0 0 -75.089725822985201 -1.4920248570950321 0 -1.4920248570950321 50.923174829807976 0 0 0 0 -193.78321066866192 -37.308834885787746 0 -37.308834885787746 91.730160781895393 0 0 0 0 -98.39708729328413 -49.758233029833946 0 -49.758233029833946 81.069336478873538 0 0 0 0 -97.830269773287 -151.86960946819727 0 -151.86960946819727 122.20671795501855 0 0 0 0 -251.92625111524831 -114.23049547666278 0 -114.23049547666278 124.90595340684922 0 0 0 0 -101.86440406025213 -49.039750224932504 0 -49.039750224932504 82.915723498113607 0 0 0 0 -136.14703993876537 -123.50324842889984 0 -123.50324842889984 107.02273074728237 0 0 0 0 -34.245654164158623 -167.68206654519173 0 -167.68206654519173 79.821204782217364 0 0 0 0 -12.885472867143108 -143.87404722849305 0 -143.87404722849305 100.22745805284194 0 0 0 0 -64.620157881974592 -96.148348249382977 0 -96.148348249382977 74.035472226945899 0 0 0 0 54.264804791135248 -180.44652847840348 0 -180.44652847840348 78.672594747755483 0 0 0 0 -27.127535757637816 -59.57683802558924 0 -59.57683802558924 73.269793578939883 0 0 0 0 -60.177463214036834 -33.418069905246398 0 -33.418069905246398 63.294897725628744 0 0 0 0 -45.348449102864834 -18.542117442855329 0 -18.542117442855329 59.501444290438712 0 0 0 0 2.5405306028108612 -13.491573891966311 0 -13.491573891966311 50.572215863354337 0 0 0 0 3.9779255436151288 -65.529027762519945 0 -65.529027762519945 53.234438090568801 0 0 0 0 1.4755900174995134 2.1152345179703786 0 2.1152345179703786 23.576843585439129 0 0 0 0 -82.33273329185613 -5.3342663367086516 0 -5.3342663367086516 49.077576599146141 0 0 0 0 17.653126441786299 -87.614939560256062 0 -87.614939560256062 566.86195637265519 0 0 0 0 -0.69776630539993789 1.0692400677019691 0 1.0692400677019691 8.352165834641113 0 0 0 0 849.22309637010039 -671.86141781819879 0 -671.86141781819879 474.21797177106419 0 0 0 0 1172.8545957007809 -389.70782765358763 0 -389.70782765358763 132.7332688823808 0 0 0 0 553.6944545925362 -525.32418980379407 0 -525.32418980379407 289.23827654924571 0 0 0 0 3.6932977373747065 -3.6887932940993835 0 -3.6887932940993835 1.4742532713218068 0 0 0 0 354.9572810868267 -33.964749424099864 0 -33.964749424099864 57.545631668112946 0 0 0 0 1083.9246724016848 -565.36757360362753 0 -565.36757360362753 224.47406842911914 0 0 0 0 780.80765168898506 -542.45790000592751 0 -542.45790000592751 270.11365169602686 0 0 0 0 684.69255053883535 -402.47805881125896 0 -402.47805881125896 458.54512238743337 0 0 0 0 1855.7242878203979 -710.46533782396909 0 -710.46533782396909 385.57056882237157 0 0 0 0 1111.9483489438135 -353.51122147299793 0 -353.51122147299793 252.92261114299436 0 0 0 0 994.58376973689883 -421.76329991756575 0 -421.76329991756575 239.71854003924182 0 0 0 0 1456.069624012569 -208.14206863469281 0 -208.14206863469281 91.009547327772452 0 0 0 0 771.27317867716192 -81.497350580071725 0 -81.497350580071725 67.867906514202332 0 0 0 0 959.08532712848682 -347.71871241010376 0 -347.71871241010376 176.07079764297669 0 0 0 0 731.53612404331216 -415.07183185987378 0 -415.07183185987378 240.98422206706846 0 0 0 0 784.91137970493583 -512.34558324106547 0 -512.34558324106547 417.95951374660581 0 0 0 0 789.49569480826904 -560.05635553120737 0 -560.05635553120737 266.22657416359652 0 0 0 0 737.83936179742159 -443.42378628388906 0 -443.42378628388906 202.20634541981781 0 0 0 0 1011.8935244822715 -439.90408052467592 0 -439.90408052467592 243.11082272013664 0 0 0 0 944.11190071291821 423.23626319971277 0 423.23626319971277 195.00141380900459 0 0 0 0 -160.70616194573813 -519.92416246482026 0 -519.92416246482026 -538.96482003843812 0 0 0 0 26.157772279764288 -17.322396152173695 0 -17.322396152173695 11.442650041569919 0 0 0 0 1851.0213440796888 649.61338940171049 0 649.61338940171049 430.8510957970957 0 0 0 0 916.62505213364784 302.09286967751359 0 302.09286967751359 302.11315929024204 0 0 0 0 1108.5129745033228 380.08001004547168 0 380.08001004547168 214.54039069109058 0 0 0 0 762.58056850657158 223.21797954262547 0 223.21797954262547 152.94736233411641 0 0 0 0 785.99175821305198 494.33388200780371 0 494.33388200780371 196.0052461334999 0 0 0 0 544.78147796074336 284.15744460292808 0 284.15744460292808 13.206476440089318 0 0 0 0 721.59591959246609 523.78581945948372 0 523.78581945948372 -73.786014954912389 0 0 0 0 1408.2389246490784 597.66155768208955 0 597.66155768208955 -275.26136807533476 0 0 0 0 788.83831566427398 397.06918646962731 0 397.06918646962731 23.972343757566705 0 0 0 0 294.65328162413789 469.30915258939967 0 469.30915258939967 22.645517564889815 0 0 0 0 710.55475842536543 368.05543153204053 0 368.05543153204053 25.338569370553159 0 0 0 0 872.03393990082986 -30.456057421396054 0 -30.456057421396054 74.355497569766158 0 0 0 0 337.11641648680961 215.00883257372152 0 215.00883257372152 -197.51620800231922 0 0 0 0 -447.82665050569631 654.11645952735853 0 654.11645952735853 -108.64613554883908 0 0 0 0 494.77203215692134 26.14819469900749 0 26.14819469900749 -116.71475930642919 0 0 0 0 7.6845033759532555 4.033644248474431 0 4.033644248474431 -0.47186881007931447 0 0 0 0 2028.72995257195 120.17030525148675 0 120.17030525148675 475.49824762305798 0 0 0 0 -136.44868349177705 1072.6742462123875 0 1072.6742462123875 -302.05069092501071 0 0 0 0 308.63108141385601 431.20693825781927 0 431.20693825781927 -50.812033301157498 0 0 0 0 567.78608626081405 1010.3904922109646 0 1010.3904922109646 -378.49568845258182 0 0 0 0 737.35399534333555 -190.37164790273619 0 -190.37164790273619 103.49098612998569 0 0 0 0 580.44758147277025 -302.48339929769008 0 -302.48339929769008 362.30655644011858 0 0 0 0 642.62391847372055 -226.21960534653408 0 -226.21960534653408 90.339864645129637 0 0 0 0 547.25875855662161 119.82611602400902 0 119.82611602400902 8.3356680974284245 0 0 0 0 384.35574016207829 -149.06264877919421 0 -149.06264877919421 -150.73884524149253 0 0 0 0 492.06807106199267 -16.503153145544275 0 -16.503153145544275 -3.8093059003876988 0 0 0 0 693.58130419417284 -69.374546450493654 0 -69.374546450493654 -197.93421588101046 0 0 0 0 657.36781950994919 -259.41174265393056 0 -259.41174265393056 96.735941423848999 0 0 0 0 635.8275980035105 -18.751177259391625 0 -18.751177259391625 -324.85471298753328 0 0 0 0 522.94780431211984 -8.7306086234511895 0 -8.7306086234511895 -150.05245357139665 0 0 0 0 154.84048696616082 68.871900354668469 0 68.871900354668469 -202.42986151601508 0 0 0 0 545.63214367811088 24.404132206480881 0 24.404132206480881 -418.24595924973619 0 0 0 0 682.36125405540952 13.030829374447421 0 13.030829374447421 -326.87294273037696 0 0 0 0 488.73026948821644 -85.251107538922952 0 -85.251107538922952 -199.10064528560906 0 0 0 0 1840.186098047523 -443.720867698809 0 -443.720867698809 -117.59273865109208 0 0 0 0 174.61514481631639 309.49676597546477 0 309.49676597546477 -545.01999404749222 0 0 0 0 -149.21701589161239 -90.505613441753667 0 -90.505613441753667 -317.08862846879856 0 0 0 0 278.48200072693726 -55.078344943269258 0 -55.078344943269258 -18.31217693427061 0 0 0 0 13.901338794992114 6.9052860015939217 0 6.9052860015939217 -1.7385540873587644 0 0 0 0 1248.4460784662369 187.19350969445804 0 187.19350969445804 -170.84842205361201 0 0 0 0 450.95991287493962 -410.37642844695802 0 -410.37642844695802 105.42986848520286 0 0 0 0 556.84887719848939 53.477477287552801 0 53.477477287552801 -267.35654434754906 0 0 0 0 523.10815781008569 -130.69350788849624 0 -130.69350788849624 -323.76602192742757 0 0 0 0 174.02527015712985 -83.243374648705867 0 -83.243374648705867 1.2465643012528744 0 0 0 0 250.86374340523616 -60.476954800682506 0 -60.476954800682506 -300.04067884566575 0 0 0 0 415.82153564800683 -40.955694672318714 0 -40.955694672318714 -304.81657368736251 0 0 0 0 675.05656523720245 -149.69538178017501 0 -149.69538178017501 -226.89987879854652 0 0 0 0 644.8664232162555 -326.91435790082869 0 -326.91435790082869 387.88060868825414 0 0 0 0 65.8005558642908 19.610062844645654 0 19.610062844645654 -302.1842825173444 0 0 0 0 11.870096374037416 3.9456855111579472 0 3.9456855111579472 -4.7150838019211534 0 0 0 0 91.306264265651407 80.365095359900806 0 80.365095359900806 -258.18358795651511 0 0 0 0 184.51901483700203 -176.12222307669981 0 -176.12222307669981 -343.15055690638292 0 0 0 0 -31.704529375274433 39.080145079427894 0 39.080145079427894 -306.01356966253115 0 0 0 0 162.97452710475045 -88.676842089698766 0 -88.676842089698766 -670.70252143962352 0 0 0 0 920.87098825813155 -1036.4282424379853 0 -1036.4282424379853 313.00185064970719 0 0 0 0 656.93997220882738 184.29370928493154 0 184.29370928493154 -862.91235922709166 0 0 0 0 5.0321053485195932 0.95124850494447344 0 0.95124850494447344 -2.6897897411809453 0 0 0 0 -238.53371639935904 603.84127759106832 0 603.84127759106832 -435.93547335421681 0 0 0 0 1063.830765180559 -847.03911197491834 0 -847.03911197491834 -15.587755378939619 0 0 0 0 856.26523091254057 -233.08659050753522 0 -233.08659050753522 -397.75501238543438 0 0 0 0 165.49022295360919 -74.64651950570169 0 -74.64651950570169 -43.64174137302507 0 0 0 0 -149.04425550912856 -228.41877680680773 0 -228.41877680680773 -47.442497118612664 0 0 0 0 -79.972831224426045 -386.12995477517143 0 -386.12995477517143 -50.233119194131518 0 0 0 0 -3.0847844610980246 -271.0649277296834 0 -271.0649277296834 -53.41922512350061 0 0 0 0 -345.31868383093388 -608.59781532041234 0 -608.59781532041234 -242.71457058360829 0 0 0 0 299.32202085771132 -252.37251539138742 0 -252.37251539138742 -1423.216278250733 0 0 0 0 527.49572854199505 -236.9841722870824 0 -236.9841722870824 -456.62501193921344 0 0 0 0 408.83394309616415 -686.67261153102845 0 -686.67261153102845 -382.68318243062095 0 0 0 0 329.04018481826643 -74.267306035868387 0 -74.267306035868387 -356.79536435382079 0 0 0 0 750.84599780580174 -108.46483154897214 0 -108.46483154897214 -426.56203444220591 0 0 0 0 186.99065922474983 28.372299925928019 0 28.372299925928019 -110.48931245350832 0 0 0 0 624.20104122464545 133.11664962905343 0 133.11664962905343 -569.75080229768082 0 0 0 0 322.59165457742347 -51.507473758110791 0 -51.507473758110791 -405.88035880900679 0 0 0 0 -811.161411849258 225.94891873343295 0 225.94891873343295 -456.57153639144599 0 0 0 0 627.77984776669473 -195.69434912777342 0 -195.69434912777342 -34.262795519605788 0 0 0 0 517.46431521498016 -1.4766374185983295 0 -1.4766374185983295 -86.874082237873154 0 0 0 0 -1168.5855181715524 -123.09257787170918 0 -123.09257787170918 -84.302482320570562 0 0 0 0 1.3788180009253779 0.52967913860831572 0 0.52967913860831572 0.60559362089162505 0 0 0 0 -635.79853630029538 -478.06989653449637 0 -478.06989653449637 -471.89078631117445 0 0 0 0 821.84550969666452 -236.33693969116757 0 -236.33693969116757 134.83502817434419 0 0 0 0 -47.536996636044933 -551.15638027467412 0 -551.15638027467412 21.582074586811359 0 0 0 0 1075.5113412206447 -1134.8802722630699 0 -1134.8802722630699 -127.03607271504006 0 0 0 0 521.74044794334623 -731.25899336225029 0 -731.25899336225029 -768.05160169804731 0 0 0 0 285.38289255998097 -364.38414623525387 0 -364.38414623525387 -359.48659328298891 0 0 0 0 -392.86212036424695 -855.4608907923739 0 -855.4608907923739 -711.22350421398005 0 0 0 0 -39.215098537439189 -68.153416605507118 0 -68.153416605507118 7.9303681734272686 0 0 0 0 -383.94373145306599 -247.45933099841932 0 -247.45933099841932 -547.21694503303661 0 0 0 0 176.16338553187234 -885.5698072766827 0 -885.5698072766827 149.56695810047677 0 0 0 0 -530.95568456365436 -756.57294258820957 0 -756.57294258820957 -286.95918577065459 0 0 0 0 -65.245983072105446 7.0941731255388731 0 7.0941731255388731 94.101212233123078 0 0 0 0 40.422963593596023 -20.841680556034845 0 -20.841680556034845 14.67344621954895 0 0 0 0 -114.68497587589081 -148.62826565262367 0 -148.62826565262367 64.208291411774553 0 0 0 0 -93.782512087134819 8.9029194395716331 0 8.9029194395716331 14.436939671755681 0 0 0 0 369.38025659116101 -352.73807040250358 0 -352.73807040250358 -717.83098074330701 0 0 0 0 -1.8854231100211223 -3.7705740040962326 0 -3.7705740040962326 6.1776713416139089 0 0 0 0 0.13332885034469655 14.538429171690041 0 14.538429171690041 -128.04161516525346 0 0 0 0 -44.069850297772064 136.69685619465963 0 136.69685619465963 -9.4041398640038096 0 0 0 0 381.34951350154006 -337.841430590448 0 -337.841430590448 -837.11093872967149 0 0 0 0 247.55927886965219 300.84950270457193 0 300.84950270457193 -168.87711047837365 0 0 0 0 376.89015628713241 -394.06108030041287 0 -394.06108030041287 -1533.9769610775329 0 0 0 0 36.626315095968607 -22.608258707730201 0 -22.608258707730201 -11.992775611151274 0 0 0 0 -434.47776662717661 -228.37693272204092 0 -228.37693272204092 -18.747365438441193 0 0 0 0 -136.53173804274411 -205.46110171859618 0 -205.46110171859618 -85.605049614125164 0 0 0 0 -135.30467322151526 -126.37411096794312 0 -126.37411096794312 154.66517922456842 0 0 0 0 124.69744755066597 -32.921440264489007 0 -32.921440264489007 8.7477539514084128 0 0 0 0 14.174936091237157 -10.491596465286761 0 -10.491596465286761 13.045952037695592 0 0 0 0 217.28727105393773 13.264589621674531 0 13.264589621674531 25.381438806060032 0 0 0 0 27.760035409606644 -16.531008026076961 0 -16.531008026076961 27.4554106767755 0 0 0 0 601.99013146671496 -69.306306123115064 0 -69.306306123115064 -38.910363048576983 0 0 0 0 538.66408537270036 144.57702245292421 0 144.57702245292421 2.927707119648403 0 0 0 0 670.24624448159011 22.81881317594889 0 22.81881317594889 62.641450039336632 0 0 0 0 160.31375196302542 162.74280270534064 0 162.74280270534064 134.29587189032463 0 0 0 0 305.35831104288809 -177.65117071502755 0 -177.65117071502755 122.75107572795241 0 0 0 0 6.5405879172647019 -3.0975139523997939 0 -3.0975139523997939 1.9628823309111851 0 0 0 0 869.89196223259205 399.24042395309516 0 399.24042395309516 212.58796696312493 0 0 0 0 1171.6397008040221 -442.81916716393243 0 -442.81916716393243 208.43427322487696 0 0 0 0 969.65703000902431 -368.85471880831756 0 -368.85471880831756 45.07919974969991 0 0 0 0 776.94699599521118 1169.798812274279 0 1169.798812274279 -176.40934496439877 0 0 0 0 681.93711909814738 370.64846689791011 0 370.64846689791011 -280.15434266684497 0 0 0 0 1746.9397600951052 236.61506276782529 0 236.61506276782529 -265.89685323255253 0 0 0 0 917.33705328794895 -103.7650409533162 0 -103.7650409533162 -21.458358471252723 0 0 0 0 415.57274144748226 -184.75473435972526 0 -184.75473435972526 39.53092970745729 0 0 0 0 440.54678846988827 -228.87618972689233 0 -228.87618972689233 71.238184248570178 0 0 0 0 386.75940390805772 231.11158816808165 0 231.11158816808165 -110.30270874029884 0 0 0 0 334.56183379620779 239.22470282094218 0 239.22470282094218 -71.570255980463116 0 0 0 0 -187.55235761491349 426.66574419625977 0 426.66574419625977 107.00216954489224 0 0 0 0 291.83664118229353 180.42613305149825 0 180.42613305149825 -100.73932718014839 0 0 0 0 363.88032050896436 206.49789468377276 0 206.49789468377276 -101.48721128854652 0 0 0 0 -3.5685643800376141 -0.97555928664999669 0 -0.97555928664999669 -6.7856519925206129 0 0 0 0 234.01257674209774 140.28719257187913 0 140.28719257187913 -119.09463146986309 0 0 0 0 333.07005760868196 56.822904714214019 0 56.822904714214019 -71.775460322118306 0 0 0 0 316.66898690631933 -22.036488229530732 0 -22.036488229530732 -209.9518775166307 0 0 0 0 281.12696300942196 -73.034951208364831 0 -73.034951208364831 -18.194017080848283 0 0 0 0 377.49457838189846 -234.11131586747433 0 -234.11131586747433 -479.62139604698223 0 0 0 0 331.05579584664906 127.19383281708537 0 127.19383281708537 115.39558053413202 0 0 0 0 388.88860083882173 12.87070632443556 0 12.87070632443556 -202.65466678459779 0 0 0 0 506.42466812714338 -13.082823473576354 0 -13.082823473576354 -394.69628529868351 0 0 0 0 571.62385358125903 107.99539653360625 0 107.99539653360625 -244.7654489197248 0 0 0 0 392.6466265384588 165.49831698155799 0 165.49831698155799 -132.34219399100402 0 0 0 0 641.14647951072038 369.09219700046538 0 369.09219700046538 15.943131057323626 0 0 0 0 719.8834038620098 54.768608947105122 0 54.768608947105122 -241.8943591952775 0 0 0 0 726.61425131528813 230.43697988198619 0 230.43697988198619 -22.646775630844786 0 0 0 0 593.57770485080619 -260.47751581591365 0 -260.47751581591365 36.880381391780247 0 0 0 0 1175.7540506954829 316.23848768052267 0 316.23848768052267 269.17691845917034 0 0 0 0 1072.4802945619449 -310.61638827766001 0 -310.61638827766001 252.23100680199786 0 0 0 0 840.50038726752064 512.96827157374446 0 512.96827157374446 204.07843521481118 0 0 0 0 451.63371257533436 391.2766462237596 0 391.2766462237596 480.46531049207169 0 0 0 0 971.11219985460048 74.176393008483501 0 74.176393008483501 57.166064254975936 0 0 0 0 440.56596109022212 430.74292562300616 0 430.74292562300616 340.31234696874526 0 0 0 0 -324.06152974157885 -415.85441427326259 0 -415.85441427326259 -495.96139641600803 0 0 0 0 21.502361368081125 -14.724335347821665 0 -14.724335347821665 7.7562018498565095 0 0 0 0 -479.3316875397868 -332.71710067816093 0 -332.71710067816093 -304.52629068751048 0 0 0 0 -625.05611211733776 -411.69445901037761 0 -411.69445901037761 -341.66568464396187 0 0 0 0 -443.83629115638905 -453.95760879739464 0 -453.95760879739464 -479.53070571048011 0 0 0 0 -325.72740569207235 -373.21553954869523 0 -373.21553954869523 -439.73381549137412 0 0 0 0 23.246036318293704 -17.5423918932878 0 -17.5423918932878 7.2181817932469556 0 0 0 0 270.93444246245781 -168.22443112435576 0 -168.22443112435576 79.687280030673719 0 0 0 0 345.26513094918482 245.38013884543579 0 245.38013884543579 -56.303113063659112 0 0 0 0 25.333571885449459 -23.080121231086721 0 -23.080121231086721 6.7164269439373925 0 0 0 0 315.36443795869127 356.73268485163135 0 356.73268485163135 28.454889605924109 0 0 0 0 -507.81039061024785 -678.24395461682616 0 -678.24395461682616 -682.23934589180135 0 0 0 0 -510.18518574931659 -493.5092784327062 0 -493.5092784327062 -478.61994896943975 0 0 0 0 -7.4351415143918302 -10.683420240108489 0 -10.683420240108489 13.722464694120099 0 0 0 0 145.86324178205541 201.10328500717605 0 201.10328500717605 54.041456715829554 0 0 0 0 396.22604540073371 316.93148814213419 0 316.93148814213419 8.2632178965286585 0 0 0 0 388.98150916507075 373.23567888480329 0 373.23567888480329 18.455420737285749 0 0 0 0 463.82555474282708 83.137109806521039 0 83.137109806521039 -97.837764693162171 0 0 0 0 491.30093076106277 426.33273650427873 0 426.33273650427873 -50.048122712527402 0 0 0 0 418.36725114649744 458.63997117135295 0 458.63997117135295 80.258922588231144 0 0 0 0 308.34305757399125 370.2520804101332 0 370.2520804101332 102.94044918537111 0 0 0 0 472.89110801159404 215.04242604749743 0 215.04242604749743 -123.35468202286575 0 0 0 0 496.37875008661649 319.57394508278594 0 319.57394508278594 -52.252421012110062 0 0 0 0 491.92312093501096 376.03142690450477 0 376.03142690450477 96.067692428111513 0 0 0 0 465.76160200120648 285.47686112829615 0 285.47686112829615 123.96620032365172 0 0 0 0 324.28908635814878 263.24913936201074 0 263.24913936201074 349.39389387741903 0 0 0 0 393.00704037295509 403.99926480219074 0 403.99926480219074 190.3473584928397 0 0 0 0 158.75106942368438 -204.16424724592252 0 -204.16424724592252 20.176114680394335 0 0 0 0 98.909729064747808 -170.96161350427064 0 -170.96161350427064 -175.43343791970983 0 0 0 0 -116.52694215510564 -215.51090670482517 0 -215.51090670482517 19.752625087002571 0 0 0 0 -87.416539173980709 -211.65776027262473 0 -211.65776027262473 -174.98846721214795 0 0 0 0 -51.555075422637401 -89.759141638010647 0 -89.759141638010647 -552.76707983035885 0 0 0 0 -162.5931454711972 17.298365445363743 0 17.298365445363743 -614.69794914710656 0 0 0 0 -43.211731712246547 -289.74466431022302 0 -289.74466431022302 -331.59857975195337 0 0 0 0 78.0129629980147 -225.90522642415817 0 -225.90522642415817 -441.38847873173654 0 0 0 0 18.074538210632454 -159.38686239367962 0 -159.38686239367962 -117.91416339008356 0 0 0 0 27.326382107126847 -168.67078460251378 0 -168.67078460251378 102.35349274998589 0 0 0 0 216.72070696156152 -175.39144532125829 0 -175.39144532125829 -131.71057840074536 0 0 0 0 290.51428087830391 132.28560069175501 0 132.28560069175501 149.61186553368316 0 0 0 0 271.28252919540478 -72.459303377018529 0 -72.459303377018529 -17.759457870634336 0 0 0 0 142.18875839543034 -208.77046744044856 0 -208.77046744044856 -12.799262309663391 0 0 0 0 348.09888593079882 -162.54695426379226 0 -162.54695426379226 -193.39964576491184 0 0 0 0 305.57857043514377 -541.81492396406247 0 -541.81492396406247 -572.80817582670352 0 0 0 0 102.90688947882154 -330.10403130408577 0 -330.10403130408577 -256.85401651333086 0 0 0 0 416.86408301991469 -35.194654393520977 0 -35.194654393520977 -240.40695128113498 0 0 0 0 374.39686201327277 -101.06517463134696 0 -101.06517463134696 434.29208490949168 0 0 0 0 357.99627880842309 -272.93443407277846 0 -272.93443407277846 256.07635847166785 0 0 0 0 864.7734512459574 -95.182442573443041 0 -95.182442573443041 29.113375737412866 0 0 0 0 242.46531443567073 -94.241952791821859 0 -94.241952791821859 17.362377145733262 0 0 0 0 -32.152497455106641 -139.37606834838334 0 -139.37606834838334 -353.83022338549836 0 0 0 0 292.09157198234607 -451.88368271306422 0 -451.88368271306422 -77.156006082772365 0 0 0 0 10.665319114137674 -303.41328197488838 0 -303.41328197488838 -138.64462380298914 0 0 0 0 262.51181057195134 -69.53513235732494 0 -69.53513235732494 -17.323003549676869 0 0 0 0 131.38209463528528 -539.20639917123549 0 -539.20639917123549 -400.8442007695412 0 0 0 0 120.6475566827794 -5.8395560310473229 0 -5.8395560310473229 169.97805403533948 0 0 0 0 24.636196819294128 -225.59186998281439 0 -225.59186998281439 152.35360721908546 0 0 0 0 182.96748554322403 -180.14492680585681 0 -180.14492680585681 -293.81998479163849 0 0 0 0 219.95605725861242 -133.75917655127705 0 -133.75917655127705 -109.25495316391152 0 0 0 0 200.97651351848253 -20.753189512201288 0 -20.753189512201288 194.63174541435956 0 0 0 0 169.18289306281076 17.710866398811049 0 17.710866398811049 165.5734311653132 0 0 0 0 9.4106431240725215 -133.44424499765501 0 -133.44424499765501 159.22139553072157 0 0 0 0 155.65295616197182 84.788081931420948 0 84.788081931420948 295.2596408254758 0 0 0 0 236.34406646080606 -65.349986059288312 0 -65.349986059288312 131.71972753244108 0 0 0 0 300.40129843138129 336.15025360485652 0 336.15025360485652 174.79705243843409 0 0 0 0 462.01315276073728 171.52495534330956 0 171.52495534330956 219.83052536482728 0 0 0 0 174.74951880669687 91.09430797047969 0 91.09430797047969 501.21216778633607 0 0 0 0 161.07273065319896 -4.336672647144951 0 -4.336672647144951 207.49443234730279 0 0 0 0 286.81858007670962 -27.398022011308967 0 -27.398022011308967 623.95185114091873 0 0 0 0 320.46255386350822 32.937056605406724 0 32.937056605406724 670.49976920641348 0 0 0 0 733.67568153697357 -315.36122105089089 0 -315.36122105089089 517.73973428706813 0 0 0 0 168.07219817141595 374.16915057551114 0 374.16915057551114 449.70654630689091 0 0 0 0 -1.3481579378278354 -1.3960439488025713 0 -1.3960439488025713 7.5427691073883665 0 0 0 0 247.81534613722579 103.85445576629058 0 103.85445576629058 834.7192429305851 0 0 0 0 85.181691188091463 46.633038189319734 0 46.633038189319734 34.840018536643584 0 0 0 0 94.038045665676236 -33.580984697454696 0 -33.580984697454696 0.39525907305596775 0 0 0 0 561.84475001940154 265.06081879222074 0 265.06081879222074 48.416448323843269 0 0 0 0 437.38951419125078 4.6384637495112884 0 4.6384637495112884 -69.253817694307145 0 0 0 0 177.49251556041418 -61.70891543077181 0 -61.70891543077181 -77.7290804388781 0 0 0 0 201.19402502739104 -30.372331401768975 0 -30.372331401768975 -50.984528231543322 0 0 0 0 52.200975084735546 -52.627912471631817 0 -52.627912471631817 -52.983390692991861 0 0 0 0 71.827923842582095 22.638282917303286 0 22.638282917303286 -12.173672501373403 0 0 0 0 -28.045438818175171 11.236284416036824 0 11.236284416036824 14.057453399676888 0 0 0 0 -223.33342510784132 152.8878146371901 0 152.8878146371901 269.55175340984852 0 0 0 0 0.89349648311164742 -5.0159432911522543 0 -5.0159432911522543 11.41238427543775 0 0 0 0 1299.6550322934036 -180.8890675719008 0 -180.8890675719008 148.12007679135741 0 0 0 0 273.80314309320238 -14.314840272679817 0 -14.314840272679817 142.12762914259292 0 0 0 0 880.7384934693182 278.69163617351501 0 278.69163617351501 125.97088826698223 0 0 0 0 296.40172564668319 818.99221727467614 0 818.99221727467614 304.79152235625645 0 0 0 0 1186.0889972065343 -530.56178556477471 0 -530.56178556477471 98.232096502842012 0 0 0 0 -0.090541728586970294 -2.7506366414809662 0 -2.7506366414809662 7.0229080347488626 0 0 0 0 93.897700757901475 78.015091464731313 0 78.015091464731313 426.14017794165738 0 0 0 0 12.904964713927285 2.8361633619048945 0 2.8361633619048945 -0.7943394413702044 0 0 0 0 64.02670053998736 -426.49564465377443 0 -426.49564465377443 126.0902027120901 0 0 0 0 -199.73214071040275 -416.74359721032397 0 -416.74359721032397 263.45349088181774 0 0 0 0 -163.54219809341885 -244.77850497721101 0 -244.77850497721101 123.90642870712372 0 0 0 0 -225.48781779341516 -244.27774737698383 0 -244.27774737698383 179.29059238217451 0 0 0 0 -187.7038134978211 -138.76427769331985 0 -138.76427769331985 106.69939767870801 0 0 0 0 -352.20579547528177 -73.410667458196258 0 -73.410667458196258 76.242244939359807 0 0 0 0 -362.79787552553171 -261.55645834724783 0 -261.55645834724783 147.51038326238086 0 0 0 0 -243.26696614573302 -169.76993214387221 0 -169.76993214387221 -65.107006157961223 0 0 0 0 -444.80120028329839 -337.43908564854064 0 -337.43908564854064 -304.12883234782203 0 0 0 0 -684.28409623640619 -114.1563686537429 0 -114.1563686537429 23.242078075600148 0 0 0 0 -433.29385424898646 -275.01168519071962 0 -275.01168519071962 -95.835686715119664 0 0 0 0 -187.43503753261757 -253.76933515536803 0 -253.76933515536803 -517.44804612084636 0 0 0 0 -343.38864826579083 -423.18024010583849 0 -423.18024010583849 205.67554886464677 0 0 0 0 -413.88505167426774 -66.606693709608408 0 -66.606693709608408 -13.931960419269672 0 0 0 0 6.1007670598337995 -5.3538984116296433 0 -5.3538984116296433 6.2069407754391221 0 0 0 0 -50.387758149212459 -651.96649605330958 0 -651.96649605330958 170.16020845290768 0 0 0 0 1425.2950463803209 925.83134402838823 0 925.83134402838823 734.21638280942625 0 0 0 0 998.50917858994217 -956.4442451543764 0 -956.4442451543764 212.50858078208375 0 0 0 0 2007.6186245693389 76.183978755732824 0 76.183978755732824 254.59031572253843 0 0 0 0 1446.8137751227623 -205.86448211420793 0 -205.86448211420793 489.88054186737827 0 0 0 0 770.08899308129003 -115.12485133575001 0 -115.12485133575001 575.81787461294152 0 0 0 0 1434.4517790859245 -158.15072234723357 0 -158.15072234723357 1472.5729359335237 0 0 0 0 1532.4114462361613 311.3658893257998 0 311.3658893257998 1346.7051670697097 0 0 0 0 710.78450796077232 -352.65363713683018 0 -352.65363713683018 927.75811470602457 0 0 0 0 1145.8827417446882 172.54993461028243 0 172.54993461028243 57.446311175564915 0 0 0 0 1251.7960472264531 -274.14487986038239 0 -274.14487986038239 196.92377961688908 0 0 0 0 1059.3806501087965 -68.004685710477133 0 -68.004685710477133 -20.507866284216107 0 0 0 0 26.194144803856034 -435.79109806654742 0 -435.79109806654742 281.69849615494422 0 0 0 0 1008.067697212944 -381.03175291461957 0 -381.03175291461957 154.27594131973638 0 0 0 0 1757.4524123624724 -558.80741259269143 0 -558.80741259269143 -24.831518763698114 0 0 0 0 407.41544814730878 -887.43414301158373 0 -887.43414301158373 409.91544977473495 0 0 0 0 676.07595616252365 -414.10511414143502 0 -414.10511414143502 15.780017790351849 0 0 0 0 926.39332549985556 -601.96964016050333 0 -601.96964016050333 44.462354966152361 0 0 0 0 431.08365318848519 -667.207115658367 0 -667.207115658367 231.4179032167749 0 0 0 0 463.38193665816289 -475.49604327313409 0 -475.49604327313409 50.447289462910703 0 0 0 0 438.95959963163477 -417.58551114008196 0 -417.58551114008196 20.511888472565261 0 0 0 0 446.92068164451484 -334.30831761081436 0 -334.30831761081436 -74.461483969062101 0 0 0 0 571.10004129249137 -409.42932824811669 0 -409.42932824811669 -45.020000786999844 0 0 0 0 279.19942288176389 -435.30704891224968 0 -435.30704891224968 43.107781349599463 0 0 0 0 833.39839501351526 -206.35211271997423 0 -206.35211271997423 -105.20057541342203 0 0 0 0 638.96169552009087 -129.21610866918468 0 -129.21610866918468 -126.02434608919111 0 0 0 0 367.47599846437151 -159.1556462404165 0 -159.1556462404165 -102.39475037924694 0 0 0 0 421.88841903900902 -169.88130213129008 0 -169.88130213129008 -117.67660590133563 0 0 0 0 304.29301008880429 -162.13203960710143 0 -162.13203960710143 -110.31643229962935 0 0 0 0 247.32719080860261 -58.516561866602615 0 -58.516561866602615 -88.951698125766598 0 0 0 0 323.45154586469289 -310.30379973864262 0 -310.30379973864262 -69.928100891214612 0 0 0 0 332.44886264345405 -330.68679678716529 0 -330.68679678716529 -27.403272311673845 0 0 0 0 290.53311362650129 -246.36984421846705 0 -246.36984421846705 -97.847957088923749 0 0 0 0 409.40551342018534 -278.19418024585656 0 -278.19418024585656 -90.411803281573157 0 0 0 0 304.11939438615809 -277.8823858544863 0 -277.8823858544863 -51.153179232215734 0 0 0 0 234.29306682216702 -295.38491028545604 0 -295.38491028545604 -39.864519108845229 0 0 0 0 232.03511596216413 -298.75642986931393 0 -298.75642986931393 -4.2592010184209812 0 0 0 0 142.82075443147914 -277.88231794111061 0 -277.88231794111061 32.474208708924266 0 0 0 0 142.19631180545548 -284.47333764262459 0 -284.47333764262459 34.70846548896202 0 0 0 0 166.84031149421935 -314.59144344502079 0 -314.59144344502079 36.76499968194139 0 0 0 0 132.49644658039324 -318.81612932379858 0 -318.81612932379858 39.011856076922186 0 0 0 0 127.93408506904962 -324.00281519513862 0 -324.00281519513862 79.450542665662397 0 0 0 0 192.5166988899 -360.70722637800554 0 -360.70722637800554 24.831618069009892 0 0 0 0 230.34149808500661 -379.60994879613645 0 -379.60994879613645 32.604134322659775 0 0 0 0 -28.120830694875622 -299.81557528180792 0 -299.81557528180792 114.23026785190814 0 0 0 0 52.123329828798887 -420.08342922055931 0 -420.08342922055931 152.77864149008747 0 0 0 0 107.48598177236272 -404.48076011072681 0 -404.48076011072681 128.65044242066051 0 0 0 0 111.39465344173368 -491.39215278227994 0 -491.39215278227994 175.40415457977269 0 0 0 0 -46.071663467853796 -296.72820040055103 0 -296.72820040055103 162.40082406798683 0 0 0 0 4.3929397801985033 -314.34844330894475 0 -314.34844330894475 120.62846945705246 0 0 0 0 -145.72188819340954 -232.85550863403591 0 -232.85550863403591 138.3528736104181 0 0 0 0 -10.440150326554431 -235.61665090994074 0 -235.61665090994074 104.69283296285721 0 0 0 0 7.9710917462070938 -237.33834027431828 0 -237.33834027431828 103.42719830557149 0 0 0 0 80.685430798825109 -295.47486632349836 0 -295.47486632349836 64.361774298775742 0 0 0 0 53.943720714727533 -240.85315991950796 0 -240.85315991950796 61.875268299267873 0 0 0 0 83.791002941812621 -242.27390263751067 0 -242.27390263751067 61.537614060485794 0 0 0 0 114.86391988712421 -201.8418231745984 0 -201.8418231745984 49.586007560034432 0 0 0 0 101.87745045144402 -214.37386580057682 0 -214.37386580057682 40.984166551370436 0 0 0 0 52.588323980009591 -191.55079410902533 0 -191.55079410902533 48.398961299105395 0 0 0 0 107.45451291144127 -242.44127563494362 0 -242.44127563494362 36.57374292806935 0 0 0 0 140.11011523842171 -236.92036884716663 0 -236.92036884716663 36.82824752810393 0 0 0 0 152.98820281268854 -224.7967971146868 0 -224.7967971146868 17.633576651431213 0 0 0 0 137.36646009034303 -215.09378087428786 0 -215.09378087428786 38.997455216931485 0 0 0 0 145.35511006275192 -207.90078124620777 0 -207.90078124620777 41.902185974932308 0 0 0 0 141.50821837075637 -207.49870983821529 0 -207.49870983821529 43.20814021287697 0 0 0 0 143.65685800819483 -198.78255059224466 0 -198.78255059224466 61.133462874984616 0 0 0 0 153.90837276773527 -201.64341550324752 0 -201.64341550324752 37.556822784242854 0 0 0 0 131.00295615542564 -152.94715912456195 0 -152.94715912456195 35.111967394384919 0 0 0 0 132.98248679238895 -171.44371287985541 0 -171.44371287985541 109.03398183901663 0 0 0 0 155.46073096204782 -190.749227944214 0 -190.749227944214 55.070545047116866 0 0 0 0 149.96259600215126 -183.60225518196512 0 -183.60225518196512 98.215059613656194 0 0 0 0 160.82611281453865 -156.40467383392843 0 -156.40467383392843 -11.618594166202456 0 0 0 0 180.14869896543678 -134.08094328160041 0 -134.08094328160041 8.2745629674627708 0 0 0 0 160.0927533346985 -168.88977734828768 0 -168.88977734828768 43.259069728540453 0 0 0 0 155.14880147024087 -201.7850807454397 0 -201.7850807454397 17.114449562537629 0 0 0 0 197.63047590799397 -197.41916657168895 0 -197.41916657168895 -13.98558346336813 0 0 0 0 191.10655253581353 -172.30492182316993 0 -172.30492182316993 -4.1698987218605907 0 0 0 0 186.86081291745722 -153.73683845999267 0 -153.73683845999267 -51.100834903732903 0 0 0 0 201.86392456637259 -234.55260274942543 0 -234.55260274942543 -36.759062808156159 0 0 0 0 199.55634426719917 -196.09105963399543 0 -196.09105963399543 -47.989254093312411 0 0 0 0 236.09283078523003 -218.46822421155957 0 -218.46822421155957 -39.411085725840167 0 0 0 0 172.93926092592301 -211.68903333923618 0 -211.68903333923618 22.273246564262081 0 0 0 0 200.45147374324733 -236.07032686123648 0 -236.07032686123648 -0.17967378851835747 0 0 0 0 175.31113073966117 -214.28978510967318 0 -214.28978510967318 -14.559378512416515 0 0 0 0 152.16287609707797 -237.56886978655803 0 -237.56886978655803 20.425610677620853 0 0 0 0 166.65943560615415 -253.13297571464068 0 -253.13297571464068 2.3602938776712108 0 0 0 0 186.57835187180899 -267.71678253398773 0 -267.71678253398773 8.2579807447309577 0 0 0 0 242.25323230912909 -259.23668462385058 0 -259.23668462385058 -23.706915036824284 0 0 0 0 193.5193759471731 -275.13039768320385 0 -275.13039768320385 -14.942893459312472 0 0 0 0 239.53391429676412 -248.75938606056502 0 -248.75938606056502 -63.276469478582385 0 0 0 0 283.93048233425361 -234.59348008178858 0 -234.59348008178858 -65.019933759595915 0 0 0 0 347.09614772636269 -225.78711192370292 0 -225.78711192370292 -105.13568372598138 0 0 0 0 280.98592496963556 -196.43858838397489 0 -196.43858838397489 -118.01022686781562 0 0 0 0 264.75852408436185 -176.89843485384677 0 -176.89843485384677 -102.72571526811407 0 0 0 0 256.64974128006725 -173.59581002146206 0 -173.59581002146206 -101.22767103324986 0 0 0 0 251.5221453421982 -194.12246229766424 0 -194.12246229766424 -64.44808744504553 0 0 0 0 233.98380659364193 -209.26155140824278 0 -209.26155140824278 -77.093701361225612 0 0 0 0 322.69591336603116 -159.32473214085542 0 -159.32473214085542 -141.09881623675301 0 0 0 0 274.91957028199977 -122.46387012952437 0 -122.46387012952437 -154.18598327153541 0 0 0 0 286.25146981317084 -163.80120767674543 0 -163.80120767674543 -118.16767922046893 0 0 0 0 230.84524581735604 -133.92299017903724 0 -133.92299017903724 -143.20393359783066 0 0 0 0 250.59787257685093 -123.75577471985616 0 -123.75577471985616 -139.78060319670564 0 0 0 0 244.91298440949322 -91.887884206368881 0 -91.887884206368881 -177.26646997533135 0 0 0 0 254.32905094884336 -137.35131637834957 0 -137.35131637834957 -161.61266669223278 0 0 0 0 254.38122968931566 -115.15252061918227 0 -115.15252061918227 -126.72928198357113 0 0 0 0 228.15066980401753 -85.994204429081947 0 -85.994204429081947 -141.89244273847999 0 0 0 0 225.33974458110606 -71.532732130083787 0 -71.532732130083787 -118.59129252226558 0 0 0 0 229.09619868543814 -64.790353489891459 0 -64.790353489891459 -131.52988662031566 0 0 0 0 227.75755594647489 -80.100252058606202 0 -80.100252058606202 -158.23395381992714 0 0 0 0 229.75743985502049 -55.783473787971161 0 -55.783473787971161 -172.20607773914253 0 0 0 0 238.57638961411431 -159.58949753798242 0 -159.58949753798242 -77.012425432625605 0 0 0 0 221.30910618553753 -172.18751356259054 0 -172.18751356259054 -75.784142774344218 0 0 0 0 222.37137404736131 -178.99231937799505 0 -178.99231937799505 -35.686030724251395 0 0 0 0 236.31092797289602 -153.43300847331921 0 -153.43300847331921 -93.548610730738801 0 0 0 0 246.42417984228814 -125.1234627190388 0 -125.1234627190388 -138.66346484625592 0 0 0 0 252.28462895307166 -141.36680272259355 0 -141.36680272259355 -94.695083716414956 0 0 0 0 228.35955585655756 -118.59752448906147 0 -118.59752448906147 -109.07239100384868 0 0 0 0 227.87573760671307 -100.45372595108785 0 -100.45372595108785 -86.083937934781716 0 0 0 0 180.4459343883791 -120.3913117914617 0 -120.3913117914617 -51.971622667344491 0 0 0 0 213.8971667305741 -138.62960305170054 0 -138.62960305170054 -42.785445978957796 0 0 0 0 216.23438039014582 -134.53237191591143 0 -134.53237191591143 -69.796424820342963 0 0 0 0 200.84676090291759 -82.216221417535053 0 -82.216221417535053 -65.31003497097845 0 0 0 0 191.46822193018306 -90.363977333344792 0 -90.363977333344792 -31.536316658439318 0 0 0 0 202.22998003082466 -74.773920586250824 0 -74.773920586250824 -94.755456639059048 0 0 0 0 216.15817526938918 -62.654663732121662 0 -62.654663732121662 -104.6358944411586 0 0 0 0 190.23678916395875 -26.405979587438196 0 -26.405979587438196 -97.737660099215645 0 0 0 0 174.36179706439361 -39.688356664797993 0 -39.688356664797993 -2.2701018923507945 0 0 0 0 175.72685408718826 -36.058454037271076 0 -36.058454037271076 -62.000270687239208 0 0 0 0 182.94955815278425 -12.318597618911525 0 -12.318597618911525 -16.774755667749648 0 0 0 0 194.52609746156668 -20.806327612088353 0 -20.806327612088353 -92.399274228420836 0 0 0 0 211.09364713342802 -17.027268197918602 0 -17.027268197918602 -138.49910823090977 0 0 0 0 231.41317166702356 -47.356159196891895 0 -47.356159196891895 -150.69349897762731 0 0 0 0 215.64516278778319 -22.575594297919451 0 -22.575594297919451 -158.51990136143468 0 0 0 0 206.80738403217401 -36.76696362414441 0 -36.76696362414441 -91.345326506887432 0 0 0 0 207.51655784316245 -29.265547757677268 0 -29.265547757677268 -120.87110239215326 0 0 0 0 216.74777871886181 -28.941982813386403 0 -28.941982813386403 -123.99453998069657 0 0 0 0 224.55148194372305 -50.935080257990194 0 -50.935080257990194 -144.03106701142315 0 0 0 0 221.97425520725665 -58.502411092129478 0 -58.502411092129478 -120.18087936606889 0 0 0 0 194.79006710433168 -0.38255705445408239 0 -0.38255705445408239 -98.998882314390357 0 0 0 0 192.02013053721748 43.520955185817002 0 43.520955185817002 -158.21027795600457 0 0 0 0 589.79078025382478 91.518866040015837 0 91.518866040015837 -138.38724654558177 0 0 0 0 -639.78316204965813 -497.31792142049017 0 -497.31792142049017 111.46936341539731 0 0 0 0 -282.6909300708794 -431.95217858624846 0 -431.95217858624846 41.390101644195056 0 0 0 0 636.81889884508564 496.9411302896458 0 496.9411302896458 230.72618898475736 0 0 0 0 232.60969744820613 -217.05112100443284 0 -217.05112100443284 351.93345251973847 0 0 0 0 322.58459316150402 228.63537270297957 0 228.63537270297957 -204.22368022553746 0 0 0 0 8.0177182720019573 -0.28322242271672593 0 -0.28322242271672593 -0.23358842446038519 0 0 0 0 132.5661827258009 -23.604199862425958 0 -23.604199862425958 -7.4409302388548895 0 0 0 0 19.712733317193567 -0.64154308502351753 0 -0.64154308502351753 -0.95053520790742163 0 0 0 0 153.8385307591916 -17.324844647285801 0 -17.324844647285801 -14.349348828937831 0 0 0 0 -379.29655775947322 -213.45388840336227 0 -213.45388840336227 117.44101338320979 0 0 0 0 73.06903096523456 -21.637261778379525 0 -21.637261778379525 46.295655207850359 0 0 0 0 768.09628036816139 527.33040296730496 0 527.33040296730496 -307.38951820835427 0 0 0 0 127.23662172131299 -110.3266877262995 0 -110.3266877262995 30.134388213493366 0 0 0 0 35.48795641567267 -75.226150720307487 0 -75.226150720307487 89.829365327397682 0 0 0 0 109.33706240419997 -68.694259095656889 0 -68.694259095656889 83.882329392115935 0 0 0 0 98.295488137286156 -117.3266724604473 0 -117.3266724604473 131.74176635010372 0 0 0 0 97.177490849084279 -77.851617325276038 0 -77.851617325276038 195.5090488001224 0 0 0 0 122.58147995836953 -184.44127140227806 0 -184.44127140227806 220.93333753656043 0 0 0 0 115.58473269929164 -143.55853883800773 0 -143.55853883800773 85.231545722825103 0 0 0 0 140.53508571983548 -119.43895777006401 0 -119.43895777006401 72.344775106437737 0 0 0 0 91.765931426009047 -83.212253939725997 0 -83.212253939725997 52.492941400876589 0 0 0 0 145.14247760269791 -84.620882931058077 0 -84.620882931058077 25.701254325784248 0 0 0 0 162.18507111305371 -75.185238267849854 0 -75.185238267849854 -34.76461036629189 0 0 0 0 139.9399140668138 -106.37635706761802 0 -106.37635706761802 -4.6645673874663771 0 0 0 0 131.61684149535722 -76.805221829776201 0 -76.805221829776201 36.245687364447804 0 0 0 0 196.37753742572386 441.22846297913384 0 441.22846297913384 -557.12140671144471 0 0 0 0 68.479796556013753 24.538008874896605 0 24.538008874896605 -449.08699616408921 0 0 0 0 111.41428097712696 12.738388436906995 0 12.738388436906995 -17.010319666055508 0 0 0 0 130.18347353602167 31.764920839549973 0 31.764920839549973 196.24557947192898 0 0 0 0 71.836153332376853 -262.3326532063852 0 -262.3326532063852 286.1568780330465 0 0 0 0 617.18894218048081 -497.56213713310353 0 -497.56213713310353 -249.91965997886837 0 0 0 0 817.03170864854474 378.7030500488172 0 378.7030500488172 -282.79843057701328 0 0 0 0 -122.29583638012991 -400.83266486244065 0 -400.83266486244065 -567.88189102928516 0 0 0 0 172.21304325538222 16.612264303218581 0 16.612264303218581 -285.15124917637877 0 0 0 0 399.01221188709314 -207.91126164028765 0 -207.91126164028765 -597.9841053823211 0 0 0 0 32.043391642901469 5.4117297194619027 0 5.4117297194619027 -14.502558422076063 0 0 0 0 -27.312474738479068 -4.2100789064443234 0 -4.2100789064443234 178.58759484024586 0 0 0 0 -58.660538841315429 -27.617169224872896 0 -27.617169224872896 -135.69670589090788 0 0 0 0 -165.71824385763102 -237.62376238338766 0 -237.62376238338766 -104.08296564289503 0 0 0 0 60.235894156008726 -31.326547601581069 0 -31.326547601581069 -1.5163472444669424 0 0 0 0 44.201907709939405 -79.213446222385528 0 -79.213446222385528 13.496146984666666 0 0 0 0 195.70621474580548 -89.912722604689748 0 -89.912722604689748 -78.954040199895189 0 0 0 0 45.039019507428748 -158.31957232761147 0 -158.31957232761147 -101.49776956435585 0 0 0 0 228.257350173124 -118.46011624222228 0 -118.46011624222228 -219.09681686836848 0 0 0 0 174.68574739075848 -183.4724157834371 0 -183.4724157834371 -454.08682453439178 0 0 0 0 179.73146280246146 -107.20299733115644 0 -107.20299733115644 -203.38187528104754 0 0 0 0 192.57931398414075 10.947019691971946 0 10.947019691971946 -228.96889689425916 0 0 0 0 235.10355417185929 -70.546424611835391 0 -70.546424611835391 -277.84751095632237 0 0 0 0 231.20937936543487 -81.328949243233183 0 -81.328949243233183 -190.39123729887797 0 0 0 0 228.91854321209394 -32.508254310733719 0 -32.508254310733719 -221.35606342550454 0 0 0 0 211.70530538886669 -28.272736547685781 0 -28.272736547685781 -148.55966854797589 0 0 0 0 216.61591614046483 -20.100788830022793 0 -20.100788830022793 -157.31616687563837 0 0 0 0 205.66902713724994 -11.462245700582571 0 -11.462245700582571 -161.12103463388485 0 0 0 0 203.07677143640467 -20.504017099588964 0 -20.504017099588964 -152.01062223171175 0 0 0 0 161.06676964032522 -0.47819426599562576 0 -0.47819426599562576 -131.70997964953494 0 0 0 0 118.5902112269157 -24.778484013776005 0 -24.778484013776005 -2.7305231416238431 0 0 0 0 111.91980641160626 -39.9422379003895 0 -39.9422379003895 -3.3151395770037766 0 0 0 0 168.76104441878124 -36.10220401035167 0 -36.10220401035167 -99.988133026485229 0 0 0 0 202.63742432335857 -32.159616903991264 0 -32.159616903991264 -149.6396031796321 0 0 0 0 32.060687136400389 -18.489583881912225 0 -18.489583881912225 -1.691122283070797 0 0 0 0 -53.546508202911355 -99.512561698963964 0 -99.512561698963964 90.513491217050614 0 0 0 0 70.314392282452587 -50.332912526600694 0 -50.332912526600694 9.418486427978408 0 0 0 0 91.902571989179705 -37.160974134862727 0 -37.160974134862727 -7.1201203959705595 0 0 0 0 83.774840264657541 -29.199705089511454 0 -29.199705089511454 -4.1054816853913962 0 0 0 0 -20.259804060623651 -1.7697762863562048 0 -1.7697762863562048 14.933116998206721 0 0 0 0 84.126368993805954 -16.717643642923804 0 -16.717643642923804 -2.804914465831871 0 0 0 0 119.32424632791663 -10.262467943430977 0 -10.262467943430977 -4.7068663598428202 0 0 0 0 203.39881431497997 99.823988307198078 0 99.823988307198078 -100.8330814701676 0 0 0 0 122.61037475720514 -22.276490109187478 0 -22.276490109187478 21.727040246029333 0 0 0 0 132.33495676647678 -5.0807080366088897 0 -5.0807080366088897 -16.368677340235958 0 0 0 0 452.08139060870235 18.986961525397874 0 18.986961525397874 -618.60051971888333 0 0 0 0 108.8887426480801 -16.045840688294973 0 -16.045840688294973 -11.857550576674104 0 0 0 0 154.93943665875122 -7.4538431898399722 0 -7.4538431898399722 -61.166454458815963 0 0 0 0 99.334917785978178 70.357077754175407 0 70.357077754175407 -59.112353434573379 0 0 0 0 137.45629808945887 3.0869427184087215 0 3.0869427184087215 -15.305367771001329 0 0 0 0 46.246327809868376 -7.9472206914353904 0 -7.9472206914353904 -21.77643003761963 0 0 0 0 103.29763534090307 44.385492394780613 0 44.385492394780613 -35.365095124569052 0 0 0 0 103.21286323845561 48.704109305680959 0 48.704109305680959 36.273625348700989 0 0 0 0 2.0371194057005084 -0.25691246112535282 0 -0.25691246112535282 -1.1456971252699635 0 0 0 0 146.98033776995726 96.631966533038394 0 96.631966533038394 -8.8521236592218884 0 0 0 0 -95.62711429677438 63.890318530982768 0 63.890318530982768 -125.36646624757941 0 0 0 0 154.18309671668976 60.979785918883863 0 60.979785918883863 -241.83570835975115 0 0 0 0 582.00591610278934 212.62578670492803 0 212.62578670492803 -188.94214149106847 0 0 0 0 21.669448923910466 -21.756234555292004 0 -21.756234555292004 -3.4939359645647281 0 0 0 0 75.089789995727187 -8.0054023902843028 0 -8.0054023902843028 -11.201201074484743 0 0 0 0 85.707043566522771 23.739042273010455 0 23.739042273010455 -1.4496026648735096 0 0 0 0 74.411349549855004 45.57278092534969 0 45.57278092534969 38.055559553778039 0 0 0 0 24.83324798025842 -12.459940236526762 0 -12.459940236526762 -16.91880513842429 0 0 0 0 95.206347156236006 11.93463770250321 0 11.93463770250321 -11.949271300504051 0 0 0 0 112.55021498876158 9.0357482348024405 0 9.0357482348024405 -16.698644933388437 0 0 0 0 63.144387595661698 -22.080255753044526 0 -22.080255753044526 -20.069109070518174 0 0 0 0 101.48239705381275 43.301969819567375 0 43.301969819567375 20.078590728478389 0 0 0 0 56.118776991046985 -27.181027588482522 0 -27.181027588482522 -14.635072386265346 0 0 0 0 68.357735022742418 24.236066154025139 0 24.236066154025139 39.446614232320826 0 0 0 0 11.608364263559409 -1.4259439559832856 0 -1.4259439559832856 23.020626484271492 0 0 0 0 96.506340110538076 0.44447278579210092 0 0.44447278579210092 5.9694959015796485 0 0 0 0 -0.74338392148365529 -1.9356989633502053 0 -1.9356989633502053 11.576514313562759 0 0 0 0 32.53832032714854 13.907887094215539 0 13.907887094215539 22.474901242054784 0 0 0 0 0.70300192785325066 -2.3601338747888576 0 -2.3601338747888576 0.075270289421117909 0 0 0 0 -13.321446674555773 29.423102995786167 0 29.423102995786167 19.533200679474248 0 0 0 0 286.57703492122528 -68.787207260689684 0 -68.787207260689684 -17.95563730381582 0 0 0 0 42.295188909483841 6.5881736095132055 0 6.5881736095132055 0.092452004002439025 0 0 0 0 89.158198432189238 57.276027748517436 0 57.276027748517436 13.556589275173565 0 0 0 0 90.084231550397817 12.817812782665442 0 12.817812782665442 12.882348740589691 0 0 0 0 81.201296757135424 26.742536026439211 0 26.742536026439211 -7.0800681637085745 0 0 0 0 119.27471222703025 39.871514033612584 0 39.871514033612584 -12.729202491328579 0 0 0 0 128.02605852360284 26.072483733779109 0 26.072483733779109 -52.18410300465348 0 0 0 0 59.983964027818701 -20.338384048397245 0 -20.338384048397245 -21.422019312806619 0 0 0 0 126.04768862808123 38.449396056408204 0 38.449396056408204 -12.459374107881331 0 0 0 0 120.66921041268506 25.231781293234917 0 25.231781293234917 55.947341822545923 0 0 0 0 110.59823494582088 -146.4454185313657 0 -146.4454185313657 -3.3372367548968782 0 0 0 0 27.097142734943191 -67.616944260513492 0 -67.616944260513492 -56.730278472497162 0 0 0 0 123.05927398751373 64.250452812023696 0 64.250452812023696 -1.6424242446223616 0 0 0 0 56.553156235706581 -18.602601516984606 0 -18.602601516984606 -22.581475304980998 0 0 0 0 -12.043913295165112 -11.250440931185153 0 -11.250440931185153 -35.901010406129444 0 0 0 0 -1.2520753229099455 -2.1339698426823901 0 -2.1339698426823901 -0.2353005467075433 0 0 0 0 125.81788188865175 -66.709771110236602 0 -66.709771110236602 17.686978774289003 0 0 0 0 -42.170277138298843 -22.39002235838899 0 -22.39002235838899 10.597358925184039 0 0 0 0 6.8172567909641657 -124.28069590602377 0 -124.28069590602377 -83.409068276100697 0 0 0 0 3.953441962134093 -61.747642047628688 0 -61.747642047628688 -146.91925166141641 0 0 0 0 -101.53604687089683 -57.01194126545613 0 -57.01194126545613 -50.759158990614026 0 0 0 0 -11.059186899859924 -103.357794519344 0 -103.357794519344 -35.544662401791584 0 0 0 0 -87.52903863240499 -127.37869334607615 0 -127.37869334607615 -12.048263489630472 0 0 0 0 -45.123127601749729 -77.829912134547953 0 -77.829912134547953 15.212851949378091 0 0 0 0 28.505653804517351 -39.212108853881546 0 -39.212108853881546 7.4175824043011289 0 0 0 0 -10.611788504960714 -116.51985555870021 0 -116.51985555870021 -11.247683325696698 0 0 0 0 -32.622142448206432 -101.05918404387216 0 -101.05918404387216 -16.590559340341315 0 0 0 0 94.535155314602889 -0.26469055643383399 0 -0.26469055643383399 10.775143245782942 0 0 0 0 6.5742935759626562 35.894043950055675 0 35.894043950055675 126.09214484189988 0 0 0 0 -24.183413252758328 -8.2893808569137946 0 -8.2893808569137946 165.40831840920725 0 0 0 0 -17.637901643582154 -51.198766549528955 0 -51.198766549528955 72.200250141066135 0 0 0 0 -21.020869298276011 -21.424363866773476 0 -21.424363866773476 130.58180125117178 0 0 0 0 12.263043409271631 -17.280412226490625 0 -17.280412226490625 123.53936947666261 0 0 0 0 23.855098704487318 -79.561715228217963 0 -79.561715228217963 261.6648783463138 0 0 0 0 292.52662489021895 -164.03008770210522 0 -164.03008770210522 152.25416879755448 0 0 0 0 248.5450028879859 -99.489668480725754 0 -99.489668480725754 66.548082211120345 0 0 0 0 408.96364482000354 -2.2959366323475479 0 -2.2959366323475479 -33.738397330962584 0 0 0 0 95.968562574895259 133.32314586783431 0 133.32314586783431 206.54261964158559 0 0 0 0 552.26134794496465 -240.3364621594751 0 -240.3364621594751 156.81895130037356 0 0 0 0 761.23974102108332 -91.458700612539246 0 -91.458700612539246 33.05190974535526 0 0 0 0 380.85974606947275 8.9613934344097288 0 8.9613934344097288 25.274775337863503 0 0 0 0 259.65201839414658 23.456851236232978 0 23.456851236232978 -38.166133113034846 0 0 0 0 254.56807365837449 -75.481206726882476 0 -75.481206726882476 -61.088602330677418 0 0 0 0 123.13523004433955 -66.085552767503202 0 -66.085552767503202 57.650679550065874 0 0 0 0 -88.545493164332584 6.1607231588852187 0 6.1607231588852187 -76.119474395052862 0 0 0 0 188.3014262841898 -28.055297739611319 0 -28.055297739611319 -77.118258779141172 0 0 0 0 351.69765311884748 43.783938082878791 0 43.783938082878791 -87.323583687760447 0 0 0 0 226.94033865828533 -80.127082885995833 0 -80.127082885995833 -14.311561329242295 0 0 0 0 206.05320687207859 -77.748782826330853 0 -77.748782826330853 5.8140427833682224 0 0 0 0 244.27007347334438 -40.94670513110384 0 -40.94670513110384 2.5222927024128694 0 0 0 0 218.21649698361944 -79.536133919244008 0 -79.536133919244008 -212.30269960785631 0 0 0 0 247.71130905259633 -103.9373896998286 0 -103.9373896998286 20.353854459995318 0 0 0 0 102.41564649314387 -63.831644001849213 0 -63.831644001849213 43.942858607567622 0 0 0 0 -0.61205344932562866 -1.5249289321998987 0 -1.5249289321998987 1.4693600100528466 0 0 0 0 -61.022138486237964 37.248425426937956 0 37.248425426937956 21.966450327994266 0 0 0 0 -55.571094410028309 81.537539644284607 0 81.537539644284607 85.869882025496736 0 0 0 0 -10.218195237466716 -201.42217462817362 0 -201.42217462817362 -175.9010342476879 0 0 0 0 -60.30295075615868 51.879871421363987 0 51.879871421363987 26.954359994135075 0 0 0 0 -1.5018737339861445 -2.1101462395206454 0 -2.1101462395206454 2.15938958600203 0 0 0 0 35.799411783838877 -14.705227779908455 0 -14.705227779908455 -16.198392061374989 0 0 0 0 -99.628170834854245 -19.811866415688428 0 -19.811866415688428 7.2445163776319532 0 0 0 0 -76.953752077359241 43.877635572474901 0 43.877635572474901 25.274558626150792 0 0 0 0 69.942303405987332 36.815920899993216 0 36.815920899993216 41.532454468100241 0 0 0 0 49.156500279153875 35.14447231184343 0 35.14447231184343 47.465501703572045 0 0 0 0 11.253029794957683 -12.421816140289764 0 -12.421816140289764 13.147991383231782 0 0 0 0 49.417444170976523 58.70350757705296 0 58.70350757705296 57.752028360922623 0 0 0 0 85.957741467078449 60.465789576120187 0 60.465789576120187 41.389472621085588 0 0 0 0 66.152421873150161 44.698290122839012 0 44.698290122839012 30.48576446003517 0 0 0 0 98.58965395152336 33.464792700952557 0 33.464792700952557 22.438489147757537 0 0 0 0 123.84602141406504 46.893870338590887 0 46.893870338590887 28.15686972013691 0 0 0 0 7.0151185462435137 -6.6295639441673586 0 -6.6295639441673586 5.8476001884831117 0 0 0 0 147.33806759095751 -15.806425770273336 0 -15.806425770273336 107.5683195511433 0 0 0 0 159.45165491467924 0.94225903943470257 0 0.94225903943470257 75.772635303130755 0 0 0 0 308.58701505057979 -44.116858199369744 0 -44.116858199369744 56.953852439634375 0 0 0 0 184.89552830904722 -20.146633590308852 0 -20.146633590308852 52.325585667383166 0 0 0 0 -23.102883244369878 -14.882976033999853 0 -14.882976033999853 31.341006251119552 0 0 0 0 134.47846067854334 59.04848804445183 0 59.04848804445183 12.560004347436461 0 0 0 0 112.64814620364632 -214.78892660974248 0 -214.78892660974248 319.29782271846852 0 0 0 0 123.18088620468916 -311.81374442387471 0 -311.81374442387471 737.42954155367897 0 0 0 0 642.90345186447666 -453.38953331360108 0 -453.38953331360108 -127.16192927613793 0 0 0 0 5.7666408000184219 0.773024623812546 0 0.773024623812546 0.70134731762107982 0 0 0 0 3.4946132554951532 -1.7376839055814912 0 -1.7376839055814912 1.654847520515121 0 0 0 0 64.878660055139335 20.176834118705074 0 20.176834118705074 21.701036741513235 0 0 0 0 90.580478153773583 -37.015452626366312 0 -37.015452626366312 138.78544804568492 0 0 0 0 228.74255679349881 -261.74748754828147 0 -261.74748754828147 324.28517376483205 0 0 0 0 261.20164275211573 -140.75732497676518 0 -140.75732497676518 137.30085176976945 0 0 0 0 231.1638841607346 -195.36057778949146 0 -195.36057778949146 47.384978584268993 0 0 0 0 286.66457511496992 -341.46242324535922 0 -341.46242324535922 19.616467431425463 0 0 0 0 178.21162379511225 -214.39405259607986 0 -214.39405259607986 138.97337409786633 0 0 0 0 578.55019923319924 -374.40003643383443 0 -374.40003643383443 192.16893721963015 0 0 0 0 129.87979634082876 -40.647272685992448 0 -40.647272685992448 -308.23825547709339 0 0 0 0 250.8749479217513 -57.11833990627656 0 -57.11833990627656 -395.07426371865927 0 0 0 0 272.98591632435273 -222.5996897643256 0 -222.5996897643256 -279.22573282401595 0 0 0 0 174.5141163100634 -230.23049722362589 0 -230.23049722362589 12.532674117810075 0 0 0 0 299.42272776251775 -218.22477744278422 0 -218.22477744278422 -114.34616515340656 0 0 0 0 162.1659872327582 -90.137555679426669 0 -90.137555679426669 -65.657095762159429 0 0 0 0 289.25687090074643 -145.41749664859822 0 -145.41749664859822 -22.156182800922579 0 0 0 0 256.42413268593373 -168.53908238104088 0 -168.53908238104088 -21.327475282629621 0 0 0 0 302.28257521560045 -271.64564993910807 0 -271.64564993910807 33.657438445739444 0 0 0 0 396.41758016732638 -212.858460595932 0 -212.858460595932 48.40768366290115 0 0 0 0 425.04502951281029 -224.07054368192325 0 -224.07054368192325 14.733191528882344 0 0 0 0 661.76043433352606 -186.09903095933259 0 -186.09903095933259 12.421791147225122 0 0 0 0 386.92131977574172 -235.63362140930144 0 -235.63362140930144 167.42849241191834 0 0 0 0 392.50177174073178 -223.70602483195671 0 -223.70602483195671 -33.646998793875355 0 0 0 0 276.09915221366191 -1171.3588108375197 0 -1171.3588108375197 253.41441986635073 0 0 0 0 937.47447053866927 34.539227262547683 0 34.539227262547683 -630.53856428280687 0 0 0 0 554.11872996564489 -274.28094248195339 0 -274.28094248195339 -520.00192102629762 0 0 0 0 736.94537925056648 45.934548120403633 0 45.934548120403633 -185.82703345060008 0 0 0 0 420.22180113790091 -106.40051258018138 0 -106.40051258018138 -50.85514787513182 0 0 0 0 615.43076948920498 -153.13946531076976 0 -153.13946531076976 -458.08059808478583 0 0 0 0 199.5212580594889 -224.96358832950983 0 -224.96358832950983 5.9662504719954086 0 0 0 0 -113.24387186551758 1077.8681678777691 0 1077.8681678777691 1494.8310173893938 0 0 0 0 254.17687792982906 -320.966268876615 0 -320.966268876615 -275.9811687088245 0 0 0 0 233.79361854046874 470.04461045126334 0 470.04461045126334 -592.33401697314378 0 0 0 0 103.52121778506262 -70.498174622398437 0 -70.498174622398437 183.78099983154789 0 0 0 0 99.337411743683845 -29.863537448148499 0 -29.863537448148499 -11.293941190968622 0 0 0 0 149.6765497297456 -91.005945916855808 0 -91.005945916855808 -406.42118581758507 0 0 0 0 -4.4218063240330707 -1.5855817132320311 0 -1.5855817132320311 2.9238028700585756 0 0 0 0 -123.45964378377539 -74.815053909832272 0 -74.815053909832272 32.104845656773136 0 0 0 0 -220.51083446276607 -76.202181448918623 0 -76.202181448918623 142.4201795080694 0 0 0 0 -174.08937204585527 -123.23462160005437 0 -123.23462160005437 54.349379896418213 0 0 0 0 -144.06377495185006 -124.46957090764704 0 -124.46957090764704 30.149098913060357 0 0 0 0 -98.218963258925214 -81.616642013854204 0 -81.616642013854204 21.871856754409919 0 0 0 0 79.794482809607871 112.04175130211752 0 112.04175130211752 128.91353286542108 0 0 0 0 186.04343139880802 15.790902981924773 0 15.790902981924773 62.395491628318268 0 0 0 0 424.93929372919956 18.441743361772524 0 18.441743361772524 -46.253926327750378 0 0 0 0 427.57674996869173 225.94103872349797 0 225.94103872349797 -60.251357507084322 0 0 0 0 452.77570800646936 -5.29080034576657 0 -5.29080034576657 -39.556239487788844 0 0 0 0 1130.119759355206 -31.31735884038244 0 -31.31735884038244 -68.57151636137587 0 0 0 0 802.70030440273695 -101.77861591109559 0 -101.77861591109559 -23.195024660092713 0 0 0 0 1074.2256024855888 252.33443356305315 0 252.33443356305315 -8.5854459378342654 0 0 0 0 -0.82922444982102661 -1.3300566093440978 0 -1.3300566093440978 2.466056043693754 0 0 0 0 754.58264691010118 221.76465181195408 0 221.76465181195408 -63.059833043194317 0 0 0 0 464.76228794874623 391.87257285257874 0 391.87257285257874 -27.778543985994474 0 0 0 0 107.82011204317678 -75.858809890990869 0 -75.858809890990869 505.61603384799525 0 0 0 0 151.91666338621872 235.52966071099331 0 235.52966071099331 435.34016507708384 0 0 0 0 789.13056526632863 -355.47983578933054 0 -355.47983578933054 178.76265858116403 0 0 0 0 -65.269566221628338 -9.512851713908276 0 -9.512851713908276 27.001617520256701 0 0 0 0 -185.14643789490219 -22.112336357517506 0 -22.112336357517506 279.78591835011775 0 0 0 0 131.61631094121549 151.38852466378734 0 151.38852466378734 150.16824283160076 0 0 0 0 -164.63359759951709 -59.214551382776335 0 -59.214551382776335 144.85840409899083 0 0 0 0 659.38405138836242 266.11441648062828 0 266.11441648062828 -629.97851841152055 0 0 0 0 -8.735062658903189 -424.25699438703441 0 -424.25699438703441 191.71568650281387 0 0 0 0 172.3611997384578 -145.21265830342236 0 -145.21265830342236 -19.319294519336836 0 0 0 0 -199.43056938180234 -89.790599728674351 0 -89.790599728674351 102.09313900434063 0 0 0 0 123.52260554501765 -29.640571811497004 0 -29.640571811497004 -19.316072212553717 0 0 0 0 10.846332548274802 -2.2803628178594622 0 -2.2803628178594622 -1.0820398605350241 0 0 0 0 -350.59986384119838 -121.65390438895975 0 -121.65390438895975 195.35228682948537 0 0 0 0 105.94886982510798 15.441338747409191 0 15.441338747409191 181.3329276781169 0 0 0 0 -256.44265105121303 -5.6203908587049227 0 -5.6203908587049227 218.20424193896588 0 0 0 0 314.46231589076342 96.873388133538356 0 96.873388133538356 -141.07824014463222 0 0 0 0 -284.04599386412883 331.63135281540872 0 331.63135281540872 -227.73913439134594 0 0 0 0 -584.56013873836491 -54.661628383958487 0 -54.661628383958487 100.71722940550399 0 0 0 0 756.07484288775595 162.69560587968721 0 162.69560587968721 389.45928728289618 0 0 0 0 1015.3958176551096 318.75900100397484 0 318.75900100397484 -481.23635014200408 0 0 0 0 581.05089715548092 -220.05872257388455 0 -220.05872257388455 84.616743334800049 0 0 0 0 -110.34048207604792 -210.56988080455039 0 -210.56988080455039 -154.88031753389112 0 0 0 0 22.429069063749125 -2.3131628919416798 0 -2.3131628919416798 -1.5316574313969227 0 0 0 0 473.49069661844987 374.63692597469435 0 374.63692597469435 4.09941149061342 0 0 0 0 -409.95288388952031 -275.13370170395012 0 -275.13370170395012 10.82383994079737 0 0 0 0 -205.0946384552517 -163.27125017748858 0 -163.27125017748858 72.256352550951988 0 0 0 0 -224.83279859879985 -191.40408451103372 0 -191.40408451103372 32.235043151302307 0 0 0 0 -137.31121256275219 -200.82667821512268 0 -200.82667821512268 -61.784916789324143 0 0 0 0 19.872730983130168 -101.17013115657016 0 -101.17013115657016 -72.010761795139842 0 0 0 0 279.16818850948766 99.970143877639202 0 99.970143877639202 -76.714991606769217 0 0 0 0 -451.37810716979584 -535.91077225686672 0 -535.91077225686672 258.02839994654687 0 0 0 0 134.42024076875367 -24.433926596863294 0 -24.433926596863294 -16.569146580216273 0 0 0 0 146.56296335917432 146.55568014705568 0 146.55568014705568 92.382364067061189 0 0 0 0 410.69351857790025 160.58230919490052 0 160.58230919490052 93.120671045284098 0 0 0 0 169.57034016391844 -58.580777888098964 0 -58.580777888098964 70.368375074223877 0 0 0 0 339.49959625581687 -276.47526414751428 0 -276.47526414751428 217.51173166710032 0 0 0 0 171.37413511100749 -30.416803580142187 0 -30.416803580142187 509.11395833355164 0 0 0 0 213.0715702624002 -210.8019679995632 0 -210.8019679995632 109.92518344129167 0 0 0 0 9.206708542566048 66.66833080691049 0 66.66833080691049 232.81917174958085 0 0 0 0 -4.4352179579957181 7.0385709256712232 0 7.0385709256712232 12.189839434427309 0 0 0 0 110.00585804200819 -237.24115038798891 0 -237.24115038798891 308.17744168792251 0 0 0 0 445.77377989606248 -65.71430729134363 0 -65.71430729134363 48.243083438121175 0 0 0 0 430.0108630394825 -182.83761321551208 0 -182.83761321551208 103.60547635351759 0 0 0 0 187.56425923417555 -237.01642039503167 0 -237.01642039503167 10.660584049703175 0 0 0 0 46.908475419797469 -186.78354205739015 0 -186.78354205739015 103.68491341690282 0 0 0 0 127.23466021902277 -219.75107761649997 0 -219.75107761649997 163.19782039953134 0 0 0 0 104.2799065936706 -95.844520648228354 0 -95.844520648228354 54.756037232589733 0 0 0 0 82.598784623929532 -133.9235918526756 0 -133.9235918526756 139.58162605889447 0 0 0 0 41.271301076048985 -70.334919354919293 0 -70.334919354919293 138.65919688237693 0 0 0 0 87.784967274055816 -148.65405719611954 0 -148.65405719611954 52.087610050484955 0 0 0 0 101.31210678899151 -45.866761208496655 0 -45.866761208496655 141.68320297765604 0 0 0 0 89.25987029686803 -87.768721366252066 0 -87.768721366252066 86.666336966671224 0 0 0 0 27.910369712684769 -109.33225497114108 0 -109.33225497114108 154.99720372183765 0 0 0 0 44.073294276793604 -136.90341545802403 0 -136.90341545802403 197.38714667441263 0 0 0 0 -9.2969079428548866 -131.40918364397731 0 -131.40918364397731 -19.357792947679627 0 0 0 0 4.2352190631282269 27.49145433290434 0 27.49145433290434 47.220830993119549 0 0 0 0 -107.04030972405235 294.5509309137741 0 294.5509309137741 82.05295140636008 0 0 0 0 -38.199952040798962 -99.04290680037866 0 -99.04290680037866 129.04873586999645 0 0 0 0 0.63267335892703613 14.910335228787588 0 14.910335228787588 45.536862539849295 0 0 0 0 -106.42405981103002 27.639608658085308 0 27.639608658085308 88.291198530709153 0 0 0 0 -52.458250674331794 -46.69661554302229 0 -46.69661554302229 107.15752736306422 0 0 0 0 61.022419904191338 -35.014232786858429 0 -35.014232786858429 106.82091726628096 0 0 0 0 87.265593774827721 -126.26896079486187 0 -126.26896079486187 113.50501633765452 0 0 0 0 3.3700814893410325 2.9904674799795998 0 2.9904674799795998 -0.26658768529483723 0 0 0 0 169.22566768372781 -24.739543377216251 0 -24.739543377216251 268.95971266809556 0 0 0 0 11.978788377768069 -16.259210107523359 0 -16.259210107523359 44.476730314299857 0 0 0 0 -12.1161630298011 -54.367071085860971 0 -54.367071085860971 54.940576624374899 0 0 0 0 6.2864488388877362 -43.438401600536508 0 -43.438401600536508 45.325624969472756 0 0 0 0 1.7927060647200079 -16.244920887813947 0 -16.244920887813947 60.640633213469023 0 0 0 0 -2.9728001810399292 -79.370721420911707 0 -79.370721420911707 52.633489619006468 0 0 0 0 41.526668694015825 -106.74091916971656 0 -106.74091916971656 62.223895490901782 0 0 0 0 81.640142751479289 -150.70120579141349 0 -150.70120579141349 38.703708518006579 0 0 0 0 16.829078285467403 -146.70817448339517 0 -146.70817448339517 61.946503410684272 0 0 0 0 144.58052808360662 -165.33402148910136 0 -165.33402148910136 41.849977397698694 0 0 0 0 95.066303352155956 -84.501023472019369 0 -84.501023472019369 18.538398012053221 0 0 0 0 69.675392284989357 -93.899849316776454 0 -93.899849316776454 49.501024966198543 0 0 0 0 249.39761322594131 -130.84711897675243 0 -130.84711897675243 25.581831324263476 0 0 0 0 132.90179669178178 -169.13823959573017 0 -169.13823959573017 45.887137749296016 0 0 0 0 190.06767363005201 -186.58428297111095 0 -186.58428297111095 50.903606684405531 0 0 0 0 222.67665990666683 -153.46917148383864 0 -153.46917148383864 97.300160961971415 0 0 0 0 175.93602242301858 -172.85060064920617 0 -172.85060064920617 92.467060091377789 0 0 0 0 9.0257859691919293 -8.9299324531957609 0 -8.9299324531957609 40.703445304665365 0 0 0 0 129.69632643583464 3.7918290041816363 0 3.7918290041816363 33.699820499847647 0 0 0 0 2.2499219275074154 -5.7894543238046907 0 -5.7894543238046907 9.0591364103047631 0 0 0 0 2471.1661403622529 -1184.493946955587 0 -1184.493946955587 402.79987480762975 0 0 0 0 8.8635305888515745 -0.80066830711247405 0 -0.80066830711247405 -7.6957805599390454 0 0 0 0 437.54076322198671 -172.60985097017647 0 -172.60985097017647 -427.7907165971418 0 0 0 0 372.99369417534035 -164.68613118610824 0 -164.68613118610824 59.744520044564524 0 0 0 0 54.556857337345718 -33.57137185039619 0 -33.57137185039619 -326.3952701748276 0 0 0 0 3533.6966482546995 747.25759025509069 0 747.25759025509069 289.51955522032677 0 0 0 0 -290.53291939880364 -763.52668116798714 0 -763.52668116798714 -225.94946402678761 0 0 0 0 2604.7262643213617 -619.79966983067789 0 -619.79966983067789 -386.65196021480187 0 0 0 0 9.702602867682117 -6.2410770938568021 0 -6.2410770938568021 4.8073362720966344 0 0 0 0 2162.4964240236513 -819.79042830468643 0 -819.79042830468643 734.41440756943121 0 0 0 0 1264.3248783687595 -252.23836433122415 0 -252.23836433122415 514.56472675783652 0 0 0 0 1099.5346501433523 -24.764835471014521 0 -24.764835471014521 824.07569453990186 0 0 0 0 728.58725515281549 -400.61321262036836 0 -400.61321262036836 1.2500914328647923 0 0 0 0 1050.3912620974734 -518.00819500597845 0 -518.00819500597845 272.31242691168882 0 0 0 0 1091.1509313930292 -94.558902972532451 0 -94.558902972532451 362.67522637033812 0 0 0 0 704.83831545691646 114.97913988293976 0 114.97913988293976 109.22255559942762 0 0 0 0 733.26166677296715 -500.93369107884882 0 -500.93369107884882 94.962518750902746 0 0 0 0 1289.6062964935409 -239.62965377818182 0 -239.62965377818182 180.40350295369171 0 0 0 0 1779.5722797232156 -74.388711761015657 0 -74.388711761015657 3.0944623889708964 0 0 0 0 925.994202331829 -371.88125571539149 0 -371.88125571539149 471.22913671682727 0 0 0 0 1677.7311691543146 -452.32098171690313 0 -452.32098171690313 274.99017385236493 0 0 0 0 444.10088567015191 300.74127314739371 0 300.74127314739371 364.72923163630014 0 0 0 0 217.78355583838129 -301.31766251130375 0 -301.31766251130375 286.0682118533332 0 0 0 0 3.2844257438133582 2.0858306462884002 0 2.0858306462884002 -0.5840141025295793 0 0 0 0 78.047482468624366 378.89317241107346 0 378.89317241107346 -23.777826850883891 0 0 0 0 674.34815478703968 -420.56816523799341 0 -420.56816523799341 57.323855364552401 0 0 0 0 634.17848078990937 -348.80546106616612 0 -348.80546106616612 343.62662236332471 0 0 0 0 1272.2330948396557 -667.81912144756734 0 -667.81912144756734 364.84459038898422 0 0 0 0 1272.2214140528522 -725.9436418422174 0 -725.9436418422174 199.0361492882713 0 0 0 0 1023.575561763515 -773.7576312992428 0 -773.7576312992428 603.06834467423505 0 0 0 0 13.290547103794211 -0.032400041219574405 0 -0.032400041219574405 -11.198443886918835 0 0 0 0 898.23346493167628 -444.55733359407986 0 -444.55733359407986 140.28159478576003 0 0 0 0 1262.3278171416623 -595.15794325722118 0 -595.15794325722118 -162.28633192296093 0 0 0 0 1845.7394631154966 -1335.1189265973831 0 -1335.1189265973831 92.5206170067122 0 0 0 0 975.25546811708773 -1407.0192836177259 0 -1407.0192836177259 1597.4797486288867 0 0 0 0 352.62197772102081 -447.67537145713555 0 -447.67537145713555 221.61988366313366 0 0 0 0 -100.40399817627622 -45.632610157223439 0 -45.632610157223439 72.545250942716848 0 0 0 0 479.97427267619059 647.33785725499047 0 647.33785725499047 -69.141069430972891 0 0 0 0 29.48250829172764 1.4109214776745986 0 1.4109214776745986 -0.78897627788208136 0 0 0 0 106.08709105619346 -142.01066823772345 0 -142.01066823772345 161.75449585267373 0 0 0 0 27.188267728934079 22.15752631985518 0 22.15752631985518 57.43976913165524 0 0 0 0 25.414234003428817 -15.651020985370394 0 -15.651020985370394 4.0203029890109292 0 0 0 0 135.39276638708543 -61.997384015505531 0 -61.997384015505531 -599.4858195657589 0 0 0 0 78.078660892519906 6.1391174585685562 0 6.1391174585685562 7.8458840834767489 0 0 0 0 605.77466719693621 -285.99899309585948 0 -285.99899309585948 38.181269151032893 0 0 0 0 163.8068456753972 -19.939950844546047 0 -19.939950844546047 -607.44689910046816 0 0 0 0 -101.3310857583856 -4.4271917183169762 0 -4.4271917183169762 -95.092262041572667 0 0 0 0 137.47969096677843 -220.01100696315831 0 -220.01100696315831 -471.34855802043376 0 0 0 0 -220.94828296799096 289.78777096530587 0 289.78777096530587 -719.53656054788962 0 0 0 0 -8.5784324121195823 -117.86689550378151 0 -117.86689550378151 -119.88552110679984 0 0 0 0 20.623913592542522 -104.41450154276731 0 -104.41450154276731 -343.96540335487225 0 0 0 0 372.89198648312595 -13.388914157636236 0 -13.388914157636236 324.0675891609435 0 0 0 0 328.40764933408354 -220.05883869066247 0 -220.05883869066247 -100.24187247987436 0 0 0 0 36.397046721482184 -51.602060654637398 0 -51.602060654637398 122.86209971683184 0 0 0 0 316.52799924317515 -128.16119504068729 0 -128.16119504068729 142.20727048462163 0 0 0 0 185.84625417573261 91.466419659047006 0 91.466419659047006 242.27902066201568 0 0 0 0 145.47600463517301 -13.582491382327362 0 -13.582491382327362 65.868739546591314 0 0 0 0 177.08068136664224 83.562668462388274 0 83.562668462388274 -72.031549159640235 0 0 0 0 53.633571710823162 121.60756437735938 0 121.60756437735938 252.19113262373321 0 0 0 0 261.68450301306621 188.51925030581614 0 188.51925030581614 267.06744247889401 0 0 0 0 782.43522117560497 -51.824691112483379 0 -51.824691112483379 189.86614081535225 0 0 0 0 246.10656831310916 21.9887266643251 0 21.9887266643251 287.22507428602512 0 0 0 0 436.10335017255784 -250.04121934150194 0 -250.04121934150194 464.7889222095082 0 0 0 0 391.48592487612041 26.042347543735104 0 26.042347543735104 185.24401057101932 0 0 0 0 609.90103493936476 -270.97561140744483 0 -270.97561140744483 8.2359089833753387 0 0 0 0 642.52862356530386 -375.2955140260633 0 -375.2955140260633 265.11027157357785 0 0 0 0 1416.4606223859446 516.9861659618183 0 516.9861659618183 -186.0156902000349 0 0 0 0 2130.2206773647704 -391.18846803215331 0 -391.18846803215331 -3.9922515918960926 0 0 0 0 245.27889973507263 290.27721507475826 0 290.27721507475826 138.3739887161052 0 0 0 0 447.0581576514378 94.415066445184266 0 94.415066445184266 279.6888933034279 0 0 0 0 347.10348928763415 248.33243580713497 0 248.33243580713497 279.888549805715 0 0 0 0 283.17039635578112 189.982362749814 0 189.982362749814 242.04215614715486 0 0 0 0 167.36503904979327 231.78637168481009 0 231.78637168481009 244.82611424035963 0 0 0 0 892.58535971624951 68.788688040918714 0 68.788688040918714 117.42363534410833 0 0 0 0 334.43162568748812 42.239906132943361 0 42.239906132943361 118.67295067957502 0 0 0 0 897.19759409401013 56.573194760220758 0 56.573194760220758 -13.5983755562238 0 0 0 0 853.15070610045223 -39.096334372689626 0 -39.096334372689626 -32.436285414442864 0 0 0 0 252.75683058748837 -183.95285199077489 0 -183.95285199077489 7.9188860356798614 0 0 0 0 375.09459834324662 62.565727377045278 0 62.565727377045278 64.534327059751377 0 0 0 0 282.49008919464541 228.50413141562649 0 228.50413141562649 -14.978891867144284 0 0 0 0 -166.91562158328543 -61.731231195364515 0 -61.731231195364515 -164.78543343388628 0 0 0 0 303.25503416643187 200.0930470137082 0 200.0930470137082 -612.59462628959727 0 0 0 0 257.93570357975841 192.13670354337182 0 192.13670354337182 -225.83811298418709 0 0 0 0 23.844988178946323 9.4970815423260717 0 9.4970815423260717 0.994722021555285 0 0 0 0 781.57127416461299 233.93383473372023 0 233.93383473372023 2.8261944313644562 0 0 0 0 520.07012462838611 -541.63481774230672 0 -541.63481774230672 261.92354506293395 0 0 0 0 149.76272114833409 -185.3040151234859 0 -185.3040151234859 23.814195522197224 0 0 0 0 265.11455502874742 101.13500101967929 0 101.13500101967929 -477.92387457328277 0 0 0 0 135.2468669177324 -35.820420917178126 0 -35.820420917178126 69.896436940048943 0 0 0 0 128.82209607789991 -1.7524116159365803 0 -1.7524116159365803 29.151840609529245 0 0 0 0 269.80966488455306 -78.009370775068874 0 -78.009370775068874 45.54309410021051 0 0 0 0 956.84941820721724 -178.0710111921685 0 -178.0710111921685 -124.06311030059618 0 0 0 0 487.74914910765074 151.57615674505359 0 151.57615674505359 -79.175444034191969 0 0 0 0 7.7160096562292892 184.71285282035979 0 184.71285282035979 -50.839281602633491 0 0 0 0 225.16495037873392 184.0688746592341 0 184.0688746592341 -66.838766563317222 0 0 0 0 8.1268906389772724 4.8348904912251669 0 4.8348904912251669 2.5601490043813051 0 0 0 0 147.41857592266751 -45.046181259322907 0 -45.046181259322907 11.039540612146084 0 0 0 0 86.038098033430288 4.8467291081356052 0 4.8467291081356052 -27.528907637806697 0 0 0 0 -19.928454137843801 -14.875675727952512 0 -14.875675727952512 -22.946178634466833 0 0 0 0 36.736883358302293 -37.580827084862904 0 -37.580827084862904 -60.715982447018177 0 0 0 0 43.654629570693942 -18.914595701366579 0 -18.914595701366579 -74.129356359504072 0 0 0 0 11.005533658078718 3.8746940630735907 0 3.8746940630735907 0.75275578794537701 0 0 0 0 2043.5189223699563 -1312.0086374029661 0 -1312.0086374029661 133.39645570770654 0 0 0 0 1474.3002081983796 -1019.4735493527501 0 -1019.4735493527501 272.64995407254992 0 0 0 0 -197.13088025135676 500.20662973293895 0 500.20662973293895 -36.529887127029724 0 0 0 0 301.62023208825849 759.2254036708373 0 759.2254036708373 -599.16421880913003 0 0 0 0 1291.0303767182049 208.37367689012262 0 208.37367689012262 -315.36672214967666 0 0 0 0 411.00652317017375 203.54979259598383 0 203.54979259598383 52.460427881946089 0 0 0 0 423.85400324879447 238.16387903274335 0 238.16387903274335 -0.01520705729490146 0 0 0 0 341.10265685018385 105.14430287050163 0 105.14430287050163 235.08154751061193 0 0 0 0 152.75048648542725 -231.82673089957348 0 -231.82673089957348 1461.2885545086319 0 0 0 0 15.591843228053676 8.8357619335986044 0 8.8357619335986044 5.5811933732076433 0 0 0 0 1181.279659369382 -458.39689134848754 0 -458.39689134848754 43.866904300672104 0 0 0 0 31.454344913829118 12.905815970056665 0 12.905815970056665 -55.577102813472266 0 0 0 0 29.878043057135073 9.4992472773860754 0 9.4992472773860754 -15.503358051982104 0 0 0 0 22.744959696695275 -9.003140267288245 0 -9.003140267288245 1.8818736081566261 0 0 0 0 32.257065726415021 -28.968379074635777 0 -28.968379074635777 13.815165394531846 0 0 0 0 39.12756879189692 -23.508005623217514 0 -23.508005623217514 -22.978580196533585 0 0 0 0 25.665083628999128 -27.354451431361895 0 -27.354451431361895 -7.7362473005696302 0 0 0 0 27.055523228948005 -32.654952827671877 0 -32.654952827671877 -9.9297659804778959 0 0 0 0 38.007423260714859 -17.525453430387643 0 -17.525453430387643 -40.871136534759898 0 0 0 0 31.669924527057447 -35.656723212732686 0 -35.656723212732686 -23.603531372175667 0 0 0 0 76.179860281539732 33.684002741665836 0 33.684002741665836 21.197714591487056 0 0 0 0 76.862202953052474 37.28417163455606 0 37.28417163455606 34.028993573266689 0 0 0 0 78.840244186678319 40.258300206797685 0 40.258300206797685 17.261317090968078 0 0 0 0 71.794684504740871 27.776520751187491 0 27.776520751187491 18.797253038701569 0 0 0 0 71.153079428564524 31.950449230809681 0 31.950449230809681 26.847649559972751 0 0 0 0 78.130766760004917 33.594287693748583 0 33.594287693748583 4.6774237928293587 0 0 0 0 25.00068982096127 -26.896124467224354 0 -26.896124467224354 -2.8376000395874144 0 0 0 0 22.147152579913381 0.90313483910358627 0 0.90313483910358627 22.633220638343118 0 0 0 0 20.070293158545724 -12.51044935025925 0 -12.51044935025925 2.6563500436184464 0 0 0 0 65.39142104043276 9.004102639994926 0 9.004102639994926 0.28763653814405643 0 0 0 0 21.361451133445371 -28.835630124642194 0 -28.835630124642194 -2.2772198570751243 0 0 0 0 2.8907920574873174 -1.0790935689258276 0 -1.0790935689258276 0.36245922557098709 0 0 0 0 50.81135799761978 29.883856428888976 0 29.883856428888976 30.072080353083948 0 0 0 0 82.993264243588783 38.573909205552582 0 38.573909205552582 20.630531524028811 0 0 0 0 76.517021920917614 34.068241908783648 0 34.068241908783648 26.333847004374547 0 0 0 0 71.938917143503204 47.665047964799214 0 47.665047964799214 32.295493965597416 0 0 0 0 79.1819777902856 43.830757565575368 0 43.830757565575368 37.578609149121803 0 0 0 0 65.206656436435878 35.043549209426601 0 35.043549209426601 32.056655634458366 0 0 0 0 121.41075955376436 8.8153621902730492 0 8.8153621902730492 28.209537969074518 0 0 0 0 107.79917047568597 42.44797260948144 0 42.44797260948144 26.126604088096428 0 0 0 0 87.775503730139462 22.233979511163398 0 22.233979511163398 23.217587063405517 0 0 0 0 92.807850401499309 25.605560073135393 0 25.605560073135393 24.641936072742283 0 0 0 0 -6.8439541779807769 -28.608772454813788 0 -28.608772454813788 61.479407672721209 0 0 0 0 -1.9626543073455878 -1.3586609992872241 0 -1.3586609992872241 1.4784237641559663 0 0 0 0 136.31356573241646 49.095008046348994 0 49.095008046348994 36.963610339830268 0 0 0 0 -13.022040206436941 -7.0820365265179817 0 -7.0820365265179817 27.591142465119447 0 0 0 0 10.109033865970559 -25.296182523704374 0 -25.296182523704374 12.710001892486616 0 0 0 0 -7.7511680823844813 -12.364833186114737 0 -12.364833186114737 6.7413133345070388 0 0 0 0 17.735208511759993 -26.508201543916584 0 -26.508201543916584 0.1918937931623077 0 0 0 0 17.716126371775431 -30.758982931768426 0 -30.758982931768426 3.5774482810757036 0 0 0 0 22.973103783006081 -28.05237445243165 0 -28.05237445243165 -14.695684348982923 0 0 0 0 21.319207543268647 -12.170522986386914 0 -12.170522986386914 5.0525064703930944 0 0 0 0 8.4626209203561302 -27.620138649177079 0 -27.620138649177079 30.225685434215848 0 0 0 0 10.446383281465387 -21.475549065907671 0 -21.475549065907671 9.8665392535940555 0 0 0 0 27.454842535342323 -59.149070822345493 0 -59.149070822345493 -16.510217786287967 0 0 0 0 52.267452530970331 -65.673734452718236 0 -65.673734452718236 32.819201746905037 0 0 0 0 122.87550787779037 22.282683068430515 0 22.282683068430515 25.727563329220175 0 0 0 0 35.850021424295846 -43.167933864773659 0 -43.167933864773659 4.583567357287393 0 0 0 0 42.983803359937156 -58.163522713854491 0 -58.163522713854491 25.99925245317263 0 0 0 0 67.654719949205173 -63.965477118675608 0 -63.965477118675608 -0.081199228881814633 0 0 0 0 58.720213012013119 -46.679565325754083 0 -46.679565325754083 -28.164978669782158 0 0 0 0 34.431467187314411 -49.869422368469714 0 -49.869422368469714 8.5889238064573874 0 0 0 0 28.12917568202829 -41.193057758312534 0 -41.193057758312534 -3.2142366944990499 0 0 0 0 25.636723545118002 -33.108048026665983 0 -33.108048026665983 0.46429510490816028 0 0 0 0 9.6507881064608227 -37.670006911085693 0 -37.670006911085693 19.513841743510966 0 0 0 0 17.509706470998935 -34.101802793730712 0 -34.101802793730712 8.7347236484474706 0 0 0 0 17.389967750597862 -35.577916615173251 0 -35.577916615173251 16.931939652997244 0 0 0 0 12.908896582899615 -30.317570472920124 0 -30.317570472920124 12.700607983762893 0 0 0 0 13.214446483078063 -46.305560820342407 0 -46.305560820342407 22.880966642202111 0 0 0 0 16.047385184036102 -42.932714544843293 0 -42.932714544843293 19.591177437037913 0 0 0 0 6.8508796585374512 -25.71436047840325 0 -25.71436047840325 48.806992296726094 0 0 0 0 10.777513100503711 -33.379156099063493 0 -33.379156099063493 33.924728563988538 0 0 0 0 -2.6132736193031292 -1.770906653729611 0 -1.770906653729611 2.8286732867855413 0 0 0 0 4.4045201865374111 -34.056152044807277 0 -34.056152044807277 -15.596474403451793 0 0 0 0 -11.832536971720401 -27.964503006553969 0 -27.964503006553969 39.801613274924421 0 0 0 0 -5.3378782209474593 -49.62949990375273 0 -49.62949990375273 53.56755381720086 0 0 0 0 65.863291317102266 -39.968436763911996 0 -39.968436763911996 25.022977972265892 0 0 0 0 29.964534578932216 -69.461826840698677 0 -69.461826840698677 42.566742680313837 0 0 0 0 100.44338226124819 -67.521420267928193 0 -67.521420267928193 44.199631411429436 0 0 0 0 125.96193420921918 -16.577664156023275 0 -16.577664156023275 39.023969149921584 0 0 0 0 -21.19077802386164 -54.964653672423992 0 -54.964653672423992 56.319083715407032 0 0 0 0 72.745044934476027 -58.146335654984341 0 -58.146335654984341 37.793903293244512 0 0 0 0 -46.682783783267951 8.011429905152454 0 8.011429905152454 40.965781478850658 0 0 0 0 15.737422807738767 0.82585690186033389 0 0.82585690186033389 -19.105748006407339 0 0 0 0 5.9073803982706181 1.5038449251691475 0 1.5038449251691475 1.7616111793035714 0 0 0 0 72.066903154933243 -52.167003132341733 0 -52.167003132341733 18.366262269817526 0 0 0 0 4.9136641135941659 7.8570792882694889 0 7.8570792882694889 8.8031223089716093 0 0 0 0 73.070461571129272 -6.8640773247880134 0 -6.8640773247880134 2.5368742333489536 0 0 0 0 -105.86497170344228 30.744104767274166 0 30.744104767274166 60.165533174356824 0 0 0 0 9.9154696584591875 -12.05375221882241 0 -12.05375221882241 -5.6816402832755557 0 0 0 0 29.872762747661909 -18.845850508823332 0 -18.845850508823332 -9.8925141633380917 0 0 0 0 33.338134271967647 -37.292680974821423 0 -37.292680974821423 15.12387567363794 0 0 0 0 38.151725911331596 -9.212737011786885 0 -9.212737011786885 -26.37379034846208 0 0 0 0 7.3989481555181555 -3.7285597249624516 0 -3.7285597249624516 25.299989709786587 0 0 0 0 19.17395577946445 -44.292537324123714 0 -44.292537324123714 71.644655675694594 0 0 0 0 137.72845077930833 36.959038815413805 0 36.959038815413805 -109.01041293458729 0 0 0 0 1.4200117104047649 -1.3358962983026306 0 -1.3358962983026306 -0.24153428633769058 0 0 0 0 155.22483725694474 110.22702940360887 0 110.22702940360887 -21.863846160472804 0 0 0 0 50.758937270089518 50.798950241807688 0 50.798950241807688 121.19452997945245 0 0 0 0 -26.177486498898361 -9.1495351730836774 0 -9.1495351730836774 104.81687283579902 0 0 0 0 -21.493387565162266 -67.203197291772995 0 -67.203197291772995 49.292440214358066 0 0 0 0 79.768103090173099 -45.52616478271193 0 -45.52616478271193 -27.113583673217136 0 0 0 0 22.917937220874592 108.74660785939182 0 108.74660785939182 4.5116567653340098 0 0 0 0 12.554868456558324 -51.394360439224329 0 -51.394360439224329 28.354697660648355 0 0 0 0 21.334550955711165 -5.1801884502392568 0 -5.1801884502392568 129.88827550717872 0 0 0 0 46.025512261141557 24.97149504994286 0 24.97149504994286 23.564156703591607 0 0 0 0 80.117668310689623 32.208537925997234 0 32.208537925997234 25.098994052704256 0 0 0 0 19.494106932193972 -25.470377033365139 0 -25.470377033365139 68.862309322921647 0 0 0 0 12.946036504450603 -10.431321073569734 0 -10.431321073569734 42.893830277831512 0 0 0 0 -73.05652620001274 55.241935584613032 0 55.241935584613032 16.533188066578077 0 0 0 0 6.5004200760341462 10.773232789458262 0 10.773232789458262 14.861193326990499 0 0 0 0 -184.45913473845576 122.54045126541496 0 122.54045126541496 66.535473976793583 0 0 0 0 -80.034807323128916 11.30427178441164 0 11.30427178441164 58.878627343769949 0 0 0 0 -5.369351007451769 -29.899566777374275 0 -29.899566777374275 24.305014143835251 0 0 0 0 5.9836984359426424 -3.5647923960168555 0 -3.5647923960168555 -50.583197500028746 0 0 0 0 178.59485642556683 88.055528257667902 0 88.055528257667902 32.941122595042998 0 0 0 0 94.643098835193086 -36.107722095075587 0 -36.107722095075587 -132.9017656112137 0 0 0 0 137.62907426996389 -76.643148504503188 0 -76.643148504503188 -15.759361432745209 0 0 0 0 35.772983135451796 45.842567235892602 0 45.842567235892602 45.170743024942567 0 0 0 0 -141.72230288456194 -59.509908163459841 0 -59.509908163459841 68.437490535650795 0 0 0 0 179.64557768806117 8.6653989185915634 0 8.6653989185915634 44.450126036871552 0 0 0 0 -6.2882352449814789 91.86141217538443 0 91.86141217538443 -54.136714459658833 0 0 0 0 39.362254226434743 -47.793133966698406 0 -47.793133966698406 81.895518873946003 0 0 0 0 358.92004998326593 0.81989363302818674 0 0.81989363302818674 219.81958656924326 0 0 0 0 302.12213401618646 -109.04487901376069 0 -109.04487901376069 60.026518209992673 0 0 0 0 454.69976857319125 6.7695040576481915 0 6.7695040576481915 -18.208073699304805 0 0 0 0 212.25520484620938 38.753196311497959 0 38.753196311497959 120.85748632566447 0 0 0 0 235.56656299700262 -24.969771547433083 0 -24.969771547433083 59.346642614495067 0 0 0 0 473.15037250638125 97.904439698282658 0 97.904439698282658 199.74767548924683 0 0 0 0 790.16872846739716 113.19363103134856 0 113.19363103134856 146.45011211114524 0 0 0 0 899.71076087006804 345.9018085399025 0 345.9018085399025 469.47926188331076 0 0 0 0 791.09969305040431 272.03837808438948 0 272.03837808438948 274.10577031972025 0 0 0 0 769.1767911703646 43.124925220012756 0 43.124925220012756 389.53556941383977 0 0 0 0 689.82405602405197 112.4499357309146 0 112.4499357309146 398.93181702182665 0 0 0 0 531.63942138350103 -48.172447378907236 0 -48.172447378907236 66.081856703187441 0 0 0 0 601.96682812947256 114.62312981620744 0 114.62312981620744 345.03350413619501 0 0 0 0 594.57825471684919 -71.934282723313117 0 -71.934282723313117 192.39439163632596 0 0 0 0 463.39147001989204 -100.74423282586719 0 -100.74423282586719 315.10315609317331 0 0 0 0 539.58461463803542 -206.06474415638104 0 -206.06474415638104 105.38487631517273 0 0 0 0 462.58047524350764 -144.02958273164708 0 -144.02958273164708 90.991662571534107 0 0 0 0 667.19250007963274 -47.416966541520196 0 -47.416966541520196 301.92972821045805 0 0 0 0 495.89773955594865 -179.76918289873265 0 -179.76918289873265 391.91595982611437 0 0 0 0 265.42461415123398 -132.88499907084019 0 -132.88499907084019 347.1936574879237 0 0 0 0 446.77346131429658 -424.45223595931657 0 -424.45223595931657 63.844209635548282 0 0 0 0 550.70544338707259 -212.14154939349129 0 -212.14154939349129 -51.890437131953149 0 0 0 0 563.95135132678479 -306.92950026352128 0 -306.92950026352128 181.54272320184464 0 0 0 0 357.41040208093182 -144.93367695860388 0 -144.93367695860388 4.4152308153470585 0 0 0 0 469.14214827143587 -137.96491159431389 0 -137.96491159431389 -116.74575347699795 0 0 0 0 398.02209144658991 -233.00857622297826 0 -233.00857622297826 131.5132242608488 0 0 0 0 383.22844706091564 -170.98772024771097 0 -170.98772024771097 26.529130666112906 0 0 0 0 303.98222422372783 -44.583565790900138 0 -44.583565790900138 22.482404545741701 0 0 0 0 57.342079306632513 -60.443743996228477 0 -60.443743996228477 95.766021111508053 0 0 0 0 248.48041884978011 -121.05949662498915 0 -121.05949662498915 51.42941621548016 0 0 0 0 65.340885144134518 -52.08212729824163 0 -52.08212729824163 111.95583297460871 0 0 0 0 320.87004814436659 -134.40116083153862 0 -134.40116083153862 156.7089513188439 0 0 0 0 294.0666671989311 -73.930382266737979 0 -73.930382266737979 75.525738818760146 0 0 0 0 78.024386286182562 -82.340175011338374 0 -82.340175011338374 63.500879066706375 0 0 0 0 112.54591680204612 -31.4431254404318 0 -31.4431254404318 -40.015783827772452 0 0 0 0 45.202950214006705 -15.743843602462448 0 -15.743843602462448 7.6733481438535787 0 0 0 0 108.37254925621164 -7.2587908646901909 0 -7.2587908646901909 -65.103085883693439 0 0 0 0 7.9466445058060344 13.576720895634708 0 13.576720895634708 6.956759125936351 0 0 0 0 253.1065934158396 -62.414387466767266 0 -62.414387466767266 -34.785254381927757 0 0 0 0 272.25144703127444 48.656951458102867 0 48.656951458102867 -48.43681169264724 0 0 0 0 170.87298090679724 29.199252672767017 0 29.199252672767017 -51.517079130815318 0 0 0 0 178.23572728509316 -33.010296258944791 0 -33.010296258944791 -67.201485318787263 0 0 0 0 141.69839825095551 -14.126734792422663 0 -14.126734792422663 -37.315987056484232 0 0 0 0 81.179815873532789 -16.084461429734858 0 -16.084461429734858 -34.685091908261086 0 0 0 0 123.86772227409529 -20.130445173905663 0 -20.130445173905663 -56.450370046443581 0 0 0 0 172.37089348744485 -19.663090691011462 0 -19.663090691011462 -56.908767739140359 0 0 0 0 102.69443855658756 -37.58615554952587 0 -37.58615554952587 -57.596191081814119 0 0 0 0 74.649668482823472 19.795494434110452 0 19.795494434110452 16.964739144769737 0 0 0 0 213.94941260862106 -46.153523520421608 0 -46.153523520421608 6.2318280577817404 0 0 0 0 230.34866137270001 66.660207883694056 0 66.660207883694056 28.630863692562798 0 0 0 0 70.644488030680805 101.64575597985882 0 101.64575597985882 119.49141889373914 0 0 0 0 3.6873312138652068 -0.84565490829211853 0 -0.84565490829211853 0.099714140166541121 0 0 0 0 22.140713807285465 28.280469471190312 0 28.280469471190312 110.37443918959207 0 0 0 0 267.37024165769981 32.370665045893077 0 32.370665045893077 13.759171362340112 0 0 0 0 235.94832776371913 21.067984518035303 0 21.067984518035303 15.826937940801599 0 0 0 0 249.74276994395768 -8.3478681286183019 0 -8.3478681286183019 -3.6268924016617348 0 0 0 0 259.26200856768992 1.8398752177376991 0 1.8398752177376991 -0.76611188145216147 0 0 0 0 124.00850600661943 19.292020228952254 0 19.292020228952254 125.50881454947182 0 0 0 0 123.93759366070492 11.950085583454038 0 11.950085583454038 0.10313102287841502 0 0 0 0 142.85702849271183 -20.61805594096694 0 -20.61805594096694 -2.8149881856379579 0 0 0 0 52.221134866646025 17.672790198481465 0 17.672790198481465 -22.00563917816487 0 0 0 0 61.047897274009301 -18.483916069158283 0 -18.483916069158283 28.249155714959656 0 0 0 0 52.305277430965361 10.20500646644075 0 10.20500646644075 -24.045964520414373 0 0 0 0 51.673725772256148 6.0535866876452928 0 6.0535866876452928 41.130618024606747 0 0 0 0 168.71279208009128 -89.348271356372962 0 -89.348271356372962 -24.084812669425446 0 0 0 0 -0.53615310310431141 -2.6088320596706183 0 -2.6088320596706183 -10.543304951242918 0 0 0 0 -47.782934950984782 -3.7033918013779896 0 -3.7033918013779896 25.342364852143675 0 0 0 0 -31.419502482764074 -30.795348947512309 0 -30.795348947512309 -4.3732883899261594 0 0 0 0 97.791653329566543 -45.644795817124418 0 -45.644795817124418 -50.143039456924271 0 0 0 0 8.5558302274580171 -3.4591525042816045 0 -3.4591525042816045 -20.455859015200968 0 0 0 0 57.57269168019775 30.472370897151734 0 30.472370897151734 8.7088367924565091 0 0 0 0 -45.83304638559639 -76.316843748684846 0 -76.316843748684846 -28.052855919165211 0 0 0 0 53.183958989495295 3.1766652332084959 0 3.1766652332084959 1.8952857242006758 0 0 0 0 19.104740726971556 -13.675781424627047 0 -13.675781424627047 -0.11150764784731315 0 0 0 0 331.66082730707421 309.89996373859981 0 309.89996373859981 120.75124912993221 0 0 0 0 18.582211766857938 -17.469807960377096 0 -17.469807960377096 14.0659269746874 0 0 0 0 260.92593148873129 -99.019101703928385 0 -99.019101703928385 -70.326481650873319 0 0 0 0 6.5344156952600656 -2.7032209255519888 0 -2.7032209255519888 4.6488040963162742 0 0 0 0 51.224515377805801 29.331292956503148 0 29.331292956503148 -46.084687609431057 0 0 0 0 55.81272739418273 -0.019804354043515104 0 -0.019804354043515104 -21.728663283424794 0 0 0 0 81.692261985503137 31.28125978052276 0 31.28125978052276 -10.808993294981519 0 0 0 0 56.58411191059713 -4.0519805848294936 0 -4.0519805848294936 -3.8998681404882518 0 0 0 0 7.8768213922834889 -6.0984440328638243 0 -6.0984440328638243 6.994546058636681 0 0 0 0 450.06104190772749 479.27028672457072 0 479.27028672457072 -41.429240345248644 0 0 0 0 4.4505522741991541 -0.29487307916460281 0 -0.29487307916460281 -1.1610709179929621 0 0 0 0 52.290741854914813 8.2083527543445598 0 8.2083527543445598 -27.802715616475325 0 0 0 0 43.583527813199908 40.541850506965147 0 40.541850506965147 -102.16316438959757 0 0 0 0 -62.781363093294203 -49.510008281020419 0 -49.510008281020419 49.997757654045017 0 0 0 0 -206.67718005549978 -158.43960671859008 0 -158.43960671859008 99.653198699210407 0 0 0 0 -57.412874809058849 23.758432971283582 0 23.758432971283582 21.439384136780518 0 0 0 0 197.62674735151813 -266.30734198992241 0 -266.30734198992241 -17.151370532409487 0 0 0 0 557.03268373645551 -139.83062624530044 0 -139.83062624530044 8.9256988719735091 0 0 0 0 -0.59334099154159503 0.42353225658033011 0 0.42353225658033011 0.61641057073495098 0 0 0 0 515.68709476539061 -43.810220512911158 0 -43.810220512911158 11.07514742361127 0 0 0 0 452.52099320665002 -194.94433954481883 0 -194.94433954481883 46.951603305623081 0 0 0 0 552.02643100221758 -157.64047809724843 0 -157.64047809724843 -7.8703013077411015 0 0 0 0 506.63642055468517 -158.92988332452978 0 -158.92988332452978 27.823142231794918 0 0 0 0 144.27152296668646 353.88108489224294 0 353.88108489224294 410.57810191867247 0 0 0 0 403.67682552248516 -542.23540999301372 0 -542.23540999301372 -200.11572920140588 0 0 0 0 525.86525334243197 -139.59162099345576 0 -139.59162099345576 43.923008569580816 0 0 0 0 -2.6012922878726386 -56.711289129611941 0 -56.711289129611941 32.871101002020168 0 0 0 0 2.6115855421462015 -1.9204605783183126 0 -1.9204605783183126 1.962359622221566 0 0 0 0 58.724459940334782 16.564622527711435 0 16.564622527711435 38.786569169731763 0 0 0 0 -199.23047478120134 378.41565850714028 0 378.41565850714028 300.7124974956489 0 0 0 0 -279.61602835199665 -214.27213926450287 0 -214.27213926450287 66.214570071954768 0 0 0 0 238.29243334241619 65.303809705425465 0 65.303809705425465 -31.235353789109467 0 0 0 0 15.882860906341534 -17.811243543562881 0 -17.811243543562881 18.674847196819222 0 0 0 0 71.506170590684633 19.147280673456407 0 19.147280673456407 31.480313165312509 0 0 0 0 74.572925253130961 7.223360569475517 0 7.223360569475517 39.788048678327868 0 0 0 0 78.696145275258459 27.502505673649466 0 27.502505673649466 36.036330011359723 0 0 0 0 92.630299121432472 10.593181672704759 0 10.593181672704759 34.50266336904815 0 0 0 0 77.518855879745388 -2.7836507995341435 0 -2.7836507995341435 57.333157669376305 0 0 0 0 92.292315109836636 4.7350941974059424 0 4.7350941974059424 35.534431396794389 0 0 0 0 84.203924959147116 9.7414518311343272 0 9.7414518311343272 36.351343055018788 0 0 0 0 80.990345240265015 13.424766979937431 0 13.424766979937431 38.852950787503232 0 0 0 0 140.49036256944055 -8.0037375868522957 0 -8.0037375868522957 38.85014442524789 0 0 0 0 73.829646141966805 6.0664818066015869 0 6.0664818066015869 112.22908968701995 0 0 0 0 61.714424338861136 16.643086736151417 0 16.643086736151417 52.693601791420406 0 0 0 0 19.332648066829847 -20.247062504080503 0 -20.247062504080503 19.143010351993262 0 0 0 0 52.447700695658568 6.7871936648612063 0 6.7871936648612063 49.119502592250683 0 0 0 0 52.85489089920884 15.676478111223332 0 15.676478111223332 40.860788143803802 0 0 0 0 56.537417355750222 20.031580429555561 0 20.031580429555561 36.686531638275937 0 0 0 0 55.763840835308656 10.663151982466161 0 10.663151982466161 47.228222959106461 0 0 0 0 58.729497154781711 14.522044956277568 0 14.522044956277568 13.170531863546785 0 0 0 0 56.43768329769955 11.101751487621186 0 11.101751487621186 39.30871510324846 0 0 0 0 56.53256689151749 30.149067069008652 0 30.149067069008652 11.34313724488959 0 0 0 0 65.926989947474794 37.603096246864425 0 37.603096246864425 7.7427454708872574 0 0 0 0 60.821834472972114 5.9981007791952834 0 5.9981007791952834 39.708786179756316 0 0 0 0 68.107018430746393 18.631358262395224 0 18.631358262395224 -15.154784532318445 0 0 0 0 14.833378253096157 -6.686264129102284 0 -6.686264129102284 3.1139248086103075 0 0 0 0 44.954786641552346 0.89270091263142604 0 0.89270091263142604 -16.207145931583824 0 0 0 0 53.626384507893817 33.233442683006558 0 33.233442683006558 4.8832337013800498 0 0 0 0 71.25985766328813 39.232828227030723 0 39.232828227030723 1.0674218301401197 0 0 0 0 3.5238547510471108 -5.3133313517028284 0 -5.3133313517028284 -0.1419873405279759 0 0 0 0 4.119699449656764 -3.1477066658280819 0 -3.1477066658280819 4.1454451718680048 0 0 0 0 15.791730216209544 -20.754693714403402 0 -20.754693714403402 -4.8960192658678352 0 0 0 0 4.4628747862152522 -10.494147761236036 0 -10.494147761236036 13.559722434044033 0 0 0 0 2.7351193055595786 -1.8485583652759789 0 -1.8485583652759789 -0.37072003501857576 0 0 0 0 18.543737894608057 -47.871514094177314 0 -47.871514094177314 -82.878489394875032 0 0 0 0 4.2779548753314884 -7.2001278389172967 0 -7.2001278389172967 -12.998835199966607 0 0 0 0 -38.604984878067626 -37.683969964232915 0 -37.683969964232915 44.676325956123037 0 0 0 0 37.644214319298044 -27.746861434169887 0 -27.746861434169887 -23.766512195814112 0 0 0 0 42.365845042499132 -4.932779571688684 0 -4.932779571688684 12.231495842576919 0 0 0 0 -7.9142177522735437 -22.287728375879851 0 -22.287728375879851 6.2451594804829256 0 0 0 0 8.9455893873673631 -45.712558934754043 0 -45.712558934754043 26.944820216250264 0 0 0 0 16.834592028084444 -33.518832346080671 0 -33.518832346080671 12.945790440965425 0 0 0 0 2.6253038979652956 -2.2906974898087569 0 -2.2906974898087569 -0.19565280514987382 0 0 0 0 35.766468171903398 -109.29832612206337 0 -109.29832612206337 70.379507366830978 0 0 0 0 13.861539605295548 1.5027408461864873 0 1.5027408461864873 87.262736736212901 0 0 0 0 23.7306173700199 -68.787716599092619 0 -68.787716599092619 -24.285384322468872 0 0 0 0 122.89374685919029 -52.065812968500722 0 -52.065812968500722 -5.3463159865168564 0 0 0 0 52.458812536555342 -40.181544547963313 0 -40.181544547963313 -62.995512452947196 0 0 0 0 119.37308877822943 -2.622193220720078 0 -2.622193220720078 -39.803098279713595 0 0 0 0 130.91068656143034 -22.255940568002643 0 -22.255940568002643 -112.00174308158989 0 0 0 0 159.6790769927029 -8.1560049355744013 0 -8.1560049355744013 -109.60390980111879 0 0 0 0 103.30258367955685 -21.880354203479328 0 -21.880354203479328 -35.885093890833559 0 0 0 0 144.62320369057124 -102.01614564473266 0 -102.01614564473266 -23.10945555594617 0 0 0 0 299.55356975010363 15.007490960611904 0 15.007490960611904 10.246609768537382 0 0 0 0 149.1055356778088 -36.697646147050364 0 -36.697646147050364 -6.9834663921392348 0 0 0 0 168.30456883895386 34.564234906023898 0 34.564234906023898 -5.2833637241474207 0 0 0 0 99.954019685508683 14.038155830045071 0 14.038155830045071 65.873882615166394 0 0 0 0 155.78723137863562 61.367216065633784 0 61.367216065633784 126.50043976765119 0 0 0 0 141.19007059396245 32.61327400720711 0 32.61327400720711 70.406822287270188 0 0 0 0 320.55834555230103 178.0060149213823 0 178.0060149213823 263.85568764542768 0 0 0 0 230.07791203306988 66.633565240517783 0 66.633565240517783 126.78083434925281 0 0 0 0 88.662929146550596 96.766027386966016 0 96.766027386966016 270.02378020282049 0 0 0 0 468.7045051799505 -98.784079352341905 0 -98.784079352341905 62.313593675117318 0 0 0 0 188.04508187898318 -119.77784160632882 0 -119.77784160632882 65.025871335479678 0 0 0 0 572.70706149988109 52.704144502473355 0 52.704144502473355 4.9863872729874856 0 0 0 0 16.235249419579759 -127.25933612734437 0 -127.25933612734437 264.75780888527879 0 0 0 0 0.93817549185155258 -0.55007039481684217 0 -0.55007039481684217 0.50448654842407059 0 0 0 0 194.18981852545403 292.94785805838001 0 292.94785805838001 426.95817610851509 0 0 0 0 1.2154029404201196 -0.54736971756964259 0 -0.54736971756964259 -0.064119955824506247 0 0 0 0 165.81528851136682 25.128172159971655 0 25.128172159971655 244.81919855093656 0 0 0 0 163.05972026131349 34.797952571948372 0 34.797952571948372 401.90615833836546 0 0 0 0 570.73080895958265 48.517284984473008 0 48.517284984473008 315.90552686158117 0 0 0 0 174.46324847417418 -28.355424866751491 0 -28.355424866751491 389.16925799731325 0 0 0 0 184.79939341993304 -6.7020084834803129 0 -6.7020084834803129 212.92566649348009 0 0 0 0 58.807456810260192 -58.738968303890942 0 -58.738968303890942 259.11887832413595 0 0 0 0 482.75247159972787 -115.55073275792802 0 -115.55073275792802 172.81273124746258 0 0 0 0 287.78914196556434 -77.127456364059071 0 -77.127456364059071 -26.049254611038123 0 0 0 0 237.50487400821294 68.223446733649325 0 68.223446733649325 35.414840517008997 0 0 0 0 237.54441935870273 -117.83859583728486 0 -117.83859583728486 -177.69555544522336 0 0 0 0 194.3912518331199 -6.227026089409037 0 -6.227026089409037 -78.605085281968059 0 0 0 0 107.49353802460246 -97.878737720734534 0 -97.878737720734534 -83.190032740487368 0 0 0 0 147.74161587539129 -99.381859703313239 0 -99.381859703313239 -109.47719907938153 0 0 0 0 106.78792542287806 -202.94917137495307 0 -202.94917137495307 -187.64240142991548 0 0 0 0 105.73734137468273 53.114184484166799 0 53.114184484166799 -7.4452635465727326 0 0 0 0 250.84932660076447 134.90062523560118 0 134.90062523560118 10.596362870724988 0 0 0 0 233.63868093918427 17.832360326877961 0 17.832360326877961 -76.483646884495101 0 0 0 0 256.01828583033057 87.054708561775442 0 87.054708561775442 52.609817710622337 0 0 0 0 563.31536996123032 277.08522608568239 0 277.08522608568239 166.82643350019862 0 0 0 0 69.642023915366735 80.770315301038863 0 80.770315301038863 59.777471155346348 0 0 0 0 6.3078609726443347 -2.292695334438406 0 -2.292695334438406 1.1156829505845582 0 0 0 0 33.391547622712096 141.9262736202204 0 141.9262736202204 294.95846526066998 0 0 0 0 60.327329840016318 71.579210670228349 0 71.579210670228349 61.757013608467787 0 0 0 0 124.52696906111669 58.558697132005364 0 58.558697132005364 -42.342681828205968 0 0 0 0 91.293711444246583 60.075746010536022 0 60.075746010536022 -33.221208135241795 0 0 0 0 47.551664673024788 10.016919460683312 0 10.016919460683312 -37.796447691139292 0 0 0 0 73.348251040690229 11.453417759516697 0 11.453417759516697 -49.893201906481409 0 0 0 0 25.930179531744216 36.84526338122123 0 36.84526338122123 -41.92834763875544 0 0 0 0 -80.843782136333175 -27.193177134747202 0 -27.193177134747202 -44.385934032479781 0 0 0 0 -13.080770772052347 -227.29456971843433 0 -227.29456971843433 -134.858219763737 0 0 0 0 877.66270125700976 265.74083612472896 0 265.74083612472896 31.450787773884144 0 0 0 0 -106.42483003242523 -109.05594403282657 0 -109.05594403282657 -42.411282421693613 0 0 0 0 -10.943500541849062 -118.58178954852701 0 -118.58178954852701 -91.653521384703254 0 0 0 0 150.00207176443655 -90.482706804296868 0 -90.482706804296868 -100.7056843151986 0 0 0 0 48.195832923112903 -9.3357500534425526 0 -9.3357500534425526 -61.5521339572133 0 0 0 0 91.177494071482215 -3.5415724109079747 0 -3.5415724109079747 -71.254196633663923 0 0 0 0 34.084549663297366 5.8753550775072654 0 5.8753550775072654 -45.850588081606475 0 0 0 0 100.54082332845428 16.775698167802034 0 16.775698167802034 4.6508846185031416 0 0 0 0 12.855270557282779 -10.629398862053677 0 -10.629398862053677 7.1174229798484561 0 0 0 0 9.6463280533091265 -2.6903849972973717 0 -2.6903849972973717 -5.4093542246007607 0 0 0 0 101.90798782724596 23.69444067643002 0 23.69444067643002 3.7878930517072149 0 0 0 0 74.718566932089743 -30.224417250491911 0 -30.224417250491911 -138.93215713791596 0 0 0 0 1.6340191876892334 -1.8848751744440619 0 -1.8848751744440619 0.6938128879829728 0 0 0 0 745.71716790297069 326.28913785334953 0 326.28913785334953 79.548248668499582 0 0 0 0 21.603161027931492 23.67326172157027 0 23.67326172157027 -83.462795513992205 0 0 0 0 28.95622913454747 -16.856170173357413 0 -16.856170173357413 -5.8922407876245089 0 0 0 0 222.46127073589014 46.026902172718565 0 46.026902172718565 -150.87443576533042 0 0 0 0 611.66540928415998 -40.548584990251243 0 -40.548584990251243 -187.71981913861373 0 0 0 0 334.9573501188861 442.55283037643198 0 442.55283037643198 260.75780403737701 0 0 0 0 -75.152164009552507 -189.44056357869817 0 -189.44056357869817 41.663415570021243 0 0 0 0 152.65144049818628 -213.80651867598772 0 -213.80651867598772 290.65813642067764 0 0 0 0 123.16847382126434 133.81713207029588 0 133.81713207029588 35.9619455054235 0 0 0 0 122.31884410046041 -185.73577816506986 0 -185.73577816506986 -261.00517474229855 0 0 0 0 529.45463519783516 689.8981911673477 0 689.8981911673477 -527.78863290155823 0 0 0 0 120.35094433196355 -99.559067658958156 0 -99.559067658958156 -314.02275000805366 0 0 0 0 112.84159011254087 -117.55266641409071 0 -117.55266641409071 -150.5308171408542 0 0 0 0 -134.12870609323727 158.49315884271346 0 158.49315884271346 -158.57320009858859 0 0 0 0 89.753034345078049 -78.54427779752632 0 -78.54427779752632 157.9841784227483 0 0 0 0 -67.598474296624772 31.751016352414354 0 31.751016352414354 80.958578134685013 0 0 0 0 10.264483629493043 61.912162986282055 0 61.912162986282055 160.8613619173932 0 0 0 0 73.81042169930879 -33.736152924348062 0 -33.736152924348062 304.5977625862397 0 0 0 0 -37.360841526722652 -155.6492965322077 0 -155.6492965322077 108.37790388205121 0 0 0 0 -156.59790701541351 9.6288843453276058 0 9.6288843453276058 271.72290682054791 0 0 0 0 -244.8469759844993 -160.23636907032517 0 -160.23636907032517 193.48068932843898 0 0 0 0 74.726284491887782 91.276210777324195 0 91.276210777324195 257.31413834160958 0 0 0 0 -29.521674184361473 40.156932658104779 0 40.156932658104779 281.38150848171972 0 0 0 0 82.906555819194182 68.369384092071414 0 68.369384092071414 189.72705955005949 0 0 0 0 -19.779393212054856 -13.033733144255166 0 -13.033733144255166 189.91199744996084 0 0 0 0 33.412839642725885 34.792713684470073 0 34.792713684470073 169.86056101687564 0 0 0 0 29.141636316373479 21.691013607692184 0 21.691013607692184 157.93640245030565 0 0 0 0 30.2369288362097 40.805930880621418 0 40.805930880621418 176.00596652366767 0 0 0 0 97.335627896944061 65.492583281167754 0 65.492583281167754 151.97098834054395 0 0 0 0 98.705084504317711 34.826840885060363 0 34.826840885060363 58.403649475008933 0 0 0 0 59.409649407782126 -9.8862936775121852 0 -9.8862936775121852 21.041361177078215 0 0 0 0 50.559486095968168 9.3914075589373169 0 9.3914075589373169 86.703539003030528 0 0 0 0 13.564306978834793 -10.21602250729984 0 -10.21602250729984 92.591051649313158 0 0 0 0 34.040599001586088 -61.546015145905358 0 -61.546015145905358 111.19021091516152 0 0 0 0 57.419280955335125 11.493268119170352 0 11.493268119170352 67.428892335763521 0 0 0 0 93.527759149452322 19.895722247621961 0 19.895722247621961 -9.1847298043157934 0 0 0 0 64.162975013605319 -31.711787398459364 0 -31.711787398459364 20.727403736294946 0 0 0 0 102.43050907878205 11.827171905091518 0 11.827171905091518 -40.17441382126708 0 0 0 0 21.439275691402145 -63.642913636303092 0 -63.642913636303092 -97.094723589843852 0 0 0 0 15.855210820911452 26.506632861185608 0 26.506632861185608 -39.945652362860073 0 0 0 0 95.274684984702617 -5.0442008882346272 0 -5.0442008882346272 -97.146011696768255 0 0 0 0 136.62937976809917 -11.666861295913804 0 -11.666861295913804 -172.10455219770211 0 0 0 0 112.8110941342602 11.411634983841168 0 11.411634983841168 -19.021247009419312 0 0 0 0 79.773024027294014 -45.464299206503711 0 -45.464299206503711 -77.344899206013906 0 0 0 0 72.917377421690617 -1.3049604311399889 0 -1.3049604311399889 -34.735219475713166 0 0 0 0 272.77667005106923 108.26053097338036 0 108.26053097338036 -107.92215218165302 0 0 0 0 279.4349533263885 63.744588433034551 0 63.744588433034551 -130.22809663943644 0 0 0 0 320.10600866198365 -116.67578964423137 0 -116.67578964423137 23.387553181946714 0 0 0 0 217.67046882698196 -15.026287753241832 0 -15.026287753241832 -0.66034080481495039 0 0 0 0 474.41155643619277 90.61982097125474 0 90.61982097125474 -109.83542696003224 0 0 0 0 3.7910097873209452 -2.9889288773863996 0 -2.9889288773863996 2.4124039431372619 0 0 0 0 169.54043294608709 -112.68491199402479 0 -112.68491199402479 110.20168635214577 0 0 0 0 -198.5038289091317 -192.30043215183014 0 -192.30043215183014 78.022643096424758 0 0 0 0 -161.06651158278692 -23.274828585654632 0 -23.274828585654632 327.81689906570705 0 0 0 0 99.579477680730633 258.24449470018271 0 258.24449470018271 264.5583417375525 0 0 0 0 -173.75975640959223 100.5133164085205 0 100.5133164085205 36.059815707122425 0 0 0 0 -5.2239904476664378 47.3450788280295 0 47.3450788280295 -39.496613022452493 0 0 0 0 27.378217997194042 15.168899384322941 0 15.168899384322941 -4.0856565127469899 0 0 0 0 60.367229213748942 2.7785268381722972 0 2.7785268381722972 5.0790646363695942 0 0 0 0 34.481962601785312 16.178484263647476 0 16.178484263647476 -0.52766098525519745 0 0 0 0 33.897559045057108 -7.902985196526231 0 -7.902985196526231 -5.0158102532621029 0 0 0 0 82.047965519712307 11.294423394033743 0 11.294423394033743 -30.370315575662516 0 0 0 0 39.272795927413711 29.409564517449354 0 29.409564517449354 -2.2477626152511263 0 0 0 0 29.21847999849615 48.382152482812245 0 48.382152482812245 10.571445122739988 0 0 0 0 144.61002513465064 22.51427896172504 0 22.51427896172504 -30.977526851220318 0 0 0 0 12.474680539075052 -59.422836975505561 0 -59.422836975505561 -44.206429659161586 0 0 0 0 27.489862485437015 -15.179049980089502 0 -15.179049980089502 -2.1982590461701905 0 0 0 0 28.564707541467214 76.456290056794785 0 76.456290056794785 118.59033238267284 0 0 0 0 280.49372734100325 -30.855178225087457 0 -30.855178225087457 -63.55961702014838 0 0 0 0 72.519724349942408 106.92012979159119 0 106.92012979159119 122.83926657207462 0 0 0 0 1.8631321558571585 0.67695579709108067 0 0.67695579709108067 -0.001505909686079776 0 0 0 0 28.033233173686313 34.223411370388476 0 34.223411370388476 4.5072050583997338 0 0 0 0 -62.456578065175563 95.171645045919007 0 95.171645045919007 28.825980903803618 0 0 0 0 -83.860053579526721 -10.244092349733364 0 -10.244092349733364 6.772863573578995 0 0 0 0 -75.51431122237409 88.542357286197202 0 88.542357286197202 58.698147816080109 0 0 0 0 -21.615981595765334 -3.4310149796709055 0 -3.4310149796709055 12.501860768016741 0 0 0 0 16.938092116091866 -1.2289948319070731 0 -1.2289948319070731 -11.179441793143042 0 0 0 0 -0.019156028611021725 0.29281953980216713 0 0.29281953980216713 0.42267105723913057 0 0 0 0 -30.977442306459125 -32.997257712479012 0 -32.997257712479012 -8.5992182004207507 0 0 0 0 -72.723179124048329 95.922885385388525 0 95.922885385388525 40.666697201194438 0 0 0 0 92.166981576767284 88.332090965143607 0 88.332090965143607 8.3622497524580695 0 0 0 0 -57.132766702474328 95.704249857514043 0 95.704249857514043 8.9055421743462375 0 0 0 0 -37.976772031630389 130.22604005846995 0 130.22604005846995 61.361989585865544 0 0 0 0 -4.3008191808476113 65.053415125214315 0 65.053415125214315 80.822614095419567 0 0 0 0 -4.0505686637188774 194.27867142192122 0 194.27867142192122 -1.2521323756502625 0 0 0 0 4.7602840885074897 1.592429034435753 0 1.592429034435753 -0.13253326203455451 0 0 0 0 60.783811240326031 6.1661986681580174 0 6.1661986681580174 23.104622185218432 0 0 0 0 56.929072688217275 1.1721200956371831 0 1.1721200956371831 4.5163404584118325 0 0 0 0 26.619339252894918 20.041786953001747 0 20.041786953001747 3.0106776172238243 0 0 0 0 145.36582611974154 -18.945142186416888 0 -18.945142186416888 -77.506685227749585 0 0 0 0 22.843049730571551 19.147250397833915 0 19.147250397833915 -1.4668244701973254 0 0 0 0 84.356627036657301 224.66885062415895 0 224.66885062415895 -9.2589859336753761 0 0 0 0 53.702428894117475 -1.5088040934842866 0 -1.5088040934842866 18.08299226120937 0 0 0 0 189.1850658844196 -90.654505168686001 0 -90.654505168686001 -70.724659513247389 0 0 0 0 21.452085702010095 18.115848009461672 0 18.115848009461672 0.65464170646226272 0 0 0 0 55.475767205789452 -3.6426574341313653 0 -3.6426574341313653 14.541423152449624 0 0 0 0 -2.5521872041863389 129.81017782004403 0 129.81017782004403 18.74098866043127 0 0 0 0 154.33752623022883 0.24464298640388904 0 0.24464298640388904 -69.561092789076739 0 0 0 0 163.93459359876579 -118.49271906474451 0 -118.49271906474451 0.47394932803354095 0 0 0 0 85.404657146485988 -86.054753689599693 0 -86.054753689599693 36.766770025551978 0 0 0 0 151.83391722044325 -85.410920112738836 0 -85.410920112738836 -59.085374899060071 0 0 0 0 105.42062042315956 -128.40353516624464 0 -128.40353516624464 107.87792628065472 0 0 0 0 189.27197170248837 114.62483267427388 0 114.62483267427388 -107.99709621695274 0 0 0 0 3.1838189104132653 -11.050618776245187 0 -11.050618776245187 1.507472131760486 0 0 0 0 15.523545416421257 -79.462197602859305 0 -79.462197602859305 -307.12631015173702 0 0 0 0 18.88035900570685 159.16531592329602 0 159.16531592329602 -130.21152798840103 0 0 0 0 391.59107589197811 78.827108718503496 0 78.827108718503496 -185.93476630264877 0 0 0 0 70.734206554526168 -0.67406482996674555 0 -0.67406482996674555 -2.5622611613607988 0 0 0 0 225.15866979553539 7.7741607933847945 0 7.7741607933847945 -123.06079164967878 0 0 0 0 70.052104234579019 -2.4706787494824312 0 -2.4706787494824312 -218.55238309456308 0 0 0 0 131.93472955259494 -41.734870102128298 0 -41.734870102128298 -218.433179568171 0 0 0 0 82.414989899669308 -44.610808821769751 0 -44.610808821769751 -143.40650996242402 0 0 0 0 85.29064352819114 -39.684974817375632 0 -39.684974817375632 -176.84595109684415 0 0 0 0 27.786841711043962 -32.99848947830742 0 -32.99848947830742 -352.64421069791933 0 0 0 0 41.625447835191153 -91.284387821460768 0 -91.284387821460768 -226.34800215592531 0 0 0 0 -55.644496053049807 -62.147929640766051 0 -62.147929640766051 -133.59449370970015 0 0 0 0 -108.17671304591931 187.42133054375245 0 187.42133054375245 -435.83659156920066 0 0 0 0 7.1870720059081989 -1.8768875643844751 0 -1.8768875643844751 -0.4190848071750537 0 0 0 0 -22.389583548996598 67.702548116420985 0 67.702548116420985 -268.82449976370185 0 0 0 0 243.68437268180423 24.924931832569911 0 24.924931832569911 -18.419236795723464 0 0 0 0 -6.2509333067713158 -1.8510501284988834 0 -1.8510501284988834 2.2004314668546052 0 0 0 0 -58.211208783352049 -5.2120977565856066 0 -5.2120977565856066 -6.4438801285524221 0 0 0 0 9.2119054860237313 -30.660893772683494 0 -30.660893772683494 -2.4011758810967718 0 0 0 0 -85.379461760661798 -61.880715626354913 0 -61.880715626354913 63.508570112668735 0 0 0 0 263.21255196368293 -55.722415139702932 0 -55.722415139702932 -26.620372399650932 0 0 0 0 213.08653490863799 -16.539064795156946 0 -16.539064795156946 -8.7954096478449628 0 0 0 0 13.148212106233785 -32.525333055035276 0 -32.525333055035276 -0.93550672212122565 0 0 0 0 154.10742693825159 -28.268728909831054 0 -28.268728909831054 -4.0804817914166733 0 0 0 0 158.57851771239802 -24.697951792049025 0 -24.697951792049025 -2.8489121537259052 0 0 0 0 128.85717947571538 -27.966218226511501 0 -27.966218226511501 -1.0764922344862953 0 0 0 0 -23.435102294548415 -11.588257580969866 0 -11.588257580969866 56.347834626410304 0 0 0 0 11.760708196376925 -28.74729506764632 0 -28.74729506764632 0.84045508769639898 0 0 0 0 12.382266090425619 -4.4468183074511671 0 -4.4468183074511671 2.3513218987828348 0 0 0 0 19.944530579785351 -1.5524193922948371 0 -1.5524193922948371 -1.6258299243222609 0 0 0 0 54.243295136286179 27.233305330603628 0 27.233305330603628 46.48928798019233 0 0 0 0 128.21982245135587 -12.436581601121816 0 -12.436581601121816 2.7581520000808268 0 0 0 0 92.793933199020103 -19.731942785967021 0 -19.731942785967021 4.8141433810197896 0 0 0 0 145.7741255161236 14.737650108124001 0 14.737650108124001 16.712670175890707 0 0 0 0 97.669945693574846 33.471683887895779 0 33.471683887895779 46.947187792206478 0 0 0 0 154.54906998638762 42.759622205980804 0 42.759622205980804 30.832636740821272 0 0 0 0 54.133834819018375 -8.1325827460933624 0 -8.1325827460933624 7.6364506508957675 0 0 0 0 35.134579317202537 16.370185437370935 0 16.370185437370935 -1.1838707824161903 0 0 0 0 95.394718483905308 4.0264308297897742 0 4.0264308297897742 7.1379480300638534 0 0 0 0 58.769868586219673 -4.9816260283464118 0 -4.9816260283464118 9.7506354685074825 0 0 0 0 21.649492147798526 14.213044278401924 0 14.213044278401924 -3.3278018992991703 0 0 0 0 -49.834986277921416 24.856420966525892 0 24.856420966525892 9.2279011142632612 0 0 0 0 67.539231346629094 0.038564977745693341 0 0.038564977745693341 5.8620437802114793 0 0 0 0 27.469567320028943 -10.456526644064525 0 -10.456526644064525 2.2388573663259441 0 0 0 0 -15.46642055461416 16.263110560806865 0 16.263110560806865 -8.2438529128415752 0 0 0 0 20.82121739743161 31.593177891817348 0 31.593177891817348 -8.9252200080691182 0 0 0 0 101.11002283869311 -12.926539940310192 0 -12.926539940310192 -3.7604597688233525 0 0 0 0 6.3803949226684153 -0.60632355797244486 0 -0.60632355797244486 -1.6286158954595225 0 0 0 0 6.3962880205080523 0.59196405112243156 0 0.59196405112243156 2.4448674501522794 0 0 0 0 138.61474322693539 -41.703644729323756 0 -41.703644729323756 14.059103684563496 0 0 0 0 93.479517040643259 10.227792819060735 0 10.227792819060735 -1.5691506925813883 0 0 0 0 5.7846528439089688 -0.4023439163781859 0 -0.4023439163781859 -0.10378640794992955 0 0 0 0 141.44218638105667 -35.832117688015416 0 -35.832117688015416 13.238908014032333 0 0 0 0 149.21796555239416 -40.413517821871267 0 -40.413517821871267 10.644917270026895 0 0 0 0 139.7315360789944 -28.22576043944116 0 -28.22576043944116 -1.1688168640710046 0 0 0 0 63.897297046496533 -43.097813800531526 0 -43.097813800531526 15.700914307772791 0 0 0 0 119.01562293956522 -46.964893123224215 0 -46.964893123224215 15.949981760893252 0 0 0 0 46.377267404383701 -1.9610902847996101 0 -1.9610902847996101 -1.4663494985494698 0 0 0 0 156.32845429761801 -26.573166193795061 0 -26.573166193795061 -5.4334174201972019 0 0 0 0 166.90768573514652 -31.545993798737868 0 -31.545993798737868 -9.4778834910750263 0 0 0 0 215.87114314569044 -31.86992525110206 0 -31.86992525110206 -6.2667024196844654 0 0 0 0 151.37877579237102 -11.548192231701563 0 -11.548192231701563 0.87058264458676149 0 0 0 0 131.0658058107947 28.125312194463334 0 28.125312194463334 -1.0837473565235882 0 0 0 0 117.14748887679889 24.867798483459467 0 24.867798483459467 -11.48923507719519 0 0 0 0 171.17029435180302 -5.3204915642448327 0 -5.3204915642448327 -11.078537332967471 0 0 0 0 108.62162266141968 -8.2947348386311432 0 -8.2947348386311432 -3.6958356039498312 0 0 0 0 106.27824424274149 9.925388329794572 0 9.925388329794572 -12.841322155244825 0 0 0 0 152.22846267864225 -23.310089176437771 0 -23.310089176437771 -5.6813128095477623 0 0 0 0 87.19629146635998 -11.034838570215356 0 -11.034838570215356 0.9504613392526835 0 0 0 0 151.47338028950617 -24.783660914997085 0 -24.783660914997085 -8.5016550096787 0 0 0 0 151.89361230729264 -29.398262387999125 0 -29.398262387999125 -5.6811113950503795 0 0 0 0 96.061644028959563 -80.382569232082687 0 -80.382569232082687 29.279328195389439 0 0 0 0 22.064039133838378 0.80691510454687432 0 0.80691510454687432 24.097176748323591 0 0 0 0 152.61798252156404 -39.806449266166375 0 -39.806449266166375 3.4948006600968711 0 0 0 0 134.95455063605914 0.52794555647415109 0 0.52794555647415109 -226.71233954178251 0 0 0 0 126.04043227313377 33.151530353665862 0 33.151530353665862 -193.57889894451728 0 0 0 0 73.675145216140663 -65.954112512255278 0 -65.954112512255278 -52.88514321432649 0 0 0 0 69.414286867628107 40.425799726997298 0 40.425799726997298 -64.945315968803925 0 0 0 0 9.794026629805785 -3.0593943602537763 0 -3.0593943602537763 -2.6515313873572746 0 0 0 0 66.489010625502374 4.4721120171782971 0 4.4721120171782971 -0.48991617000474658 0 0 0 0 49.664867819257779 27.438508491423647 0 27.438508491423647 0.50872864355062575 0 0 0 0 49.678882425127085 49.256037037297688 0 49.256037037297688 -37.692342309582159 0 0 0 0 63.199078106496017 23.698348178454353 0 23.698348178454353 -40.293303388379172 0 0 0 0 55.375494428051752 36.394877257159294 0 36.394877257159294 -23.946705932988721 0 0 0 0 33.163619757114759 10.71197256240751 0 10.71197256240751 -0.5107005079993101 0 0 0 0 22.923206720436667 3.6190455112442308 0 3.6190455112442308 0.2294479665910335 0 0 0 0 10.267016437894199 28.550271984888923 0 28.550271984888923 68.36511854478897 0 0 0 0 4.0896710851666285 11.543342981009573 0 11.543342981009573 29.108805922790907 0 0 0 0 24.676011950228713 6.2483182639206234 0 6.2483182639206234 -1.7540450192070693 0 0 0 0 17.699887407798087 9.2186470737196942 0 9.2186470737196942 9.9821404419831197 0 0 0 0 24.560866528882116 16.285158727287467 0 16.285158727287467 2.8087729684525016 0 0 0 0 24.968357876045047 35.143457024862641 0 35.143457024862641 -16.688129544786079 0 0 0 0 7.1669176267896546 52.725591054967978 0 52.725591054967978 -9.8575653652446817 0 0 0 0 65.747346673961147 17.854420155689013 0 17.854420155689013 -0.0064899445575292702 0 0 0 0 27.497414051926171 20.453945428426806 0 20.453945428426806 -16.97779513611647 0 0 0 0 73.540500454546418 34.347339637427865 0 34.347339637427865 -17.680112432936994 0 0 0 0 48.919851825397927 22.45685833395811 0 22.45685833395811 -2.6293063445596729 0 0 0 0 71.934375758268288 46.772496178442609 0 46.772496178442609 10.221173190102093 0 0 0 0 94.847250847960822 7.6925654205133753 0 7.6925654205133753 -1.1451325235267689 0 0 0 0 21.378026978462003 44.638441593072912 0 44.638441593072912 3.03882231237003 0 0 0 0 22.906679196137702 36.951925736112514 0 36.951925736112514 4.188830098899416 0 0 0 0 -1.6053240955225192 28.381882532702235 0 28.381882532702235 1.6550367480604109 0 0 0 0 27.380033193636336 24.20637273045589 0 24.20637273045589 4.7227683066307975 0 0 0 0 15.706284431595122 72.414402224780488 0 72.414402224780488 -105.97267580485268 0 0 0 0 90.793987467535771 7.1804877078109186 0 7.1804877078109186 -4.5564493997704423 0 0 0 0 102.91801491182559 33.988357741573054 0 33.988357741573054 35.594295717961373 0 0 0 0 56.33747026558558 45.833134083875279 0 45.833134083875279 -30.909222762622562 0 0 0 0 88.681184974615462 -5.2571071614451093 0 -5.2571071614451093 -0.36582810173177904 0 0 0 0 43.786099222939811 -34.990977025403822 0 -34.990977025403822 -69.248341745342174 0 0 0 0 44.394104768434772 -41.842484601758699 0 -41.842484601758699 -13.360230878558188 0 0 0 0 -1.3787424683687277 -74.694583835948691 0 -74.694583835948691 -98.641726853344295 0 0 0 0 -16.244138921814738 -16.851768879890926 0 -16.851768879890926 -12.987647900882912 0 0 0 0 36.5943334092226 -20.97396431957003 0 -20.97396431957003 0.028911795939491128 0 0 0 0 25.036157123693556 -39.284860707920174 0 -39.284860707920174 7.7493463282977046 0 0 0 0 118.92788185235986 -59.835475249673003 0 -59.835475249673003 -12.395992296778392 0 0 0 0 214.38473044865532 -53.711058725734006 0 -53.711058725734006 1.3114660929864428 0 0 0 0 123.40514472789255 -23.072756899437014 0 -23.072756899437014 -7.1986676607134257 0 0 0 0 140.75593738022144 -11.170995930156353 0 -11.170995930156353 -0.067598267673903312 0 0 0 0 108.366576697852 20.296088209078505 0 20.296088209078505 -6.8852948167397887 0 0 0 0 209.27916206955524 48.014352254958013 0 48.014352254958013 -17.215080535813883 0 0 0 0 112.43693040724611 12.105642873069156 0 12.105642873069156 -6.3261526603708234 0 0 0 0 3.7143460227234755 30.878663068662583 0 30.878663068662583 26.147209125224038 0 0 0 0 85.486566114937887 64.966825630759573 0 64.966825630759573 37.309065114527961 0 0 0 0 138.80757180228829 -42.196525267102693 0 -42.196525267102693 -5.3511706893451247 0 0 0 0 153.03129445697414 4.0049300398386087 0 4.0049300398386087 90.791999271827038 0 0 0 0 168.05192418739898 2.1114686149649344 0 2.1114686149649344 2.1686684969122894 0 0 0 0 162.11525601652829 -10.205777021232311 0 -10.205777021232311 28.402659262817167 0 0 0 0 185.39186747150961 9.7461207335707769 0 9.7461207335707769 7.2455957436876588 0 0 0 0 0.53987008180064322 0.85002569801258687 0 0.85002569801258687 0.69664586419441676 0 0 0 0 300.21242012325092 13.039498615133056 0 13.039498615133056 -2.5984764714019235 0 0 0 0 318.05516554103269 -122.03602881450384 0 -122.03602881450384 29.608648287056184 0 0 0 0 165.56517079341575 -62.489784937488139 0 -62.489784937488139 37.142445665997769 0 0 0 0 19.067336728970986 -13.603347333216277 0 -13.603347333216277 -3.2173927747538968 0 0 0 0 35.613393244765575 -0.14830053077725758 0 -0.14830053077725758 -13.039849512408409 0 0 0 0 3.9164208930276914 2.3950175958449336 0 2.3950175958449336 -1.2331217069787392 0 0 0 0 30.747228194057243 -0.082315395963824756 0 -0.082315395963824756 22.712019490781643 0 0 0 0 -2.9509261772909667 5.3664450157935235 0 5.3664450157935235 -0.70022881331129838 0 0 0 0 92.65202000476711 8.2526916327883555 0 8.2526916327883555 -3.0083304955666108 0 0 0 0 66.388358348095608 -15.122540900528984 0 -15.122540900528984 -5.8832836995580351 0 0 0 0 0.091584967961395591 -0.11613657207317374 0 -0.11613657207317374 0.018528135172297233 0 0 0 0 44.419684744992992 3.0056667688785517 0 3.0056667688785517 9.7043337204461011 0 0 0 0 31.816869428585051 14.758637200524184 0 14.758637200524184 -14.222543709312561 0 0 0 0 -0.46201699331467161 -0.12554940101711054 0 -0.12554940101711054 -0.063301838153621115 0 0 0 0 18.794996255281148 -3.8510694480530532 0 -3.8510694480530532 20.269095396869673 0 0 0 0 48.519583216941101 -11.180177450298091 0 -11.180177450298091 3.0922658924990429 0 0 0 0 84.917597999447025 29.549165938056902 0 29.549165938056902 11.877359319981483 0 0 0 0 54.04997730377363 1.9776699415157211 0 1.9776699415157211 -0.74770955372767389 0 0 0 0 39.104520387540106 6.3112825807316426 0 6.3112825807316426 6.7336227968316766 0 0 0 0 97.127788964440697 7.5834497670625804 0 7.5834497670625804 -0.78339022864191321 0 0 0 0 51.374478946439922 -7.4321886291308719 0 -7.4321886291308719 0.014577294430672042 0 0 0 0 19.438367033886607 6.9500064037745091 0 6.9500064037745091 19.321882344193618 0 0 0 0 0.069093275516877384 -0.052788684076745085 0 -0.052788684076745085 0.034283461721941313 0 0 0 0 30.578795949448249 4.0416808759745564 0 4.0416808759745564 -6.4666492193774019 0 0 0 0 32.161057365621673 18.444527027271008 0 18.444527027271008 1.5012176320364148 0 0 0 0 46.49152279253758 16.059360096676571 0 16.059360096676571 -9.0656784492230855 0 0 0 0 136.84305428304651 -19.347800616638473 0 -19.347800616638473 2.7784368905621539 0 0 0 0 15.822088819317287 15.739849317412698 0 15.739849317412698 0.4899695520469991 0 0 0 0 -38.402958663355093 21.027225470492453 0 21.027225470492453 -17.944287914733309 0 0 0 0 -18.556620169430971 -65.384642425398624 0 -65.384642425398624 -72.445528683095063 0 0 0 0 -0.20816595146536088 0.036811562251841679 0 0.036811562251841679 0.092287554215320644 0 0 0 0 -14.08696569816675 -17.779293544538746 0 -17.779293544538746 9.6995892834839879 0 0 0 0 27.424496317864396 -22.990957844480931 0 -22.990957844480931 9.3409467090676799 0 0 0 0 -0.054253095399040774 -0.3124654932612998 0 -0.3124654932612998 0.39260549596176669 0 0 0 0 119.72425142692373 -81.721222554856865 0 -81.721222554856865 13.334437760591328 0 0 0 0 0.58747526021033991 3.1049224850791757 0 3.1049224850791757 7.208530832347682 0 0 0 0 15.326685903899488 -19.440818564944539 0 -19.440818564944539 0.0074391068701642445 0 0 0 0 112.13650937122293 -91.847268420273195 0 -91.847268420273195 0.033678616960399442 0 0 0 0 122.17863097603549 -108.673607431981 0 -108.673607431981 16.744458731730248 0 0 0 0 85.674333175993524 -91.662730575918118 0 -91.662730575918118 24.240246394142758 0 0 0 0 94.73829543881584 -52.342691463560513 0 -52.342691463560513 17.774755170387493 0 0 0 0 82.179183887434192 -96.157633394392434 0 -96.157633394392434 30.199830957324764 0 0 0 0 56.416532428993378 -50.342466564689715 0 -50.342466564689715 -7.6471769768509148 0 0 0 0 35.810561804421013 -95.745626053033121 0 -95.745626053033121 31.694503009100458 0 0 0 0 24.663056891673477 -62.957723256949151 0 -62.957723256949151 0.31765810988588328 0 0 0 0 70.561575988278491 -88.239380312325835 0 -88.239380312325835 5.2792094020132367 0 0 0 0 -20.596906292747008 -82.714209144907073 0 -82.714209144907073 45.015495817558531 0 0 0 0 -41.090468668146059 -73.281961867549143 0 -73.281961867549143 1.3157216764180362 0 0 0 0 -6.0730142230167985 -54.178132081774947 0 -54.178132081774947 8.9053899245670891 0 0 0 0 -89.989102593652206 -70.984562630512812 0 -70.984562630512812 31.665315320135676 0 0 0 0 -23.30115687280886 -33.932630010333625 0 -33.932630010333625 5.8298415868698612 0 0 0 0 -51.065066087758169 -28.438922422513713 0 -28.438922422513713 23.618598597131722 0 0 0 0 -0.32524321754956986 -0.63450527468154405 0 -0.63450527468154405 0.391847356086377 0 0 0 0 -3.1082494878428406 -1.5421675153663803 0 -1.5421675153663803 1.2849426253463463 0 0 0 0 17.564258142665494 -10.83186927080925 0 -10.83186927080925 5.6224425693275109 0 0 0 0 -1.4058638676001749 0.62611320380884194 0 0.62611320380884194 0.43185729816784463 0 0 0 0 -117.81505132294842 -18.410371837563162 0 -18.410371837563162 39.813524573090774 0 0 0 0 1.6884599336517567 -3.8813988000616 0 -3.8813988000616 0.16693595656533944 0 0 0 0 -0.17113872125116814 -0.051920698790979714 0 -0.051920698790979714 0.93147077216937879 0 0 0 0 -5.1279920722299721 0.79708453916825306 0 0.79708453916825306 1.5517304385532675 0 0 0 0 -83.091045413777465 14.258780125477159 0 14.258780125477159 0.95367700194208282 0 0 0 0 -181.55368067709787 7.9574698773172141 0 7.9574698773172141 63.102247341947162 0 0 0 0 -36.947511331149144 -70.420123301271474 0 -70.420123301271474 84.692742652899057 0 0 0 0 13.177580366857597 15.048982050473256 0 15.048982050473256 14.81699616862203 0 0 0 0 719.36755909756175 -245.59614406797755 0 -245.59614406797755 -58.56877645989789 0 0 0 0 28.597540776419919 10.369219521759192 0 10.369219521759192 14.063957884260901 0 0 0 0 23.344163697285694 7.2947184987961009 0 7.2947184987961009 12.8192949467566 0 0 0 0 26.042319914427935 9.5988396749438607 0 9.5988396749438607 0.57970294162578284 0 0 0 0 867.59219393719104 -189.5378998705778 0 -189.5378998705778 108.89621093766982 0 0 0 0 15.66716196773308 11.974982443239156 0 11.974982443239156 6.9675702606602385 0 0 0 0 24.921105977011962 10.440727728623852 0 10.440727728623852 1.5068565094709003 0 0 0 0 1036.5472756919335 -760.17582340950503 0 -760.17582340950503 277.44292634990052 0 0 0 0 0.14717340742430451 7.5043983299123624 0 7.5043983299123624 1.3445471979433066 0 0 0 0 1346.5667660580948 -806.00462654285002 0 -806.00462654285002 106.39395117181266 0 0 0 0 1503.6774505387002 -926.60005709347524 0 -926.60005709347524 0.23469407951415633 0 0 0 0 3007.5146223303163 -916.83856675573952 0 -916.83856675573952 -84.2644079506872 0 0 0 0 2942.6715603560515 275.98700921717921 0 275.98700921717921 -427.35858245817781 0 0 0 0 2605.248973366979 -887.67036238149649 0 -887.67036238149649 -148.56415571903199 0 0 0 0 2085.8997982069268 154.82735588684272 0 154.82735588684272 -249.96326194279391 0 0 0 0 1499.073441404209 -437.16364430439626 0 -437.16364430439626 -117.26002251959517 0 0 0 0 1469.2039450544398 -401.57288122952832 0 -401.57288122952832 -96.433678602406872 0 0 0 0 4587.4513888203655 269.72276334013895 0 269.72276334013895 -573.33508128472613 0 0 0 0 2726.3258494656475 674.08942929474051 0 674.08942929474051 -363.6003296526178 0 0 0 0 2211.2798845583457 168.27238749201842 0 168.27238749201842 -426.32471330762974 0 0 0 0 2063.4815229916567 1253.5573306179876 0 1253.5573306179876 69.604453070962336 0 0 0 0 1609.2048779333709 508.33765777652934 0 508.33765777652934 -212.78822047644007 0 0 0 0 1880.8434854549341 780.28165796952612 0 780.28165796952612 -196.9110090710692 0 0 0 0 1235.0511056391697 1042.9936684382151 0 1042.9936684382151 25.759386719850681 0 0 0 0 1783.1274872252834 546.24121978860876 0 546.24121978860876 -378.68364717221516 0 0 0 0 1788.1056418200315 500.28944794068775 0 500.28944794068775 -283.26737570779278 0 0 0 0 1331.4228123553621 764.17631761712255 0 764.17631761712255 -197.38275779048308 0 0 0 0 1192.2427306597237 -242.66677249749137 0 -242.66677249749137 -171.89954429223462 0 0 0 0 1278.8162980030756 -145.09676897348709 0 -145.09676897348709 -137.6194904531385 0 0 0 0 1537.8633265616372 38.480915195924354 0 38.480915195924354 -269.00696168178229 0 0 0 0 1427.0439403557393 111.16279731220402 0 111.16279731220402 -180.15685656537062 0 0 0 0 1113.2673317104782 42.509988515062105 0 42.509988515062105 4.8488954739987093 0 0 0 0 1095.2785979663895 93.407163354201657 0 93.407163354201657 -138.75546390920363 0 0 0 0 1310.611272072274 308.73994531161816 0 308.73994531161816 -82.376028903925544 0 0 0 0 982.1200884009013 290.59933312812336 0 290.59933312812336 -42.103026798657538 0 0 0 0 819.46643605821009 105.51527213117015 0 105.51527213117015 20.893842706174837 0 0 0 0 1212.5576033928373 439.6984040440193 0 439.6984040440193 -144.0263516684704 0 0 0 0 1194.630857735232 483.62477777853383 0 483.62477777853383 -79.764620644538809 0 0 0 0 1029.0727222351998 424.19703621885628 0 424.19703621885628 141.1350915761841 0 0 0 0 1029.5468456729977 337.68063703257474 0 337.68063703257474 54.950270591411027 0 0 0 0 953.26821352739353 254.88657766790493 0 254.88657766790493 -70.521968639705847 0 0 0 0 722.41195918417361 93.212071171784146 0 93.212071171784146 12.102850522131121 0 0 0 0 733.15315872544306 226.36359398745208 0 226.36359398745208 87.390381972306386 0 0 0 0 11.912998764106305 -93.853239651793501 0 -93.853239651793501 124.51697260219589 0 0 0 0 379.33029221737524 123.23518571721161 0 123.23518571721161 22.135916288738144 0 0 0 0 534.83318648800196 -21.480284353132447 0 -21.480284353132447 -36.608788025621834 0 0 0 0 787.56192483336781 164.23742575887263 0 164.23742575887263 -49.570285633085007 0 0 0 0 255.14490738505992 175.73456759613236 0 175.73456759613236 127.45152210402557 0 0 0 0 541.48430218307476 -132.97971766234605 0 -132.97971766234605 -104.28999966342599 0 0 0 0 -1.9155446008187482 2.6908985437532777 0 2.6908985437532777 5.9166352313627595 0 0 0 0 11.758944391531713 5.0211115599290537 0 5.0211115599290537 5.2229952911984387 0 0 0 0 25.280134113039821 10.246982454410272 0 10.246982454410272 19.838608197248732 0 0 0 0 -26.315739660145482 28.282580583095523 0 28.282580583095523 60.508313945936607 0 0 0 0 -51.212468945595901 175.28453061036726 0 175.28453061036726 41.154604116856717 0 0 0 0 -0.25591134073329158 10.083249980566052 0 10.083249980566052 -6.5816172221866509 0 0 0 0 9.751394536071416 12.094402429705951 0 12.094402429705951 16.374417883705185 0 0 0 0 -16.829933013832488 -34.112380189116436 0 -34.112380189116436 22.062869228229829 0 0 0 0 5.1342949292694016 -0.14402748548545219 0 -0.14402748548545219 0.18563055101363801 0 0 0 0 -19.562889682332752 -5.4032582196198291 0 -5.4032582196198291 37.202639719609579 0 0 0 0 12.772808174087913 -27.370009569447816 0 -27.370009569447816 33.759244972309716 0 0 0 0 415.73656523332465 260.40887008490745 0 260.40887008490745 -108.75635576317291 0 0 0 0 -4.0065432340925327 -34.822335519365197 0 -34.822335519365197 51.676102853923567 0 0 0 0 13.925074665661668 25.173916431312591 0 25.173916431312591 120.13452004529881 0 0 0 0 3.8419918212603648 1.3583435838093294 0 1.3583435838093294 -0.17990279466755332 0 0 0 0 4.8043905678044894 -0.0011811115663089566 0 -0.0011811115663089566 0.16805977391460597 0 0 0 0 -170.24940785641957 -130.3973635404127 0 -130.3973635404127 89.152897884489221 0 0 0 0 -2.6204714198684087 79.123876557081644 0 79.123876557081644 202.85643947825929 0 0 0 0 71.250205163494684 167.65882945031888 0 167.65882945031888 -29.562061672138498 0 0 0 0 25.453239995411423 10.297737918428709 0 10.297737918428709 17.322880643700501 0 0 0 0 10.76351000296097 -5.8520391199330959 0 -5.8520391199330959 1.4774597621975953 0 0 0 0 47.239741156314267 -365.82989906998762 0 -365.82989906998762 -25.256505737401639 0 0 0 0 38.787843738107767 5.1890329926178538 0 5.1890329926178538 -22.026539722267103 0 0 0 0 14.255685693111161 0.14979457870781587 0 0.14979457870781587 0.029086867099852975 0 0 0 0 76.712545133312233 -77.534362061989214 0 -77.534362061989214 -26.982326957750388 0 0 0 0 138.02390505725634 103.09315303353458 0 103.09315303353458 72.953825484556262 0 0 0 0 2.1548647773382754 0.25263420801357483 0 0.25263420801357483 -0.23214170294279945 0 0 0 0 36.402995469921734 27.758399812997368 0 27.758399812997368 14.246749518267279 0 0 0 0 36.760809697938384 27.912899453074829 0 27.912899453074829 2.347023771207887 0 0 0 0 22.538753098837333 20.178639168185668 0 20.178639168185668 34.254319903390979 0 0 0 0 29.662286604721885 19.324889025864181 0 19.324889025864181 6.6957122548142252 0 0 0 0 29.368787379789865 21.3356579710387 0 21.3356579710387 7.2027911345063274 0 0 0 0 41.827628394821659 17.709632348910759 0 17.709632348910759 0.82866158055531969 0 0 0 0 47.70351488943561 26.940913910777567 0 26.940913910777567 1.1382687338309552 0 0 0 0 41.873338917836008 18.72234756473333 0 18.72234756473333 -8.9612106365466389 0 0 0 0 16.580527450471834 -3.8714830903973052 0 -3.8714830903973052 2.3132384839761713 0 0 0 0 25.171045584371313 15.274151470889592 0 15.274151470889592 16.043431628886538 0 0 0 0 43.206108975086863 10.204924709380577 0 10.204924709380577 -8.3300353603235635 0 0 0 0 -6.6934226157318335 37.064914555023996 0 37.064914555023996 25.53041544015133 0 0 0 0 43.136726842611097 9.3168147551509719 0 9.3168147551509719 -1.1815276475398946 0 0 0 0 27.373439029605606 17.766529308842081 0 17.766529308842081 4.1022486696290681 0 0 0 0 2.9873625185573474 35.93729404252241 0 35.93729404252241 -6.6101223509684814 0 0 0 0 28.173975521320244 8.0211604883247674 0 8.0211604883247674 15.555883884281798 0 0 0 0 31.168906733160838 15.154632364537406 0 15.154632364537406 16.599618411111351 0 0 0 0 47.961059295805171 -33.596123796907477 0 -33.596123796907477 -116.72423095185195 0 0 0 0 10.366779911991898 -7.2873848421874357 0 -7.2873848421874357 1.3505036902723431 0 0 0 0 26.3404979147017 9.8200944436675854 0 9.8200944436675854 16.305688943449695 0 0 0 0 33.319301973155234 10.651881937277381 0 10.651881937277381 6.9190505115736869 0 0 0 0 28.051965231250506 5.9012276845378437 0 5.9012276845378437 1.7424442482242739 0 0 0 0 25.570408553685411 11.668682300958267 0 11.668682300958267 11.778886479957691 0 0 0 0 -27.042072191856278 -67.615177770654668 0 -67.615177770654668 -65.772003960117047 0 0 0 0 26.958708530618651 6.1494461730296859 0 6.1494461730296859 -1.3990280490569336 0 0 0 0 110.77862011798425 -66.356445978383846 0 -66.356445978383846 -379.9296320007436 0 0 0 0 26.511265800135789 5.9172218554378055 0 5.9172218554378055 0.1311520143163058 0 0 0 0 42.821933808416361 -82.046271126423221 0 -82.046271126423221 -226.37500760876947 0 0 0 0 26.808962297596736 -96.219532677197776 0 -96.219532677197776 -195.12162505624588 0 0 0 0 19.439206666895188 -53.475615272977507 0 -53.475615272977507 -239.6409898699734 0 0 0 0 5.5306307226128411 -93.191483744377038 0 -93.191483744377038 -108.30744734119986 0 0 0 0 3.0755981594702462 -71.759046027355438 0 -71.759046027355438 -8.9479488411865304 0 0 0 0 68.716656768170651 3.5390991513838017 0 3.5390991513838017 -60.353930786093599 0 0 0 0 55.815718859550543 -47.179890425923318 0 -47.179890425923318 77.325694953757562 0 0 0 0 0.40266948273165326 2.6194174678985309 0 2.6194174678985309 1.5116152780343979 0 0 0 0 -25.337560488056624 25.155316621922914 0 25.155316621922914 -2.607001721063535 0 0 0 0 -20.297406767715984 -85.845163363741264 0 -85.845163363741264 -143.28087573408459 0 0 0 0 2.5942465745550862 2.4730147644559679 0 2.4730147644559679 0.45060951462238807 0 0 0 0 -21.299565372319194 -51.706717044087668 0 -51.706717044087668 -134.29231036354588 0 0 0 0 0.44032617207267322 -63.540234488001829 0 -63.540234488001829 -145.56889368865473 0 0 0 0 16.191789215636504 16.779294300206544 0 16.779294300206544 1.8812628455255802 0 0 0 0 15.204323158290208 7.4763438461825409 0 7.4763438461825409 -2.6096023040618506 0 0 0 0 15.291318896866869 5.5038732843295293 0 5.5038732843295293 -10.136306019266613 0 0 0 0 22.145286333211061 1.9311342854165332 0 1.9311342854165332 2.6933824420157539 0 0 0 0 6.5327545810723677 4.5680268042934813 0 4.5680268042934813 -29.615073934848169 0 0 0 0 8.3533860742534785 -0.62950483019838543 0 -0.62950483019838543 -5.1236417268922665 0 0 0 0 24.208001362407231 -29.290816009271481 0 -29.290816009271481 -195.94376399476346 0 0 0 0 -3.5237094850162975 -40.054400669263316 0 -40.054400669263316 -177.47735090202897 0 0 0 0 -9.0269529495853931 -73.690237289603601 0 -73.690237289603601 -155.68564876540441 0 0 0 0 -28.153243923545233 -38.236607831342894 0 -38.236607831342894 -33.149308555574329 0 0 0 0 -7.0110028168419376 -20.031437534671625 0 -20.031437534671625 -77.143011265203498 0 0 0 0 1.8095925807429012 -37.814005039533527 0 -37.814005039533527 -138.72997727871336 0 0 0 0 -39.234635559812887 8.3429196403369765 0 8.3429196403369765 -180.0969055780723 0 0 0 0 -79.41461843875004 -47.579512494127059 0 -47.579512494127059 -27.837927955878676 0 0 0 0 -35.979710817075102 -47.208565484142376 0 -47.208565484142376 9.7785599675882011 0 0 0 0 -28.021793517895276 -21.622795632114862 0 -21.622795632114862 19.021079533821215 0 0 0 0 -16.741173524729675 -7.1344737008562156 0 -7.1344737008562156 -45.229266203909091 0 0 0 0 29.589117884621373 15.986438172270145 0 15.986438172270145 19.273514215522937 0 0 0 0 -11.814416051463922 -16.10164428959575 0 -16.10164428959575 0.0086706771347921097 0 0 0 0 233.81922790289536 202.42074743393536 0 202.42074743393536 166.07322642694939 0 0 0 0 8.4668957403046079 27.701606544138997 0 27.701606544138997 52.07138672095595 0 0 0 0 110.72395768148999 15.756158903056996 0 15.756158903056996 -2.3928242025560915 0 0 0 0 45.773404814208334 -4.308098610356633 0 -4.308098610356633 0.087669519357750136 0 0 0 0 422.70728625867923 73.083841765667501 0 73.083841765667501 0.34877159358312176 0 0 0 0 1025.4249018809278 560.64970575473421 0 560.64970575473421 230.73443603758682 0 0 0 0 328.85435566291562 133.07464639220342 0 133.07464639220342 163.97217432316302 0 0 0 0 296.41004679460457 189.58348915924199 0 189.58348915924199 67.008350529083771 0 0 0 0 897.12849878384441 781.8600889831298 0 781.8600889831298 586.61934001166856 0 0 0 0 227.64294179034187 135.8635029128049 0 135.8635029128049 181.16571116760781 0 0 0 0 175.33689258107916 83.749740838806872 0 83.749740838806872 -367.47908157615893 0 0 0 0 -68.873308489914052 -127.61472507360776 0 -127.61472507360776 -264.41643770832457 0 0 0 0 202.92016086884541 -91.52157416698401 0 -91.52157416698401 -581.72497974558291 0 0 0 0 40.037989499411196 170.86336120772575 0 170.86336120772575 185.94716659128085 0 0 0 0 -59.460801338995225 -69.499438867265923 0 -69.499438867265923 28.901820127820827 0 0 0 0 16.437355274110075 -1.4997269520885652 0 -1.4997269520885652 -0.93616006855757217 0 0 0 0 1158.2901971998217 -1107.9821538329702 0 -1107.9821538329702 -742.96295721145202 0 0 0 0 4602.2328768800853 2259.8544188001406 0 2259.8544188001406 936.27688590793014 0 0 0 0 2294.114566153643 1603.5687549152178 0 1603.5687549152178 956.16250856759052 0 0 0 0 2972.5711065075884 -1558.4107297521077 0 -1558.4107297521077 455.60104020855283 0 0 0 0 -243.87826437610056 532.79200647797927 0 532.79200647797927 309.21482724532575 0 0 0 0 4782.9918860819307 -132.06275094967941 0 -132.06275094967941 1228.4689558986656 0 0 0 0 12.093622301318476 11.829975024820357 0 11.829975024820357 9.4911377213354875 0 0 0 0 4563.6296408174967 -541.04691754394162 0 -541.04691754394162 -48.126312605812927 0 0 0 0 759.13501090212958 1174.678090387541 0 1174.678090387541 712.60820439326653 0 0 0 0 2917.316318889556 1503.4109853943462 0 1503.4109853943462 287.50349971388295 0 0 0 0 4624.1046343674752 515.76290925649425 0 515.76290925649425 4.4193797675068254 0 0 0 0 1526.769515498876 -738.50937720121271 0 -738.50937720121271 302.52239289800264 0 0 0 0 3088.3915585376089 -28.518226959143675 0 -28.518226959143675 -195.86026677331711 0 0 0 0 1216.8277349002892 384.16972203157979 0 384.16972203157979 -19.281635680620411 0 0 0 0 2032.2358550657373 492.83767278803555 0 492.83767278803555 -77.197060114976992 0 0 0 0 1240.4162983003298 190.55786649838575 0 190.55786649838575 -0.29281839892610656 0 0 0 0 1595.310273568597 -87.877316826457104 0 -87.877316826457104 -194.54999353525227 0 0 0 0 1484.1840647899044 97.141078495785933 0 97.141078495785933 -0.13047416134181852 0 0 0 0 1029.784672596199 96.785043960474951 0 96.785043960474951 40.146236510447523 0 0 0 0 1311.2027148112829 70.730428851556781 0 70.730428851556781 102.02018440335428 0 0 0 0 992.85139738781436 -34.624015649195115 0 -34.624015649195115 178.56401434427397 0 0 0 0 827.58961575388093 71.629858523983245 0 71.629858523983245 -142.32704866870372 0 0 0 0 886.0996339359699 201.01332754461905 0 201.01332754461905 0.16684343261780635 0 0 0 0 687.75911624371656 39.111714572654961 0 39.111714572654961 -137.83194241866931 0 0 0 0 1196.2610168304891 162.06521283009647 0 162.06521283009647 -240.60548201786099 0 0 0 0 987.54263813770376 452.85815424845168 0 452.85815424845168 -135.50885446592054 0 0 0 0 763.90680767540471 318.98290745125104 0 318.98290745125104 -63.75844070204522 0 0 0 0 1847.2984680159552 -433.7124557168637 0 -433.7124557168637 -173.361155836948 0 0 0 0 902.36576213425724 -10.318636046971051 0 -10.318636046971051 208.04562153624011 0 0 0 0 634.61915432455135 357.76552855076301 0 357.76552855076301 39.716601878662985 0 0 0 0 794.15129402645107 293.15817338732211 0 293.15817338732211 -480.59519949116532 0 0 0 0 -180.24417024257127 351.90101200578215 0 351.90101200578215 99.774166570658053 0 0 0 0 1084.1225533708348 872.68710346827265 0 872.68710346827265 524.72958453528099 0 0 0 0 721.68488438691566 111.1252720703726 0 111.1252720703726 -560.77557076075391 0 0 0 0 1135.5076699371421 693.30102812643543 0 693.30102812643543 -79.478026374807087 0 0 0 0 1335.5766823040176 781.79302679897773 0 781.79302679897773 -126.79862330537617 0 0 0 0 197.95613881941244 837.80866264612359 0 837.80866264612359 92.462964339688369 0 0 0 0 989.72338123200461 926.32947131268816 0 926.32947131268816 -443.52322405022232 0 0 0 0 33.103877478086304 -4.5374848372146346 0 -4.5374848372146346 -4.0559957623487399 0 0 0 0 1733.0654186429456 947.67464357888753 0 947.67464357888753 298.25831064577483 0 0 0 0 15.751773761559889 -3.2960328818977302 0 -3.2960328818977302 -0.76361615248921311 0 0 0 0 3343.9426644181658 1688.2788845799678 0 1688.2788845799678 374.01966688534054 0 0 0 0 498.64184607259813 -454.81783353370417 0 -454.81783353370417 337.37196509908335 0 0 0 0 3935.7002844529343 -806.3804998335745 0 -806.3804998335745 -1315.9718042996788 0 0 0 0 3889.2946169609932 -538.33298180440056 0 -538.33298180440056 462.75535220888378 0 0 0 0 15.483513313472599 9.2565584047060554 0 9.2565584047060554 3.5469324415808465 0 0 0 0 77.055518776411191 718.76514035819946 0 718.76514035819946 -24.520427957646007 0 0 0 0 3738.7326203742232 -1656.8411211443513 0 -1656.8411211443513 -218.88905074728609 0 0 0 0 1747.2194646989228 -1602.3924917157547 0 -1602.3924917157547 -1600.848981911714 0 0 0 0 78.812682664312888 -637.37392655930171 0 -637.37392655930171 -135.40781593631527 0 0 0 0 1474.1908804151171 -95.4523135491022 0 -95.4523135491022 803.68953479817446 0 0 0 0 2004.3062642262084 462.74405745609647 0 462.74405745609647 446.13985107344888 0 0 0 0 1376.5490070261294 794.7314905477233 0 794.7314905477233 -58.999683941009607 0 0 0 0 2785.1628000352648 307.96550968569591 0 307.96550968569591 -257.27161912447173 0 0 0 0 2049.1962685420876 429.82599277062764 0 429.82599277062764 -75.835423343673938 0 0 0 0 2140.3820142913028 110.18426112347061 0 110.18426112347061 74.347433213925115 0 0 0 0 2433.2349233354762 229.22344080215908 0 229.22344080215908 -38.018734416607913 0 0 0 0 2582.5544162383048 -161.54919691474254 0 -161.54919691474254 137.3182744513324 0 0 0 0 1742.1966169012012 462.60108164148824 0 462.60108164148824 328.91266460710722 0 0 0 0 1295.0756827360601 463.37865510589381 0 463.37865510589381 470.67274030341196 0 0 0 0 1042.8024284056391 454.38354995902472 0 454.38354995902472 368.05156275058107 0 0 0 0 1233.6858960837999 557.85194259813397 0 557.85194259813397 136.36868234254416 0 0 0 0 1306.7004624453912 431.14851320737785 0 431.14851320737785 223.68082900960871 0 0 0 0 1009.8038542073482 661.01387239002474 0 661.01387239002474 293.52009393847584 0 0 0 0 1136.1255345744139 782.36017176904352 0 782.36017176904352 -64.577608441543816 0 0 0 0 1228.6847311666206 615.34454168276716 0 615.34454168276716 191.24903602802442 0 0 0 0 1209.2374768209993 394.81172634124277 0 394.81172634124277 282.2543531186875 0 0 0 0 1532.8737703329825 473.72571085326717 0 473.72571085326717 165.72812206094841 0 0 0 0 422.90820472783525 -23.602093874073489 0 -23.602093874073489 -3.153301048283538 0 0 0 0 419.14644097318524 124.30406797409432 0 124.30406797409432 325.6066473366277 0 0 0 0 468.0984559438657 146.86589103770143 0 146.86589103770143 101.10863387072095 0 0 0 0 311.42635404583416 -227.7969462682122 0 -227.7969462682122 202.33887016688641 0 0 0 0 235.44023060795735 -54.55932685929838 0 -54.55932685929838 433.52029411729291 0 0 0 0 175.57186823644588 -223.94269570661686 0 -223.94269570661686 249.42058958602502 0 0 0 0 481.71336579613853 -454.01415759207975 0 -454.01415759207975 281.19661480796918 0 0 0 0 1656.8805590748379 -183.70467489074235 0 -183.70467489074235 -10.393766956921354 0 0 0 0 809.09968188038329 -252.33501505393269 0 -252.33501505393269 119.84469250889742 0 0 0 0 731.21903449995443 -79.313765494964173 0 -79.313765494964173 287.73555535708329 0 0 0 0 817.36530091546592 -192.75540547527908 0 -192.75540547527908 119.03348250193267 0 0 0 0 457.8939527963521 -316.10292014412425 0 -316.10292014412425 137.46336509695129 0 0 0 0 585.42248530342476 -39.110995150324015 0 -39.110995150324015 21.365413666994755 0 0 0 0 545.1065940280896 -308.68115314914189 0 -308.68115314914189 -43.138036297850704 0 0 0 0 567.90327669357066 -216.20172423698386 0 -216.20172423698386 247.35143424251044 0 0 0 0 536.75466156372568 -205.18897273386028 0 -205.18897273386028 -62.873676431578929 0 0 0 0 720.59166364691919 -251.68143249320065 0 -251.68143249320065 -246.64247230349429 0 0 0 0 454.49124620601651 -327.91434736384599 0 -327.91434736384599 -243.31832420283354 0 0 0 0 -27.309206155478023 -249.87668124380662 0 -249.87668124380662 7.448304275528244 0 0 0 0 520.75218880929015 28.788501299294584 0 28.788501299294584 71.279782135865617 0 0 0 0 51.900182599521941 26.084053743041295 0 26.084053743041295 -127.97242852463341 0 0 0 0 26.23772586998723 19.496161311069642 0 19.496161311069642 9.8279573424856181 0 0 0 0 116.44270698400214 -595.10738082869557 0 -595.10738082869557 359.4776668242248 0 0 0 0 937.50521756659145 -197.14999602521902 0 -197.14999602521902 -237.03857815649462 0 0 0 0 798.15299910318572 -1001.0646510142201 0 -1001.0646510142201 332.79378749181888 0 0 0 0 1694.296672567405 -527.70379608999974 0 -527.70379608999974 -265.03307645736732 0 0 0 0 377.77563680597086 468.62136041696294 0 468.62136041696294 70.475302104816365 0 0 0 0 1377.1522620649193 276.93598947693908 0 276.93598947693908 -132.07493617913917 0 0 0 0 827.20742847718066 1.9529433035054353 0 1.9529433035054353 -16.114153404444664 0 0 0 0 501.72051850476419 252.11806869398106 0 252.11806869398106 -126.11383818575177 0 0 0 0 436.74217554457937 31.542406212190372 0 31.542406212190372 24.511782412560933 0 0 0 0 225.29737827295321 108.85029150795208 0 108.85029150795208 77.487255153105252 0 0 0 0 -29.740554681120557 -91.459433136314146 0 -91.459433136314146 -0.32041643054435553 0 0 0 0 1363.0634011359507 -528.85284413008503 0 -528.85284413008503 -237.36471892958116 0 0 0 0 14.187917501402978 0.71634406658605343 0 0.71634406658605343 -0.60403077614206335 0 0 0 0 2321.1579613072536 -918.28945923634137 0 -918.28945923634137 80.283445237688966 0 0 0 0 0.78163722675526515 -420.19921652155188 0 -420.19921652155188 262.08392079392195 0 0 0 0 770.53021981474012 -281.49571281128948 0 -281.49571281128948 -49.506785611161831 0 0 0 0 993.33774884184822 -33.810410903935235 0 -33.810410903935235 -230.16812472857555 0 0 0 0 -20.246612506336533 111.4495086079512 0 111.4495086079512 -129.39480360625896 0 0 0 0 23.011061438037018 15.400036289131975 0 15.400036289131975 5.2228173929332629 0 0 0 0 1599.7649634245608 92.362415514247004 0 92.362415514247004 160.9665932213029 0 0 0 0 643.2370814071619 75.760769466639886 0 75.760769466639886 -251.47132398883042 0 0 0 0 644.21965207919129 -137.99057451849848 0 -137.99057451849848 -252.15413908042757 0 0 0 0 661.86520850609304 78.564422643133426 0 78.564422643133426 -100.7777231245143 0 0 0 0 272.82583929545945 -117.43472992973179 0 -117.43472992973179 -162.45748912015563 0 0 0 0 465.87477323747589 -12.101718636666323 0 -12.101718636666323 -86.930773694734356 0 0 0 0 654.94234452677483 126.21573152048354 0 126.21573152048354 -0.17120110519220511 0 0 0 0 379.23528294675634 175.59683950656841 0 175.59683950656841 605.14283559589626 0 0 0 0 9.8180357960170568 5.0506227175572462 0 5.0506227175572462 0.7447436838037137 0 0 0 0 -181.26915766593447 473.29459857200453 0 473.29459857200453 -171.12278271217187 0 0 0 0 383.26548042703507 65.396130426552133 0 65.396130426552133 0.15494366631690443 0 0 0 0 1096.5468321170192 275.11084541800312 0 275.11084541800312 -157.43683528422923 0 0 0 0 1272.8662018698888 -345.70324095129303 0 -345.70324095129303 171.63858512414791 0 0 0 0 587.36566122235672 47.701157834081286 0 47.701157834081286 -0.35548117573211291 0 0 0 0 50.307074398937402 -76.892798127226129 0 -76.892798127226129 462.30841290541525 0 0 0 0 376.9125040123472 128.98140777722983 0 128.98140777722983 -71.524360929814179 0 0 0 0 -381.13169128002482 216.18051598708917 0 216.18051598708917 182.46437433543656 0 0 0 0 -220.61524715316773 251.17828950707172 0 251.17828950707172 -159.82899882831092 0 0 0 0 39.549718448339263 30.857195688273752 0 30.857195688273752 -64.123014077720711 0 0 0 0 -404.14207987801638 108.25632681574702 0 108.25632681574702 0.44525107500183675 0 0 0 0 -75.176039827696513 232.83514257108226 0 232.83514257108226 -160.64546163912755 0 0 0 0 139.82053253884078 43.004810163556293 0 43.004810163556293 -0.19680649258355662 0 0 0 0 -32.505442791763926 102.66602805926647 0 102.66602805926647 42.238135908118288 0 0 0 0 37.817271190404426 9.2331376895887871 0 9.2331376895887871 27.355138911169249 0 0 0 0 7.4284011599374935 31.952937888193322 0 31.952937888193322 29.690237149913862 0 0 0 0 -0.98592018258011649 1.2938865708587173 0 1.2938865708587173 -1.5318536948043684 0 0 0 0 -686.41420711477986 29.908904081938374 0 29.908904081938374 158.6077223126423 0 0 0 0 60.893363792914897 64.836857429414124 0 64.836857429414124 -12.616318602219337 0 0 0 0 -355.20886257107486 91.453774478801392 0 91.453774478801392 21.75464364962545 0 0 0 0 5.7240938499549259 5.2599149409093116 0 5.2599149409093116 -4.4599695246285949 0 0 0 0 29.366007396315126 7.666384499737191 0 7.666384499737191 -0.73443577284816941 0 0 0 0 -174.38643687931472 244.09665031238319 0 244.09665031238319 -209.3420088758578 0 0 0 0 -145.20178653000039 103.80838668517515 0 103.80838668517515 -58.285558831373919 0 0 0 0 18.197055412044506 3.4146489748749147 0 3.4146489748749147 -2.3160284716572987 0 0 0 0 82.585301106766565 6.7095658976729737 0 6.7095658976729737 -19.098865585640965 0 0 0 0 43.03679268322594 2.4742858228734406 0 2.4742858228734406 -37.635562086640078 0 0 0 0 5.3723874846182298 -6.4956845501816076 0 -6.4956845501816076 38.785029119768112 0 0 0 0 3.8081788539376475 4.0018054786817174 0 4.0018054786817174 -7.2993972803856657 0 0 0 0 92.275778215975151 -16.146105846753699 0 -16.146105846753699 7.6411965830830013 0 0 0 0 -3.910264895625005 -35.868098520656076 0 -35.868098520656076 -38.853961957528554 0 0 0 0 22.123791034551687 -32.985545597228793 0 -32.985545597228793 -92.62708757189921 0 0 0 0 9.0163024570210837 -36.544833798083573 0 -36.544833798083573 -48.364707078319952 0 0 0 0 29.243668187692663 5.309442278039711 0 5.309442278039711 0.1845365609615599 0 0 0 0 123.21823323104763 -8.4817302389556062 0 -8.4817302389556062 -293.12563915055625 0 0 0 0 700.53459032176761 421.57622310136628 0 421.57622310136628 -760.30272557873536 0 0 0 0 -111.42788184042001 86.795046968989951 0 86.795046968989951 59.452361675535485 0 0 0 0 -181.18160873251327 311.61353454821187 0 311.61353454821187 4.6679804037657959 0 0 0 0 222.46251690332429 44.597192038145899 0 44.597192038145899 -0.037382040952103138 0 0 0 0 363.47812237620383 21.453783577016033 0 21.453783577016033 -9.3512332773404623 0 0 0 0 355.86823943527997 23.544390134374197 0 23.544390134374197 -1.1039348278696224 0 0 0 0 301.70406312860723 -57.563337262704678 0 -57.563337262704678 37.643760554921116 0 0 0 0 342.53758902224945 -6.9470812051000621 0 -6.9470812051000621 254.93926413550605 0 0 0 0 368.7503087426303 -69.238904340131512 0 -69.238904340131512 12.038297908350756 0 0 0 0 434.45450162026827 173.16630215494874 0 173.16630215494874 -13.024666821322228 0 0 0 0 909.88360977626871 319.81070612866961 0 319.81070612866961 27.708812967303544 0 0 0 0 514.93465417789412 -38.623965148911303 0 -38.623965148911303 14.436243820931203 0 0 0 0 383.70496871974319 35.180951010196544 0 35.180951010196544 -0.038435132255103636 0 0 0 0 303.27897119804402 124.59086777804497 0 124.59086777804497 -10.626016411515078 0 0 0 0 309.31353863797267 88.336887333625754 0 88.336887333625754 -8.3128652067646591 0 0 0 0 118.67185035635339 138.60457761568441 0 138.60457761568441 127.51787066643726 0 0 0 0 -57.583079941512551 -13.716347493238686 0 -13.716347493238686 138.13759739593968 0 0 0 0 6.7798194788565525 0.58817548604237402 0 0.58817548604237402 0.25181851241665554 0 0 0 0 236.03603998290782 259.8235715164335 0 259.8235715164335 310.4552869656473 0 0 0 0 123.87631022353889 -164.9072134156319 0 -164.9072134156319 156.11251073604461 0 0 0 0 45.612673828087281 -60.074311117632135 0 -60.074311117632135 20.594262477517987 0 0 0 0 200.8103549258085 -60.078856301162887 0 -60.078856301162887 -2.9908808320383287 0 0 0 0 194.33942796202609 -85.116846456330677 0 -85.116846456330677 -83.980007620371907 0 0 0 0 404.26226851320826 -54.635198144882679 0 -54.635198144882679 35.464695995462307 0 0 0 0 229.29259487528179 -164.30099154620723 0 -164.30099154620723 5.4647686702282812 0 0 0 0 0.92902282012130399 0.96472545902963702 0 0.96472545902963702 -3.9751495704848869 0 0 0 0 362.56278334405215 616.90811119545754 0 616.90811119545754 409.66385737434337 0 0 0 0 799.72720266053511 -22.78620978275049 0 -22.78620978275049 -25.990577542359233 0 0 0 0 893.8837552253126 -355.4993112662944 0 -355.4993112662944 -283.78600631898496 0 0 0 0 358.68088963098126 -8.9869631531173582 0 -8.9869631531173582 35.814895892806817 0 0 0 0 513.19724611809943 194.88155715939888 0 194.88155715939888 159.40310624735636 0 0 0 0 421.74098947827588 122.76305479426435 0 122.76305479426435 -26.19233710677014 0 0 0 0 196.84801399988646 49.671346610975917 0 49.671346610975917 167.17163780875825 0 0 0 0 197.23534186462302 83.413169645441116 0 83.413169645441116 -40.428600423722571 0 0 0 0 228.04578494027373 74.562550486122404 0 74.562550486122404 -29.271612366342197 0 0 0 0 197.28184953700111 39.128010960913912 0 39.128010960913912 -31.807076761618646 0 0 0 0 226.40242080082317 42.035876740399004 0 42.035876740399004 -22.028083538454666 0 0 0 0 220.64625996849645 82.887070427194658 0 82.887070427194658 -39.935386315518826 0 0 0 0 253.202423987168 77.796839862774391 0 77.796839862774391 3.3897850238063256 0 0 0 0 313.85371856216807 85.399990551050905 0 85.399990551050905 -50.909910268554995 0 0 0 0 275.21209984552115 44.586268799701884 0 44.586268799701884 -33.54299290685276 0 0 0 0 345.13285730111966 19.956884052572377 0 19.956884052572377 -42.250523973769759 0 0 0 0 280.09812508441973 59.26731184383425 0 59.26731184383425 -40.022436693544932 0 0 0 0 299.50236526085064 72.430789141891864 0 72.430789141891864 -43.56628652079371 0 0 0 0 294.34229383376078 42.49602466667443 0 42.49602466667443 -49.680361208591876 0 0 0 0 258.0064778139058 7.0688421321012811 0 7.0688421321012811 -15.881330419727647 0 0 0 0 23.724568520883679 -27.265115450557914 0 -27.265115450557914 -16.60735185961515 0 0 0 0 308.59054928808473 19.39151316842208 0 19.39151316842208 -29.674518689500246 0 0 0 0 272.10137562287855 0.22780647384070107 0 0.22780647384070107 -12.563147363060125 0 0 0 0 275.19867971827625 -0.55881007251014125 0 -0.55881007251014125 -30.259073637133952 0 0 0 0 119.64683197438717 2.5522063178586905 0 2.5522063178586905 -2.6375310750086101 0 0 0 0 334.95421615050873 -6.6501036897006998 0 -6.6501036897006998 -29.797344098193747 0 0 0 0 323.63845048574149 5.1258253117568984 0 5.1258253117568984 -18.202303095323714 0 0 0 0 384.38754926328693 -41.205022062537637 0 -41.205022062537637 -27.564678685757372 0 0 0 0 7.2041563966041338 -0.98317662151544027 0 -0.98317662151544027 -10.649972003589479 0 0 0 0 371.40931386730517 -0.49649284408178573 0 -0.49649284408178573 -28.484768301399754 0 0 0 0 299.87409577288781 -52.321854896541481 0 -52.321854896541481 10.709451449152766 0 0 0 0 220.20450051311491 30.617330250042983 0 30.617330250042983 -14.781512800277596 0 0 0 0 285.71995113571757 -42.730378639153514 0 -42.730378639153514 -65.80858831418891 0 0 0 0 109.76656001155789 4.9096681468506631 0 4.9096681468506631 -9.7603885872986211 0 0 0 0 336.00448083526135 -28.717975698885084 0 -28.717975698885084 13.440980505031803 0 0 0 0 319.02423788243323 -36.984143014854453 0 -36.984143014854453 37.181713103596849 0 0 0 0 20.793913116949369 34.910105465221903 0 34.910105465221903 -1.2189059392755262 0 0 0 0 36.360265579293781 -1.0501875046368525 0 -1.0501875046368525 -17.889448751264606 0 0 0 0 135.0870409889103 29.832651478681328 0 29.832651478681328 3.1515459344191186 0 0 0 0 136.01646987819913 20.519554437698616 0 20.519554437698616 2.2038510327220138 0 0 0 0 463.42871315096272 39.227971043734215 0 39.227971043734215 -79.73523622576613 0 0 0 0 112.75734780419612 4.595652622418001 0 4.595652622418001 -7.8710864746244624 0 0 0 0 86.867446157935774 4.7435358525890479 0 4.7435358525890479 12.445470781814947 0 0 0 0 112.51878945704084 -185.0958766443182 0 -185.0958766443182 69.669918467670868 0 0 0 0 -37.435348822386004 -137.65505079560171 0 -137.65505079560171 166.10217568466942 0 0 0 0 0.93939554647658952 -21.726470996800799 0 -21.726470996800799 -5.2156350491204648 0 0 0 0 77.116286913027579 26.472635494225187 0 26.472635494225187 12.45791657132213 0 0 0 0 244.2399152527214 -109.78522128339137 0 -109.78522128339137 22.698442050790618 0 0 0 0 93.125914633404477 24.451272829967426 0 24.451272829967426 7.4323679717649966 0 0 0 0 95.772235631768126 30.908225945004233 0 30.908225945004233 3.5992871841517626 0 0 0 0 40.656200410996831 32.065850675695231 0 32.065850675695231 2.0774731586792896 0 0 0 0 300.80831420069444 58.36681681525647 0 58.36681681525647 -22.175383620999128 0 0 0 0 65.038161369685184 -10.092824307754341 0 -10.092824307754341 -17.217164419710326 0 0 0 0 131.67804681131383 23.011309764339785 0 23.011309764339785 -3.7816293784089794 0 0 0 0 108.04738547096349 31.88481117783158 0 31.88481117783158 2.0907880086724617 0 0 0 0 273.94494973358815 39.161140868969369 0 39.161140868969369 -12.353114640510739 0 0 0 0 270.28506144334096 58.56668486978333 0 58.56668486978333 -9.5097343862107095 0 0 0 0 112.76882002043315 25.437412964592085 0 25.437412964592085 13.558741421362356 0 0 0 0 264.93255927649443 26.375352136010861 0 26.375352136010861 -28.662565034928321 0 0 0 0 236.91352886296227 60.315282424970519 0 60.315282424970519 -19.829274499592429 0 0 0 0 266.43046320760914 51.352181563133513 0 51.352181563133513 -17.410468534866595 0 0 0 0 274.87150596664287 42.630461322843075 0 42.630461322843075 -14.533510004172967 0 0 0 0 240.00326215570385 181.25495150213828 0 181.25495150213828 -70.998261870269744 0 0 0 0 235.80430506116431 48.151621594904789 0 48.151621594904789 -0.2573964435208218 0 0 0 0 230.33551216074557 56.518198332081738 0 56.518198332081738 -130.17885651719189 0 0 0 0 234.01637913330342 54.79848028429501 0 54.79848028429501 -9.0388983109687615 0 0 0 0 242.89962474424976 52.584266205040606 0 52.584266205040606 -3.7972875200224614 0 0 0 0 235.16148557353881 56.556164944554439 0 56.556164944554439 -7.0946594907445615 0 0 0 0 284.24615087817074 147.82097434290517 0 147.82097434290517 -275.66477213106009 0 0 0 0 186.77789178318926 152.30358243400406 0 152.30358243400406 -97.825568945287159 0 0 0 0 236.89993345175026 59.255043365814942 0 59.255043365814942 -34.291642991212939 0 0 0 0 78.14488526654614 54.164621471844583 0 54.164621471844583 -4.604713703637989 0 0 0 0 221.03505676910572 68.311385436424757 0 68.311385436424757 -16.819246700256826 0 0 0 0 21.548757985321572 -39.929205240619012 0 -39.929205240619012 36.403536767385503 0 0 0 0 -2.2966112665599212 -39.288460868449874 0 -39.288460868449874 39.686601829430401 0 0 0 0 49.786154196277494 -91.567900712889696 0 -91.567900712889696 65.412256733406593 0 0 0 0 38.725952513341326 6.9778548774811497 0 6.9778548774811497 127.41222370608193 0 0 0 0 50.12158093015023 -42.187986764837433 0 -42.187986764837433 -49.834980682949208 0 0 0 0 -2.3405117919610348 -30.311731716231407 0 -30.311731716231407 -41.058909815188372 0 0 0 0 -104.53651695619919 -120.15258778037378 0 -120.15258778037378 -5.0072345096559729 0 0 0 0 -1.4443124749502374 1.3987533535431567 0 1.3987533535431567 -1.8584802746682776 0 0 0 0 -88.046386900088692 -34.607152748477745 0 -34.607152748477745 20.215647309843916 0 0 0 0 26.576535470259842 -7.8281060764056747 0 -7.8281060764056747 -4.5577462594064855 0 0 0 0 -6.4000989783089608 -2.55229705384113 0 -2.55229705384113 44.955152883201663 0 0 0 0 33.357061411428731 42.235131637678933 0 42.235131637678933 65.416693772023791 0 0 0 0 49.730683016125113 -98.500701643493812 0 -98.500701643493812 -91.995109327021055 0 0 0 0 63.635391982388683 -48.416094221207459 0 -48.416094221207459 -95.669492775674144 0 0 0 0 -33.269433365014265 -46.929946865236161 0 -46.929946865236161 -2.3210746493659826 0 0 0 0 85.912251568573993 1.8075608458020724 0 1.8075608458020724 18.596924952413247 0 0 0 0 44.896064310334623 4.1862241828930564 0 4.1862241828930564 19.910777731003691 0 0 0 0 25.6604038841906 14.884328114825621 0 14.884328114825621 68.71202952281601 0 0 0 0 24.06914824876003 -60.147634319771441 0 -60.147634319771441 -4.3533330551726976 0 0 0 0 64.936957754543982 -39.104106101789512 0 -39.104106101789512 52.928622116316546 0 0 0 0 51.839511844329536 -91.921558222307794 0 -91.921558222307794 55.215622912757681 0 0 0 0 161.39359151595272 -84.014930829205696 0 -84.014930829205696 27.612493559801806 0 0 0 0 73.178371456684545 -20.606242212539655 0 -20.606242212539655 18.118411963678227 0 0 0 0 112.99228822777513 49.969238024898004 0 49.969238024898004 102.63072563868309 0 0 0 0 38.019144705870929 10.684475059723212 0 10.684475059723212 3.9681578579744325 0 0 0 0 196.68006244552089 -37.741872537149902 0 -37.741872537149902 48.187117788979776 0 0 0 0 104.7440529250016 -25.777061521395808 0 -25.777061521395808 46.655225136950321 0 0 0 0 114.90633452025941 34.115074740806449 0 34.115074740806449 73.287950020665448 0 0 0 0 107.53940567346581 24.537422615741889 0 24.537422615741889 69.380123075068695 0 0 0 0 214.30051383725367 26.09619730378472 0 26.09619730378472 73.689456880720627 0 0 0 0 240.23602060874691 5.5123409157213246 0 5.5123409157213246 43.830961628682417 0 0 0 0 19.779035327897873 28.251147602452875 0 28.251147602452875 82.514049716032787 0 0 0 0 31.072009564377367 43.443319095271363 0 43.443319095271363 102.91531467173991 0 0 0 0 -101.90083884328487 47.808047138050824 0 47.808047138050824 469.23744687638919 0 0 0 0 21.249380686451332 31.595133795217407 0 31.595133795217407 55.282177715158468 0 0 0 0 14.225868544952561 -4.956804182740342 0 -4.956804182740342 1.1014470754498298 0 0 0 0 45.690589447098318 50.35374866775237 0 50.35374866775237 67.751944055027707 0 0 0 0 2.5250461301402538 25.56393610256066 0 25.56393610256066 100.5074996489875 0 0 0 0 319.53428089470253 -49.673366691888987 0 -49.673366691888987 81.152054947083343 0 0 0 0 40.767926645494299 -53.295136226146496 0 -53.295136226146496 134.8939814482942 0 0 0 0 270.80236326597515 445.55407234060931 0 445.55407234060931 568.55275134743306 0 0 0 0 4.855412853582493 -0.027639028911309538 0 -0.027639028911309538 0.47074110025256921 0 0 0 0 -43.51156181137776 -113.87735989913745 0 -113.87735989913745 37.754099920724911 0 0 0 0 -106.43159882900363 30.73178001539236 0 30.73178001539236 2.1831246197416476 0 0 0 0 535.39511415804736 214.18976493057744 0 214.18976493057744 -681.38175114595106 0 0 0 0 238.20646083732208 314.60277316454403 0 314.60277316454403 -257.61410573685407 0 0 0 0 113.16993438898703 29.515301299537004 0 29.515301299537004 6.2284303241946866 0 0 0 0 85.387689750608843 283.44563198850051 0 283.44563198850051 -57.336715114988692 0 0 0 0 110.10438171817805 -230.27698114899613 0 -230.27698114899613 -382.02892568360585 0 0 0 0 116.66746720803707 24.743543015323127 0 24.743543015323127 4.6343694105796338 0 0 0 0 134.34288868046133 95.020996699895477 0 95.020996699895477 -312.07615339186304 0 0 0 0 234.28561998833902 -31.779272870880959 0 -31.779272870880959 -444.02558293360835 0 0 0 0 24.894365202606423 91.691050055804226 0 91.691050055804226 -165.56270586681785 0 0 0 0 140.65840531542199 33.475876781572879 0 33.475876781572879 -326.74003914969398 0 0 0 0 123.03312623502279 -129.29869394734305 0 -129.29869394734305 -72.337890729504579 0 0 0 0 182.92484252800932 -113.57041404987467 0 -113.57041404987467 -266.53786004566609 0 0 0 0 81.013119007606292 -114.65898974628544 0 -114.65898974628544 -19.345859414108418 0 0 0 0 148.06885694220909 -44.225796700438423 0 -44.225796700438423 -134.54284097687196 0 0 0 0 34.243892585672825 11.280128018151451 0 11.280128018151451 4.1350471821445289 0 0 0 0 85.892348367662635 -227.18411022151076 0 -227.18411022151076 186.30250812972918 0 0 0 0 -36.128998073341791 -118.68818676423962 0 -118.68818676423962 -13.493895040806819 0 0 0 0 132.75494100818469 15.579638774378509 0 15.579638774378509 70.241114780310454 0 0 0 0 211.41897060279734 -178.36372527297317 0 -178.36372527297317 -76.040623465516205 0 0 0 0 -81.290995443916316 535.65117852077765 0 535.65117852077765 494.58221888340267 0 0 0 0 -82.130794259535918 105.5894254373146 0 105.5894254373146 -152.58122017415735 0 0 0 0 197.24137679697014 599.51601729705089 0 599.51601729705089 -524.94317374793081 0 0 0 0 92.850877238786779 626.73162181260022 0 626.73162181260022 468.1555568098147 0 0 0 0 725.20703160659468 98.298201224493368 0 98.298201224493368 80.255176209228011 0 0 0 0 443.807578998807 568.83954727469836 0 568.83954727469836 320.11928639376674 0 0 0 0 197.72590305226186 -266.21979033446405 0 -266.21979033446405 589.42205893984828 0 0 0 0 -132.44879294396378 125.96757519236144 0 125.96757519236144 875.95775176664665 0 0 0 0 997.7895915451154 430.98767745700343 0 430.98767745700343 145.14138137346345 0 0 0 0 216.44619823244284 -418.20004436315958 0 -418.20004436315958 548.96657153835986 0 0 0 0 9.7352186110903176 6.6000636156666417 0 6.6000636156666417 3.9841422922720326 0 0 0 0 318.38179145340109 195.45926544494796 0 195.45926544494796 -82.14755529526883 0 0 0 0 398.38652403251763 101.89758934236488 0 101.89758934236488 11.671184725295461 0 0 0 0 338.01328333984566 18.836770929254726 0 18.836770929254726 79.878273686037573 0 0 0 0 322.74764499456796 82.75497276180613 0 82.75497276180613 -12.444103372723475 0 0 0 0 259.39818509599718 108.0398557947683 0 108.0398557947683 -2.3521073904048535 0 0 0 0 273.31438490972505 75.448729297550017 0 75.448729297550017 -122.70015229570345 0 0 0 0 228.58257770098862 134.72157883515683 0 134.72157883515683 -21.192535351048718 0 0 0 0 279.54018724767957 81.645449252064282 0 81.645449252064282 -6.3419153994873341 0 0 0 0 241.36555707035586 135.50318223287286 0 135.50318223287286 60.944241167293512 0 0 0 0 234.81647175658145 121.96031742189189 0 121.96031742189189 34.071049935391784 0 0 0 0 253.2732121515437 58.506624494257267 0 58.506624494257267 91.133620548611361 0 0 0 0 213.62231109873392 134.76239522757714 0 134.76239522757714 -6.8370384629870387 0 0 0 0 220.14463755844918 111.41988588218919 0 111.41988588218919 175.31666217192469 0 0 0 0 331.04714431293542 271.70621525465322 0 271.70621525465322 138.16658364040632 0 0 0 0 -6.31729240371061 8.9121965961754697 0 8.9121965961754697 4.8846257315947135 0 0 0 0 61.122749507456319 124.42753490299219 0 124.42753490299219 -3.2588270738324354 0 0 0 0 9.3796698568764612 3.2305131215482845 0 3.2305131215482845 -5.5436063630799239 0 0 0 0 -128.91587112200796 -259.87599702230818 0 -259.87599702230818 -735.33542143288651 0 0 0 0 181.13548705098219 262.44123895529265 0 262.44123895529265 143.89368607069173 0 0 0 0 487.080575738888 58.01278174620893 0 58.01278174620893 -25.357641754355427 0 0 0 0 199.45696196233621 342.98740746802105 0 342.98740746802105 -154.67369320783746 0 0 0 0 183.1791245911154 28.778404290778781 0 28.778404290778781 -46.020040967925979 0 0 0 0 50.072118800505109 20.227044555443904 0 20.227044555443904 0.78491568254794686 0 0 0 0 267.28202538412006 33.008672311565533 0 33.008672311565533 -686.00130828474357 0 0 0 0 22.358564003623599 39.506543607936578 0 39.506543607936578 -1.8646200192151241 0 0 0 0 -10.670854213938583 -7.9079469584112303 0 -7.9079469584112303 41.787506457119889 0 0 0 0 90.85998421208933 16.16749169664763 0 16.16749169664763 -40.281126483787375 0 0 0 0 42.083824077613826 74.554767680304394 0 74.554767680304394 69.306086880293151 0 0 0 0 250.38640014911653 112.05715248931847 0 112.05715248931847 4.439097408328962 0 0 0 0 287.39695013448363 70.961847071082957 0 70.961847071082957 -41.164454787991417 0 0 0 0 339.27772919137351 -11.547843284218743 0 -11.547843284218743 -57.310936912253965 0 0 0 0 66.05771832249593 -30.032835645277373 0 -30.032835645277373 -18.483512353328479 0 0 0 0 17.448982369010935 32.439279369952949 0 32.439279369952949 5.0778560451384926 0 0 0 0 93.152136522432556 -17.491497138664272 0 -17.491497138664272 -93.700445952050359 0 0 0 0 159.63046818698058 -100.02566747194942 0 -100.02566747194942 -58.929822948870424 0 0 0 0 108.91058942029485 -49.727666277787648 0 -49.727666277787648 19.963096093888453 0 0 0 0 104.61088529665722 -30.748688906161988 0 -30.748688906161988 -57.050906767271329 0 0 0 0 -57.000851027285535 -5.9628038507364636 0 -5.9628038507364636 -557.94261017606186 0 0 0 0 294.11023639319137 95.237433864225977 0 95.237433864225977 -83.430739998257195 0 0 0 0 951.06931248189358 -192.04811382108301 0 -192.04811382108301 67.690850111400323 0 0 0 0 792.58673987667134 781.33252643746937 0 781.33252643746937 646.99589067044917 0 0 0 0 420.20083642891404 -88.060617313845285 0 -88.060617313845285 -736.82142736077367 0 0 0 0 369.42784514211235 377.68526397412825 0 377.68526397412825 -264.27715572161833 0 0 0 0 89.481994531299279 141.58828108205398 0 141.58828108205398 -60.841252713225913 0 0 0 0 337.9736258521516 -272.500512159957 0 -272.500512159957 109.6271768671204 0 0 0 0 610.9285558897609 166.20418075376801 0 166.20418075376801 -556.69590430587505 0 0 0 0 177.62323506630082 -488.17979907956908 0 -488.17979907956908 -105.50926667925705 0 0 0 0 268.79238866708329 232.18438691991832 0 232.18438691991832 451.57769129422604 0 0 0 0 1.4436440350066775 3.8913768801085951 0 3.8913768801085951 -9.7462083696205184 0 0 0 0 346.21219127083896 -149.2151016289481 0 -149.2151016289481 -48.949574966760792 0 0 0 0 333.90355550701406 -110.06560357488678 0 -110.06560357488678 922.49796203916048 0 0 0 0 567.45393348256039 254.23239602902095 0 254.23239602902095 -130.26315303022966 0 0 0 0 825.55163048300892 660.72032594463167 0 660.72032594463167 493.30378680756007 0 0 0 0 1072.2048682810855 374.29999413933524 0 374.29999413933524 -60.41702378082573 0 0 0 0 10.577131181315053 368.63459475624632 0 368.63459475624632 1824.8267089016572 0 0 0 0 11.23692500496719 6.5736349509120533 0 6.5736349509120533 2.4251841016638029 0 0 0 0 -39.039763712098647 157.07026448802208 0 157.07026448802208 88.778603139701772 0 0 0 0 452.97151663777186 -158.78376530170544 0 -158.78376530170544 -261.84166443601043 0 0 0 0 88.492437597888056 149.35811949794413 0 149.35811949794413 144.59197072055247 0 0 0 0 267.13752236319488 141.87596601930613 0 141.87596601930613 150.40041148747605 0 0 0 0 59.610734173067613 23.84393143938405 0 23.84393143938405 130.88958191261816 0 0 0 0 -0.48301637508131989 3.1489161765439349 0 3.1489161765439349 -2.8325771734459018 0 0 0 0 250.19359952102968 186.07961633354319 0 186.07961633354319 48.632831951369553 0 0 0 0 804.32104271155185 647.78904410440771 0 647.78904410440771 2.0356503887633153 0 0 0 0 0.8663084848349456 1.6943961807274945 0 1.6943961807274945 -2.1390346393713262 0 0 0 0 -756.37655696892216 405.58924225553505 0 405.58924225553505 10.466755658088005 0 0 0 0 1371.9392177920308 326.15444144317735 0 326.15444144317735 -124.42724962162447 0 0 0 0 232.40941875282442 251.00620433011773 0 251.00620433011773 17.604740884044986 0 0 0 0 -7.0752856371937014 17.585195356712646 0 17.585195356712646 -3.9166666186661203 0 0 0 0 51.944629474007399 18.078835942067908 0 18.078835942067908 1.394460030726721 0 0 0 0 95.814548532973276 -117.59068156542253 0 -117.59068156542253 -2.8929170817646082 0 0 0 0 -30.074008293362567 29.843983612503052 0 29.843983612503052 84.775280513087637 0 0 0 0 49.878687163276481 108.9547639050943 0 108.9547639050943 -75.159244666861923 0 0 0 0 39.135007551245508 98.990442936526165 0 98.990442936526165 -134.3669929596615 0 0 0 0 39.659377505059808 27.164112604560643 0 27.164112604560643 -0.054992607531101911 0 0 0 0 15.72525092952128 130.47596021198888 0 130.47596021198888 -6.7109515858173836 0 0 0 0 15.018548699007169 13.497560212415792 0 13.497560212415792 -0.35126441204001413 0 0 0 0 72.928234924125718 -136.30564846069683 0 -136.30564846069683 -482.93441223871923 0 0 0 0 62.383863952847605 162.8184871184821 0 162.8184871184821 -96.843844397782959 0 0 0 0 114.79392749407634 -138.0212166298856 0 -138.0212166298856 -114.657659645698 0 0 0 0 88.099128002824727 41.63679029456398 0 41.63679029456398 77.103429457862148 0 0 0 0 411.4582730140246 237.19814792662419 0 237.19814792662419 -111.12153151144321 0 0 0 0 57.603927553160247 117.85942892248129 0 117.85942892248129 -82.645002506298624 0 0 0 0 -48.918280334488372 234.00629232933738 0 234.00629232933738 116.11699271923271 0 0 0 0 152.73374583065743 409.13267537917 0 409.13267537917 266.39120664647294 0 0 0 0 67.202153144986369 235.3600371953205 0 235.3600371953205 524.24097042306369 0 0 0 0 -63.601792020432185 233.30249150530608 0 233.30249150530608 648.01660158883647 0 0 0 0 33.170187487194084 13.242592813863119 0 13.242592813863119 3.3648941252563596 0 0 0 0 82.604510327146272 153.27100495979448 0 153.27100495979448 -261.25671651068387 0 0 0 0 10.294772412395105 -26.485722578395325 0 -26.485722578395325 48.515976886137651 0 0 0 0 51.160025042117923 146.01212258778423 0 146.01212258778423 -14.066655143590992 0 0 0 0 46.37805532758648 149.07952997210805 0 149.07952997210805 64.247948633827036 0 0 0 0 -118.30290101452556 140.54360009562743 0 140.54360009562743 362.73231749399201 0 0 0 0 -7.3497834418385537 6.0104677722463151 0 6.0104677722463151 -5.5866420054587937 0 0 0 0 -24.478678070896422 15.132211182643118 0 15.132211182643118 219.72161386559492 0 0 0 0 -13.079722916707397 154.79019625328556 0 154.79019625328556 149.51480210574596 0 0 0 0 149.14427840310964 234.7009711675156 0 234.7009711675156 213.06786135486234 0 0 0 0 36.523711755195109 350.38235583622463 0 350.38235583622463 515.10958926607191 0 0 0 0 -46.470608893403551 186.11659525755067 0 186.11659525755067 323.79682118128585 0 0 0 0 76.042106637323741 556.41316140738127 0 556.41316140738127 791.27389031771474 0 0 0 0 488.30818397382973 992.66037508730278 0 992.66037508730278 1084.1990692004822 0 0 0 0 -19.220383234132896 412.10983545360591 0 412.10983545360591 1189.4226683343641 0 0 0 0 -64.095606140152086 274.95970215500762 0 274.95970215500762 619.95884640676741 0 0 0 0 -69.00846618381911 249.81341338886887 0 249.81341338886887 660.46760235200645 0 0 0 0 53.847927656926913 -44.050277412814467 0 -44.050277412814467 355.84623026020472 0 0 0 0 47.407985526951961 -8.8543580027480857 0 -8.8543580027480857 563.05116635929335 0 0 0 0 -8.9276260269398335 -228.43655847144146 0 -228.43655847144146 893.8618218821739 0 0 0 0 217.64725877009914 -54.023690529780652 0 -54.023690529780652 125.64778069950626 0 0 0 0 51.104175680782646 -36.517068179571652 0 -36.517068179571652 135.80018529780318 0 0 0 0 48.01700819627149 123.11686680447929 0 123.11686680447929 52.328835507390977 0 0 0 0 142.80015842989087 65.36853514820541 0 65.36853514820541 11.300206686349611 0 0 0 0 149.84967726637842 -80.346715788551137 0 -80.346715788551137 89.140072024875735 0 0 0 0 168.76474881221657 -249.03180079630238 0 -249.03180079630238 522.57232506302262 0 0 0 0 1.751072960401018 3.1406255807633841 0 3.1406255807633841 -5.3875681746585808 0 0 0 0 1352.7669000490951 690.23325277818901 0 690.23325277818901 1278.2799259983522 0 0 0 0 3822.3515459992341 91.524958470345155 0 91.524958470345155 1422.2458295933266 0 0 0 0 916.38275098058512 1347.7735532783315 0 1347.7735532783315 1527.0202801808396 0 0 0 0 398.56418933154782 2042.8622891291757 0 2042.8622891291757 2782.4933114985552 0 0 0 0 -54.410885040357243 553.02914145602699 0 553.02914145602699 936.64686461984456 0 0 0 0 2294.7970217214024 1194.1287441073669 0 1194.1287441073669 458.85847314028251 0 0 0 0 1954.4698103995324 236.05598622978505 0 236.05598622978505 187.17560270388549 0 0 0 0 1049.8881784616678 785.99791636529653 0 785.99791636529653 325.75625452020245 0 0 0 0 355.3282848703675 834.06280240312981 0 834.06280240312981 1581.5799450919408 0 0 0 0 -48.616379411741946 282.1018010130299 0 282.1018010130299 1023.8805136231422 0 0 0 0 13.533382201532618 15.235915189696229 0 15.235915189696229 4.0893616236471626 0 0 0 0 1169.0500989635475 -287.40432796313644 0 -287.40432796313644 145.00642098222579 0 0 0 0 -416.4891494163021 90.500258218658018 0 90.500258218658018 59.127192498417571 0 0 0 0 -13.202828420871811 502.98963081567513 0 502.98963081567513 1314.8359094416573 0 0 0 0 39.425524243677501 20.241787140650558 0 20.241787140650558 -2.5245668425855001 0 0 0 0 16.392325383224147 5.7746830567813277 0 5.7746830567813277 -15.34074289810836 0 0 0 0 326.96307863696711 -312.86838294617883 0 -312.86838294617883 -379.79767733149129 0 0 0 0 -103.38205206920247 13.879146286587002 0 13.879146286587002 37.48766240450459 0 0 0 0 1.5163465430011343 17.010142087273834 0 17.010142087273834 -2.610145677596055 0 0 0 0 31.320578885696477 24.009651823236638 0 24.009651823236638 -15.509156581595441 0 0 0 0 2.8151475905324332 70.490376141506658 0 70.490376141506658 21.877858377344239 0 0 0 0 -828.49840993649559 -210.90201132533366 0 -210.90201132533366 645.69738991777194 0 0 0 0 -166.54659547159099 -90.223419602734339 0 -90.223419602734339 6.0373330203829028 0 0 0 0 -3.502200796881823 8.0439049114615102 0 8.0439049114615102 0.70452407962120134 0 0 0 0 1429.2134303489875 2115.3973980622386 0 2115.3973980622386 1161.8048974039393 0 0 0 0 2235.1260514748283 656.65614634788653 0 656.65614634788653 -915.01614122829778 0 0 0 0 1266.943064836365 1492.224339879293 0 1492.224339879293 989.21404373125006 0 0 0 0 611.1040769542451 1086.4034906955285 0 1086.4034906955285 1330.826252002712 0 0 0 0 707.91549123398727 898.3825318017698 0 898.3825318017698 1037.1381463751704 0 0 0 0 394.51708262093598 573.20423590909922 0 573.20423590909922 715.18174004961475 0 0 0 0 1227.5629317043349 1410.6897511582465 0 1410.6897511582465 341.29682843753926 0 0 0 0 585.45354515704094 269.76995004794298 0 269.76995004794298 -19.267046401673724 0 0 0 0 986.58413362439023 913.4758455048468 0 913.4758455048468 -444.7059501575859 0 0 0 0 945.82620375184342 1383.8431476378946 0 1383.8431476378946 1006.9137711489184 0 0 0 0 636.09823595779017 1248.5348461169397 0 1248.5348461169397 1043.7787771017543 0 0 0 0 123.18833530120901 8.0200000120221375 0 8.0200000120221375 -235.15276395214823 0 0 0 0 -15.202567659915076 49.780347455741321 0 49.780347455741321 -32.605006620127824 0 0 0 0 1.4508472954797185 14.689824427242343 0 14.689824427242343 -4.950497662473996 0 0 0 0 619.59505009610439 1406.885995671659 0 1406.885995671659 3167.3972831975352 0 0 0 0 8.598393091617254 10.474346115355825 0 10.474346115355825 -2.6574753223115231 0 0 0 0 1632.5036209026875 450.00860182562974 0 450.00860182562974 93.734219725670982 0 0 0 0 7.5671625666887508 14.078604336267318 0 14.078604336267318 -16.013306545439058 0 0 0 0 40.362262790200475 7.6679166949461433 0 7.6679166949461433 -105.61906660316527 0 0 0 0 12.022024480858818 -88.00082509801814 0 -88.00082509801814 -10.586215929408354 0 0 0 0 30.341364992724266 -94.825466606371265 0 -94.825466606371265 98.685097274656982 0 0 0 0 1113.6182354111515 367.10463926031025 0 367.10463926031025 -61.872205919354201 0 0 0 0 1177.8924951397894 1250.7857640582292 0 1250.7857640582292 887.82684944743232 0 0 0 0 1641.5250023516855 1245.2351847198188 0 1245.2351847198188 877.72549706301902 0 0 0 0 -4.2107879243145021 3.3483517430765062 0 3.3483517430765062 7.2628223891412134 0 0 0 0 378.53925291590713 759.20498658757469 0 759.20498658757469 1950.0422651722447 0 0 0 0 229.96522275764437 -83.199781441850064 0 -83.199781441850064 77.481351185451786 0 0 0 0 1049.0194446875248 196.69850921102488 0 196.69850921102488 -54.657815854899127 0 0 0 0 274.30391145833892 286.18533123474162 0 286.18533123474162 123.31179111373058 0 0 0 0 442.14961309288628 23.862104339733378 0 23.862104339733378 -27.031150077213169 0 0 0 0 899.38518474405282 58.225040785569036 0 58.225040785569036 -105.17203182220237 0 0 0 0 462.53847070314987 -47.260570207946472 0 -47.260570207946472 -14.036837296757767 0 0 0 0 932.89096026606785 -62.407951310067176 0 -62.407951310067176 -150.25746167994566 0 0 0 0 434.9772134317609 45.718468716437201 0 45.718468716437201 -83.357989043027828 0 0 0 0 457.07323060338967 16.238653923352103 0 16.238653923352103 -51.093918500858308 0 0 0 0 46.0662582864461 115.78628292005033 0 115.78628292005033 -2.0557205519694435 0 0 0 0 378.51152677898062 -116.63203073040449 0 -116.63203073040449 78.185100303127001 0 0 0 0 14.444197771896143 5.939259675156336 0 5.939259675156336 86.833453635872502 0 0 0 0 884.0861672099345 -222.78919984819663 0 -222.78919984819663 -106.30047503412698 0 0 0 0 664.21346136310603 23.270238400384187 0 23.270238400384187 -32.904335646324853 0 0 0 0 1421.1437151476712 -16.300834689936437 0 -16.300834689936437 -200.91020282657064 0 0 0 0 1585.1372246914107 -15.421117278507836 0 -15.421117278507836 -278.15877227674719 0 0 0 0 1423.9692333592975 -32.604022541240283 0 -32.604022541240283 -106.87640043478359 0 0 0 0 1583.4359688662516 -5.4500980215843811 0 -5.4500980215843811 -119.53110177311112 0 0 0 0 1490.1185936832626 -90.952587123429112 0 -90.952587123429112 -63.294449144460941 0 0 0 0 1583.3789662919007 -21.024940932539721 0 -21.024940932539721 -155.05776497567967 0 0 0 0 1615.3740397165093 -54.426421445103642 0 -54.426421445103642 -301.06604498009256 0 0 0 0 1588.5308144514856 -82.919190498800162 0 -82.919190498800162 -263.7891238906268 0 0 0 0 1452.3634841883031 127.8594007824031 0 127.8594007824031 -197.08245544455895 0 0 0 0 1614.5755683226453 -49.340715382083999 0 -49.340715382083999 -275.21105992478846 0 0 0 0 1160.2173010593688 -358.43805564761942 0 -358.43805564761942 -137.18656183805888 0 0 0 0 815.75555048386741 -95.358539337969887 0 -95.358539337969887 3.525631050121774 0 0 0 0 1619.4939292682975 -151.11624312359163 0 -151.11624312359163 -179.38383198351733 0 0 0 0 1470.2201470518194 -185.9176500560402 0 -185.9176500560402 -186.22754421765569 0 0 0 0 1335.5450692643935 -396.09470209267033 0 -396.09470209267033 -264.19707182142884 0 0 0 0 596.96911893314245 -348.93563671118466 0 -348.93563671118466 -22.161818914610194 0 0 0 0 1183.0269530704973 -131.14984691474638 0 -131.14984691474638 -243.02816323065895 0 0 0 0 23.476981834522633 9.2089396153507863 0 9.2089396153507863 1.3044047698234884 0 0 0 0 893.59057765446778 -168.62327389176789 0 -168.62327389176789 -239.22644385602871 0 0 0 0 1885.923672488716 -361.06941433831253 0 -361.06941433831253 -303.38047044965811 0 0 0 0 996.7077667266858 -532.71522254892125 0 -532.71522254892125 99.165697029465264 0 0 0 0 2675.043315597024 -1173.4472725267774 0 -1173.4472725267774 339.01246031455867 0 0 0 0 10.409706790720975 3.6457598610921877 0 3.6457598610921877 1.3375324272652325 0 0 0 0 284.1062861418759 -348.21613471613682 0 -348.21613471613682 -60.400290888915606 0 0 0 0 1751.4236691132246 273.46809978397869 0 273.46809978397869 -172.93663250810278 0 0 0 0 1100.085775728814 71.992366313360549 0 71.992366313360549 -144.73410110548048 0 0 0 0 1893.8798420753144 20.798619996952372 0 20.798619996952372 -286.09602696656111 0 0 0 0 1793.7045882470848 -105.04443348424593 0 -105.04443348424593 -127.03269215780711 0 0 0 0 2523.7634100906726 207.28537456359163 0 207.28537456359163 -4.5126265096760108 0 0 0 0 1239.9547371735898 88.040772514385935 0 88.040772514385935 189.52691582113766 0 0 0 0 2023.3607695569372 202.02534839144209 0 202.02534839144209 67.54368135570121 0 0 0 0 1237.3041640427255 413.99590662287937 0 413.99590662287937 430.80771542797538 0 0 0 0 2096.8245896829776 -233.00632301602275 0 -233.00632301602275 714.69932893803434 0 0 0 0 2358.6321983430244 -356.63003210742227 0 -356.63003210742227 496.77519165289505 0 0 0 0 2125.5814861942927 -61.555601623711482 0 -61.555601623711482 367.1155689684656 0 0 0 0 2475.2298440512313 -655.21154383718203 0 -655.21154383718203 1363.1412552157208 0 0 0 0 3539.8288067091562 202.099013960094 0 202.099013960094 344.99217519329432 0 0 0 0 164.26543174355629 766.66681362603276 0 766.66681362603276 -45.625164976669112 0 0 0 0 2054.9389082324342 297.70009099010622 0 297.70009099010622 59.659170334138253 0 0 0 0 1873.399453771679 -94.670330640240081 0 -94.670330640240081 680.49425332245664 0 0 0 0 920.96886147448095 431.49678791864608 0 431.49678791864608 509.83688187650387 0 0 0 0 625.73741033319675 -82.746290548629077 0 -82.746290548629077 556.92136962065524 0 0 0 0 1200.3608592302771 143.56621621458044 0 143.56621621458044 543.21563461118967 0 0 0 0 1020.8443568389921 344.99852272810858 0 344.99852272810858 551.5893118725711 0 0 0 0 1529.8720011874393 500.46290523910193 0 500.46290523910193 819.14721246927911 0 0 0 0 1619.5439997494104 303.49171164757263 0 303.49171164757263 387.27611502876607 0 0 0 0 1279.3397217483143 519.35734820666767 0 519.35734820666767 571.9996710149444 0 0 0 0 1127.2422679572774 259.01895554364637 0 259.01895554364637 283.73503678954421 0 0 0 0 3823.9524885081191 675.05245777564414 0 675.05245777564414 127.27140816396422 0 0 0 0 2169.0626521044469 858.51669627762021 0 858.51669627762021 1898.2538413683019 0 0 0 0 1926.1271423839935 260.82020465498863 0 260.82020465498863 621.16208275208464 0 0 0 0 1999.5942780539044 656.49862099061966 0 656.49862099061966 667.54296305244316 0 0 0 0 2713.6403479023138 413.72160690991223 0 413.72160690991223 -15.951683634244546 0 0 0 0 2154.6391219836223 23.186521051790805 0 23.186521051790805 -21.193284371327536 0 0 0 0 2169.9892531856603 -8.3056288875304745 0 -8.3056288875304745 39.433634068633182 0 0 0 0 552.38778510413249 -835.58637503346245 0 -835.58637503346245 481.20770528775847 0 0 0 0 2400.7834643664901 -933.05326832965829 0 -933.05326832965829 102.08769245268377 0 0 0 0 28.510282646294968 7.7183681679433889 0 7.7183681679433889 3.4062620262027021 0 0 0 0 656.75023840458016 960.69139576980615 0 960.69139576980615 1923.8718047411967 0 0 0 0 3.4204406367935007 73.226273717365984 0 73.226273717365984 47.903168171427296 0 0 0 0 122.98626773881551 10.516442143457425 0 10.516442143457425 310.49295112877019 0 0 0 0 272.9715021215452 -65.743881009903362 0 -65.743881009903362 -419.64796079280586 0 0 0 0 -63.50705054300488 132.0627010996659 0 132.0627010996659 33.50761647055424 0 0 0 0 99.133869163455131 25.830644786086985 0 25.830644786086985 5.2175877802140356 0 0 0 0 465.63204081961885 272.92487469851767 0 272.92487469851767 -649.04209406532027 0 0 0 0 282.91875270125456 304.10397299257693 0 304.10397299257693 -387.74819987654064 0 0 0 0 72.810663436985976 19.431116380636119 0 19.431116380636119 4.7424545334115091 0 0 0 0 -139.22308597331357 195.08247551065733 0 195.08247551065733 495.80922688668943 0 0 0 0 -138.04479134685243 193.11930534428666 0 193.11930534428666 334.51223726058925 0 0 0 0 -107.26754524866919 203.79371702131937 0 203.79371702131937 333.37441934713934 0 0 0 0 19.256129112996859 26.05053446936472 0 26.05053446936472 136.80077034800775 0 0 0 0 -19.326003948772268 0.43399535191770156 0 0.43399535191770156 441.7070355269243 0 0 0 0 23.035735295561608 82.247297749435347 0 82.247297749435347 26.167695950469806 0 0 0 0 -12.326443338752142 11.923305451666693 0 11.923305451666693 -81.203784172120322 0 0 0 0 3.4235825139842291 3.0342141928263402 0 3.0342141928263402 -8.1167155897562502 0 0 0 0 1075.480201594939 29.793745566204052 0 29.793745566204052 219.3967675231911 0 0 0 0 1.5526239164604476 1.1461640554548467 0 1.1461640554548467 2.6194305559160078 0 0 0 0 1740.1293648761366 1730.7948044619752 0 1730.7948044619752 438.8908217534281 0 0 0 0 706.9486832577677 652.71506509524988 0 652.71506509524988 1197.5029551345351 0 0 0 0 2434.6145433702768 1297.7915649281613 0 1297.7915649281613 1105.2708071698089 0 0 0 0 97.997837777045788 445.20562026651714 0 445.20562026651714 104.54439889739024 0 0 0 0 -115.61778218508698 -83.109453950361967 0 -83.109453950361967 1037.5090867667568 0 0 0 0 416.2734232081275 1003.515026322355 0 1003.515026322355 1082.1478530677614 0 0 0 0 2752.0178771574865 -586.11516076910073 0 -586.11516076910073 130.95722709600341 0 0 0 0 5504.3330661918444 -713.96342055582772 0 -713.96342055582772 -727.48710281940782 0 0 0 0 5486.3200348780374 916.30799556189993 0 916.30799556189993 -1025.0652134334239 0 0 0 0 2823.454150361038 -234.22645611950367 0 -234.22645611950367 -792.17174774994965 0 0 0 0 1697.5733261419518 -813.50070874319681 0 -813.50070874319681 242.55090552402555 0 0 0 0 2790.7992468165921 -139.13162168621449 0 -139.13162168621449 323.89649454454275 0 0 0 0 1789.9762642159476 -902.2272032871 0 -902.2272032871 178.79977195729663 0 0 0 0 1693.7780893472227 -740.26706113605087 0 -740.26706113605087 3.4973605957284803 0 0 0 0 1934.7361456912186 -327.51064547635684 0 -327.51064547635684 -51.378661724549758 0 0 0 0 508.6012506885163 34.152560930756856 0 34.152560930756856 55.10383550044898 0 0 0 0 1092.9203786500584 -250.92299710572095 0 -250.92299710572095 40.281401262045677 0 0 0 0 919.3009360996366 -669.90095478866374 0 -669.90095478866374 529.47536579561324 0 0 0 0 1737.7346488970506 -1126.1883680779938 0 -1126.1883680779938 380.6993496421648 0 0 0 0 320.5683453209349 -228.8564346537454 0 -228.8564346537454 353.24580726585128 0 0 0 0 53.180824824463343 257.6361447536508 0 257.6361447536508 201.80352252276418 0 0 0 0 812.04115439705492 -512.92288218648309 0 -512.92288218648309 -46.996400847247514 0 0 0 0 97.918926253654263 11.326592439240706 0 11.326592439240706 0.61030472205839947 0 0 0 0 880.76540504390141 856.28805366834547 0 856.28805366834547 -383.77460163509863 0 0 0 0 804.85453898651758 -248.29335041236453 0 -248.29335041236453 645.38923712038468 0 0 0 0 5486.9890355039242 -2042.8217903671828 0 -2042.8217903671828 72.303080858628178 0 0 0 0 3168.575624695608 -1731.2392926237903 0 -1731.2392926237903 91.836421474141417 0 0 0 0 2173.688863150328 -2975.9381048576511 0 -2975.9381048576511 2733.5607022029735 0 0 0 0 40.523507459699715 3.5512507626284417 0 3.5512507626284417 4.3611133409665683 0 0 0 0 1456.4379797227157 2817.6676807469671 0 2817.6676807469671 2146.4915573892613 0 0 0 0 5485.8129942904579 1465.9402536445782 0 1465.9402536445782 -610.79927033606407 0 0 0 0 2550.2412874180591 305.81488585763879 0 305.81488585763879 1.463761549264641 0 0 0 0 622.30686864125892 452.67469251290123 0 452.67469251290123 729.82172381632358 0 0 0 0 1071.3837264769099 -102.46311098474607 0 -102.46311098474607 132.12943298100129 0 0 0 0 1835.9008653885758 389.90709588748098 0 389.90709588748098 -384.30765091167268 0 0 0 0 104.97825246085267 -32.940563561632814 0 -32.940563561632814 155.51085000075693 0 0 0 0 191.87538888615381 -214.88679397085662 0 -214.88679397085662 -75.192189352619607 0 0 0 0 129.92642968637847 -85.876930301506491 0 -85.876930301506491 117.20199750772088 0 0 0 0 246.81373970292043 76.419252557495099 0 76.419252557495099 112.61824282572677 0 0 0 0 663.54001150670683 60.068627885469795 0 60.068627885469795 -97.92612249071766 0 0 0 0 413.93468101439066 -110.99068209498076 0 -110.99068209498076 -52.438564274289234 0 0 0 0 149.95637122553308 -135.36164932018082 0 -135.36164932018082 0.34770730509363801 0 0 0 0 23.654274440355948 -53.017119215112515 0 -53.017119215112515 24.166600444807926 0 0 0 0 33.660670167097123 -70.303840356297883 0 -70.303840356297883 38.79431967906163 0 0 0 0 24.782270650437567 -116.60955372290431 0 -116.60955372290431 -66.062499151937232 0 0 0 0 -124.96293717171648 -109.63397740803202 0 -109.63397740803202 26.434821643455734 0 0 0 0 -98.308782391151908 -147.5691433115565 0 -147.5691433115565 -211.06246789952957 0 0 0 0 -103.75107619016489 -119.33571850724833 0 -119.33571850724833 -16.075797397800216 0 0 0 0 -78.509062155091669 -205.45951610510701 0 -205.45951610510701 -92.237046995948276 0 0 0 0 13.463424357789336 -133.52914211129723 0 -133.52914211129723 5.3344371049082611 0 0 0 0 213.85130539814963 -112.98273055841204 0 -112.98273055841204 -48.903857535286534 0 0 0 0 143.0463956600961 -179.12388131808518 0 -179.12388131808518 -99.314462689269021 0 0 0 0 11.733734406981966 -118.54454003103291 0 -118.54454003103291 -99.011212140894713 0 0 0 0 33.92223746914533 -125.67609179235842 0 -125.67609179235842 -130.1989878612826 0 0 0 0 50.923446324537508 -173.11377090536212 0 -173.11377090536212 -85.65164865708357 0 0 0 0 -212.39191248593852 -182.70029752056882 0 -182.70029752056882 -27.725040466647442 0 0 0 0 506.74487348382536 100.48262004380769 0 100.48262004380769 359.71540515766719 0 0 0 0 -192.19588495346761 -258.86772814430691 0 -258.86772814430691 -104.25388280588709 0 0 0 0 46.931126655568505 -32.348020757585601 0 -32.348020757585601 -9.5871798581827559 0 0 0 0 7.2837897321705327 -11.221125081141849 0 -11.221125081141849 6.7812481102181392 0 0 0 0 -157.9640719605959 -112.10197348544443 0 -112.10197348544443 -55.692330784743717 0 0 0 0 442.58969045455524 422.73147222955924 0 422.73147222955924 144.4799146557034 0 0 0 0 65.400642701388279 -29.524511841948879 0 -29.524511841948879 7.7673929875084013 0 0 0 0 152.83663212439569 -18.04266887214726 0 -18.04266887214726 -21.214723607115047 0 0 0 0 93.642449226055305 -11.624126118950905 0 -11.624126118950905 -1.039097493193367 0 0 0 0 0.90397267883969334 4.1983012642830602 0 4.1983012642830602 7.0676651131893786 0 0 0 0 88.916718134656549 -30.475147479416592 0 -30.475147479416592 -5.834764797007665 0 0 0 0 66.997132104181219 -20.399938637640162 0 -20.399938637640162 7.9952868131740615 0 0 0 0 139.69228114243015 -27.455415578238899 0 -27.455415578238899 -27.792398175140988 0 0 0 0 157.57917413272662 5.6030606099834586 0 5.6030606099834586 -15.158081858129663 0 0 0 0 107.14952915664369 3.3430157229903159 0 3.3430157229903159 5.6172163986455939 0 0 0 0 54.89000293919878 -15.462553685646128 0 -15.462553685646128 -12.464071258555297 0 0 0 0 73.786586966511095 -121.43492967808515 0 -121.43492967808515 -138.42920407391784 0 0 0 0 75.052747268679013 -107.18344380442061 0 -107.18344380442061 -224.77377469445855 0 0 0 0 42.33986605547895 -6.6818015142138734 0 -6.6818015142138734 15.272080760911347 0 0 0 0 154.27140063149272 -199.10037321176696 0 -199.10037321176696 -139.93739103941152 0 0 0 0 336.71188421877014 -25.44041250060377 0 -25.44041250060377 -552.61090649212974 0 0 0 0 188.39105009876221 -139.61876455370236 0 -139.61876455370236 -277.40475179687428 0 0 0 0 121.49886154770655 16.038878037913484 0 16.038878037913484 0.32738388621953551 0 0 0 0 1.8437065570469713 15.926967588728246 0 15.926967588728246 -1.5965838344432655 0 0 0 0 338.4875303630979 208.59327234380015 0 208.59327234380015 -382.12340758988353 0 0 0 0 4.9122775677242316 143.77866986383384 0 143.77866986383384 16.33802564836293 0 0 0 0 94.318658962612972 112.56588304022353 0 112.56588304022353 -96.571780828514022 0 0 0 0 134.01238204958315 12.925585827458491 0 12.925585827458491 1.2662950776946436 0 0 0 0 167.41209306873498 -90.737527413831003 0 -90.737527413831003 -312.98609220525441 0 0 0 0 61.669335557031445 92.82566364005271 0 92.82566364005271 -26.344823372192849 0 0 0 0 27.893013575463556 -23.652987205800684 0 -23.652987205800684 78.09876027008039 0 0 0 0 27.443342644423183 -15.09742263597056 0 -15.09742263597056 17.129328264075479 0 0 0 0 49.383470468292217 45.526969629525389 0 45.526969629525389 112.59350641301455 0 0 0 0 -94.974626610433916 109.60672458942202 0 109.60672458942202 153.38506508853766 0 0 0 0 29.321935571162612 108.15839242644388 0 108.15839242644388 40.921883707534874 0 0 0 0 78.083732517028693 -42.699230773268937 0 -42.699230773268937 0.21034878764112364 0 0 0 0 42.142058180586901 -13.495659215465821 0 -13.495659215465821 -0.040192118577579095 0 0 0 0 76.597970149246976 11.323765129742753 0 11.323765129742753 210.71623321126876 0 0 0 0 226.03171890004523 160.79664725760119 0 160.79664725760119 90.525363346429344 0 0 0 0 508.94957318061824 38.032435229631517 0 38.032435229631517 82.139606836137602 0 0 0 0 -31.264541823315085 109.45455975476165 0 109.45455975476165 241.39989401734238 0 0 0 0 -118.79646243565367 -139.16004724459634 0 -139.16004724459634 133.41120156363365 0 0 0 0 646.96946889426908 -51.027311949563483 0 -51.027311949563483 -198.1604343879273 0 0 0 0 -3.0785311549698235 -4.3920540486740265 0 -4.3920540486740265 35.676803851192744 0 0 0 0 13.488492442182917 -14.59191039360914 0 -14.59191039360914 9.8458332387909806 0 0 0 0 -3.1659565892769024 -10.418481345364768 0 -10.418481345364768 7.2949744713863538 0 0 0 0 18.254982677866792 -70.021695189283605 0 -70.021695189283605 44.063366204239173 0 0 0 0 121.83479818335036 -100.14515567464059 0 -100.14515567464059 43.268203142450801 0 0 0 0 390.75250937178498 -52.20755209909953 0 -52.20755209909953 -42.593859272226041 0 0 0 0 301.86159988978761 36.083492308044242 0 36.083492308044242 -44.424051064288051 0 0 0 0 160.25779462372884 78.35360985700737 0 78.35360985700737 1.9860909988956337 0 0 0 0 221.66958232669276 -40.041562819108549 0 -40.041562819108549 33.401465369109246 0 0 0 0 136.75919901997258 -14.352618227154835 0 -14.352618227154835 -22.005717641017327 0 0 0 0 238.00440914715273 13.393680535383794 0 13.393680535383794 -9.7205495176594923 0 0 0 0 169.35030517666019 -19.29561881047448 0 -19.29561881047448 -23.717769189883256 0 0 0 0 161.33309021629975 0.22902708526498827 0 0.22902708526498827 -22.393876141684814 0 0 0 0 170.56675632757833 -5.1232802901040486 0 -5.1232802901040486 -29.850358272041831 0 0 0 0 187.06709712342126 -26.178107395572624 0 -26.178107395572624 -27.775236049170417 0 0 0 0 138.21639622593648 -56.404755178667529 0 -56.404755178667529 -12.304694900265531 0 0 0 0 84.714864321722416 -49.583731323279608 0 -49.583731323279608 6.5496326613829297 0 0 0 0 118.84794761636294 -38.215685655542075 0 -38.215685655542075 -4.1829149157720167 0 0 0 0 84.376979304382985 -48.578726681807666 0 -48.578726681807666 3.9947117178198823 0 0 0 0 110.60392001637956 -63.14243791390345 0 -63.14243791390345 7.6714111251749273 0 0 0 0 74.426632673479617 -64.336955763843434 0 -64.336955763843434 13.591661312005272 0 0 0 0 117.30573659218499 -88.840112809975835 0 -88.840112809975835 21.027007750535631 0 0 0 0 46.697060596632582 -64.654514737900371 0 -64.654514737900371 34.426510435852833 0 0 0 0 245.28103853025277 -90.25881485429025 0 -90.25881485429025 -10.315224368858253 0 0 0 0 143.64344009431079 -60.709644120956909 0 -60.709644120956909 -13.740535012377222 0 0 0 0 111.46379492705455 -21.502811657178199 0 -21.502811657178199 -15.21209595618302 0 0 0 0 120.46188622410409 -31.444625738556738 0 -31.444625738556738 -40.764505262831221 0 0 0 0 101.49100877642923 13.645615500041913 0 13.645615500041913 -54.366060297346166 0 0 0 0 91.896099524834426 -8.5842069334457847 0 -8.5842069334457847 -21.192634293669016 0 0 0 0 137.59348122728989 1.8668869321109014 0 1.8668869321109014 -3.2471464294635553 0 0 0 0 48.074667035756427 6.2892919500767164 0 6.2892919500767164 -7.8007703316675467 0 0 0 0 84.308361036732094 20.126006850691738 0 20.126006850691738 -22.806235375506404 0 0 0 0 45.068421593097632 -22.166230642932931 0 -22.166230642932931 -1.8231425725970887 0 0 0 0 105.07729963306338 -33.786875270141309 0 -33.786875270141309 -14.794511948719901 0 0 0 0 92.306813015202351 -48.586572225182692 0 -48.586572225182692 -26.726853722233727 0 0 0 0 11.012553406524034 -18.091786415045192 0 -18.091786415045192 -5.4371083261824635 0 0 0 0 67.737472070293734 6.1085366215172598 0 6.1085366215172598 31.296540491076712 0 0 0 0 203.97189422738302 28.608487515095561 0 28.608487515095561 -0.877933864636816 0 0 0 0 13.515367201399597 2.7385353831516568 0 2.7385353831516568 -0.51985627477641794 0 0 0 0 108.24914967230143 -62.539573898043784 0 -62.539573898043784 -36.220644540290209 0 0 0 0 130.30223004393338 -57.101589145347376 0 -57.101589145347376 -43.234728334485339 0 0 0 0 117.38879771855136 -46.783815487678453 0 -46.783815487678453 -41.055137826293503 0 0 0 0 111.77747782922233 -41.393197476784792 0 -41.393197476784792 -40.734665819498787 0 0 0 0 128.02233694870665 -29.656018551855368 0 -29.656018551855368 -55.368586382583544 0 0 0 0 137.52786987776926 -11.733417419034026 0 -11.733417419034026 -66.440244863409134 0 0 0 0 146.34367450070567 -42.699757684263034 0 -42.699757684263034 -62.687037286463735 0 0 0 0 146.44843919819687 -40.497744083167674 0 -40.497744083167674 -72.052088384485302 0 0 0 0 172.76714048869326 -65.296837219593954 0 -65.296837219593954 -59.811935682668718 0 0 0 0 164.55734927632147 -30.56179769756659 0 -30.56179769756659 -88.880519649966004 0 0 0 0 163.53062479209621 -31.859677724668472 0 -31.859677724668472 -84.416303285293907 0 0 0 0 169.95749279289157 -46.796379235239669 0 -46.796379235239669 -99.446227789526802 0 0 0 0 181.1283174019627 -19.796509039166466 0 -19.796509039166466 -126.68405681631248 0 0 0 0 175.19461054795829 -5.7579028841060307 0 -5.7579028841060307 -149.40269516410723 0 0 0 0 155.29445523115282 3.7131274018982197 0 3.7131274018982197 -102.56966755754593 0 0 0 0 149.91617468938784 19.833776250213539 0 19.833776250213539 -133.50236589819804 0 0 0 0 149.97366490564309 10.818257551818988 0 10.818257551818988 -108.45333895924114 0 0 0 0 144.22492672945373 -8.2058414931316292 0 -8.2058414931316292 -85.626865601557796 0 0 0 0 153.53948002686957 1.4199777491746772 0 1.4199777491746772 -83.767443140697651 0 0 0 0 143.97196130665543 44.681598813862479 0 44.681598813862479 -252.84456739938196 0 0 0 0 68.195111373206601 53.223976294229033 0 53.223976294229033 -177.29892443509215 0 0 0 0 180.52091931799077 -18.737066538272643 0 -18.737066538272643 -173.79096349742093 0 0 0 0 167.58601064560935 -27.622902759796375 0 -27.622902759796375 -119.96845037158778 0 0 0 0 98.846681296388851 65.611393299478891 0 65.611393299478891 -165.98216481258044 0 0 0 0 137.41070238826796 18.8180666143287 0 18.8180666143287 -107.52158063926163 0 0 0 0 137.67333479871741 22.792156188907256 0 22.792156188907256 -122.72279322507165 0 0 0 0 101.32856984035971 74.687176740517515 0 74.687176740517515 -196.27823635877814 0 0 0 0 -44.537297094706446 68.347810026840364 0 68.347810026840364 -74.342539281446307 0 0 0 0 64.158170379632793 14.226039440548334 0 14.226039440548334 -47.84941690964979 0 0 0 0 38.832356980186887 22.019819195118089 0 22.019819195118089 -22.554646710207635 0 0 0 0 58.724422912917277 4.8803870443402104 0 4.8803870443402104 -1.5647500075174374 0 0 0 0 111.13595278474531 31.454779478876844 0 31.454779478876844 -65.12255700876085 0 0 0 0 103.82300762590603 53.826211208533095 0 53.826211208533095 -104.42010124661806 0 0 0 0 54.888021689088248 -10.905463382815228 0 -10.905463382815228 -4.2447424662957554 0 0 0 0 44.141942724074795 10.635941429765722 0 10.635941429765722 3.9750604024642975 0 0 0 0 47.002421758795066 12.252621505244008 0 12.252621505244008 -4.5345047404411787 0 0 0 0 98.28442027435085 -13.743085086436309 0 -13.743085086436309 1.1739750045918527 0 0 0 0 61.082306286774838 10.113691786639265 0 10.113691786639265 -13.225067688769286 0 0 0 0 76.061065155741403 11.554398981639061 0 11.554398981639061 0.19248078089598453 0 0 0 0 108.90034725533042 24.756961145182004 0 24.756961145182004 -39.446526012968661 0 0 0 0 128.82411314873025 7.5697525803084318 0 7.5697525803084318 -54.993923479856221 0 0 0 0 132.9243765100473 15.756015631210062 0 15.756015631210062 -71.919000421765304 0 0 0 0 139.00743091874756 17.110003284873528 0 17.110003284873528 -84.053449857848236 0 0 0 0 140.14933607442072 27.439673775725169 0 27.439673775725169 -118.81545490781855 0 0 0 0 140.85397817677585 21.610746582748106 0 21.610746582748106 -87.009081241219064 0 0 0 0 139.72560485816211 19.268126299004962 0 19.268126299004962 -81.988531073197009 0 0 0 0 27.350002885114748 0.2089588256693844 0 0.2089588256693844 -2.4033699899109902 0 0 0 0 70.49650841249445 1.1025090797955954 0 1.1025090797955954 -8.5618912152745903 0 0 0 0 135.06078719551442 1.2603412903490607 0 1.2603412903490607 -89.940624550238454 0 0 0 0 115.9151298943616 6.0228709793077542 0 6.0228709793077542 -27.213996243688598 0 0 0 0 43.071402193862014 -6.4285920653628637 0 -6.4285920653628637 -15.502021189135121 0 0 0 0 130.34852619123001 18.549967840180585 0 18.549967840180585 -7.5942180156380568 0 0 0 0 108.60962732118787 48.268540922261309 0 48.268540922261309 -75.336084375198539 0 0 0 0 83.533286794929211 17.884127066728993 0 17.884127066728993 -4.1087370011282029 0 0 0 0 40.313469538503128 -27.197075777281924 0 -27.197075777281924 -7.7324828715266509 0 0 0 0 159.98395629596052 10.486313379532476 0 10.486313379532476 -48.928919176500131 0 0 0 0 154.35374186295667 6.0850954727975477 0 6.0850954727975477 -22.349990106245968 0 0 0 0 106.50047109887237 -14.607259977420199 0 -14.607259977420199 4.6847275557843204 0 0 0 0 87.714767899742583 4.2599253609289462 0 4.2599253609289462 -10.009815217164487 0 0 0 0 35.423159342973463 17.952449490188229 0 17.952449490188229 -13.419556841330866 0 0 0 0 87.54580552635889 -9.2665021349747434 0 -9.2665021349747434 -4.9196068756320983 0 0 0 0 95.892330056478386 5.5536566836222647 0 5.5536566836222647 -6.3446460629751869 0 0 0 0 172.16500485919823 47.098079870996116 0 47.098079870996116 -7.6221053972603841 0 0 0 0 198.74203094240511 -39.416990004291165 0 -39.416990004291165 10.897061964314162 0 0 0 0 302.51365890941815 -49.696296270461289 0 -49.696296270461289 -19.088803105445095 0 0 0 0 13.448285248708203 -2.4127116493027927 0 -2.4127116493027927 0.065191253328528376 0 0 0 0 138.36126719246386 -7.5285265672673631 0 -7.5285265672673631 23.839162341618589 0 0 0 0 77.571015529625583 7.9278465206843975 0 7.9278465206843975 -7.230488294506273 0 0 0 0 50.942131475821952 38.382458356089728 0 38.382458356089728 -41.336365417692832 0 0 0 0 28.922031199355843 74.36189394179496 0 74.36189394179496 -5.1122370665716517 0 0 0 0 64.957211465953151 62.245105595303357 0 62.245105595303357 -3.5148560114755014 0 0 0 0 87.370233827561606 5.1741097993426592 0 5.1741097993426592 -8.7704744688362553 0 0 0 0 88.842979603095955 -1.5748645159010408 0 -1.5748645159010408 -1.9236439092751789 0 0 0 0 58.938470449497174 11.947785532163124 0 11.947785532163124 -2.582979244410053 0 0 0 0 76.255451692133647 9.0190490312148768 0 9.0190490312148768 -1.6683427316156667 0 0 0 0 76.344817846460501 10.016630303339753 0 10.016630303339753 -13.23098561250481 0 0 0 0 73.252372364193434 -0.24015690483429353 0 -0.24015690483429353 3.7809300969120159 0 0 0 0 29.926004275247831 -3.1091733570037832 0 -3.1091733570037832 8.5193342037898674 0 0 0 0 122.33929070380145 3.959756490490534 0 3.959756490490534 -1.1541180197855283 0 0 0 0 96.412096800611494 -17.533522478161444 0 -17.533522478161444 -3.0560976981666546 0 0 0 0 45.666757944104404 -20.916352827011849 0 -20.916352827011849 2.5969530594435106 0 0 0 0 313.3032324782107 -24.142741357622981 0 -24.142741357622981 -1.9346221585728927 0 0 0 0 284.8945892493648 15.153358401844343 0 15.153358401844343 8.7879608100629412 0 0 0 0 14.208292573047075 -2.6017162760558108 0 -2.6017162760558108 -2.0124472476996775 0 0 0 0 296.51476059440756 16.640384615953053 0 16.640384615953053 16.920742942054858 0 0 0 0 112.82847911835415 5.4820283008305069 0 5.4820283008305069 -2.8441479259040534 0 0 0 0 256.02008999339887 3.017851150842489 0 3.017851150842489 -2.5901529127486356 0 0 0 0 -32.115708824043395 27.729795139972794 0 27.729795139972794 15.596720362184897 0 0 0 0 6.0769016542230929 -4.5328186886650883 0 -4.5328186886650883 -3.1168152800987352 0 0 0 0 372.04681156447623 76.977489326139221 0 76.977489326139221 -16.134111985469644 0 0 0 0 195.40227321816201 51.129509879330669 0 51.129509879330669 -30.968253785871411 0 0 0 0 352.78080215770751 372.39823122187727 0 372.39823122187727 -7.096307972366958 0 0 0 0 108.34496715343266 -27.897348671292093 0 -27.897348671292093 -16.212745702213738 0 0 0 0 15.040216515139861 -2.5839956213503399 0 -2.5839956213503399 -2.8041198767774338 0 0 0 0 86.765097846422577 0.49913645060786394 0 0.49913645060786394 25.323846307243571 0 0 0 0 130.12568272172939 40.094645822213778 0 40.094645822213778 -12.109338070044032 0 0 0 0 80.958738423709292 -3.9284094152437774 0 -3.9284094152437774 50.919404712029973 0 0 0 0 93.197900822095107 10.819828797053447 0 10.819828797053447 -27.524267468258216 0 0 0 0 125.15402405281202 -11.047564682516494 0 -11.047564682516494 22.648612140626284 0 0 0 0 130.24058224538749 2.4609644485122999 0 2.4609644485122999 -2.6169621983349316 0 0 0 0 101.40549244210706 -13.488673019119005 0 -13.488673019119005 29.94977087142604 0 0 0 0 454.15897508378112 -11.367657204835467 0 -11.367657204835467 447.61445395246824 0 0 0 0 62.722626288443735 -30.04347303448813 0 -30.04347303448813 -12.338305980977182 0 0 0 0 99.524869693123037 -2.9344582044248 0 -2.9344582044248 24.93019149822112 0 0 0 0 -165.66139760709484 -48.093782295835581 0 -48.093782295835581 -61.949461869315712 0 0 0 0 -277.3403263715154 -214.45909591858091 0 -214.45909591858091 44.020233802141917 0 0 0 0 157.72629688351299 -175.98414904278022 0 -175.98414904278022 -0.52702689189650775 0 0 0 0 4.8207364861066822 -3.3617933385858407 0 -3.3617933385858407 1.4963081850902373 0 0 0 0 412.6520326076452 -496.02249759628944 0 -496.02249759628944 349.0837994494907 0 0 0 0 60.960030433170857 -26.925240380098472 0 -26.925240380098472 -12.543511671497374 0 0 0 0 344.89439368309104 563.2904056124562 0 563.2904056124562 -264.33109058025212 0 0 0 0 -189.17544642461871 252.48113481914609 0 252.48113481914609 -201.11615752141915 0 0 0 0 -100.94396255561878 -210.96361938609368 0 -210.96361938609368 36.254898892007475 0 0 0 0 101.20279178921191 30.709208097191091 0 30.709208097191091 0.016001418094036917 0 0 0 0 73.430592158605577 0.41063903350848818 0 0.41063903350848818 16.547391247085883 0 0 0 0 185.38445618897094 9.7014189852022472 0 9.7014189852022472 -8.240724488708981 0 0 0 0 75.536887490976369 19.416358723908484 0 19.416358723908484 6.7568727867295308 0 0 0 0 21.060972045883261 9.2903482858124562 0 9.2903482858124562 1.2897598984161085 0 0 0 0 15.026933095696052 -8.2972737344431664 0 -8.2972737344431664 -1.397236992157848 0 0 0 0 48.976635217783041 2.2667705241928222 0 2.2667705241928222 -0.0065584193076649719 0 0 0 0 65.311150539044604 31.478501947264903 0 31.478501947264903 7.3109817141397233 0 0 0 0 57.707748039014405 45.57070519728255 0 45.57070519728255 7.3144028872160138 0 0 0 0 115.43565922888229 12.692117187038775 0 12.692117187038775 -9.5016518089430519 0 0 0 0 115.77238913261681 14.834972248817735 0 14.834972248817735 3.974356118529613 0 0 0 0 80.899816533667035 61.894240010002676 0 61.894240010002676 -19.940901457999644 0 0 0 0 76.89215633970889 42.800992577661674 0 42.800992577661674 -4.308729668405249 0 0 0 0 181.51687603886239 -5.0244208938254644 0 -5.0244208938254644 4.1931502294265641 0 0 0 0 10.233509489015859 3.9681489361011018 0 3.9681489361011018 1.7090577438620644 0 0 0 0 50.885908724158071 27.2064520542325 0 27.2064520542325 34.459956338950263 0 0 0 0 46.677402303591975 33.028669762761012 0 33.028669762761012 7.2570980694087419 0 0 0 0 183.1758091852098 24.782754334555847 0 24.782754334555847 -42.932255064668823 0 0 0 0 -3.0716800484454438 33.255324076884477 0 33.255324076884477 -0.46107576360519831 0 0 0 0 46.977214976883261 41.013011657715765 0 41.013011657715765 34.886910939080735 0 0 0 0 102.00230001517775 23.349027153844105 0 23.349027153844105 1.9673024729077042 0 0 0 0 96.527652599063003 45.806627714890396 0 45.806627714890396 -16.429435159052531 0 0 0 0 206.22779414692195 17.715701639577901 0 17.715701639577901 5.4202715007698998 0 0 0 0 143.70513260446023 40.830785698724938 0 40.830785698724938 -3.1143097464607479 0 0 0 0 141.99488919894793 -11.870823354745625 0 -11.870823354745625 14.552959667446146 0 0 0 0 173.67087465891382 -6.8668635301073664 0 -6.8668635301073664 14.559378156716802 0 0 0 0 168.78859828782151 -25.972218099624115 0 -25.972218099624115 48.755015022037242 0 0 0 0 125.15474973225567 -9.5139799107815612 0 -9.5139799107815612 53.096470638279698 0 0 0 0 242.95743001176743 26.115610177150756 0 26.115610177150756 52.553083349641383 0 0 0 0 170.98505011209636 -13.060734610919894 0 -13.060734610919894 40.521933455587487 0 0 0 0 226.63461232901318 62.918634169201596 0 62.918634169201596 56.830313632667639 0 0 0 0 27.079869636218689 -9.8668862332400806 0 -9.8668862332400806 -4.2798654728286722 0 0 0 0 62.568564348839573 14.175511131377675 0 14.175511131377675 20.79444570018245 0 0 0 0 115.05335423781071 114.84576143931258 0 114.84576143931258 49.058060869829205 0 0 0 0 257.78057113726391 35.946357607724735 0 35.946357607724735 -22.623762655488008 0 0 0 0 0.096048271331540036 8.3276152827020766 0 8.3276152827020766 3.0758997416300016 0 0 0 0 182.74433206894901 44.614214898207393 0 44.614214898207393 -70.842429547541613 0 0 0 0 104.47468007540738 1.2316623920076495 0 1.2316623920076495 -9.7316594575538637 0 0 0 0 107.47639733118785 -2.6783986879090338 0 -2.6783986879090338 -2.0557066316685253 0 0 0 0 114.71695255635086 2.8818831952711199 0 2.8818831952711199 -3.359824128750621 0 0 0 0 125.442076799809 17.989728448956953 0 17.989728448956953 4.6728557411087763 0 0 0 0 118.09893963379909 -41.269941187601752 0 -41.269941187601752 21.41790460994865 0 0 0 0 120.12833916044474 -27.187732355564691 0 -27.187732355564691 -34.944318795249373 0 0 0 0 126.85100450429309 34.078249921485401 0 34.078249921485401 -14.82404176555076 0 0 0 0 177.1669974165834 -17.025341876076702 0 -17.025341876076702 26.979998964617693 0 0 0 0 181.7352864271088 52.503641247712594 0 52.503641247712594 27.379973360727178 0 0 0 0 376.35940197732998 42.87086265906467 0 42.87086265906467 23.64873122088936 0 0 0 0 213.49396581243491 8.2930586915601481 0 8.2930586915601481 67.944796213306319 0 0 0 0 219.36132216249825 32.790121799778156 0 32.790121799778156 7.6821912738790203 0 0 0 0 198.96048522705678 47.36156745275435 0 47.36156745275435 45.982137304286056 0 0 0 0 213.13885712067713 25.418792204355405 0 25.418792204355405 38.199697316473355 0 0 0 0 212.60437953013388 23.314213356824744 0 23.314213356824744 34.671683921824496 0 0 0 0 196.92254453133137 -24.850572422140587 0 -24.850572422140587 13.674798193753958 0 0 0 0 271.60239092952543 -9.4225207866118303 0 -9.4225207866118303 -0.60413925726709294 0 0 0 0 -0.87518704955124349 0.5038594224423889 0 0.5038594224423889 -0.015066023107942306 0 0 0 0 222.24273816306959 31.287975403837827 0 31.287975403837827 0.016001574287034477 0 0 0 0 183.7359236114462 13.658778350695346 0 13.658778350695346 9.4560005511300318 0 0 0 0 62.634705202202895 -0.49353111913977443 0 -0.49353111913977443 -47.615834062110963 0 0 0 0 62.504385280175484 -29.426224211610403 0 -29.426224211610403 84.934444536611835 0 0 0 0 -50.78510287051904 58.913889047688976 0 58.913889047688976 0.10477715569008036 0 0 0 0 74.027319624146912 4.4295206225600339 0 4.4295206225600339 -75.524422002011249 0 0 0 0 -24.695536150742555 82.612063688594844 0 82.612063688594844 29.399025418410332 0 0 0 0 12.288624776014643 -0.53769018006585156 0 -0.53769018006585156 -1.6191622309231406 0 0 0 0 -0.38963899514908462 7.8196690203041204 0 7.8196690203041204 0.79709560210898645 0 0 0 0 9.8965679104439914 112.1137526576415 0 112.1137526576415 116.35970577958929 0 0 0 0 92.085488226817688 116.89119227801484 0 116.89119227801484 -14.069755708680418 0 0 0 0 42.917781315034119 57.508866140825859 0 57.508866140825859 -5.3835286762865362 0 0 0 0 174.92540749257023 39.233448663794718 0 39.233448663794718 -70.001461413314246 0 0 0 0 172.25291000900324 28.387760711794044 0 28.387760711794044 -2.6318919386230846 0 0 0 0 164.49930772840162 20.006006413878367 0 20.006006413878367 -1.5887232226745738 0 0 0 0 162.26916037939372 11.353671687047665 0 11.353671687047665 -0.58380489303931427 0 0 0 0 174.97230651024438 -0.70691304137125144 0 -0.70691304137125144 4.5043652140254835 0 0 0 0 59.433498553356259 52.174072000720599 0 52.174072000720599 -8.0758918473258952 0 0 0 0 176.71031168327318 -11.793985277280441 0 -11.793985277280441 23.155617172511484 0 0 0 0 154.79078084385401 22.538880308858396 0 22.538880308858396 11.260946341323574 0 0 0 0 161.74679825101339 25.843252613308692 0 25.843252613308692 29.702696304988763 0 0 0 0 150.85742292432406 10.824820304229526 0 10.824820304229526 -1.0721775854744919 0 0 0 0 118.37555846365285 11.820367064994997 0 11.820367064994997 12.166595392896824 0 0 0 0 111.06326868428005 -8.998539194115267 0 -8.998539194115267 6.1502293436618061 0 0 0 0 119.79925549123436 6.8365518864663102 0 6.8365518864663102 -5.4434760171350405 0 0 0 0 119.9431982334936 7.8871384103447326 0 7.8871384103447326 -12.943205368679855 0 0 0 0 106.83380005390791 -0.95221980498712355 0 -0.95221980498712355 -7.8086755771839762 0 0 0 0 110.34822873298981 9.9636659873722806 0 9.9636659873722806 1.7545687721728882 0 0 0 0 124.96875429715146 1.7274806683908537 0 1.7274806683908537 -7.9321944706075485 0 0 0 0 124.47235916217323 13.321468617937171 0 13.321468617937171 2.0028318419103925 0 0 0 0 124.6623923224106 13.982521536004924 0 13.982521536004924 -8.3362941161713024 0 0 0 0 165.54979265865404 7.4320247977375402 0 7.4320247977375402 -8.4498553548992277 0 0 0 0 114.17079671582906 9.0755778732628301 0 9.0755778732628301 -5.2537398978001875 0 0 0 0 119.41701052698772 -0.15054550145487156 0 -0.15054550145487156 23.56802046794428 0 0 0 0 126.92149249251088 22.733820683343822 0 22.733820683343822 -28.134029504289856 0 0 0 0 123.20411740810908 -1.1875757168397669 0 -1.1875757168397669 -7.6133244027391829 0 0 0 0 86.072731735396928 -17.978813876887955 0 -17.978813876887955 2.5264909584198882 0 0 0 0 -88.209348099087947 205.01375957769102 0 205.01375957769102 -196.95626005455892 0 0 0 0 14.313145423510193 -3.0666789946608759 0 -3.0666789946608759 -3.6506404164533883 0 0 0 0 30.298094487603464 7.4671790054317455 0 7.4671790054317455 4.9045432087629743 0 0 0 0 69.270409792879946 -70.766365267057722 0 -70.766365267057722 -177.52428676140721 0 0 0 0 73.51610490276471 168.85309659901918 0 168.85309659901918 -369.8396198075493 0 0 0 0 108.15996432775864 -171.83960186089303 0 -171.83960186089303 26.566905699244149 0 0 0 0 125.11231953065953 154.66327203902924 0 154.66327203902924 152.40233436815015 0 0 0 0 115.31470596943109 -403.40168029265112 0 -403.40168029265112 343.75873212339349 0 0 0 0 359.85302823456004 -40.307868241091683 0 -40.307868241091683 -389.96046568645352 0 0 0 0 294.51023701930535 -422.66396901816404 0 -422.66396901816404 -28.395200967800179 0 0 0 0 121.17092204086163 57.022611191219937 0 57.022611191219937 12.368904142802643 0 0 0 0 376.95948997908272 17.991036270643235 0 17.991036270643235 -154.410328954953 0 0 0 0 280.65575673937201 -7.9618430674308911 0 -7.9618430674308911 -137.67916722564769 0 0 0 0 77.312812732121529 47.377072657845673 0 47.377072657845673 26.262113367966322 0 0 0 0 32.265811255111558 1.5905452025291424 0 1.5905452025291424 -1.6268631499944384 0 0 0 0 95.541757618892007 36.489195903015684 0 36.489195903015684 -10.86507766719717 0 0 0 0 191.93785716991988 -20.308634638830426 0 -20.308634638830426 -35.408220931527808 0 0 0 0 140.80506664792711 1.1179528258114146 0 1.1179528258114146 -14.104183619901827 0 0 0 0 241.82374230514688 2.3960571003212863 0 2.3960571003212863 -43.449746918657638 0 0 0 0 259.82559017610038 257.63377678750521 0 257.63377678750521 -289.28296947300714 0 0 0 0 196.79532746122277 200.64250288546782 0 200.64250288546782 -96.044623052544011 0 0 0 0 -317.80263950942026 24.417268345130424 0 24.417268345130424 -61.1282979108164 0 0 0 0 37.012178829088953 -158.1456221491872 0 -158.1456221491872 -468.59636089828109 0 0 0 0 792.126168840623 -75.343958967827348 0 -75.343958967827348 -258.66025334409278 0 0 0 0 -1.1511712323601841 3.1220555415842455 0 3.1220555415842455 -40.006734264252572 0 0 0 0 940.08359698421555 169.42942930316622 0 169.42942930316622 -867.76141531735288 0 0 0 0 119.5181117253087 530.57906242654371 0 530.57906242654371 754.08922978337341 0 0 0 0 417.37370654559709 70.701643198491638 0 70.701643198491638 -93.770839952732786 0 0 0 0 31.303010892019074 3.3700552008457691 0 3.3700552008457691 -60.977904375628952 0 0 0 0 305.01325808919501 94.96655776611442 0 94.96655776611442 71.450370079513732 0 0 0 0 119.26293251485913 308.36077163201571 0 308.36077163201571 -4.249710444826178 0 0 0 0 10.1493023702036 2.5382358599938186 0 2.5382358599938186 -0.73151714354561026 0 0 0 0 331.150713023555 472.22038337869481 0 472.22038337869481 -30.522339696326526 0 0 0 0 238.28662105121475 340.62997267808396 0 340.62997267808396 -192.72238820311213 0 0 0 0 -4.6428052078917972 118.67428762175689 0 118.67428762175689 -208.94360979822068 0 0 0 0 54.798314605039195 260.94825026334206 0 260.94825026334206 -21.86397851675747 0 0 0 0 81.580891404948488 152.63076150875099 0 152.63076150875099 -265.95809414813175 0 0 0 0 47.62866925659182 68.411535153032389 0 68.411535153032389 -328.34039645172902 0 0 0 0 20.702876846429717 195.05251515783073 0 195.05251515783073 -106.49823027842376 0 0 0 0 179.40346362392302 -19.563891327241436 0 -19.563891327241436 -435.27895098203476 0 0 0 0 -101.64078040616732 -10.777308753787793 0 -10.777308753787793 -148.7407389380046 0 0 0 0 112.58261258623679 -148.96150752861797 0 -148.96150752861797 39.550052620882525 0 0 0 0 311.12319424898305 49.864427715097008 0 49.864427715097008 -143.50703374812724 0 0 0 0 642.46855497655633 125.29269877366687 0 125.29269877366687 -95.896228974643464 0 0 0 0 248.58889731614909 189.08691375706576 0 189.08691375706576 -110.03071691833384 0 0 0 0 115.62562632896879 131.70260483418065 0 131.70260483418065 -54.293815945593451 0 0 0 0 108.05097286748787 101.4666083950317 0 101.4666083950317 79.435528959949579 0 0 0 0 364.02708706860722 206.67285443736989 0 206.67285443736989 117.59053111188496 0 0 0 0 803.08267700740907 -457.32540224377072 0 -457.32540224377072 304.61619927452557 0 0 0 0 157.87351680361462 -154.42507692804156 0 -154.42507692804156 252.62320142576073 0 0 0 0 6.7820590837694397 0.54379519296979595 0 0.54379519296979595 -0.49190796216254107 0 0 0 0 431.70953936208389 133.51737051049088 0 133.51737051049088 -84.416899472975274 0 0 0 0 141.76324690774345 -150.37356187350633 0 -150.37356187350633 223.26219675697928 0 0 0 0 91.279862346724258 45.921686577309629 0 45.921686577309629 -101.36631104797189 0 0 0 0 0.79651300251498469 147.04048524264135 0 147.04048524264135 -54.925987819106012 0 0 0 0 -240.58705481098877 11.804995489397243 0 11.804995489397243 66.111561950542182 0 0 0 0 2.3099605811646953 3.1242013411783489 0 3.1242013411783489 -23.930303071731906 0 0 0 0 320.96941820567008 -0.62962236789712733 0 -0.62962236789712733 -262.19954761854115 0 0 0 0 86.904816781534464 41.112439667646413 0 41.112439667646413 -80.110100922457605 0 0 0 0 2.8621080213197274 -74.199867508477155 0 -74.199867508477155 -17.923851181683517 0 0 0 0 -248.85706111827676 150.2956749882793 0 150.2956749882793 -117.97788211978286 0 0 0 0 116.20906131577794 35.659228316644658 0 35.659228316644658 -160.74782862191296 0 0 0 0 141.57649839593068 57.124551417678276 0 57.124551417678276 -236.71560176150888 0 0 0 0 359.80275370258823 -295.38895963746916 0 -295.38895963746916 97.426730159163526 0 0 0 0 802.4626612157881 -156.42019360695303 0 -156.42019360695303 -298.21759906818556 0 0 0 0 197.93923848410486 542.27150635984549 0 542.27150635984549 -257.3309852762502 0 0 0 0 278.01320077975106 -156.47669970236427 0 -156.47669970236427 -31.797398030225395 0 0 0 0 287.96664713534119 -170.21207394334624 0 -170.21207394334624 -97.478199712961668 0 0 0 0 340.28530623792903 -122.50768190295867 0 -122.50768190295867 -109.95959029613869 0 0 0 0 303.40711335711603 -87.996958190629698 0 -87.996958190629698 -38.326419497899678 0 0 0 0 341.0540758870975 -106.48963406159933 0 -106.48963406159933 -80.518683752639845 0 0 0 0 419.94027863813244 -25.715420759824497 0 -25.715420759824497 -55.15033544934613 0 0 0 0 360.43375671498507 -93.172501092475841 0 -93.172501092475841 -116.22194691430877 0 0 0 0 591.69106155229383 -29.922918917674224 0 -29.922918917674224 -107.76157724748828 0 0 0 0 145.148379978913 0.27230541486778748 0 0.27230541486778748 55.110132917570581 0 0 0 0 5.9129435410089854 -0.96683482574046309 0 -0.96683482574046309 0.61029643972375425 0 0 0 0 263.0351655777049 -226.68583093452526 0 -226.68583093452526 124.91624481138388 0 0 0 0 39.334064308612142 16.986046372028341 0 16.986046372028341 -56.110137296154562 0 0 0 0 284.52940895771462 -101.80577280139923 0 -101.80577280139923 65.273326878846092 0 0 0 0 -36.565130596995004 108.24551423732089 0 108.24551423732089 -48.014987051697517 0 0 0 0 108.14124669131706 -20.619642381015183 0 -20.619642381015183 -55.260088424583955 0 0 0 0 0.62025052827880245 0.55308405182623233 0 0.55308405182623233 -0.33587575314846596 0 0 0 0 489.92247642821167 -127.63630526973338 0 -127.63630526973338 71.989411593656712 0 0 0 0 294.47760870147613 -99.380117897978835 0 -99.380117897978835 -52.266554835736315 0 0 0 0 281.23844744630333 -24.650639075723575 0 -24.650639075723575 -30.18656822524872 0 0 0 0 195.35954285532353 33.425525887682397 0 33.425525887682397 -68.92899005236859 0 0 0 0 98.109839043609099 -21.574548419971507 0 -21.574548419971507 49.800489878760345 0 0 0 0 207.53120916176704 -50.523820316419233 0 -50.523820316419233 -38.55862218978109 0 0 0 0 271.0134140550872 -106.381862446686 0 -106.381862446686 13.699405388727428 0 0 0 0 221.29426693684945 -37.66305785607392 0 -37.66305785607392 -65.137805199726245 0 0 0 0 168.31341715567396 -4.8288975329596724 0 -4.8288975329596724 -80.174593097568504 0 0 0 0 213.58585162780946 -102.42055272216112 0 -102.42055272216112 -52.371181514419249 0 0 0 0 240.18480380038091 -53.625289831387363 0 -53.625289831387363 -66.679425341425031 0 0 0 0 17.36107586765138 8.5287725381363089 0 8.5287725381363089 -107.13750539283728 0 0 0 0 87.296723330349778 -84.299260368686191 0 -84.299260368686191 -146.68309797529696 0 0 0 0 18.247298681511893 15.943178297798795 0 15.943178297798795 -87.972928935124401 0 0 0 0 213.64649353369896 -215.0314614456006 0 -215.0314614456006 177.08836741801088 0 0 0 0 -35.985261185283889 143.49348994077491 0 143.49348994077491 -274.91704511282182 0 0 0 0 0.58994413962599879 -0.065006554122916782 0 -0.065006554122916782 -0.52713386444501786 0 0 0 0 164.81523285547155 -113.30150036534314 0 -113.30150036534314 69.449876948210658 0 0 0 0 158.29060214889614 -82.874189982959933 0 -82.874189982959933 10.106899649234037 0 0 0 0 103.30667732210713 -87.64248838372896 0 -87.64248838372896 90.068992832323602 0 0 0 0 12.145444722693355 1.9494592712887879 0 1.9494592712887879 -92.796855989166033 0 0 0 0 134.08118678738538 -122.12233584817523 0 -122.12233584817523 123.10857151129403 0 0 0 0 11.157713728985982 1.1925981079325538 0 1.1925981079325538 -88.040543253475903 0 0 0 0 157.05930027392606 -128.59498724335992 0 -128.59498724335992 90.563163514659209 0 0 0 0 2.4271018378020699 -0.91037221329648332 0 -0.91037221329648332 -0.43605280330036322 0 0 0 0 207.82844193652272 -134.1006738127835 0 -134.1006738127835 85.515939489051561 0 0 0 0 0.10252797880832532 -0.25834829729620878 0 -0.25834829729620878 0.47486301028369216 0 0 0 0 167.45449521981209 -108.08778472115114 0 -108.08778472115114 -35.997940966376518 0 0 0 0 47.542318586740294 -59.30261082339257 0 -59.30261082339257 205.5959163802836 0 0 0 0 125.24571240699152 -8.259523513698241 0 -8.259523513698241 70.691772382786212 0 0 0 0 62.466126331040869 -26.806902558697402 0 -26.806902558697402 -40.559720434996734 0 0 0 0 134.38802326544828 -99.677619962818426 0 -99.677619962818426 -89.397206571429706 0 0 0 0 57.358948207169306 -108.80034871288899 0 -108.80034871288899 -35.188680797508823 0 0 0 0 92.213138009828981 -9.3340253233009207 0 -9.3340253233009207 -4.8655476266078495 0 0 0 0 139.72441751575388 -59.643875104242397 0 -59.643875104242397 -29.762222410929553 0 0 0 0 80.943284900538856 3.5432732379908884 0 3.5432732379908884 -69.913908649583846 0 0 0 0 58.449452710556216 -49.824352484677547 0 -49.824352484677547 -64.17315919348539 0 0 0 0 110.14990036583913 -42.768963423418995 0 -42.768963423418995 -77.381533223352562 0 0 0 0 42.230451028444804 -18.756180954163028 0 -18.756180954163028 -21.77570104924871 0 0 0 0 40.9007365162106 -20.474755191869008 0 -20.474755191869008 -20.989429037357695 0 0 0 0 60.407947466432233 -23.29676426566175 0 -23.29676426566175 -121.68629145028422 0 0 0 0 16.446220123690864 -11.166573975157362 0 -11.166573975157362 0.55761395532701208 0 0 0 0 66.704282830673037 -75.34528493140715 0 -75.34528493140715 10.927277930252785 0 0 0 0 37.8311167413558 -66.378689869000254 0 -66.378689869000254 2.3207385911373422 0 0 0 0 43.750668608568958 -32.40764261348022 0 -32.40764261348022 -3.1184182809072354 0 0 0 0 77.258423679453699 -58.916561020903373 0 -58.916561020903373 2.7310415359388571 0 0 0 0 51.488122121205151 -31.165450570078022 0 -31.165450570078022 12.938445975406932 0 0 0 0 157.80054033655324 -137.17746310714028 0 -137.17746310714028 27.680917836104072 0 0 0 0 56.422519746163744 -86.553328361724198 0 -86.553328361724198 2.4295005590720393 0 0 0 0 -24.070838947094302 -19.226158910268936 0 -19.226158910268936 6.5220849344860206 0 0 0 0 -19.215841688303044 79.348008548438884 0 79.348008548438884 13.627116272267585 0 0 0 0 237.05318441784766 -239.69258206191898 0 -239.69258206191898 17.1458435948648 0 0 0 0 -51.815144117368618 -174.8586580242486 0 -174.8586580242486 144.02115580639384 0 0 0 0 217.59562911535613 -164.59207124105819 0 -164.59207124105819 228.4551753995911 0 0 0 0 247.74469473171848 -21.6580244747704 0 -21.6580244747704 -10.468251736345337 0 0 0 0 22.759988748331239 -9.787165574224062 0 -9.787165574224062 5.8255242393423003 0 0 0 0 39.598598097451031 -24.949978358536555 0 -24.949978358536555 -16.513173333316445 0 0 0 0 39.761175715531863 -27.125520008716876 0 -27.125520008716876 12.458703821786912 0 0 0 0 95.125685353443259 -139.70144615063327 0 -139.70144615063327 240.26354843451372 0 0 0 0 138.59102208650256 -6.9238237180899773 0 -6.9238237180899773 24.556867205148592 0 0 0 0 106.08932305997587 -181.45702905868529 0 -181.45702905868529 99.74373943694809 0 0 0 0 255.88151755431318 -69.961991907765878 0 -69.961991907765878 -159.04739259384951 0 0 0 0 -92.212403329089284 -108.88433766499838 0 -108.88433766499838 -3.8590398423907573 0 0 0 0 43.316807561612222 279.60121289404742 0 279.60121289404742 -134.87750168400976 0 0 0 0 16.238160769395392 3.3260095506288749 0 3.3260095506288749 -0.85055015999967232 0 0 0 0 167.44300418115017 85.50295491281463 0 85.50295491281463 -338.99312829626092 0 0 0 0 159.65912808780558 -235.71789356585987 0 -235.71789356585987 260.2215877436679 0 0 0 0 184.14763720222982 -77.626917469350019 0 -77.626917469350019 19.64753196917593 0 0 0 0 204.84051869463656 -141.15620212669444 0 -141.15620212669444 7.6618912990952595 0 0 0 0 222.49956860729435 -58.853202813992084 0 -58.853202813992084 80.071091031453307 0 0 0 0 275.41053203740012 -196.59449124858861 0 -196.59449124858861 67.577018692875299 0 0 0 0 198.5811450357287 -46.070849542503311 0 -46.070849542503311 -151.84794669348821 0 0 0 0 192.1723338347183 -124.53984904768359 0 -124.53984904768359 -51.044831417655587 0 0 0 0 128.46426473121392 -69.810568946900872 0 -69.810568946900872 -157.82640099443256 0 0 0 0 158.21460159498383 -77.754906459299036 0 -77.754906459299036 -21.329747169974098 0 0 0 0 196.09860334296536 -43.755450536950548 0 -43.755450536950548 -140.06274777863587 0 0 0 0 200.01682110022193 -91.308201173676849 0 -91.308201173676849 -60.444316547103199 0 0 0 0 148.67091573023936 -62.038362107371995 0 -62.038362107371995 -40.002248099092412 0 0 0 0 164.42914306203602 -83.272818298341917 0 -83.272818298341917 -26.211670561734309 0 0 0 0 149.04444420037908 -99.989845119301435 0 -99.989845119301435 21.125418960613388 0 0 0 0 111.63584725596593 -78.601875049443606 0 -78.601875049443606 47.54415727335072 0 0 0 0 107.96020227723056 -68.972962108204683 0 -68.972962108204683 22.572257385907619 0 0 0 0 126.54720600921428 -68.367724215232784 0 -68.367724215232784 -19.762298348337026 0 0 0 0 114.54124858544674 -75.639754146429482 0 -75.639754146429482 23.771814300044753 0 0 0 0 132.50507499903324 -58.214736619627502 0 -58.214736619627502 -43.495213665140398 0 0 0 0 147.53750801631759 -75.957432918432389 0 -75.957432918432389 -22.57429877586128 0 0 0 0 117.51058473154262 -67.986254280499907 0 -67.986254280499907 -12.827608954748484 0 0 0 0 109.5291528069356 -50.757924876081972 0 -50.757924876081972 -47.664040410669713 0 0 0 0 66.747590277402196 -30.578629069211956 0 -30.578629069211956 -8.4989918728838347 0 0 0 0 108.78306662341492 -65.74657172854188 0 -65.74657172854188 -41.031623716964532 0 0 0 0 40.198293470166391 -47.557531729293714 0 -47.557531729293714 69.450539429875789 0 0 0 0 54.383906537856092 -47.613666676621733 0 -47.613666676621733 32.460544711404509 0 0 0 0 52.313543576558004 -42.419028241002593 0 -42.419028241002593 37.151309410764952 0 0 0 0 66.369235820049653 -63.912770135884784 0 -63.912770135884784 44.779786133524794 0 0 0 0 -7.0490080046001822 7.5050803979911507 0 7.5050803979911507 5.2965755706518394 0 0 0 0 98.012034737737849 -50.562144634514425 0 -50.562144634514425 -12.0416192951254 0 0 0 0 90.288378948782338 -60.312206638123371 0 -60.312206638123371 28.616000965177591 0 0 0 0 78.444518803618848 -57.41737424079929 0 -57.41737424079929 31.159841269344724 0 0 0 0 84.187360010939301 -68.431259615951831 0 -68.431259615951831 52.280311361548229 0 0 0 0 27.133905327604054 -0.43394931375591739 0 -0.43394931375591739 -1.4683064697110222 0 0 0 0 75.471169557335088 -79.937951770780046 0 -79.937951770780046 73.907786710740311 0 0 0 0 168.16305566211668 -48.095065983297218 0 -48.095065983297218 -128.39971392252482 0 0 0 0 -31.835187243899782 -24.605009664725898 0 -24.605009664725898 -0.77179805860674833 0 0 0 0 -56.873622352315579 -60.131429476771245 0 -60.131429476771245 78.477213625396871 0 0 0 0 113.91517093258153 -81.50714793955467 0 -81.50714793955467 141.91810836581362 0 0 0 0 114.20469521132327 -73.326062886672787 0 -73.326062886672787 43.862206142749528 0 0 0 0 106.59991652035387 -78.65817649073233 0 -78.65817649073233 49.319321457496699 0 0 0 0 1.4543890144281733 0.43474453092662202 0 0.43474453092662202 1.325531371970385 0 0 0 0 -2.0697881546948338 -22.736394169847244 0 -22.736394169847244 -5.1741101141747095 0 0 0 0 6.9645719848340377 -9.0878045260183171 0 -9.0878045260183171 -21.514183371275749 0 0 0 0 76.829645104808151 61.338573930005168 0 61.338573930005168 122.95135210854096 0 0 0 0 370.10801763368363 65.161557100559094 0 65.161557100559094 -82.096490609982538 0 0 0 0 -81.912634589563822 -16.912305606353129 0 -16.912305606353129 -5.277755144812545 0 0 0 0 -7.7597951104505682 1.5541563314475013 0 1.5541563314475013 2.6262866248150232 0 0 0 0 -91.289614681794774 1.6246225557260914 0 1.6246225557260914 18.827586894403794 0 0 0 0 558.80201158311684 -44.237674761141534 0 -44.237674761141534 -68.185270963388575 0 0 0 0 7.3730377764946411 -6.5524709629004434 0 -6.5524709629004434 -6.0531274814690015 0 0 0 0 35.114733582281275 -30.915163327282897 0 -30.915163327282897 -12.631370484200458 0 0 0 0 -92.410806908970699 -69.103130411233906 0 -69.103130411233906 -57.98302524398332 0 0 0 0 522.24739540039445 -160.7643165746444 0 -160.7643165746444 -51.786188081099105 0 0 0 0 53.977892179202172 11.869947813061344 0 11.869947813061344 29.032523277425753 0 0 0 0 4.3058581109318226 -19.411541303063501 0 -19.411541303063501 -3.1581874670853698 0 0 0 0 11.387351484544155 -0.89857370127265312 0 -0.89857370127265312 -2.7340683666089785 0 0 0 0 -7.427178731712047 3.3166873915783981 0 3.3166873915783981 -9.5597543689668782 0 0 0 0 369.4623613376898 -87.009193524556508 0 -87.009193524556508 88.859887708147198 0 0 0 0 -57.841548347787466 -31.981510475894993 0 -31.981510475894993 28.030353723184817 0 0 0 0 -1.2502375404795174 2.2025833783308428 0 2.2025833783308428 2.4594665023740436 0 0 0 0 -0.21810147966607474 -8.1780480205308095 0 -8.1780480205308095 7.2413398947413619 0 0 0 0 11.875453818080132 -12.023097122866346 0 -12.023097122866346 -6.106312689247261 0 0 0 0 12.498265288712162 -7.5602978736119724 0 -7.5602978736119724 -0.72266972745952662 0 0 0 0 7.4883846863813233 -236.0798452902124 0 -236.0798452902124 5.4961432642709269 0 0 0 0 11.849757932755892 -11.781401217329574 0 -11.781401217329574 -3.6931777685740599 0 0 0 0 13.040688172952287 -16.937082559719855 0 -16.937082559719855 -2.0339397289608314 0 0 0 0 113.35422594058036 116.25135233478795 0 116.25135233478795 8.1337808808243608 0 0 0 0 166.66070098450291 -54.744412511113069 0 -54.744412511113069 69.250812857509004 0 0 0 0 2.3175290243748918 -5.0626120081641801 0 -5.0626120081641801 -6.717365535840365 0 0 0 0 13.749784974526847 -13.085032556460646 0 -13.085032556460646 -8.9450095860029251 0 0 0 0 6.3535420441476163 -12.748323371414244 0 -12.748323371414244 -4.3371579500330881 0 0 0 0 -0.78996178723173216 -18.540729501298756 0 -18.540729501298756 8.3491205560912931 0 0 0 0 44.571067394805141 -77.44257409586271 0 -77.44257409586271 -0.80014537607166858 0 0 0 0 1.3421151204854027 -8.5648140280978566 0 -8.5648140280978566 -7.9478313895536576 0 0 0 0 51.245612169310334 -78.266892565349735 0 -78.266892565349735 -40.871274320317752 0 0 0 0 1073.9516960071342 -693.76880796412195 0 -693.76880796412195 321.04135000680594 0 0 0 0 -50.977044729836052 -51.357812602700506 0 -51.357812602700506 92.892897806754263 0 0 0 0 210.06539381493349 -72.616710044525917 0 -72.616710044525917 49.060674147962345 0 0 0 0 946.03130895603681 -52.603061186787954 0 -52.603061186787954 -96.650639877525464 0 0 0 0 37.565537861781195 -18.031999890760972 0 -18.031999890760972 18.257684464342674 0 0 0 0 287.7180823750241 128.10998581746944 0 128.10998581746944 -23.080588894311859 0 0 0 0 45.354105591162806 -22.575001287604209 0 -22.575001287604209 -35.223019139324208 0 0 0 0 12.038875072160067 -5.312964123317272 0 -5.312964123317272 -6.6649007703853336 0 0 0 0 11.112560065945587 -20.15120138840436 0 -20.15120138840436 8.1605574163823231 0 0 0 0 42.236501246559783 -33.327985557212287 0 -33.327985557212287 7.1531251600563337 0 0 0 0 28.59795136077372 -4.3248209199385883 0 -4.3248209199385883 -17.206920385341629 0 0 0 0 85.420301027872483 82.442912151418568 0 82.442912151418568 -98.807689688984283 0 0 0 0 0.94424636515032034 -62.472566994157887 0 -62.472566994157887 77.908726407980794 0 0 0 0 64.753651357357739 -45.24433710683661 0 -45.24433710683661 -11.260171782275393 0 0 0 0 196.9767195169843 11.908116445389169 0 11.908116445389169 3.565610810042017 0 0 0 0 184.74781537397939 -171.02857360983535 0 -171.02857360983535 226.66807756208709 0 0 0 0 141.35444195111631 -82.887894222681098 0 -82.887894222681098 -38.141155085630089 0 0 0 0 68.218932510641025 -33.105014944198274 0 -33.105014944198274 -56.608739090794188 0 0 0 0 36.519869503599153 -8.0206677023649604 0 -8.0206677023649604 -14.487882815047689 0 0 0 0 47.677494959600153 -24.325618703135206 0 -24.325618703135206 -1.3694293931675929 0 0 0 0 61.483018856933541 -38.925453305797944 0 -38.925453305797944 -10.619819235335854 0 0 0 0 43.758290939840379 -18.836684831293852 0 -18.836684831293852 3.8221746071856 0 0 0 0 43.546875065105269 -55.347385651783043 0 -55.347385651783043 -11.755735355409342 0 0 0 0 -3.4973956969188293 -14.813451940534378 0 -14.813451940534378 5.4546460860401567 0 0 0 0 26.365399015752985 -9.7925146658440809 0 -9.7925146658440809 -12.973285443802485 0 0 0 0 47.736851603083778 -23.197316798615702 0 -23.197316798615702 2.0045847849517031 0 0 0 0 41.258603007358033 -13.642146597331703 0 -13.642146597331703 18.58501982015332 0 0 0 0 13.120525772577679 -5.7365294239070721 0 -5.7365294239070721 -4.4572784814991016 0 0 0 0 15.673610971382004 -36.362549536003826 0 -36.362549536003826 -0.17272402375874663 0 0 0 0 16.726415877080115 -17.045850383563902 0 -17.045850383563902 6.1864695372536156 0 0 0 0 33.116022707923548 -116.65152291423783 0 -116.65152291423783 0.6153998732988839 0 0 0 0 -2.1788880496696947 -9.6040306630076486 0 -9.6040306630076486 -2.8893408492468939 0 0 0 0 21.128939185466152 -82.978317206244355 0 -82.978317206244355 -15.964833811203675 0 0 0 0 13.754064106338404 -6.9196930546998487 0 -6.9196930546998487 -2.6342518378796225 0 0 0 0 56.139012075960636 -29.246565635308343 0 -29.246565635308343 59.906797594967884 0 0 0 0 35.743909256130507 -14.95078381473661 0 -14.95078381473661 -3.5499006932296879 0 0 0 0 15.400765759390197 -9.7052283847169747 0 -9.7052283847169747 -52.071524114283761 0 0 0 0 17.514437912142 -7.0873936195355753 0 -7.0873936195355753 1.9715787064155745 0 0 0 0 20.269019361803657 -19.06813952813377 0 -19.06813952813377 -4.8461534466723606 0 0 0 0 48.759413013824087 -57.657236420394156 0 -57.657236420394156 -48.464546494176375 0 0 0 0 18.936428950359186 -14.716582051596674 0 -14.716582051596674 -7.8139834519929536 0 0 0 0 9.2984762347623473 -38.622240700844827 0 -38.622240700844827 -38.206461212452268 0 0 0 0 70.285309343482368 -62.405539974783551 0 -62.405539974783551 -47.342317977796483 0 0 0 0 42.217616285313852 15.747426842037385 0 15.747426842037385 -28.232534345677777 0 0 0 0 13.109809609100921 -131.85190318788 0 -131.85190318788 -62.997358617133841 0 0 0 0 132.86462589808798 -32.328773475742082 0 -32.328773475742082 -28.589277194212627 0 0 0 0 31.663441507902462 -24.583369864629731 0 -24.583369864629731 -25.217503275280933 0 0 0 0 58.048300660695531 3.4027513681478467 0 3.4027513681478467 -44.248117462570008 0 0 0 0 25.107425906485673 -15.263944299291346 0 -15.263944299291346 -10.066235990215485 0 0 0 0 32.131499104593672 -21.874540390237556 0 -21.874540390237556 -16.56890226393978 0 0 0 0 34.161207805044285 -42.861490459288014 0 -42.861490459288014 -5.0301536994908993 0 0 0 0 31.785407754563494 -23.710069022691641 0 -23.710069022691641 -56.961628230376391 0 0 0 0 81.688721852005983 -54.027896024531401 0 -54.027896024531401 -63.611722563879084 0 0 0 0 38.006245825531892 -19.97382810612671 0 -19.97382810612671 -5.2652366681888267 0 0 0 0 55.335803751863722 -5.716278479653127 0 -5.716278479653127 -11.430002907924951 0 0 0 0 50.944267356098862 -16.652647023707686 0 -16.652647023707686 -10.785058441983892 0 0 0 0 -2.5546976707064459 -45.310581180316419 0 -45.310581180316419 -208.97306757545221 0 0 0 0 2.1015677469770964 1.7600577466423033 0 1.7600577466423033 -18.328681709026149 0 0 0 0 -4.5240620987840714 -9.208426486828607 0 -9.208426486828607 -8.6008921469990707 0 0 0 0 41.545309128196095 -87.089542154898027 0 -87.089542154898027 6.4341762562375493 0 0 0 0 17.549151020299178 -11.637284555074984 0 -11.637284555074984 -6.1486915766488437 0 0 0 0 18.476512362074573 -18.275589292138079 0 -18.275589292138079 -15.193034057254863 0 0 0 0 27.011837958997134 -16.910516612072783 0 -16.910516612072783 -12.827920158569965 0 0 0 0 27.911175458499201 -30.433791146524101 0 -30.433791146524101 -25.648812839931452 0 0 0 0 34.832400078552354 -8.7136678715046685 0 -8.7136678715046685 -14.790391098412421 0 0 0 0 30.922218223850109 -13.96719167900045 0 -13.96719167900045 -0.81677609991823719 0 0 0 0 31.960750644444488 -29.056188881920207 0 -29.056188881920207 -18.01232237195768 0 0 0 0 36.225371225184631 -21.904560557075669 0 -21.904560557075669 -7.0674264381347527 0 0 0 0 -3.2563810373831075 -296.48188539528337 0 -296.48188539528337 -272.05195496238161 0 0 0 0 -263.04734554651077 -551.58056776850162 0 -551.58056776850162 -223.7769112873882 0 0 0 0 -552.23812881111371 -216.93838815339222 0 -216.93838815339222 200.88705045535789 0 0 0 0 -150.86243468981411 106.82926472622091 0 106.82926472622091 282.14208494428931 0 0 0 0 516.48638051994203 127.01603392409402 0 127.01603392409402 76.317356572329572 0 0 0 0 -17.233245591727609 120.34910199405073 0 120.34910199405073 455.44561819655883 0 0 0 0 20.756122942669293 -18.226267898178151 0 -18.226267898178151 -8.3098616128006402 0 0 0 0 46.626083498438675 -163.74833165040511 0 -163.74833165040511 -22.045224317562315 0 0 0 0 -373.82103867646947 -75.640288072257135 0 -75.640288072257135 88.598369248847575 0 0 0 0 86.986890769592719 -7.8644579413207794 0 -7.8644579413207794 -49.653456977597671 0 0 0 0 -398.28678824657254 -27.464131305591991 0 -27.464131305591991 123.40056960380389 0 0 0 0 12.211016887897756 -22.091315370595964 0 -22.091315370595964 3.7198936405678698 0 0 0 0 108.04369824903551 -76.782476527919698 0 -76.782476527919698 -67.110974460474608 0 0 0 0 69.081290433328832 196.98670084602054 0 196.98670084602054 25.740631047792135 0 0 0 0 899.35756507308542 278.69003998529956 0 278.69003998529956 -77.138448587721541 0 0 0 0 802.14463531700312 437.30618474726907 0 437.30618474726907 103.31254627777889 0 0 0 0 303.24012143773143 62.853175415081751 0 62.853175415081751 -46.510260035321608 0 0 0 0 411.14339428133098 230.198507155774 0 230.198507155774 -15.646097429983456 0 0 0 0 1400.1491069321637 319.29116730802298 0 319.29116730802298 -247.36941706425932 0 0 0 0 1603.2291892581707 122.22211813141905 0 122.22211813141905 -544.22454864864221 0 0 0 0 1356.9703402920568 214.12602805110328 0 214.12602805110328 -313.08086984225611 0 0 0 0 1748.1828040216351 188.11198798325904 0 188.11198798325904 -311.56555269084498 0 0 0 0 771.20804313648841 -282.50356953312951 0 -282.50356953312951 -25.277247172976331 0 0 0 0 -29.683518711863144 310.64208747495604 0 310.64208747495604 584.41627585414517 0 0 0 0 17.015799714795691 7.0261154809385573 0 7.0261154809385573 -15.489718668771184 0 0 0 0 13.826346396034751 14.119332475525027 0 14.119332475525027 3.9137444769524166 0 0 0 0 1923.7266541290264 -450.22350172273775 0 -450.22350172273775 -12.970640605024528 0 0 0 0 290.7272160139255 402.25685849057299 0 402.25685849057299 323.34691312147436 0 0 0 0 2312.9729258565931 613.30299873180866 0 613.30299873180866 -30.37360940972394 0 0 0 0 1380.7108934411663 397.98882549381233 0 397.98882549381233 66.477413215551451 0 0 0 0 1400.2502786620753 745.63421245222958 0 745.63421245222958 162.114158965147 0 0 0 0 1592.2851339639165 938.09932884207092 0 938.09932884207092 1330.4800372864429 0 0 0 0 2497.0231087557622 1198.0521795589025 0 1198.0521795589025 431.84729150028994 0 0 0 0 3705.3214946272492 -686.04869023719266 0 -686.04869023719266 -34.690863419243669 0 0 0 0 1745.2618646641495 -320.5741675915724 0 -320.5741675915724 1820.1336786237935 0 0 0 0 962.79717371509469 718.72544811274588 0 718.72544811274588 511.64754821114184 0 0 0 0 455.77151203679387 382.65772778282599 0 382.65772778282599 1102.9369097434314 0 0 0 0 2287.765308902628 390.48563083192971 0 390.48563083192971 224.56989655202617 0 0 0 0 1.9395120650773379 -6.7828533186167732 0 -6.7828533186167732 0.39894668167260194 0 0 0 0 744.78030619113997 633.81239552552097 0 633.81239552552097 -635.36068370995736 0 0 0 0 2646.3182909214811 149.26119795991417 0 149.26119795991417 -659.94592352959353 0 0 0 0 -1999.6972112145304 1962.2246382092981 0 1962.2246382092981 739.2454268369097 0 0 0 0 -0.027131915902003811 2.0759501001011529 0 2.0759501001011529 2.0115261313274435 0 0 0 0 3780.760958311861 762.67280081054196 0 762.67280081054196 -316.13711606612105 0 0 0 0 805.56505487146205 -47.776055029950612 0 -47.776055029950612 -275.72561420190596 0 0 0 0 -1263.5710412948174 -23.153235110831631 0 -23.153235110831631 519.26374109453468 0 0 0 0 2174.8356357563462 110.19534843159488 0 110.19534843159488 -257.57290952005451 0 0 0 0 36.559637434368824 -9.0509560206580026 0 -9.0509560206580026 1.4146404357970761 0 0 0 0 1552.6637487221742 923.11149653252505 0 923.11149653252505 886.29999213203064 0 0 0 0 103.2618629624194 -98.258729430804124 0 -98.258729430804124 697.09144460414245 0 0 0 0 474.62601839838317 1958.5288725278433 0 1958.5288725278433 252.92102756608028 0 0 0 0 -940.82142427045619 -543.44438822623943 0 -543.44438822623943 122.43007034364564 0 0 0 0 9.5388898696758702 5.1677420623356198 0 5.1677420623356198 -4.5703014662880328 0 0 0 0 21.177856938855257 -102.9294305865601 0 -102.9294305865601 201.47044325995194 0 0 0 0 2541.438098995015 1315.7453335873374 0 1315.7453335873374 761.13582532848113 0 0 0 0 15.679939561135612 -1.621767083503471 0 -1.621767083503471 -5.722964609755687 0 0 0 0 23.74292266780202 12.239568725872957 0 12.239568725872957 11.262993885717822 0 0 0 0 196.43623730402032 553.03983640111983 0 553.03983640111983 2428.6203735201138 0 0 0 0 -2379.4196929068858 247.08626539851002 0 247.08626539851002 1926.0820941983679 0 0 0 0 -1319.8338402372465 -740.73095351522761 0 -740.73095351522761 1695.0821987994741 0 0 0 0 -295.05974019280984 251.10780887011038 0 251.10780887011038 404.88600146118171 0 0 0 0 1736.4201671165938 -720.85403343367398 0 -720.85403343367398 857.56546863365384 0 0 0 0 -549.1533471547009 291.56190853417746 0 291.56190853417746 1514.300670750386 0 0 0 0 1485.0909990234068 1365.8701008884068 0 1365.8701008884068 413.76988786695603 0 0 0 0 105.98759892384805 157.61855109415251 0 157.61855109415251 -486.33822816677025 0 0 0 0 116.13808499058359 17.796495861339508 0 17.796495861339508 -1125.7118028568857 0 0 0 0 2043.3965921951421 703.48521522387739 0 703.48521522387739 -754.93949341240443 0 0 0 0 5514.8460735019471 3715.2555693385466 0 3715.2555693385466 967.6987426990745 0 0 0 0 5503.0166769816715 -13.715849080650344 0 -13.715849080650344 -1335.7122661260726 0 0 0 0 2284.4309006617987 975.28769481580412 0 975.28769481580412 -698.84492794356856 0 0 0 0 -688.25304811175738 1032.2559838984585 0 1032.2559838984585 -209.41257365933006 0 0 0 0 268.15590913823689 645.84034944434711 0 645.84034944434711 -1172.949053437572 0 0 0 0 324.27679078167421 863.94689244354663 0 863.94689244354663 -472.56412396061222 0 0 0 0 1909.6348528818271 147.06384255687402 0 147.06384255687402 -710.70499785701895 0 0 0 0 -144.61653529685282 43.883434480680194 0 43.883434480680194 -87.795084950373962 0 0 0 0 13.580257092066034 1.6733754257023463 0 1.6733754257023463 -17.570864521621552 0 0 0 0 1717.1905810630124 148.89399191322514 0 148.89399191322514 -562.89662217392765 0 0 0 0 -10.571741092629964 -118.62907665648004 0 -118.62907665648004 -230.65132885752018 0 0 0 0 -152.75534108105785 300.10370956813512 0 300.10370956813512 -123.8511571366663 0 0 0 0 37.477587557727588 24.673592442769348 0 24.673592442769348 2.9771886316350402 0 0 0 0 1710.1612003131886 -341.92471827681919 0 -341.92471827681919 -639.38014044974977 0 0 0 0 5490.4854569497693 -2237.397368759795 0 -2237.397368759795 225.76300019046172 0 0 0 0 18.351407314360529 6.4548259916701056 0 6.4548259916701056 4.7124307544258714 0 0 0 0 1338.8298517995863 1844.8510071867472 0 1844.8510071867472 1194.1751604273591 0 0 0 0 5493.608166567079 2050.4324808969036 0 2050.4324808969036 -537.45941632409404 0 0 0 0 3259.9249123679838 98.857405286040006 0 98.857405286040006 -1613.8888652137321 0 0 0 0 2491.0465544119361 1179.8100011529671 0 1179.8100011529671 962.53339472583025 0 0 0 0 -1108.1500040787214 803.47831347889814 0 803.47831347889814 220.15965518090115 0 0 0 0 -0.080606134823455022 0.6571256974109474 0 0.6571256974109474 -2.0120946300785052 0 0 0 0 -279.53239902755013 622.73004841052762 0 622.73004841052762 -5.1389136810054197 0 0 0 0 -523.51070285862079 861.05940950552588 0 861.05940950552588 45.121061756857898 0 0 0 0 -926.6214185981662 257.0070224204261 0 257.0070224204261 70.442831428686759 0 0 0 0 -157.75916796585079 696.13610607462681 0 696.13610607462681 -45.88887088548654 0 0 0 0 -228.88286677250289 37.379588832049649 0 37.379588832049649 -399.40353621089776 0 0 0 0 364.32800989680254 -393.89785726203252 0 -393.89785726203252 -185.78603357735665 0 0 0 0 691.15093047497794 159.08907142025237 0 159.08907142025237 -476.28541018449903 0 0 0 0 883.91416240100807 386.94665877693649 0 386.94665877693649 -517.77054181293965 0 0 0 0 1029.8779465603293 226.65304349257326 0 226.65304349257326 -497.4737345906135 0 0 0 0 1383.8305923495791 14.059435100638211 0 14.059435100638211 -484.1097349476795 0 0 0 0 1082.6413957813929 162.33149140006549 0 162.33149140006549 -324.2215444802805 0 0 0 0 1385.5708355923125 -5.7909082668475094 0 -5.7909082668475094 -553.85590276001244 0 0 0 0 1824.1296687064169 -155.98238323727037 0 -155.98238323727037 -551.06424672680805 0 0 0 0 2076.8560442213056 -999.35056542511893 0 -999.35056542511893 229.9570074851494 0 0 0 0 4.7872451255236115 -0.2504100353541503 0 -0.2504100353541503 -3.5027240109395059 0 0 0 0 2555.2102923214552 -272.89742847679349 0 -272.89742847679349 206.64043645907759 0 0 0 0 1568.6968927493872 -69.648512873507457 0 -69.648512873507457 -407.08130273694974 0 0 0 0 2866.2386721914809 -472.22030756073536 0 -472.22030756073536 -459.02698601083193 0 0 0 0 26.629675956093706 408.53783834478327 0 408.53783834478327 -259.84576148052884 0 0 0 0 813.12143348428071 559.93462413653106 0 559.93462413653106 -357.61579884293315 0 0 0 0 1875.3696295893169 406.07263581220491 0 406.07263581220491 -663.71004234525776 0 0 0 0 2843.5716652552364 414.41239252509922 0 414.41239252509922 -698.46275703901097 0 0 0 0 2046.4190162914711 793.95747108942237 0 793.95747108942237 -722.66497616557808 0 0 0 0 1132.8866503337631 431.40951865074067 0 431.40951865074067 -397.9065859010741 0 0 0 0 2143.1189679952222 119.56395648154694 0 119.56395648154694 -586.49724978958147 0 0 0 0 1047.3721017924327 796.81476223713867 0 796.81476223713867 -392.24500248957611 0 0 0 0 -42.424681835662341 1027.9341191263529 0 1027.9341191263529 -295.04153726831487 0 0 0 0 2704.4266028040583 -816.2898476432182 0 -816.2898476432182 -502.18244856898667 0 0 0 0 206.30010305184987 1339.52669035138 0 1339.52669035138 -747.26516565449015 0 0 0 0 2209.2308283884777 -1147.6394222176216 0 -1147.6394222176216 -530.84208332712296 0 0 0 0 1525.2510660297703 868.77435138414467 0 868.77435138414467 -649.76306909847881 0 0 0 0 17.071780856928115 3.7001321170438786 0 3.7001321170438786 -0.60550736694820317 0 0 0 0 3431.8678670111694 -379.65345284676869 0 -379.65345284676869 -469.44591920551886 0 0 0 0 2999.1432318559382 -375.10780196306655 0 -375.10780196306655 -380.22551701590487 0 0 0 0 3448.2074410672649 -115.17630541462268 0 -115.17630541462268 -238.33563155842967 0 0 0 0 2707.2464084397943 -454.48813466728552 0 -454.48813466728552 -177.82942869120154 0 0 0 0 2756.3049063265789 -946.11394783399851 0 -946.11394783399851 2321.6515450145853 0 0 0 0 2829.8426624154963 -466.23677419643241 0 -466.23677419643241 -76.939440651308814 0 0 0 0 279.6859759921208 104.26411296761694 0 104.26411296761694 -6.5149939101107748 0 0 0 0 2972.1618044303032 -611.94354513311782 0 -611.94354513311782 44.787156494941883 0 0 0 0 729.48023357236525 512.91917864379275 0 512.91917864379275 19.098398040621305 0 0 0 0 53.613063560129376 318.5056721134132 0 318.5056721134132 204.64131612281744 0 0 0 0 3049.4384670265426 -781.71676216236642 0 -781.71676216236642 47.672358704982081 0 0 0 0 9.9662716714991575 2.9784362955424371 0 2.9784362955424371 -1.2689338404875243 0 0 0 0 3199.2987135975854 -702.12559286945725 0 -702.12559286945725 -187.01753420404452 0 0 0 0 1038.2506283674447 -1550.7622356355214 0 -1550.7622356355214 -10.767559622601141 0 0 0 0 1885.0035973749764 -707.79186008885858 0 -707.79186008885858 337.00879448341044 0 0 0 0 3059.9747136074802 -394.20710566381058 0 -394.20710566381058 -204.58528562432605 0 0 0 0 -168.16006235178793 -284.55385489861897 0 -284.55385489861897 327.83156009395907 0 0 0 0 1990.7586554209702 1776.4667347723528 0 1776.4667347723528 -594.73586553990151 0 0 0 0 17.057532590224866 3.7998528069233402 0 3.7998528069233402 -0.69791693326551529 0 0 0 0 5488.9060705761221 619.75114282800564 0 619.75114282800564 -1522.7063725230842 0 0 0 0 2803.4353119898951 -1339.1292807248328 0 -1339.1292807248328 -844.87922149407177 0 0 0 0 -394.55566607846413 938.86515547417036 0 938.86515547417036 5.6859987668095755 0 0 0 0 -598.75586488517729 -552.68928576624216 0 -552.68928576624216 55.405508337466927 0 0 0 0 3555.8416802989595 64.127345274987874 0 64.127345274987874 -385.25813071304037 0 0 0 0 3388.2495630845806 -1146.0146025877666 0 -1146.0146025877666 -431.84897540589054 0 0 0 0 1.8782741878001588 -0.85939558232473701 0 -0.85939558232473701 0.64820058297939021 0 0 0 0 1992.6210568308015 4.1433758162783647 0 4.1433758162783647 -346.6742138352231 0 0 0 0 1930.9094128170254 -1403.2384097294992 0 -1403.2384097294992 -475.16174588459978 0 0 0 0 5491.4544593919709 -1854.273754704431 0 -1854.273754704431 -1336.227518155835 0 0 0 0 6.6896200432495334 0.760597137217502 0 0.760597137217502 -8.4417089509466088 0 0 0 0 4253.4475450527098 -537.87412120540728 0 -537.87412120540728 -295.92021646499234 0 0 0 0 4184.5189478521461 -1271.4357906945897 0 -1271.4357906945897 -686.61383177962125 0 0 0 0 2021.4017499387846 -393.46978170758302 0 -393.46978170758302 202.61678986546735 0 0 0 0 2186.4110516439468 -90.665552733587901 0 -90.665552733587901 415.60338882983797 0 0 0 0 500.1230883688695 -846.60940401091716 0 -846.60940401091716 96.013768589605661 0 0 0 0 741.93170506351453 511.01174839696841 0 511.01174839696841 38.456249549343738 0 0 0 0 -44.200208991318505 175.24899367006367 0 175.24899367006367 872.26139100296086 0 0 0 0 -35.309342017724703 58.246832251783303 0 58.246832251783303 309.34323004133614 0 0 0 0 124.01978464574131 259.68034017678178 0 259.68034017678178 245.08909881481532 0 0 0 0 256.21126679500594 299.92454659412761 0 299.92454659412761 -305.04569437091777 0 0 0 0 184.78103566558275 -37.764458228656167 0 -37.764458228656167 -340.68919832852657 0 0 0 0 499.54189236882667 -294.70238769074172 0 -294.70238769074172 -459.14369216806517 0 0 0 0 -21.398641999257961 102.24566839592558 0 102.24566839592558 -120.18066722959281 0 0 0 0 26.317496698517061 -72.28406670438369 0 -72.28406670438369 -517.98329068547719 0 0 0 0 9.0130127328081642 0.6841137802283086 0 0.6841137802283086 -4.0639984739008899 0 0 0 0 -39.249353050787249 -133.90577726943303 0 -133.90577726943303 -75.857240831209765 0 0 0 0 192.58525159126293 -218.66381059961077 0 -218.66381059961077 32.701900523240056 0 0 0 0 10.701836340226219 2.7278751849991281 0 2.7278751849991281 -4.6585442392130485 0 0 0 0 -62.597378323924204 232.69657529120161 0 232.69657529120161 83.511424951569097 0 0 0 0 49.228093364509974 13.912358643441422 0 13.912358643441422 -11.870352494566202 0 0 0 0 104.18203013873426 -44.384966320579224 0 -44.384966320579224 -54.99200085701159 0 0 0 0 171.58175304594124 31.284473867483996 0 31.284473867483996 -8.7274619351346701 0 0 0 0 99.569824737012823 -47.526699710050707 0 -47.526699710050707 -37.933253434304788 0 0 0 0 103.65923761222803 -52.260742688302344 0 -52.260742688302344 -46.892106130698494 0 0 0 0 137.26585598336248 -26.498446585197268 0 -26.498446585197268 -1.4196800287797831 0 0 0 0 101.17301370236964 -57.48836966314451 0 -57.48836966314451 -31.186898688459678 0 0 0 0 55.949918898533895 -17.025591325439756 0 -17.025591325439756 -8.929057199952247 0 0 0 0 68.788880572232301 7.2924763714071332 0 7.2924763714071332 -4.2375293930376756 0 0 0 0 107.78468662155501 5.3208220538942896 0 5.3208220538942896 5.1405604519355848 0 0 0 0 68.324206567091039 -8.4569856926480469 0 -8.4569856926480469 -5.6323114285199303 0 0 0 0 1916.636528010662 391.37839432228679 0 391.37839432228679 29.816915753239243 0 0 0 0 70.753832337641768 -13.004411648437049 0 -13.004411648437049 0.98480628425180061 0 0 0 0 355.94730845792947 -75.716598258675049 0 -75.716598258675049 -300.73205272153723 0 0 0 0 808.31294684346358 242.08899058667981 0 242.08899058667981 -79.090569029080314 0 0 0 0 185.54283881150513 -212.54809714200039 0 -212.54809714200039 805.08254479746961 0 0 0 0 3792.1674416940514 -2960.3669871246975 0 -2960.3669871246975 823.46656521083219 0 0 0 0 274.54058759869076 -1498.7497282222098 0 -1498.7497282222098 2713.3747461977782 0 0 0 0 26.481112749238434 -7.996196314339258 0 -7.996196314339258 6.7080648862007326 0 0 0 0 1934.3907859484461 607.09346636993132 0 607.09346636993132 -509.27951456811849 0 0 0 0 5489.3531771459748 3033.2817944130247 0 3033.2817944130247 755.97848295113909 0 0 0 0 3259.7205279042137 -256.81900612569643 0 -256.81900612569643 -386.84180371940306 0 0 0 0 5500.7088229824294 1330.6543621971271 0 1330.6543621971271 -442.49282047449151 0 0 0 0 1098.9901515215679 389.56009968446995 0 389.56009968446995 346.30714549486788 0 0 0 0 3008.2863673885222 -287.20385557299943 0 -287.20385557299943 -366.36737354324714 0 0 0 0 6.8751121023298651 13.037064903516537 0 13.037064903516537 1.8054079204078823 0 0 0 0 155.69988409274447 -33.60805410812165 0 -33.60805410812165 -21.828102261490073 0 0 0 0 5499.2065782320351 -896.21647926367484 0 -896.21647926367484 -326.42797565191285 0 0 0 0 43.861213533295086 3.2144871454336794 0 3.2144871454336794 42.578991645742747 0 0 0 0 1001.5090078203066 2041.1483685154994 0 2041.1483685154994 -845.78392564998978 0 0 0 0 115.50617336621508 7.0405904625455946 0 7.0405904625455946 -34.141267748230575 0 0 0 0 19.529947205239992 6.9841993127885615 0 6.9841993127885615 2.7746622469989877 0 0 0 0 48.226950612669327 21.97355473000016 0 21.97355473000016 1.0015134298885577 0 0 0 0 5509.1173871132632 -2330.3261425614387 0 -2330.3261425614387 911.58490703442499 0 0 0 0 3007.3681000599245 -1047.3112066214521 0 -1047.3112066214521 270.67582260075017 0 0 0 0 163.87255761200504 -259.32100677433482 0 -259.32100677433482 135.87702277798144 0 0 0 0 227.48711358764558 -436.94252190958559 0 -436.94252190958559 -445.57484101635919 0 0 0 0 523.28471758012165 -792.28424374252847 0 -792.28424374252847 -470.08872626712355 0 0 0 0 205.21357392166101 -407.19904942694643 0 -407.19904942694643 645.90644378334298 0 0 0 0 429.32229520051624 93.980573083129912 0 93.980573083129912 -1031.2176395034326 0 0 0 0 62.19373489030113 54.148867060237762 0 54.148867060237762 -52.56131534047239 0 0 0 0 49.670574021599975 15.270555771182657 0 15.270555771182657 -6.5198759014181302 0 0 0 0 306.36370553198503 -87.713978254756967 0 -87.713978254756967 -320.66392208223579 0 0 0 0 364.62534437773138 -229.93007459965929 0 -229.93007459965929 -24.135896875936396 0 0 0 0 37.093404885836918 8.4989417499585755 0 8.4989417499585755 -12.554003269078725 0 0 0 0 317.34492693436914 -525.05055940150487 0 -525.05055940150487 -58.708953419638874 0 0 0 0 31.562797448837955 12.748623424094234 0 12.748623424094234 -11.695772561355824 0 0 0 0 20.508904734029784 49.636715162182043 0 49.636715162182043 -21.891488011753097 0 0 0 0 55.063611596906412 -10.344630847664718 0 -10.344630847664718 -12.001963910798395 0 0 0 0 102.30689519178122 22.728785514995536 0 22.728785514995536 -2.0603618571773126 0 0 0 0 87.191545223016874 -20.00948482747242 0 -20.00948482747242 25.787108915345357 0 0 0 0 26.299514871397534 12.651764761621862 0 12.651764761621862 -3.3666200093682916 0 0 0 0 144.87408931038954 -27.552171743392847 0 -27.552171743392847 -4.4470705041699148 0 0 0 0 87.118065764487255 -10.339463900749138 0 -10.339463900749138 -1.0285121692677421 0 0 0 0 230.7639570136962 56.204783402262819 0 56.204783402262819 -334.59291667580419 0 0 0 0 70.001740644172969 25.563502282797998 0 25.563502282797998 -15.020613386059949 0 0 0 0 21.40676730775499 16.916431080323008 0 16.916431080323008 -12.655328112601969 0 0 0 0 -188.5678072857263 400.88937081672248 0 400.88937081672248 11.659756311384626 0 0 0 0 -102.38080781555618 -155.53310387740385 0 -155.53310387740385 411.93973754643571 0 0 0 0 -541.02487075795216 31.866364616109877 0 31.866364616109877 415.58595997175871 0 0 0 0 146.18466053536395 199.6589242537475 0 199.6589242537475 91.345429955144482 0 0 0 0 -3.8677951264977253 16.811880606907096 0 16.811880606907096 -15.660538165102885 0 0 0 0 142.65889035069915 -24.305659999803272 0 -24.305659999803272 1.393418514945993 0 0 0 0 186.57670048698492 -148.69443548987419 0 -148.69443548987419 -185.43525687142574 0 0 0 0 362.55197209888138 262.78797631443922 0 262.78797631443922 0.47095314372836583 0 0 0 0 978.21141859801719 -672.10635069731779 0 -672.10635069731779 -177.75212455948713 0 0 0 0 -194.23296059119457 183.52945425520011 0 183.52945425520011 277.13993204735198 0 0 0 0 324.65076674430748 168.25316221918638 0 168.25316221918638 145.41102253219469 0 0 0 0 1226.6985208059923 -253.54844672075524 0 -253.54844672075524 117.58248341919625 0 0 0 0 220.92063273001258 -7.4529249085012452 0 -7.4529249085012452 272.89920304429143 0 0 0 0 162.89081849840295 45.561161663154962 0 45.561161663154962 116.98977187604601 0 0 0 0 458.0185877046315 13.808488467901498 0 13.808488467901498 81.614988796955913 0 0 0 0 -37.068065137544181 136.24648752458097 0 136.24648752458097 163.21543165660933 0 0 0 0 7.1639066320152267 -1.7767300377554989 0 -1.7767300377554989 -3.2685123795635178 0 0 0 0 773.0068318566191 -765.00638090000029 0 -765.00638090000029 555.55289650208761 0 0 0 0 581.25192422606051 -462.02773373532 0 -462.02773373532 651.36428622013273 0 0 0 0 3.8742853898845624 5.0310747222932974 0 5.0310747222932974 -1.3791323857184548 0 0 0 0 374.70565513183828 -216.43263036222106 0 -216.43263036222106 332.71256644522873 0 0 0 0 366.44870634275139 -458.94945417422605 0 -458.94945417422605 861.09807940014252 0 0 0 0 348.4585044401756 -198.94547694323637 0 -198.94547694323637 1195.5021052956181 0 0 0 0 418.93171981544583 83.943920544430512 0 83.943920544430512 578.87032415285648 0 0 0 0 502.36285933939507 112.51382602756894 0 112.51382602756894 272.36808644602934 0 0 0 0 652.43850338322227 -430.55355154650533 0 -430.55355154650533 -122.20598916633026 0 0 0 0 277.94866476145398 -537.35561483105766 0 -537.35561483105766 1134.108840246673 0 0 0 0 1121.8314552276861 -952.95623619110484 0 -952.95623619110484 994.32239780468444 0 0 0 0 186.15964577250998 -692.00833834776586 0 -692.00833834776586 -235.56585093784042 0 0 0 0 449.39515408846637 -254.24410310332723 0 -254.24410310332723 -940.38262481365928 0 0 0 0 -244.89431970816804 -235.65435106854648 0 -235.65435106854648 121.17524667363796 0 0 0 0 -192.63048852692009 -463.19958836854687 0 -463.19958836854687 -711.25091120090531 0 0 0 0 30.722535208464251 -125.34475223792094 0 -125.34475223792094 -269.52019058994483 0 0 0 0 164.81947889670846 363.65565668403679 0 363.65565668403679 -558.31820923276791 0 0 0 0 132.71388994566223 263.84775630468675 0 263.84775630468675 -81.599084759880952 0 0 0 0 125.18322032448486 195.325162693641 0 195.325162693641 -261.91676477698275 0 0 0 0 65.66815174833755 -66.233277519223975 0 -66.233277519223975 -406.27184636607672 0 0 0 0 3.9342389987432398 -63.025180944415297 0 -63.025180944415297 -202.1292972188449 0 0 0 0 268.46380060439697 133.11896404599725 0 133.11896404599725 -293.90457837691292 0 0 0 0 -1.6994168655081268 4.1451716976494595 0 4.1451716976494595 -4.7748257597178831 0 0 0 0 138.58279548072278 -152.9924885897712 0 -152.9924885897712 -49.375887707812126 0 0 0 0 79.562230444862507 -68.746274230379868 0 -68.746274230379868 29.087680717707599 0 0 0 0 204.77092302734673 47.324463431602453 0 47.324463431602453 -864.40516914771251 0 0 0 0 8.0164678248765995 -86.816492099554239 0 -86.816492099554239 127.39941093484958 0 0 0 0 -2.9000264078720477 -2.241471270712843 0 -2.241471270712843 -2.0908007801406514 0 0 0 0 20.428126744012843 -170.94232504578383 0 -170.94232504578383 -257.22632107231493 0 0 0 0 -22.578084104054142 -15.4009246638592 0 -15.4009246638592 -277.35493436562274 0 0 0 0 93.289162125143775 13.348829668740962 0 13.348829668740962 -273.52569491430586 0 0 0 0 -54.728998239108478 -120.3729063040405 0 -120.3729063040405 -145.82003011401821 0 0 0 0 -37.321834281043266 43.921152924792523 0 43.921152924792523 315.69719459462067 0 0 0 0 -100.37880748487078 -33.612326084015649 0 -33.612326084015649 271.1852300292685 0 0 0 0 -423.51603157291538 3.3069789461155779 0 3.3069789461155779 -210.75181571910525 0 0 0 0 404.71560184562986 -195.26741655210503 0 -195.26741655210503 -167.7230553186082 0 0 0 0 76.639701398841879 -27.058136288998853 0 -27.058136288998853 -0.80778624242764074 0 0 0 0 258.52542959897983 27.886230392261837 0 27.886230392261837 52.477412542698403 0 0 0 0 571.29376728241914 28.920672169314457 0 28.920672169314457 -37.899245539414551 0 0 0 0 216.63678138153045 198.15966843919614 0 198.15966843919614 289.42568719197607 0 0 0 0 269.2533083656399 90.11664195831122 0 90.11664195831122 70.486168177767468 0 0 0 0 46.466429335850989 0.20115627625682464 0 0.20115627625682464 76.578988070352352 0 0 0 0 -45.733675973759091 -47.116481756578423 0 -47.116481756578423 83.542349825794645 0 0 0 0 -214.23922261003463 28.975758637354829 0 28.975758637354829 187.12445266147279 0 0 0 0 -47.597259048110573 65.97736851864147 0 65.97736851864147 -36.406987061885047 0 0 0 0 -58.267120921736932 82.5300677534633 0 82.5300677534633 141.66308519516997 0 0 0 0 130.28489473752813 -29.215069111732152 0 -29.215069111732152 0.21970642913635974 0 0 0 0 224.64575467762188 -0.11961833126224519 0 -0.11961833126224519 -135.59163020485698 0 0 0 0 187.79083571280353 148.85419360988044 0 148.85419360988044 38.059013894336204 0 0 0 0 74.867424476540691 -134.14370061642404 0 -134.14370061642404 23.487878097999783 0 0 0 0 69.14734434217462 -28.556349871073508 0 -28.556349871073508 -35.974658863170134 0 0 0 0 68.502051000432402 -24.770022857855679 0 -24.770022857855679 -1.2876280771179154 0 0 0 0 27.569509331257677 2.4716687034837364 0 2.4716687034837364 -2.0991234743515088 0 0 0 0 85.450607849779772 -16.818285377633629 0 -16.818285377633629 5.4612274287947002 0 0 0 0 37.871462940318452 19.939446777867033 0 19.939446777867033 -22.203900668569077 0 0 0 0 124.48626372452054 -11.386021880377712 0 -11.386021880377712 63.818033358273169 0 0 0 0 121.12313214717506 14.994931092070601 0 14.994931092070601 31.803428723472734 0 0 0 0 191.77967724979135 -111.47344658690042 0 -111.47344658690042 10.983891528807362 0 0 0 0 218.71081963205506 -18.04788479341687 0 -18.04788479341687 21.670225889478175 0 0 0 0 284.75061646199538 -16.409186049403957 0 -16.409186049403957 21.564876371565788 0 0 0 0 486.939676917209 195.12544414163199 0 195.12544414163199 -15.527683729290402 0 0 0 0 -0.51686792394870906 -0.017487705613476123 0 -0.017487705613476123 2.1227492170569899 0 0 0 0 -11.179591228607023 -95.395327571390453 0 -95.395327571390453 12.563049986651095 0 0 0 0 387.6314313863586 -83.098715914688626 0 -83.098715914688626 -23.490866009455203 0 0 0 0 158.92672822284658 -69.46160802325835 0 -69.46160802325835 84.523555146239232 0 0 0 0 94.461058870278066 -18.506632501163949 0 -18.506632501163949 -44.336967031229506 0 0 0 0 162.29350087554485 -35.150295514526533 0 -35.150295514526533 -40.364642677924166 0 0 0 0 103.09617833092489 -81.984091872281624 0 -81.984091872281624 -56.193819453550759 0 0 0 0 72.250232366306591 -65.316155054536182 0 -65.316155054536182 -10.189752505114484 0 0 0 0 96.550828382631153 -71.438375166884725 0 -71.438375166884725 -10.100081421207506 0 0 0 0 130.69614855831605 -13.419642193432992 0 -13.419642193432992 8.1079269971072563 0 0 0 0 112.92442115162339 -55.570775358756237 0 -55.570775358756237 -43.271683767691684 0 0 0 0 135.20998851615514 -28.015400386540364 0 -28.015400386540364 38.098148097084959 0 0 0 0 203.63623129683401 26.786740255607583 0 26.786740255607583 59.567739328880066 0 0 0 0 192.22927660526329 -22.325476092221152 0 -22.325476092221152 77.614977319156424 0 0 0 0 161.85931726784474 19.509096624379481 0 19.509096624379481 29.380968103354917 0 0 0 0 210.71278399775474 -44.567960005163968 0 -44.567960005163968 81.110859430521032 0 0 0 0 110.58998315624194 50.893027236863645 0 50.893027236863645 126.55066400797773 0 0 0 0 97.587083163431089 103.16129628853719 0 103.16129628853719 -66.860562149581483 0 0 0 0 -9.8634251349139959 14.971654125764303 0 14.971654125764303 160.97663464353309 0 0 0 0 65.731653235212434 23.005554707203601 0 23.005554707203601 147.21312151734696 0 0 0 0 107.86223159816291 -51.883402120448352 0 -51.883402120448352 184.46341004366741 0 0 0 0 18.913640573198791 6.3169540048968429 0 6.3169540048968429 175.12499423951624 0 0 0 0 421.98940049009252 -111.27544374528156 0 -111.27544374528156 94.455392487974223 0 0 0 0 29.154668921026314 -62.348300126187212 0 -62.348300126187212 194.93786779162156 0 0 0 0 3.2205865553318631 -0.38815687593349679 0 -0.38815687593349679 4.9574493446676398 0 0 0 0 377.93107463962588 93.617816004687825 0 93.617816004687825 55.186446694971153 0 0 0 0 252.45365670424326 44.48170359487267 0 44.48170359487267 83.540342829992369 0 0 0 0 157.35431361234805 88.305741334835602 0 88.305741334835602 69.35809926789284 0 0 0 0 229.78528395160083 -39.420534418678216 0 -39.420534418678216 57.581771469522209 0 0 0 0 206.48719422586873 -33.473121178163638 0 -33.473121178163638 68.819943921309459 0 0 0 0 2.1932958566232106 3.747699086635663 0 3.747699086635663 35.732449286789183 0 0 0 0 7.9350263876003737 2.5774286262105761 0 2.5774286262105761 65.428928527639528 0 0 0 0 30.064101443334948 -8.3774295981638716 0 -8.3774295981638716 23.589909370287387 0 0 0 0 2.560509106195866 -9.1496355252657686 0 -9.1496355252657686 33.66411035425007 0 0 0 0 26.198991159275465 62.05849087172578 0 62.05849087172578 114.06380079472467 0 0 0 0 12.335500185385172 -39.113923452463268 0 -39.113923452463268 64.771516802850442 0 0 0 0 0.15483105517284912 -3.837757103332585 0 -3.837757103332585 2.9870305557118346 0 0 0 0 -1.778660122252802 -8.5188356304446344 0 -8.5188356304446344 23.278036653939566 0 0 0 0 -33.24722847087105 11.050308652673266 0 11.050308652673266 55.826172650062745 0 0 0 0 4.5753976825891201 10.155347310039843 0 10.155347310039843 22.57835105662442 0 0 0 0 0.93645859305979684 -0.64858028491971709 0 -0.64858028491971709 25.242484157557101 0 0 0 0 0.31692949663556647 -9.4458839976377931 0 -9.4458839976377931 46.503689996139656 0 0 0 0 1634.5504821863942 2029.788224408032 0 2029.788224408032 989.70042793947141 0 0 0 0 1751.94232870423 -1150.645177971006 0 -1150.645177971006 -100.62014232124238 0 0 0 0 4220.0464654702882 1012.1515348985813 0 1012.1515348985813 -140.41821676218751 0 0 0 0 2263.7316832616707 -523.87997789454221 0 -523.87997789454221 168.96908770053369 0 0 0 0 14.701307960605376 -1.3883951226542983 0 -1.3883951226542983 9.1937595861423205 0 0 0 0 3349.2154876781642 2288.131107962221 0 2288.131107962221 1908.1676057747482 0 0 0 0 11.954449827768286 -1.6301368556825082 0 -1.6301368556825082 13.230163049718378 0 0 0 0 3350.5634168782053 1531.3022285813536 0 1531.3022285813536 140.8913738009378 0 0 0 0 2948.4713667629039 1677.2658399241532 0 1677.2658399241532 354.94235698690864 0 0 0 0 685.47927245305982 514.55544074402223 0 514.55544074402223 -53.30426634534706 0 0 0 0 -1554.4915030211487 -294.78743311317157 0 -294.78743311317157 1089.4591392406419 0 0 0 0 1156.8060197047598 15.329111751885648 0 15.329111751885648 157.93377259732733 0 0 0 0 675.66233493582513 -723.64705114766343 0 -723.64705114766343 -503.68704974889624 0 0 0 0 8.717148305484443 22.697548537977127 0 22.697548537977127 55.682310557373057 0 0 0 0 16.914740519200507 -3.7324625860736518 0 -3.7324625860736518 8.7503590917686864 0 0 0 0 311.46807409517351 739.75561409106285 0 739.75561409106285 1154.052299368218 0 0 0 0 1972.1020741890388 781.63712584344648 0 781.63712584344648 -121.2712207865643 0 0 0 0 12.811390215533237 -2.9533894846016864 0 -2.9533894846016864 -3.872264006676815 0 0 0 0 1557.612780674026 518.02988829119568 0 518.02988829119568 -135.80572593917896 0 0 0 0 31.324485641514002 -0.16167841028794783 0 -0.16167841028794783 388.13033049227397 0 0 0 0 49.789219754580699 31.931939547185266 0 31.931939547185266 51.603560719480811 0 0 0 0 52.501018732287775 11.972634799237767 0 11.972634799237767 23.414444214318792 0 0 0 0 56.8287129568198 9.3565746166402732 0 9.3565746166402732 24.560257794559448 0 0 0 0 1.2821776598891503 4.0407805256228713 0 4.0407805256228713 43.387193823822528 0 0 0 0 29.053878244921634 14.479411757881039 0 14.479411757881039 72.078146825314889 0 0 0 0 125.40387410541933 45.683438021283294 0 45.683438021283294 52.855100832009612 0 0 0 0 54.404319157030841 18.990757142969187 0 18.990757142969187 42.979352583396349 0 0 0 0 82.26988060931717 23.284424804068053 0 23.284424804068053 13.187620883706586 0 0 0 0 62.013505172501027 -0.91991573896370937 0 -0.91991573896370937 -10.751546294493437 0 0 0 0 58.422430294929654 -13.983002455719543 0 -13.983002455719543 3.2239910721809792 0 0 0 0 46.913979999808362 -2.0188067364151721 0 -2.0188067364151721 7.9580408059582624 0 0 0 0 40.716832146892557 -16.42298887660354 0 -16.42298887660354 6.7110202476228551 0 0 0 0 47.373634206429415 -3.4565254649196504 0 -3.4565254649196504 8.6703300088083779 0 0 0 0 25.943447470037427 -46.91737226305969 0 -46.91737226305969 46.214931755856469 0 0 0 0 3.9097136589390207 4.1859525233277566 0 4.1859525233277566 16.112969773817255 0 0 0 0 46.477204100592644 -3.5010704454825827 0 -3.5010704454825827 11.773604427683949 0 0 0 0 187.93620886917051 32.851468640794792 0 32.851468640794792 -46.063708212515621 0 0 0 0 47.933785510082089 -3.1524228098837739 0 -3.1524228098837739 4.7812932817150795 0 0 0 0 22.138847890804755 10.656663307667259 0 10.656663307667259 -84.929272597982163 0 0 0 0 24.908501615595014 -118.66205816069493 0 -118.66205816069493 -114.5167743892689 0 0 0 0 31.131882133756164 -8.5752303170266799 0 -8.5752303170266799 3.460141176379758 0 0 0 0 22.026836973997888 6.4909734425005183 0 6.4909734425005183 1405.7262505881808 0 0 0 0 -2551.6151358908101 -2097.3114721713537 0 -2097.3114721713537 1435.5697652455456 0 0 0 0 280.35701658061589 93.307115028202361 0 93.307115028202361 -10.008742110970388 0 0 0 0 9.6276181105089336 0.50689894488868248 0 0.50689894488868248 0.0050266382744661442 0 0 0 0 3.5830589808883531 -1.5084746379029355 0 -1.5084746379029355 0.49388226728634166 0 0 0 0 -30.578131026108167 -27.868242605952673 0 -27.868242605952673 -12.08837748513065 0 0 0 0 63.424054508621339 4.8248210747065059 0 4.8248210747065059 -180.80213484203182 0 0 0 0 35.241325398701747 -21.883208542197291 0 -21.883208542197291 6.4054803823326374 0 0 0 0 52.03642057608522 -25.764757969863695 0 -25.764757969863695 1.9616174276629863 0 0 0 0 44.10723138335743 35.033499588391805 0 35.033499588391805 -145.18869251612341 0 0 0 0 102.02317589893937 93.478370443255699 0 93.478370443255699 610.89001027725567 0 0 0 0 1.5740791030009404 -17.115170394580197 0 -17.115170394580197 0.17123273133809702 0 0 0 0 11.544636287171329 3.4075116338205333 0 3.4075116338205333 -0.67281144645949631 0 0 0 0 92.252037490834482 86.261112653620103 0 86.261112653620103 -56.455133008469147 0 0 0 0 186.44529803664045 144.90635136947031 0 144.90635136947031 -318.2322732390744 0 0 0 0 107.80638462856331 -3.9116583169093433 0 -3.9116583169093433 -0.75587158550556399 0 0 0 0 416.84795759696863 -271.64034247110885 0 -271.64034247110885 -291.56315130743133 0 0 0 0 76.362569667719072 53.988061357881634 0 53.988061357881634 -14.128143565417986 0 0 0 0 106.64830910402816 27.433701681314687 0 27.433701681314687 -61.268561078912285 0 0 0 0 97.634978286921978 72.080887505507235 0 72.080887505507235 -70.924735708334083 0 0 0 0 117.45313412438554 76.586004479631583 0 76.586004479631583 -147.10571211477509 0 0 0 0 144.13665688695619 28.101477025476925 0 28.101477025476925 -305.8586698143697 0 0 0 0 89.884091717307456 107.85793204998618 0 107.85793204998618 -138.84709590564535 0 0 0 0 143.52568477670138 99.423299631100463 0 99.423299631100463 -247.05081371197775 0 0 0 0 163.91066396332462 51.868942465336204 0 51.868942465336204 -148.41624366648193 0 0 0 0 183.90058444109309 -3.8223896136388191 0 -3.8223896136388191 -281.43121739240905 0 0 0 0 34.911975319388148 -21.14313587158199 0 -21.14313587158199 -222.43366212960427 0 0 0 0 205.67455157238874 66.591145640597915 0 66.591145640597915 -222.63059194651714 0 0 0 0 345.02777955317288 -77.930825920007919 0 -77.930825920007919 -631.58209053041173 0 0 0 0 145.88593286096147 20.196651118901627 0 20.196651118901627 -113.82387834759948 0 0 0 0 211.42237265838776 -59.910424956176939 0 -59.910424956176939 -63.53552551743087 0 0 0 0 144.04692080753739 -1.6496081639334079 0 -1.6496081639334079 -74.454531782768299 0 0 0 0 187.86640623960739 -34.91841537713583 0 -34.91841537713583 -127.67997148494305 0 0 0 0 161.10312650026754 44.148424095528753 0 44.148424095528753 -166.71589871135802 0 0 0 0 199.32034884851601 3.1726055252158858 0 3.1726055252158858 -128.90220172958425 0 0 0 0 153.83344939550443 10.342818010699034 0 10.342818010699034 -161.77343647674752 0 0 0 0 1061.4033694781247 992.34968246424796 0 992.34968246424796 -614.38598074999629 0 0 0 0 140.31960865022847 32.234387015288121 0 32.234387015288121 -134.67288356284223 0 0 0 0 105.04343105420622 6.2460096300921863 0 6.2460096300921863 -0.59173998258097349 0 0 0 0 149.28296668175608 44.466424716592201 0 44.466424716592201 -118.3599020855936 0 0 0 0 105.91550785786239 16.756454212564222 0 16.756454212564222 -123.18735746643574 0 0 0 0 167.87472744396655 21.147701322189846 0 21.147701322189846 -154.80190698770366 0 0 0 0 349.19435396519839 -248.61081677308675 0 -248.61081677308675 -340.9525654367194 0 0 0 0 300.03475635525319 -372.03880123302611 0 -372.03880123302611 -64.420057286666633 0 0 0 0 329.49928514054045 -23.435395494279646 0 -23.435395494279646 -84.585564886161592 0 0 0 0 258.13141651975457 -101.64793871108645 0 -101.64793871108645 -130.31528933947334 0 0 0 0 211.30847156158416 -133.11474816562759 0 -133.11474816562759 -131.08334482593705 0 0 0 0 157.69346957656671 -93.257718489753415 0 -93.257718489753415 -107.38957415491939 0 0 0 0 74.396785800250655 -117.15946709151251 0 -117.15946709151251 138.05682655469025 0 0 0 0 114.26910276296439 -194.06588552417276 0 -194.06588552417276 -29.93373139663322 0 0 0 0 142.47105312256645 -295.45419181512244 0 -295.45419181512244 305.33535396694106 0 0 0 0 701.34575319758915 662.28816183230106 0 662.28816183230106 174.89373308069821 0 0 0 0 538.45795431314764 872.04669102756361 0 872.04669102756361 635.0623055689515 0 0 0 0 313.01914703775401 606.76717080395156 0 606.76717080395156 651.00369914590374 0 0 0 0 119.66283100287183 597.95440167217441 0 597.95440167217441 577.19614545289824 0 0 0 0 519.4874994599013 270.56829810059571 0 270.56829810059571 -360.75345394997157 0 0 0 0 72.878124223155396 6.7650614785099954 0 6.7650614785099954 -0.076079123937595167 0 0 0 0 240.74809605198243 -110.60051737333606 0 -110.60051737333606 -60.404098375597286 0 0 0 0 238.72519796053348 -102.30305405547799 0 -102.30305405547799 76.14938050878618 0 0 0 0 131.54332251178175 -76.40790305025773 0 -76.40790305025773 -10.108398711366135 0 0 0 0 1026.249556359573 321.14767890310009 0 321.14767890310009 -200.34062567867613 0 0 0 0 1050.5933393435698 -696.24228527129435 0 -696.24228527129435 324.61734558346279 0 0 0 0 26.735866843554589 5.3973948487395909 0 5.3973948487395909 1.3685359497836851 0 0 0 0 1829.0433668430342 945.33508907150861 0 945.33508907150861 267.59523457011846 0 0 0 0 2211.857977287691 661.15028506329088 0 661.15028506329088 5.1286197183526383 0 0 0 0 584.72909944026469 1266.8827429211128 0 1266.8827429211128 1539.3488851641082 0 0 0 0 358.2854872982025 -47.361325935153161 0 -47.361325935153161 -157.34373024711658 0 0 0 0 7.3284779757528895 1.5942374151265852 0 1.5942374151265852 -7.1841969605116525 0 0 0 0 1155.4951606333561 596.73582500292332 0 596.73582500292332 485.08904924847968 0 0 0 0 1478.5137198594166 418.04006414416835 0 418.04006414416835 -60.705006633637822 0 0 0 0 31.314314570350689 -131.65569401768153 0 -131.65569401768153 269.88246164134216 0 0 0 0 1345.1450849294051 308.21122874409139 0 308.21122874409139 109.91481962843136 0 0 0 0 730.58175632276107 2172.2833825759135 0 2172.2833825759135 1784.3020789848865 0 0 0 0 20.420670156068297 4.5296147125716786 0 4.5296147125716786 -6.4095390023079073 0 0 0 0 1657.6996602431173 -864.20766415460457 0 -864.20766415460457 -1220.4326962403575 0 0 0 0 106.36428068188252 -695.05695880175153 0 -695.05695880175153 -756.26895826602049 0 0 0 0 1135.3284014600686 -224.31771022984913 0 -224.31771022984913 -824.19375551103803 0 0 0 0 2213.226005310833 1785.913826603708 0 1785.913826603708 371.32667883604881 0 0 0 0 43.142611937456422 338.46947641946315 0 338.46947641946315 -218.1521523741103 0 0 0 0 8.9119338375315351 2.8337363699838605 0 2.8337363699838605 -11.234889190391399 0 0 0 0 -1103.0079342285899 362.17867729030604 0 362.17867729030604 -121.36940071311437 0 0 0 0 880.5708330556663 782.96660478038461 0 782.96660478038461 304.02943623910414 0 0 0 0 404.53396907177375 313.31412501274826 0 313.31412501274826 110.74826647574628 0 0 0 0 441.6234898722978 655.13655906978238 0 655.13655906978238 567.37978314591783 0 0 0 0 936.54091684598825 407.77317119431063 0 407.77317119431063 542.5632884273673 0 0 0 0 1533.4802417279716 699.63007273332278 0 699.63007273332278 276.08166936321686 0 0 0 0 1615.3491246146368 1360.5645017469565 0 1360.5645017469565 628.48172519360742 0 0 0 0 843.68522735510487 737.5422684125715 0 737.5422684125715 274.70932515160655 0 0 0 0 814.52051063012186 742.91949547928016 0 742.91949547928016 403.28016028408092 0 0 0 0 640.09791556937853 1085.8860941115445 0 1085.8860941115445 531.76391723963025 0 0 0 0 8.057211887410233 1.9512064055046068 0 1.9512064055046068 -10.154670702736752 0 0 0 0 -308.97777793259593 -150.80004599723179 0 -150.80004599723179 -341.53973842241976 0 0 0 0 435.06400146388478 -565.38140933825889 0 -565.38140933825889 -840.47270820449739 0 0 0 0 44.450822607777525 3.9607168272746787 0 3.9607168272746787 -12.91104204397466 0 0 0 0 281.64747717988212 287.0658867751772 0 287.0658867751772 -655.03985428222222 0 0 0 0 342.94899818493286 201.43791381974734 0 201.43791381974734 372.34420383032386 0 0 0 0 169.51829796272068 776.99778311657792 0 776.99778311657792 963.9908373311273 0 0 0 0 48.554636937917508 3.399961555228538 0 3.399961555228538 -7.7479579886256325 0 0 0 0 -209.80720235557419 83.068107841109395 0 83.068107841109395 -295.51531357718341 0 0 0 0 754.76566818513675 -293.83838159211518 0 -293.83838159211518 -1063.7291048955813 0 0 0 0 493.67191324313171 811.46789991100741 0 811.46789991100741 -589.41340977734944 0 0 0 0 561.48988382622338 291.06314628041582 0 291.06314628041582 909.03586924659612 0 0 0 0 20.435370975890351 1.4606754389126344 0 1.4606754389126344 -3.7029247649337336 0 0 0 0 580.8786448298124 1672.2815163481355 0 1672.2815163481355 1536.9808993306151 0 0 0 0 -347.64297805030947 310.80230033713269 0 310.80230033713269 528.76007142099115 0 0 0 0 1702.8577772886565 967.38443379043747 0 967.38443379043747 180.77322742801698 0 0 0 0 444.7786210092745 642.05175106187744 0 642.05175106187744 1331.1090809523803 0 0 0 0 56.399930507039244 6.3745386253067409 0 6.3745386253067409 -65.449017660590471 0 0 0 0 53.624778130554915 -4.365112485354234 0 -4.365112485354234 -4.9974522360038165 0 0 0 0 421.08552260094439 570.48902473896305 0 570.48902473896305 522.90710738304551 0 0 0 0 734.13329772998259 409.82023254067553 0 409.82023254067553 512.71007968178674 0 0 0 0 931.21903547996772 1111.9592897117436 0 1111.9592897117436 -90.367587237058615 0 0 0 0 180.73131908052892 1379.7764687256567 0 1379.7764687256567 924.19717378290807 0 0 0 0 584.82003048228216 755.34793910297958 0 755.34793910297958 1688.0076286561834 0 0 0 0 756.24820889891998 459.09457265384481 0 459.09457265384481 300.19264293483138 0 0 0 0 632.2344250609749 453.31478060930749 0 453.31478060930749 846.75960210028643 0 0 0 0 565.49295939869626 494.94936120295552 0 494.94936120295552 832.55503938992479 0 0 0 0 94.682506336506776 -0.92144871341952239 0 -0.92144871341952239 -72.414905745565193 0 0 0 0 179.40257047296109 82.175200717042571 0 82.175200717042571 -3.9552781838683586 0 0 0 0 47.791809574412696 0.17232648840418108 0 0.17232648840418108 -41.762766209773986 0 0 0 0 58.164064903976396 -17.669364879989189 0 -17.669364879989189 -32.370832155946118 0 0 0 0 50.951812628718471 -0.02799456735192507 0 -0.02799456735192507 -55.093778603906685 0 0 0 0 73.572770229052367 -83.745040459684787 0 -83.745040459684787 -42.922154578966001 0 0 0 0 31.268266130435222 6.8361926587622293 0 6.8361926587622293 -51.281300539154472 0 0 0 0 205.40971354747307 -92.719093786141457 0 -92.719093786141457 -63.943944366272262 0 0 0 0 73.558430423174286 883.30731964941333 0 883.30731964941333 1170.9087704092344 0 0 0 0 -0.47915304604794073 861.9816991912021 0 861.9816991912021 1192.8117185073352 0 0 0 0 25.650274763494963 904.7798565894409 0 904.7798565894409 1161.9672142063737 0 0 0 0 21.363432576157138 16.582819172121916 0 16.582819172121916 15.381352070020583 0 0 0 0 3324.114940813939 -1105.5303479537797 0 -1105.5303479537797 -826.54981625964865 0 0 0 0 1595.9229584113782 -198.01297811470795 0 -198.01297811470795 197.7953400161332 0 0 0 0 49.344846046129533 848.88571058049274 0 848.88571058049274 1196.0363274478441 0 0 0 0 393.2287918542288 30.359257878840253 0 30.359257878840253 -166.60240825991059 0 0 0 0 61.031182383268032 51.334751407625966 0 51.334751407625966 35.065374881586692 0 0 0 0 113.28710936727293 126.32586383407033 0 126.32586383407033 -195.77025050660541 0 0 0 0 277.10649550719972 286.91883620363933 0 286.91883620363933 99.805103059301473 0 0 0 0 332.34244547290291 201.25759634090082 0 201.25759634090082 80.952510545703262 0 0 0 0 809.75385318396002 419.37793555937969 0 419.37793555937969 60.180833629810422 0 0 0 0 142.02430436195573 8.1449000457378133 0 8.1449000457378133 63.605962698826261 0 0 0 0 376.53688896439417 440.80886613211715 0 440.80886613211715 106.81761014120639 0 0 0 0 773.94439747819706 209.48286233722865 0 209.48286233722865 64.559567533447989 0 0 0 0 -84.250398052750825 53.020901933253754 0 53.020901933253754 28.975032087900672 0 0 0 0 -125.70894580945605 32.249940417817925 0 32.249940417817925 75.609729539864588 0 0 0 0 13.31736109261692 119.0988853353374 0 119.0988853353374 33.696161102958285 0 0 0 0 10.596766086573325 14.565691861499035 0 14.565691861499035 14.444543357377313 0 0 0 0 6.698218470064603 40.549401806171772 0 40.549401806171772 25.183617136073735 0 0 0 0 53.209758933923766 39.927531106839524 0 39.927531106839524 27.18006623339123 0 0 0 0 73.885180732818299 54.07831468105087 0 54.07831468105087 16.70849712259951 0 0 0 0 137.95551149602397 26.504793111980689 0 26.504793111980689 4.1545260762504768 0 0 0 0 58.431256937005173 25.0873952165513 0 25.0873952165513 10.500182599276293 0 0 0 0 93.539816737580622 -16.901145506562898 0 -16.901145506562898 55.097008172360802 0 0 0 0 74.371495211271395 57.429070905927802 0 57.429070905927802 -12.088064167226548 0 0 0 0 108.09547324555024 32.483315743338608 0 32.483315743338608 -60.065431775992693 0 0 0 0 56.062119518875761 11.832607411782092 0 11.832607411782092 -34.412418289463687 0 0 0 0 70.184462474295287 15.887222626428411 0 15.887222626428411 -4.107094456354389 0 0 0 0 49.484860836266307 19.459703054621059 0 19.459703054621059 35.492866120031977 0 0 0 0 104.85543839437014 42.289643459713261 0 42.289643459713261 -0.28718301359549514 0 0 0 0 43.793360884854337 53.286469630773354 0 53.286469630773354 65.766663170157699 0 0 0 0 74.994162426926778 79.981570865907997 0 79.981570865907997 61.208724141943094 0 0 0 0 142.75272818860958 94.192405328443101 0 94.192405328443101 19.114844380696013 0 0 0 0 34.359818412167357 -1.7563136213538435 0 -1.7563136213538435 -15.23580818375904 0 0 0 0 146.7003901009266 82.604354203592266 0 82.604354203592266 27.054021617346734 0 0 0 0 95.553575280900986 55.372346094696695 0 55.372346094696695 74.529665902973647 0 0 0 0 55.67092707730135 -12.349191280450579 0 -12.349191280450579 -35.714571618734517 0 0 0 0 112.88049786663805 60.511528007157722 0 60.511528007157722 15.954974946112998 0 0 0 0 69.664759748839145 40.489162745003604 0 40.489162745003604 12.784403293551044 0 0 0 0 10.283397174213267 5.4975943983592037 0 5.4975943983592037 2.407636601360835 0 0 0 0 30.031069629734702 -12.804083268681097 0 -12.804083268681097 -24.190257381542324 0 0 0 0 42.894849480086691 24.683257403016341 0 24.683257403016341 -31.6618462698043 0 0 0 0 15.471518893977535 -1.8638879023524844 0 -1.8638879023524844 -8.9587506958923626 0 0 0 0 119.28444863533787 33.15447906317786 0 33.15447906317786 2.2185735631701391 0 0 0 0 45.440623148679151 25.292788199644747 0 25.292788199644747 53.582555138018506 0 0 0 0 70.415920505023678 -30.746606110934863 0 -30.746606110934863 -9.9834765829436947 0 0 0 0 22.412524026987715 3.2214396135801442 0 3.2214396135801442 -0.34826430154098631 0 0 0 0 45.649437829084491 26.941512742820123 0 26.941512742820123 26.834449724712613 0 0 0 0 89.133115589109366 21.914629815043554 0 21.914629815043554 13.248122236390827 0 0 0 0 65.045612532388077 19.484134563403586 0 19.484134563403586 8.999912665861757 0 0 0 0 79.105680135012335 26.369660916744351 0 26.369660916744351 -32.080972515172107 0 0 0 0 63.156610294635357 -15.807584215457609 0 -15.807584215457609 -23.932617581295744 0 0 0 0 88.044194781171313 17.929160072919672 0 17.929160072919672 4.7309910452222539 0 0 0 0 3.9234361796167945 3.1751851768809294 0 3.1751851768809294 -2.2532596540512593 0 0 0 0 35.610703253299647 10.915518244608137 0 10.915518244608137 -1.8766440611674133 0 0 0 0 87.090349952799443 22.103185609701086 0 22.103185609701086 5.2523215292642362 0 0 0 0 8.8755378689547797 31.912885584047444 0 31.912885584047444 14.984723962966086 0 0 0 0 94.836219780467218 15.23985364197506 0 15.23985364197506 4.5914665168716056 0 0 0 0 28.735187225504479 16.26246784371142 0 16.26246784371142 8.1283628627951821 0 0 0 0 29.36780652069989 36.401349543371424 0 36.401349543371424 9.1874233780094148 0 0 0 0 28.010944256677249 32.404204254668457 0 32.404204254668457 10.087997296924186 0 0 0 0 4.4604931051362655 119.36842261966498 0 119.36842261966498 -23.216594953146569 0 0 0 0 7.6779833256131269 32.779997166689441 0 32.779997166689441 16.429950424355411 0 0 0 0 56.200126157646494 -20.575575162703725 0 -20.575575162703725 5.9586675932632183 0 0 0 0 64.442267523647388 -77.998730635551155 0 -77.998730635551155 45.329085983010259 0 0 0 0 69.195735295071302 -4.7174985722292604 0 -4.7174985722292604 -0.077138846786965587 0 0 0 0 240.51265912594681 -43.221999935762994 0 -43.221999935762994 -134.56726107240883 0 0 0 0 93.173541157007975 -15.005450487159818 0 -15.005450487159818 -1.3397115661520438 0 0 0 0 67.140240536461079 8.8722142674081397 0 8.8722142674081397 13.281507873155078 0 0 0 0 -60.167047203485708 -43.77125430955175 0 -43.77125430955175 52.924803336931177 0 0 0 0 29.595315650039993 22.169918403322299 0 22.169918403322299 10.921028352585836 0 0 0 0 115.92918072865723 17.828835479011218 0 17.828835479011218 1.3141456704902339 0 0 0 0 68.397907076865522 -56.239216097662222 0 -56.239216097662222 -34.603992351512716 0 0 0 0 2.9581783542129116 -10.464394698552052 0 -10.464394698552052 15.548741341232985 0 0 0 0 -488.14277714534546 -177.65992099029518 0 -177.65992099029518 556.16835714596039 0 0 0 0 -165.5823636783316 -441.4913202248033 0 -441.4913202248033 121.4613388192638 0 0 0 0 -8.2547222225912265 -83.583181561666947 0 -83.583181561666947 -2.2840815507042862 0 0 0 0 350.1965622939606 -23.243768558782449 0 -23.243768558782449 204.41309224090674 0 0 0 0 26.815399631009132 -18.48638688480299 0 -18.48638688480299 -2.5259041107274509 0 0 0 0 108.42892562193083 49.972776744985822 0 49.972776744985822 6.3694480194772041 0 0 0 0 -41.182842587728373 28.325286245343705 0 28.325286245343705 42.82720523809985 0 0 0 0 15.865397856021614 5.2396109857493336 0 5.2396109857493336 -2.6963682003314133 0 0 0 0 -165.82059168975684 151.51478289352235 0 151.51478289352235 38.135552184633411 0 0 0 0 6.8654771281639668 -3.7689548846292329 0 -3.7689548846292329 17.34876347538059 0 0 0 0 221.87900036986048 77.317856535645205 0 77.317856535645205 -54.572088854667527 0 0 0 0 210.95370176475262 -39.281142487705438 0 -39.281142487705438 -34.74732679787121 0 0 0 0 557.40499227229884 204.9172855064453 0 204.9172855064453 -0.31645968981865735 0 0 0 0 -161.40953554089356 174.5903520238362 0 174.5903520238362 152.32778939896161 0 0 0 0 42.052809247025834 66.144140876222991 0 66.144140876222991 401.06254217020614 0 0 0 0 75.440425008731836 1.2523508863387178 0 1.2523508863387178 -210.00026601918489 0 0 0 0 554.61436113269883 402.40021272869399 0 402.40021272869399 591.77129704627623 0 0 0 0 951.33903544692294 271.39595689274483 0 271.39595689274483 696.20358951429034 0 0 0 0 936.7250567604242 360.42683403516821 0 360.42683403516821 160.27876097976423 0 0 0 0 1.0652276876828317 0.41966184420233077 0 0.41966184420233077 23.219132057792834 0 0 0 0 2801.7647783461853 874.3622203423763 0 874.3622203423763 -251.7108518234609 0 0 0 0 -134.85287938763213 -417.0173808597674 0 -417.0173808597674 1191.8124457194381 0 0 0 0 791.87099033533286 1679.1654005926991 0 1679.1654005926991 325.96766926992831 0 0 0 0 144.02414742956717 302.99451102710827 0 302.99451102710827 529.50142413684807 0 0 0 0 1322.6473225755617 146.96810059875986 0 146.96810059875986 152.70674883432559 0 0 0 0 170.48960413033637 655.12851753261111 0 655.12851753261111 110.09182934582134 0 0 0 0 -76.052203106872184 -7.6646397622558311 0 -7.6646397622558311 165.65555899949027 0 0 0 0 617.85152855154593 96.055614740493638 0 96.055614740493638 -456.59808888918269 0 0 0 0 955.11089437425835 -190.76337890025502 0 -190.76337890025502 -215.13558232944223 0 0 0 0 1.3737035537962328 -4.6216423023712139 0 -4.6216423023712139 8.8913922004934314 0 0 0 0 -284.02778815105921 -1178.5054777864045 0 -1178.5054777864045 2095.4956145542274 0 0 0 0 1448.3625833220867 906.60258056276791 0 906.60258056276791 -389.29642608605354 0 0 0 0 -4.4719380621692437 2.6022440873397272 0 2.6022440873397272 -4.0915790437019943 0 0 0 0 64.406399344441525 -128.80691913124338 0 -128.80691913124338 848.2805920852652 0 0 0 0 126.26779764716048 -308.5389468481244 0 -308.5389468481244 -268.40528126845857 0 0 0 0 41.327840506777697 12.630217633650901 0 12.630217633650901 -32.77313694345662 0 0 0 0 1163.9042130556772 327.13066633957942 0 327.13066633957942 -1021.8178416324909 0 0 0 0 991.55599445497501 -90.165173496086027 0 -90.165173496086027 -1000.3559561939439 0 0 0 0 -201.58544550237275 -156.69384478911343 0 -156.69384478911343 248.60485349379837 0 0 0 0 -52.49351650911558 -202.17081445007898 0 -202.17081445007898 -48.007607777847625 0 0 0 0 82.725115601104093 -33.871726221881197 0 -33.871726221881197 8.1249741148963448 0 0 0 0 904.91296364429218 1063.7530711913228 0 1063.7530711913228 245.08670176534724 0 0 0 0 953.04126713409278 948.14204070920186 0 948.14204070920186 413.46905652020541 0 0 0 0 1009.3131892425299 606.14646046877215 0 606.14646046877215 -147.5176425878808 0 0 0 0 316.06595502663549 171.28285204749591 0 171.28285204749591 58.081798387332128 0 0 0 0 1288.4406773536466 930.01563595995572 0 930.01563595995572 -158.54614703075845 0 0 0 0 734.59752736228438 320.07129231096974 0 320.07129231096974 -412.88400249007918 0 0 0 0 828.34875416653449 762.04264680260826 0 762.04264680260826 137.96004376237306 0 0 0 0 1190.934916482915 1111.1247876489415 0 1111.1247876489415 261.35735952412801 0 0 0 0 1187.781830172833 970.26759620530652 0 970.26759620530652 32.057593565118566 0 0 0 0 1198.4785017340328 833.75228736815393 0 833.75228736815393 -24.218066088924957 0 0 0 0 1108.9864361113723 1144.8440896832212 0 1144.8440896832212 678.0845789240841 0 0 0 0 1324.3857734509002 460.17163881438637 0 460.17163881438637 960.21882389865641 0 0 0 0 1459.2043300463338 836.6668502000598 0 836.6668502000598 437.15026776389357 0 0 0 0 1315.9947610305098 1250.4906596715837 0 1250.4906596715837 339.81091849746599 0 0 0 0 1112.6494102829265 1168.2972645462328 0 1168.2972645462328 287.68733206447814 0 0 0 0 1054.4975713097301 1126.4707692503241 0 1126.4707692503241 334.06094295914431 0 0 0 0 1024.5915063342918 1223.6039232922783 0 1223.6039232922783 259.81645691415247 0 0 0 0 1081.0166586538464 1144.0257186648403 0 1144.0257186648403 336.21942206232188 0 0 0 0 1087.9718797066985 1078.0798994444285 0 1078.0798994444285 537.09559717911498 0 0 0 0 2665.1242682487282 1764.6027194689841 0 1764.6027194689841 850.74944108286923 0 0 0 0 1721.009999885413 1561.8010522639343 0 1561.8010522639343 905.34520672705003 0 0 0 0 2136.3615962427648 533.8871775201892 0 533.8871775201892 210.64311585103678 0 0 0 0 1265.8650186358282 695.97038189703699 0 695.97038189703699 358.08013914036383 0 0 0 0 3276.0412121212867 990.69912661741091 0 990.69912661741091 387.59809952838577 0 0 0 0 1961.8799946230683 -1145.0428976971093 0 -1145.0428976971093 457.13808501257154 0 0 0 0 2539.7337868776085 1583.4740545753248 0 1583.4740545753248 5.1650464500698945 0 0 0 0 3070.6831688631537 564.63677044578162 0 564.63677044578162 -263.01886989964714 0 0 0 0 777.94082143340711 -551.70142500016391 0 -551.70142500016391 -577.72740038018037 0 0 0 0 950.70758813526118 1569.6697012254363 0 1569.6697012254363 2284.8157726888876 0 0 0 0 26.899116457787329 3.3146672712355105 0 3.3146672712355105 -0.23541974394005205 0 0 0 0 432.4060708436391 67.506682710105451 0 67.506682710105451 63.352309824495023 0 0 0 0 552.63040187002571 -274.59158497808983 0 -274.59158497808983 82.166270612767221 0 0 0 0 262.69035895499474 -178.76455335574838 0 -178.76455335574838 61.290343688346184 0 0 0 0 282.21917339591892 -106.23286969748142 0 -106.23286969748142 -12.467111647354841 0 0 0 0 358.42724431399984 -129.09192568533626 0 -129.09192568533626 -7.2657880840706639 0 0 0 0 2523.266741863612 1185.0543136997599 0 1185.0543136997599 423.71895750368589 0 0 0 0 4.4644005578007793 5.593901569804224 0 5.593901569804224 5.8133746461445277 0 0 0 0 2663.3887977259983 920.19236245529748 0 920.19236245529748 -175.09225972239847 0 0 0 0 175.19207601952075 14.320796050869376 0 14.320796050869376 93.066682790600225 0 0 0 0 -1.659903979593814 3.9584279412995329 0 3.9584279412995329 58.725731547177439 0 0 0 0 1064.6342356253881 1358.4398151496957 0 1358.4398151496957 693.77955280205333 0 0 0 0 273.43731253215992 66.615144784648635 0 66.615144784648635 410.00113208068683 0 0 0 0 1576.830862339637 748.2831295165206 0 748.2831295165206 213.89548104721143 0 0 0 0 1337.326448811873 288.8381901291732 0 288.8381901291732 -44.949006824348544 0 0 0 0 781.99189877709705 251.05282611444909 0 251.05282611444909 267.57232271227258 0 0 0 0 811.03674125922907 448.29293916601932 0 448.29293916601932 278.83190456591183 0 0 0 0 2045.637159017424 1519.8922745474672 0 1519.8922745474672 1020.0590846567034 0 0 0 0 2394.5992480786517 368.52874046299394 0 368.52874046299394 -238.13217980213295 0 0 0 0 3.1517976263668857 8.4103258665220295 0 8.4103258665220295 11.840378746196951 0 0 0 0 3307.2626835717201 956.22690206646075 0 956.22690206646075 -279.93075519284503 0 0 0 0 1570.6240439843168 675.19264300182385 0 675.19264300182385 488.10788988293098 0 0 0 0 2545.0047393275745 801.68113806098518 0 801.68113806098518 -203.24271445196064 0 0 0 0 2656.6947178619685 567.06574772317913 0 567.06574772317913 -304.8533138351977 0 0 0 0 -3.4373229418030533 3.1632556521948558 0 3.1632556521948558 73.488168724340625 0 0 0 0 1143.2919092638331 1701.2624178614024 0 1701.2624178614024 -1207.0961122561421 0 0 0 0 84.619979090792185 902.8238494415109 0 902.8238494415109 34.976047916796233 0 0 0 0 4037.1403108096565 1067.7883610637764 0 1067.7883610637764 -3058.3159686855433 0 0 0 0 -350.4080755160212 -1888.7468374575928 0 -1888.7468374575928 2815.145637421665 0 0 0 0 8.2538601045383011 -0.78332495382011302 0 -0.78332495382011302 44.90380903372602 0 0 0 0 109.13014511753499 1096.4928894889345 0 1096.4928894889345 524.38593090900395 0 0 0 0 -212.6165662549829 698.89388060211149 0 698.89388060211149 643.24783635273343 0 0 0 0 2934.3737292055666 756.12369042902083 0 756.12369042902083 -632.60579992052226 0 0 0 0 2354.8345846492675 464.60011851705201 0 464.60011851705201 -330.60840689800898 0 0 0 0 2412.3317012123007 738.31530570049472 0 738.31530570049472 -210.44107313604513 0 0 0 0 1.5496493974014776 13.3755546507753 0 13.3755546507753 33.258975590757018 0 0 0 0 5.1931274027265317 -33.33332862114662 0 -33.33332862114662 29.647397447351068 0 0 0 0 69.782618326928059 0.95289508310816018 0 0.95289508310816018 24.420195165694849 0 0 0 0 -7.9319225970466505 2.0869137737837491 0 2.0869137737837491 183.28445364292247 0 0 0 0 180.58865272057665 -103.42475075269203 0 -103.42475075269203 3.4666032241755147 0 0 0 0 182.14505970152277 -102.74245637449752 0 -102.74245637449752 -0.068406086898903595 0 0 0 0 5.6496785448078413 10.712974231956245 0 10.712974231956245 15.858664525716694 0 0 0 0 98.774768426865194 -87.650898327465029 0 -87.650898327465029 114.31630074082926 0 0 0 0 -39.651595940613333 42.128240367073772 0 42.128240367073772 48.365958099398085 0 0 0 0 86.384146344971668 -117.79908006698838 0 -117.79908006698838 0.13149718028512325 0 0 0 0 420.94981263303998 -81.21395905105328 0 -81.21395905105328 -18.231475009971632 0 0 0 0 201.29491583315075 -225.56302670326863 0 -225.56302670326863 186.33115567497498 0 0 0 0 128.57940592428713 90.832298681253178 0 90.832298681253178 224.40231696217506 0 0 0 0 134.64047407475664 -148.34573607992388 0 -148.34573607992388 292.17385900621753 0 0 0 0 45.540201349940617 15.402709998472972 0 15.402709998472972 126.44355911094476 0 0 0 0 5.0192169798281725 5.3929679101744235 0 5.3929679101744235 4.9315862538980628 0 0 0 0 -101.08524717158798 87.679075775109482 0 87.679075775109482 122.31011534028175 0 0 0 0 -107.08395928328355 123.33216931868128 0 123.33216931868128 39.8679401951199 0 0 0 0 104.19435679431626 164.46037806180084 0 164.46037806180084 -79.495946693538201 0 0 0 0 87.637131364477682 -47.962981183229431 0 -47.962981183229431 -21.745416082968859 0 0 0 0 3.3589428889410158 3.4623578974996825 0 3.4623578974996825 3.3654744907098406 0 0 0 0 16.091980227007298 -1.7179435510615804 0 -1.7179435510615804 176.79279009012271 0 0 0 0 -92.035595730683781 -110.7177586035595 0 -110.7177586035595 273.42995564540706 0 0 0 0 -119.28499858585201 -192.16927668789231 0 -192.16927668789231 171.65899478323036 0 0 0 0 -76.252735771734478 -28.281759668040877 0 -28.281759668040877 332.21339087010529 0 0 0 0 -93.649239637602477 -71.552113487571262 0 -71.552113487571262 262.96655986486257 0 0 0 0 -30.988311228258681 -100.26073114832411 0 -100.26073114832411 -128.49269879850317 0 0 0 0 -16.628368262397998 -198.03181303594874 0 -198.03181303594874 -178.14684793111746 0 0 0 0 -48.169278427192694 -145.14158452204606 0 -145.14158452204606 44.156230343510288 0 0 0 0 37.964284303830937 -29.739147801536546 0 -29.739147801536546 -258.18882401311248 0 0 0 0 128.15779808416846 -100.68555466718726 0 -100.68555466718726 -29.375880134279214 0 0 0 0 9.9052117884712061 -130.93852817136803 0 -130.93852817136803 -25.706105618246966 0 0 0 0 14.386083143604992 -250.85695481960408 0 -250.85695481960408 271.85327718068493 0 0 0 0 199.154492899459 -95.731822908943968 0 -95.731822908943968 -36.949214437390765 0 0 0 0 1.6501412543515528 0.71955126652894918 0 0.71955126652894918 0.76342620189302757 0 0 0 0 203.12832162552513 -142.35259891373312 0 -142.35259891373312 51.022289274326795 0 0 0 0 -10.325797164587129 -104.84549750519909 0 -104.84549750519909 -133.01924124624156 0 0 0 0 77.617906097657396 67.804797019140551 0 67.804797019140551 7.087965050773164 0 0 0 0 234.10981792208622 -396.14154390764361 0 -396.14154390764361 96.296018797995202 0 0 0 0 603.68988159056607 129.18123435609414 0 129.18123435609414 -264.81486986189475 0 0 0 0 -250.89256697268138 -22.706681687389391 0 -22.706681687389391 46.206981998987374 0 0 0 0 191.61161234087194 -55.406692354351435 0 -55.406692354351435 -887.52449398065983 0 0 0 0 68.533106393339182 1.229110066807781 0 1.229110066807781 -2.0474054159511486 0 0 0 0 74.844966841261339 244.74243723620498 0 244.74243723620498 -568.03216981353944 0 0 0 0 -43.973600424476899 -90.56768812500377 0 -90.56768812500377 -426.35436575474819 0 0 0 0 74.22328487852792 23.882519724026679 0 23.882519724026679 -389.77997721430165 0 0 0 0 57.342621850973956 43.086329748670551 0 43.086329748670551 -529.89627967032084 0 0 0 0 923.97874594406312 208.01034808961685 0 208.01034808961685 -245.75257129356487 0 0 0 0 -289.91140157605832 -183.26189464722484 0 -183.26189464722484 92.712574481573029 0 0 0 0 -30.025296576715846 461.67797120665261 0 461.67797120665261 4.9746148915310187 0 0 0 0 297.78756040982125 -16.292022971151312 0 -16.292022971151312 -757.37379763263243 0 0 0 0 -231.80625596167374 161.10315012727915 0 161.10315012727915 611.93827778826108 0 0 0 0 517.45726790495246 1052.776321725351 0 1052.776321725351 790.60484084370376 0 0 0 0 241.704548150954 628.98102182105345 0 628.98102182105345 272.49901189373031 0 0 0 0 321.43754536777851 641.29234480359287 0 641.29234480359287 -321.72208234580984 0 0 0 0 734.36517929996262 1152.8485241133624 0 1152.8485241133624 398.81933886524723 0 0 0 0 751.79190026472497 1113.4326978174304 0 1113.4326978174304 145.14778940069451 0 0 0 0 801.44608867461284 1230.7845781336775 0 1230.7845781336775 356.50381771094499 0 0 0 0 851.64707121110405 1130.8782480998302 0 1130.8782480998302 201.03499591983029 0 0 0 0 473.30874573594701 986.99117364786389 0 986.99117364786389 253.40746457993146 0 0 0 0 662.37926507640441 815.85806932656965 0 815.85806932656965 -157.38266504955664 0 0 0 0 377.7895233090203 647.70762901979515 0 647.70762901979515 13.725236643657013 0 0 0 0 734.72821539907909 589.89791786974706 0 589.89791786974706 -531.18339335128758 0 0 0 0 1012.8194198059082 873.79766181336436 0 873.79766181336436 4.0741915437654228 0 0 0 0 709.59110833608611 1148.9181377462394 0 1148.9181377462394 441.93311336225679 0 0 0 0 700.64294967922251 667.42503286129659 0 667.42503286129659 219.96365378774999 0 0 0 0 1563.1555312430737 777.96681671029455 0 777.96681671029455 233.21477754850264 0 0 0 0 963.26788015331203 1183.8258893440775 0 1183.8258893440775 869.23213620114439 0 0 0 0 875.11381560611153 1237.83600123516 0 1237.83600123516 537.44236160113633 0 0 0 0 967.28554448240357 1062.0124888708324 0 1062.0124888708324 461.09500052816054 0 0 0 0 904.19691517305625 1148.1691419524213 0 1148.1691419524213 411.03792180654864 0 0 0 0 1079.7519413725759 -780.05582417173582 0 -780.05582417173582 875.63907784599201 0 0 0 0 378.3137221443601 -355.62568293128368 0 -355.62568293128368 621.57360420704117 0 0 0 0 1749.8949280145775 154.82354926021253 0 154.82354926021253 219.14048214702768 0 0 0 0 1184.8809568728202 609.57140679007534 0 609.57140679007534 688.47124234829607 0 0 0 0 595.63416288477492 190.6825061731746 0 190.6825061731746 232.70992238155958 0 0 0 0 1090.5071393614371 544.74556129499842 0 544.74556129499842 -231.2479420280614 0 0 0 0 445.29593943676082 364.40039603655123 0 364.40039603655123 -225.7456537843189 0 0 0 0 174.63413149524877 77.058981015179086 0 77.058981015179086 -171.05456543137393 0 0 0 0 661.50214947523637 352.46691500462327 0 352.46691500462327 -736.67790268762565 0 0 0 0 445.33097237772245 -5.6722305710962644 0 -5.6722305710962644 -766.94763414477268 0 0 0 0 734.18844911507676 245.44764801418461 0 245.44764801418461 -135.83936841038599 0 0 0 0 699.04159874157028 -453.54409442353733 0 -453.54409442353733 200.08399594184493 0 0 0 0 123.36877188112669 -524.27479615840548 0 -524.27479615840548 211.29383605019711 0 0 0 0 119.53816823381385 46.621760360277023 0 46.621760360277023 -229.92564074232985 0 0 0 0 108.75733382188744 -6.0446256706358916 0 -6.0446256706358916 -4.8918688260700582 0 0 0 0 256.47770556487103 16.983118102736398 0 16.983118102736398 -202.37078158000804 0 0 0 0 -229.16799028722107 -300.14233663060713 0 -300.14233663060713 -794.64016577717496 0 0 0 0 0.60485889808914273 16.583793839712193 0 16.583793839712193 -7.7569037919832864 0 0 0 0 194.2445532035963 -107.35430929003337 0 -107.35430929003337 -1859.2665248606475 0 0 0 0 97.757751422890863 5.7431237677945806 0 5.7431237677945806 -5.1778706268449204 0 0 0 0 -1.9220801153563656 -4.8234200876890476 0 -4.8234200876890476 -3.0175593324233727 0 0 0 0 622.97669380336265 360.58274711675449 0 360.58274711675449 -1354.9524416970403 0 0 0 0 -46.455305513413805 448.73413747932273 0 448.73413747932273 -749.7650119396169 0 0 0 0 122.32570261204091 -69.399264877304176 0 -69.399264877304176 -673.65798896672641 0 0 0 0 48.669166736086481 -99.599737946948608 0 -99.599737946948608 -519.35705346074974 0 0 0 0 66.610597170219989 -94.228959975020643 0 -94.228959975020643 -517.84501181593805 0 0 0 0 36.098482013156172 -124.38853302292364 0 -124.38853302292364 -343.62718895952003 0 0 0 0 177.58341829355049 -204.28884308884221 0 -204.28884308884221 -1117.0411802838844 0 0 0 0 58.502948794274744 -13.651782643926424 0 -13.651782643926424 -631.93157287833219 0 0 0 0 34.951659415812173 -272.45811753376893 0 -272.45811753376893 -555.48604070017973 0 0 0 0 -44.386147432091093 -145.3799870662076 0 -145.3799870662076 -339.93027860205984 0 0 0 0 -309.8315158235273 145.4192764869108 0 145.4192764869108 -769.40297675740112 0 0 0 0 -90.171470409914036 -468.4786791105422 0 -468.4786791105422 -664.24560220597914 0 0 0 0 993.17130509084018 -128.60874489921457 0 -128.60874489921457 -2338.1023574102373 0 0 0 0 96.082467930699963 2.2671006444963036 0 2.2671006444963036 -2.6314779071931267 0 0 0 0 841.41746620443155 48.182842740153774 0 48.182842740153774 -769.64715840682356 0 0 0 0 467.23736781967455 -352.7431729531263 0 -352.7431729531263 -550.17715739745836 0 0 0 0 706.53848489635038 108.44584704032104 0 108.44584704032104 -1011.0530496402484 0 0 0 0 648.40604954979517 76.130713829613569 0 76.130713829613569 -973.71530682775654 0 0 0 0 211.41150209755597 -499.33141478702117 0 -499.33141478702117 -136.73658423405317 0 0 0 0 474.7836905001368 -130.61655175383817 0 -130.61655175383817 -993.10072839117447 0 0 0 0 455.7870118231308 24.056522112789125 0 24.056522112789125 138.90396199494592 0 0 0 0 -0.66002836680911692 0.048384169981722014 0 0.048384169981722014 -1.1288469578387141 0 0 0 0 -818.99868106319627 404.60983939490325 0 404.60983939490325 292.3015602218511 0 0 0 0 -13.259737955869696 142.94259608125142 0 142.94259608125142 -659.78759868230679 0 0 0 0 315.06354652298432 -348.25815950687229 0 -348.25815950687229 -1861.2258758584799 0 0 0 0 -253.5994719964965 -347.4870343025205 0 -347.4870343025205 -679.74404939138776 0 0 0 0 349.7226932987287 -518.96837835845963 0 -518.96837835845963 220.1113434050468 0 0 0 0 133.63883650069056 -131.82368179149313 0 -131.82368179149313 -654.26531970686938 0 0 0 0 13.155736057458512 -672.12763367196544 0 -672.12763367196544 152.2082293076636 0 0 0 0 1074.5828741807923 -662.17549600023858 0 -662.17549600023858 215.67464270139482 0 0 0 0 299.05962371345549 -651.14558442186058 0 -651.14558442186058 1046.7351671108067 0 0 0 0 123.13580725347447 -422.87815133395048 0 -422.87815133395048 499.37658525118673 0 0 0 0 470.03455339446464 -947.18729564728619 0 -947.18729564728619 952.88569309064542 0 0 0 0 308.84700356258259 -890.19937532299753 0 -890.19937532299753 917.78726085044968 0 0 0 0 494.09297756351361 -397.39074671676849 0 -397.39074671676849 254.46317488170507 0 0 0 0 314.8179442143778 -777.77652638846621 0 -777.77652638846621 1084.1779467138595 0 0 0 0 2787.3579799780027 -83.605686190252428 0 -83.605686190252428 -46.147210930498375 0 0 0 0 968.29521770116116 -263.54750471812548 0 -263.54750471812548 1421.3756465889094 0 0 0 0 2589.5481683965618 -801.94723340922087 0 -801.94723340922087 455.51593479463099 0 0 0 0 3015.5532860881276 -1391.0161182789222 0 -1391.0161182789222 266.47615621380561 0 0 0 0 1067.7572839886052 -953.78288254035544 0 -953.78288254035544 633.94032811397892 0 0 0 0 3016.1623895856428 -1401.0732420075694 0 -1401.0732420075694 -234.80582174675101 0 0 0 0 5505.1486360732497 -814.25422334739233 0 -814.25422334739233 -468.5779774929785 0 0 0 0 5486.6764483538154 -2128.9375900920863 0 -2128.9375900920863 -73.427546909099661 0 0 0 0 2629.2409450862997 -2613.4152536114825 0 -2613.4152536114825 1903.5194317621597 0 0 0 0 -153.42144176654347 -674.09751284020717 0 -674.09751284020717 984.63953752968416 0 0 0 0 518.0226745094069 290.30745447940387 0 290.30745447940387 -684.87929764552814 0 0 0 0 766.23486722596863 -1158.827427345444 0 -1158.827427345444 -919.39789989782548 0 0 0 0 -695.10255200567099 1414.7468786896834 0 1414.7468786896834 302.07857621044286 0 0 0 0 3116.3846193217323 1756.7945430150298 0 1756.7945430150298 -194.33993067922142 0 0 0 0 42.239286205891048 0.97619789597737094 0 0.97619789597737094 1.6802004544494162 0 0 0 0 5487.5209123471777 4000.6871663568136 0 4000.6871663568136 -1087.1162552916239 0 0 0 0 576.92690412404772 1646.7153293805361 0 1646.7153293805361 285.28311457503895 0 0 0 0 5.7930134082501858 2.1308786648886979 0 2.1308786648886979 -9.603610039221735 0 0 0 0 1894.4244344707581 603.55752731111545 0 603.55752731111545 2.7126232869352336 0 0 0 0 3490.726481333797 128.89873625197106 0 128.89873625197106 -128.09481286902792 0 0 0 0 4807.7357322996395 580.66096769663761 0 580.66096769663761 -101.12458036317641 0 0 0 0 8.7488678603652072 5.2539919008839391 0 5.2539919008839391 -20.100839384344503 0 0 0 0 1913.4841759243791 -24.998433284935345 0 -24.998433284935345 333.88483232234626 0 0 0 0 2593.4959251054388 590.9215956153148 0 590.9215956153148 433.7775058666366 0 0 0 0 1982.4073266215673 753.83301126273773 0 753.83301126273773 255.60334954464633 0 0 0 0 5311.2592925378522 551.25256027263993 0 551.25256027263993 -850.81343500765433 0 0 0 0 2609.3463949245634 -157.86206894784618 0 -157.86206894784618 530.07996084901561 0 0 0 0 546.18776233996323 -66.11625062429539 0 -66.11625062429539 262.77481463885124 0 0 0 0 694.9613278448669 143.46988380592211 0 143.46988380592211 18.468809892208412 0 0 0 0 208.36614731954978 -275.35236366237632 0 -275.35236366237632 -5.3763861874267604 0 0 0 0 240.00223167231889 -237.93295877105493 0 -237.93295877105493 288.05051430661842 0 0 0 0 916.94173105110895 -130.66515325242381 0 -130.66515325242381 352.51396225427925 0 0 0 0 81.501149551178969 6.7951363869001398 0 6.7951363869001398 -88.325436003124651 0 0 0 0 -1.7467644156859023 -390.11036196298437 0 -390.11036196298437 -101.136793447738 0 0 0 0 219.18582631580284 32.736075098964648 0 32.736075098964648 597.70454341857476 0 0 0 0 192.29101370771605 -154.23766315648118 0 -154.23766315648118 200.9909044566366 0 0 0 0 780.02562482783105 276.90565748866538 0 276.90565748866538 581.13378878080584 0 0 0 0 1862.2622542575764 148.1665263651405 0 148.1665263651405 302.72148693888994 0 0 0 0 767.47204591033369 -64.731288759381641 0 -64.731288759381641 182.88359582190833 0 0 0 0 1077.4112411025271 246.47003388050553 0 246.47003388050553 472.88085090651157 0 0 0 0 897.56887284578443 -162.21179509890328 0 -162.21179509890328 299.92866113500713 0 0 0 0 617.12596472177393 127.15329856892595 0 127.15329856892595 427.61664842144387 0 0 0 0 1257.6225895516072 -344.45230732306459 0 -344.45230732306459 153.33709789414115 0 0 0 0 -181.12982140628083 66.175384412758149 0 66.175384412758149 522.75363787395781 0 0 0 0 231.36077449297954 -364.30624662480432 0 -364.30624662480432 90.587157683473379 0 0 0 0 3.5208631424151093 2.5943925077626275 0 2.5943925077626275 2.0542454726941672 0 0 0 0 798.98963865055703 274.91703645127109 0 274.91703645127109 -337.29364101880037 0 0 0 0 755.58505036044698 289.29487645709946 0 289.29487645709946 247.95240246821231 0 0 0 0 1276.2529257208371 -388.86748879271408 0 -388.86748879271408 429.668211095061 0 0 0 0 2274.3516986816394 -334.76047436447243 0 -334.76047436447243 80.273631140594034 0 0 0 0 2138.9868744403648 61.569093754636924 0 61.569093754636924 15.681632606690982 0 0 0 0 2523.2566392943409 -508.42997565991118 0 -508.42997565991118 305.73865179096515 0 0 0 0 3246.5592115049039 -238.96075701299696 0 -238.96075701299696 -140.03222439238561 0 0 0 0 5407.7524646477323 -95.71632203164036 0 -95.71632203164036 -166.41463640235781 0 0 0 0 9.0113331504454166 2.2321651278934524 0 2.2321651278934524 -18.807089686493079 0 0 0 0 5500.066407408809 -202.23149670847565 0 -202.23149670847565 -68.588791927832304 0 0 0 0 5502.0031985864662 -89.287881247831436 0 -89.287881247831436 -199.97260084644938 0 0 0 0 2637.956998162379 -258.62481279190615 0 -258.62481279190615 205.83614736060917 0 0 0 0 1871.7833576165031 -169.37673987076141 0 -169.37673987076141 224.79102377869913 0 0 0 0 2350.5919023940587 304.77757370379186 0 304.77757370379186 271.98103571192166 0 0 0 0 1637.7494172120714 127.24002628302378 0 127.24002628302378 255.03334346743395 0 0 0 0 2503.7825556155076 95.044712555724345 0 95.044712555724345 213.02252733222304 0 0 0 0 432.24343151402718 377.32738468499315 0 377.32738468499315 282.21646058038277 0 0 0 0 2.1764575762032621 1.8466812217859001 0 1.8466812217859001 -7.1262279490202216 0 0 0 0 477.68176626927016 208.63440931845759 0 208.63440931845759 100.7186593174888 0 0 0 0 711.21257857397723 371.5200554849938 0 371.5200554849938 198.5445394408666 0 0 0 0 603.50856119834498 524.30306935099384 0 524.30306935099384 228.85067934463498 0 0 0 0 505.50645539040852 396.27266807558755 0 396.27266807558755 170.12084194731426 0 0 0 0 396.56848288428591 206.14073599751163 0 206.14073599751163 -88.722920758804094 0 0 0 0 1111.1459054043626 264.18919829382696 0 264.18919829382696 -108.77991679788624 0 0 0 0 377.70527846246841 535.5503487235228 0 535.5503487235228 28.990330123506283 0 0 0 0 202.19600897161581 1123.1766074463474 0 1123.1766074463474 -151.08839356850831 0 0 0 0 964.34521631155803 804.00385313351785 0 804.00385313351785 -68.936260251900876 0 0 0 0 1842.1997550374399 225.93819179011859 0 225.93819179011859 -130.3383836126095 0 0 0 0 10.202410436246055 6.0681539746614703 0 6.0681539746614703 3.0018813406803169 0 0 0 0 1507.8692559681331 -572.99273290346116 0 -572.99273290346116 173.89325640037168 0 0 0 0 -513.3363928910112 699.94051831701381 0 699.94051831701381 -352.71972177161297 0 0 0 0 -400.4356264678936 248.96790938322556 0 248.96790938322556 -684.49916857780659 0 0 0 0 10.804644965042826 481.74615242255732 0 481.74615242255732 -567.99760227632669 0 0 0 0 -241.90143777025514 555.10744665689572 0 555.10744665689572 237.68962073272507 0 0 0 0 329.23201233665168 228.81976037713957 0 228.81976037713957 -425.61454556852914 0 0 0 0 1.7346144579089184 0.47479286034834445 0 0.47479286034834445 -4.4291077154395619 0 0 0 0 204.87847568816505 -85.804182821802215 0 -85.804182821802215 25.551155192191345 0 0 0 0 274.03929713495017 78.027975792901202 0 78.027975792901202 -302.31907368299767 0 0 0 0 171.49753544807754 204.87486102002299 0 204.87486102002299 -645.4570732778102 0 0 0 0 -18.768547296691395 74.964349920813902 0 74.964349920813902 -251.85625563480426 0 0 0 0 294.38850841356907 -41.243350368047743 0 -41.243350368047743 3.7435319166279442 0 0 0 0 318.75127345374494 -23.53475008018313 0 -23.53475008018313 -283.81977197274364 0 0 0 0 106.82410059706308 84.686057754613103 0 84.686057754613103 -183.96994827180879 0 0 0 0 187.30654180792044 -81.959090190434154 0 -81.959090190434154 -41.465060782600403 0 0 0 0 84.91568834631471 -150.53189457114786 0 -150.53189457114786 -85.065078283718321 0 0 0 0 494.37994659811375 -16.582970747435411 0 -16.582970747435411 -266.95976493621129 0 0 0 0 574.29802089066652 -87.423785360762849 0 -87.423785360762849 -332.60374627825513 0 0 0 0 -1.2346693794010406 -7.2193949222149172 0 -7.2193949222149172 -74.511899414358226 0 0 0 0 0.67128936595040756 -3.5337407605147177 0 -3.5337407605147177 -45.221972953690752 0 0 0 0 307.20583845236979 29.87497919160478 0 29.87497919160478 2.1945887522279008 0 0 0 0 424.18836655245104 -107.56730914418199 0 -107.56730914418199 -90.754109040312471 0 0 0 0 591.23645203828346 -74.643298454020623 0 -74.643298454020623 -89.533631259870333 0 0 0 0 802.66767197863373 -26.182038067774329 0 -26.182038067774329 -64.406556156489728 0 0 0 0 309.87698977877881 -43.424905999856122 0 -43.424905999856122 264.62033456435074 0 0 0 0 0.33258031344778516 -1.0722738784141086 0 -1.0722738784141086 -14.762880458625812 0 0 0 0 357.36003890673601 -34.640483052390273 0 -34.640483052390273 -44.29983092660558 0 0 0 0 325.99771963265084 -33.355455608551758 0 -33.355455608551758 -24.643804467161459 0 0 0 0 311.15090578471427 -89.651763357146365 0 -89.651763357146365 -17.8950573815784 0 0 0 0 459.98080830910476 -165.34958577090674 0 -165.34958577090674 -524.0054744902709 0 0 0 0 137.62277769038701 -212.8061501673869 0 -212.8061501673869 -88.956122673405304 0 0 0 0 534.57226933525817 155.51284876107866 0 155.51284876107866 83.245369478198199 0 0 0 0 3.6841652221122558 0.48038816121655259 0 0.48038816121655259 -5.4294552311008015 0 0 0 0 793.07121224052389 345.43930608767437 0 345.43930608767437 -70.139808414603976 0 0 0 0 527.68166408894467 229.41832816698286 0 229.41832816698286 231.60436988273523 0 0 0 0 576.54155477328459 552.77303153792218 0 552.77303153792218 -456.68415245780648 0 0 0 0 1366.2961225898471 -125.7672736729487 0 -125.7672736729487 574.15397370785672 0 0 0 0 512.1112867158372 371.56695045819038 0 371.56695045819038 294.45535698784136 0 0 0 0 1208.6249809742312 735.0266850485516 0 735.0266850485516 111.38629656245394 0 0 0 0 2.9780608485207551 -0.50365001337931403 0 -0.50365001337931403 -2.2065234016845725 0 0 0 0 1326.7476078438031 1049.174236635914 0 1049.174236635914 -125.86047736563137 0 0 0 0 7.6381901002314976 0.29567847043145434 0 0.29567847043145434 -5.2430958993528112 0 0 0 0 2104.8168720326212 -1413.8800271836367 0 -1413.8800271836367 -485.86662085852799 0 0 0 0 -120.00513739349844 363.39628038108276 0 363.39628038108276 492.23854848564815 0 0 0 0 816.96910600265983 -285.5072062919798 0 -285.5072062919798 675.64856177414049 0 0 0 0 437.0335228665499 -321.61320674357717 0 -321.61320674357717 1112.9795811951103 0 0 0 0 922.70259213325335 -631.55286623598704 0 -631.55286623598704 1032.5785722271999 0 0 0 0 862.1345931988908 -994.26027629069063 0 -994.26027629069063 1383.6030060190155 0 0 0 0 617.80001368178637 -733.82171966272108 0 -733.82171966272108 1474.4391587046355 0 0 0 0 1767.9998263269808 -1043.2718031266625 0 -1043.2718031266625 684.80129701959186 0 0 0 0 1168.0233167733531 -482.44635757147398 0 -482.44635757147398 222.11103789559047 0 0 0 0 775.71623862089473 -439.00187309912872 0 -439.00187309912872 811.61064505263357 0 0 0 0 1167.9255849696046 -495.00054005058229 0 -495.00054005058229 636.77073482380547 0 0 0 0 1288.1903697750963 -289.72579567254627 0 -289.72579567254627 171.05954788660983 0 0 0 0 1210.2322025083995 -228.33789564800736 0 -228.33789564800736 245.61615484512413 0 0 0 0 1286.7644321810762 -250.57810698067263 0 -250.57810698067263 -46.064991780359378 0 0 0 0 1277.1091771532083 -449.23832733790232 0 -449.23832733790232 225.10994048708744 0 0 0 0 1342.2583808118361 -188.02899367809232 0 -188.02899367809232 -31.018437113300934 0 0 0 0 1054.8924970613189 -575.29590332476948 0 -575.29590332476948 850.28151669911131 0 0 0 0 1208.6669978729333 367.78026878490027 0 367.78026878490027 1295.2279196908637 0 0 0 0 1084.5774919816467 7.2012345212456239 0 7.2012345212456239 635.55539357182261 0 0 0 0 761.14202890526212 -190.17963609001413 0 -190.17963609001413 995.13514784713743 0 0 0 0 1210.7020595083595 -130.14660197443391 0 -130.14660197443391 437.67255463833362 0 0 0 0 1533.6322906828391 115.47535078483816 0 115.47535078483816 198.76586770014364 0 0 0 0 1385.7945606455469 -33.002056057965092 0 -33.002056057965092 71.85762293798507 0 0 0 0 2120.3438906062365 318.13218011218441 0 318.13218011218441 134.50614998861965 0 0 0 0 1514.2548679795291 -113.10756073608536 0 -113.10756073608536 -108.11470582024147 0 0 0 0 1488.3331606662978 -434.94426562268382 0 -434.94426562268382 140.4167609799506 0 0 0 0 484.48745201856946 -469.49263325398124 0 -469.49263325398124 182.61303858196516 0 0 0 0 -95.578104854968842 72.914042036403316 0 72.914042036403316 170.47783092174814 0 0 0 0 58.148142904203269 139.35427224838531 0 139.35427224838531 -95.474119231916347 0 0 0 0 28.752633604650327 166.44518462149563 0 166.44518462149563 317.04421477725919 0 0 0 0 146.12056523701176 30.208717608357119 0 30.208717608357119 1.7401843666375498 0 0 0 0 14.270768982188827 6.0028118076857595 0 6.0028118076857595 4.4815316608079137 0 0 0 0 388.98277287589735 719.1388314959438 0 719.1388314959438 1008.0406890290553 0 0 0 0 770.30064755314379 601.13827727977571 0 601.13827727977571 262.03621010024756 0 0 0 0 807.33381599285349 529.76541727084464 0 529.76541727084464 43.132912659400517 0 0 0 0 206.29032827568881 454.94896324709066 0 454.94896324709066 521.41257402132942 0 0 0 0 255.28518191862167 215.08003708309963 0 215.08003708309963 134.91900219079071 0 0 0 0 407.68077190749682 462.66038413255603 0 462.66038413255603 223.92564244875348 0 0 0 0 792.28458925988525 475.17792666974913 0 475.17792666974913 76.084816921818856 0 0 0 0 293.98045995134453 199.003289215829 0 199.003289215829 48.433947709742824 0 0 0 0 448.97143133765712 377.47511789624434 0 377.47511789624434 174.53644432310512 0 0 0 0 155.18442969489843 189.2708022368156 0 189.2708022368156 208.37270284085423 0 0 0 0 189.63303107047977 202.64688762320907 0 202.64688762320907 70.163470906291877 0 0 0 0 -8.7568920353391917 15.933385021201786 0 15.933385021201786 -18.538356874615122 0 0 0 0 115.26816344964027 153.70576363644204 0 153.70576363644204 170.36019518869261 0 0 0 0 138.70566618494922 29.472665693215276 0 29.472665693215276 -37.043663975180607 0 0 0 0 124.59466149902437 143.42822583890393 0 143.42822583890393 216.07831515570251 0 0 0 0 95.868908510383335 93.482036990961205 0 93.482036990961205 -54.075091437628089 0 0 0 0 -1.5542568718010443 -1.6251269921483527 0 -1.6251269921483527 23.478982994765829 0 0 0 0 32.616145799752985 20.818909910235433 0 20.818909910235433 3.7168713180970805 0 0 0 0 447.43790878300206 -291.69786355537241 0 -291.69786355537241 103.82508275312208 0 0 0 0 1.9632495451572396 20.214263724837309 0 20.214263724837309 -25.963842129966704 0 0 0 0 252.68368598059897 -23.599357876096974 0 -23.599357876096974 -212.08204175114508 0 0 0 0 293.66288897123013 57.271156789757356 0 57.271156789757356 59.863715307971745 0 0 0 0 1095.4747897307388 -131.93742314866017 0 -131.93742314866017 29.71763225365703 0 0 0 0 913.45119845922454 602.23487685288433 0 602.23487685288433 88.20495307154215 0 0 0 0 439.38868204201572 341.64928756711959 0 341.64928756711959 59.935715530322 0 0 0 0 682.59672418327682 413.7065928929581 0 413.7065928929581 -374.48211470130468 0 0 0 0 183.65230871850508 -134.66218112773777 0 -134.66218112773777 -396.56501238262103 0 0 0 0 1.7735474914638019 1.2223581389939682 0 1.2223581389939682 -5.4072684135993416 0 0 0 0 532.05108340028528 232.84403413229856 0 232.84403413229856 22.337014786393127 0 0 0 0 201.73276707001787 242.04318520936204 0 242.04318520936204 67.75562549396443 0 0 0 0 202.43628698195971 232.83632355557006 0 232.83632355557006 48.506223788550869 0 0 0 0 212.92673251027009 371.18206200847703 0 371.18206200847703 -6.9213194097885662 0 0 0 0 400.72729507679105 658.95041535218752 0 658.95041535218752 378.40494021255199 0 0 0 0 229.89681547190412 557.31869554729451 0 557.31869554729451 379.74515937515116 0 0 0 0 157.94527739498517 459.04304795286617 0 459.04304795286617 422.83371104323874 0 0 0 0 11.658546570437466 404.88709594858341 0 404.88709594858341 435.25561808345151 0 0 0 0 3.4408388088510833 -0.047040539437801954 0 -0.047040539437801954 -1.1707216589094616 0 0 0 0 40.496532101444245 230.95199661589595 0 230.95199661589595 290.90387581429229 0 0 0 0 70.443008118323633 278.18758771237958 0 278.18758771237958 219.61451222680603 0 0 0 0 102.51632169841469 134.41333761933203 0 134.41333761933203 194.02913074787654 0 0 0 0 138.80004679627746 157.38845307254496 0 157.38845307254496 105.78249739468265 0 0 0 0 68.186528136211564 57.579891201213286 0 57.579891201213286 97.224382009405815 0 0 0 0 316.62001362931915 126.82077030460022 0 126.82077030460022 42.315853818951453 0 0 0 0 242.79546576889697 130.67375975440223 0 130.67375975440223 42.44648217008023 0 0 0 0 365.15062501668945 170.05645732093421 0 170.05645732093421 78.319882460197618 0 0 0 0 89.222412587980216 110.92126494385832 0 110.92126494385832 71.523300263526153 0 0 0 0 0.15304188252000017 4.9211513084707406 0 4.9211513084707406 -11.941805367532936 0 0 0 0 301.15115509000316 425.04909183518055 0 425.04909183518055 25.032425724392738 0 0 0 0 281.28897155896993 398.40607734246049 0 398.40607734246049 574.80293127129278 0 0 0 0 593.90328132701688 962.84051050195126 0 962.84051050195126 1581.111739299462 0 0 0 0 525.47975816187682 819.04755955713722 0 819.04755955713722 665.26778918405398 0 0 0 0 242.92821366206044 520.9600269374464 0 520.9600269374464 362.32732554329044 0 0 0 0 -42.103345136769349 239.90644166187781 0 239.90644166187781 481.75211009174024 0 0 0 0 98.165922389205662 378.02794390817394 0 378.02794390817394 537.88507474799974 0 0 0 0 193.24012660968583 250.04201670424686 0 250.04201670424686 272.71496645048956 0 0 0 0 43.772779954204452 88.120730951913629 0 88.120730951913629 163.23416440407573 0 0 0 0 252.63469643089047 225.29093811798316 0 225.29093811798316 309.44429411897363 0 0 0 0 32.470640710540465 312.47417440335357 0 312.47417440335357 360.6160430369473 0 0 0 0 163.76870975034399 321.60252904754685 0 321.60252904754685 335.54596649875475 0 0 0 0 5.5948343323939298 -2.2093488043498724 0 -2.2093488043498724 1.0975226906035065 0 0 0 0 43.974994431329833 424.78644516069886 0 424.78644516069886 795.97007944095742 0 0 0 0 279.15491470685811 -152.9388873852028 0 -152.9388873852028 97.524762665904802 0 0 0 0 332.40286862302673 347.92217688240555 0 347.92217688240555 353.75437561388389 0 0 0 0 86.464543113092077 -278.96416253923735 0 -278.96416253923735 165.67822558564717 0 0 0 0 9.4054228813326972 -4.1753529889741543 0 -4.1753529889741543 0.73401230511093374 0 0 0 0 -137.99903593030467 96.647910776228855 0 96.647910776228855 336.45136608382563 0 0 0 0 1485.2119356434232 380.58325091558936 0 380.58325091558936 -146.696208722341 0 0 0 0 760.71631814711509 -366.03113808415515 0 -366.03113808415515 1305.3462677231657 0 0 0 0 501.72902549849823 172.31322100190422 0 172.31322100190422 199.39791206061287 0 0 0 0 349.01429694754188 357.60035612300271 0 357.60035612300271 354.442397180228 0 0 0 0 2398.9335170643171 -202.50861410836296 0 -202.50861410836296 399.20572314200399 0 0 0 0 589.56908843813289 37.873030437031048 0 37.873030437031048 -391.47154919616514 0 0 0 0 324.14519914063567 -151.66293328471511 0 -151.66293328471511 844.86166653926557 0 0 0 0 278.91790317172126 394.32068620160771 0 394.32068620160771 559.89704347021143 0 0 0 0 1402.3150417867873 282.62623789641157 0 282.62623789641157 -66.588828190593631 0 0 0 0 8.4235781296792425 -1.8019697248402053 0 -1.8019697248402053 -2.3811356143760918 0 0 0 0 778.16692613813211 498.05725980541001 0 498.05725980541001 -905.26460152723473 0 0 0 0 203.36364881345071 338.82606786223732 0 338.82606786223732 364.23942262511628 0 0 0 0 256.12974752424634 299.09739862479637 0 299.09739862479637 309.13438776882595 0 0 0 0 161.13407454482149 243.16203730549501 0 243.16203730549501 421.64628933151471 0 0 0 0 -159.64151714989566 -152.7229586427884 0 -152.7229586427884 232.55559818406073 0 0 0 0 -58.403151807964605 167.64590792759554 0 167.64590792759554 600.13693321310348 0 0 0 0 99.516695422003977 -282.79523330080519 0 -282.79523330080519 -230.10273296235937 0 0 0 0 -98.002800456350087 60.926968280436085 0 60.926968280436085 182.13179955320993 0 0 0 0 6.0775252732289289 -1.2864664253150124 0 -1.2864664253150124 0.94788373524441027 0 0 0 0 208.91494560329738 -112.67889373804155 0 -112.67889373804155 29.825505505532419 0 0 0 0 204.21693788060293 48.132623324602832 0 48.132623324602832 -54.430458430149883 0 0 0 0 -1.7366236170288545 -2.8948724851211409 0 -2.8948724851211409 2.4587696068559843 0 0 0 0 392.63611934087385 294.0138903384227 0 294.0138903384227 145.76928849446813 0 0 0 0 -228.67604292675242 95.645351406972622 0 95.645351406972622 182.75377870585726 0 0 0 0 -56.539836931362515 -11.379430963887899 0 -11.379430963887899 -31.90418778384992 0 0 0 0 44.43560895450355 110.7321821270798 0 110.7321821270798 131.57925525597784 0 0 0 0 69.010545225915848 35.886212404932849 0 35.886212404932849 -24.868553832759062 0 0 0 0 -37.881442350902944 38.287738094601082 0 38.287738094601082 88.601022914615896 0 0 0 0 -51.099664962155657 34.523190948901174 0 34.523190948901174 0.76919443758743 0 0 0 0 -30.819590018421877 80.857619792766855 0 80.857619792766855 -76.629278559566956 0 0 0 0 -136.26257818937302 75.892655065264989 0 75.892655065264989 78.885684466873499 0 0 0 0 -30.274831940449076 96.31400263550313 0 96.31400263550313 -52.771942275625406 0 0 0 0 10.06277404586848 5.7042553088337371 0 5.7042553088337371 -1.8223664804810156 0 0 0 0 53.46495936068095 105.62394934098643 0 105.62394934098643 50.711408899684102 0 0 0 0 0.24486104313177748 24.76736408039821 0 24.76736408039821 -27.623120955570919 0 0 0 0 33.98818093490263 25.890034077108794 0 25.890034077108794 1.6016969040047115 0 0 0 0 10.642482726158462 33.520457023639267 0 33.520457023639267 21.858198701957079 0 0 0 0 -11.579091015941231 60.825073646054989 0 60.825073646054989 6.9634543274314638 0 0 0 0 13.407371464686676 40.324593923739855 0 40.324593923739855 2.9693367709838334 0 0 0 0 58.409885504006525 54.78654476770771 0 54.78654476770771 -1.3121461412429198 0 0 0 0 67.101633296493674 66.531322086912041 0 66.531322086912041 -21.66977264866955 0 0 0 0 85.916356391542649 34.898814361780296 0 34.898814361780296 -8.6713572232965817 0 0 0 0 36.483307992261615 23.726973591674906 0 23.726973591674906 -16.58037909713541 0 0 0 0 75.880796074838145 44.528288061473404 0 44.528288061473404 0.36327438808075385 0 0 0 0 97.189977971866028 49.787622282150551 0 49.787622282150551 -7.8500932366732741 0 0 0 0 99.884911129949614 39.543822238938446 0 39.543822238938446 -18.839805308488394 0 0 0 0 85.875287403533861 46.323735421604304 0 46.323735421604304 -3.1071880640339806 0 0 0 0 46.297873945605261 -0.24875085617865977 0 -0.24875085617865977 -22.337711733544356 0 0 0 0 76.67520034199697 -29.406167392822681 0 -29.406167392822681 -90.710620335092244 0 0 0 0 280.07021718568285 -80.661340119064334 0 -80.661340119064334 -106.00811243917087 0 0 0 0 109.32360624802823 58.648215928426453 0 58.648215928426453 -12.308090309757972 0 0 0 0 198.33608058189384 206.24216504442552 0 206.24216504442552 111.68689579191414 0 0 0 0 4.0772832158576477 1.3990741603780492 0 1.3990741603780492 -2.4430753781961236 0 0 0 0 112.37731267418712 66.808020054395456 0 66.808020054395456 -60.725237273709354 0 0 0 0 103.04015517327935 32.458814365214494 0 32.458814365214494 9.851545565892593 0 0 0 0 22.322526783176357 8.6374495164539837 0 8.6374495164539837 1.5039630537772481 0 0 0 0 56.569636404133121 6.2322883828153408 0 6.2322883828153408 -13.845367209767176 0 0 0 0 109.84544028882738 40.228280944427752 0 40.228280944427752 -23.498509948844003 0 0 0 0 130.12988897846662 36.088879242946859 0 36.088879242946859 -52.534580943728542 0 0 0 0 58.184054016077425 15.001679705877905 0 15.001679705877905 -11.158831513921541 0 0 0 0 130.9185744198121 13.121877389223869 0 13.121877389223869 -39.927839292149429 0 0 0 0 62.788121517914988 -19.56050130481708 0 -19.56050130481708 -57.562746834084464 0 0 0 0 66.919258803645789 -4.8988097261681105 0 -4.8988097261681105 -57.254771978377903 0 0 0 0 374.82433756405953 -434.85361715562794 0 -434.85361715562794 -617.24212010333395 0 0 0 0 11.927541974483574 7.1753895593530252 0 7.1753895593530252 -11.371660307606497 0 0 0 0 1467.8283039827656 92.736515328754649 0 92.736515328754649 -257.3539108852201 0 0 0 0 -44.594370446706307 610.50657912355928 0 610.50657912355928 -427.78458238534222 0 0 0 0 1.815835359793823 -5.9416134690104485 0 -5.9416134690104485 3.1899633294246925 0 0 0 0 215.0871478931731 96.232383019728331 0 96.232383019728331 40.242401136823446 0 0 0 0 359.18166126040887 114.31211224684421 0 114.31211224684421 5.082408877319267 0 0 0 0 -6.6289694263501957 14.930848177295218 0 14.930848177295218 -12.356735358270862 0 0 0 0 189.38044440758313 64.704738514356677 0 64.704738514356677 23.684432236300836 0 0 0 0 -2.8346413890247959 9.2302950693530619 0 9.2302950693530619 -18.135513047766011 0 0 0 0 69.321330391307129 42.952053358083504 0 42.952053358083504 33.925623020607418 0 0 0 0 89.610027728191199 56.944627826643227 0 56.944627826643227 38.933408812999915 0 0 0 0 108.08213624934433 61.865653981515607 0 61.865653981515607 -15.181083501511239 0 0 0 0 -8.2211208181907409 13.596992463866357 0 13.596992463866357 -24.467168498195427 0 0 0 0 160.2877642778185 100.53951138754746 0 100.53951138754746 -30.030198015571841 0 0 0 0 134.51236375713779 -34.779185416937253 0 -34.779185416937253 -130.94800907305762 0 0 0 0 193.33477383527497 126.90785814291644 0 126.90785814291644 17.460275958714419 0 0 0 0 109.42020107231656 52.829380715314983 0 52.829380715314983 43.582060586621992 0 0 0 0 133.21988573310955 115.28137797318414 0 115.28137797318414 9.7260633026326104 0 0 0 0 40.942934012520709 71.584695925011602 0 71.584695925011602 34.116653813902303 0 0 0 0 132.61299800593406 66.804511902098966 0 66.804511902098966 -5.398720515824607 0 0 0 0 141.13897128892131 69.127688583218514 0 69.127688583218514 -26.051188292916777 0 0 0 0 68.199597991784685 60.275013783915711 0 60.275013783915711 11.506318058314719 0 0 0 0 215.34855761711515 84.291986869056927 0 84.291986869056927 -24.662509028687055 0 0 0 0 138.35601158230565 80.966374068921596 0 80.966374068921596 17.954964641272454 0 0 0 0 211.15202591058915 110.42094453656227 0 110.42094453656227 50.914362429274206 0 0 0 0 329.32723281194922 113.54236956103932 0 113.54236956103932 -11.698408303491306 0 0 0 0 474.93451660750725 -21.420626240210822 0 -21.420626240210822 442.43103914118092 0 0 0 0 -6.6836634665746857 13.922960317366432 0 13.922960317366432 -8.5377176853859016 0 0 0 0 447.59005738746055 330.50435747233837 0 330.50435747233837 163.3780677041791 0 0 0 0 1134.4798644112889 657.24612901467026 0 657.24612901467026 87.937650287734641 0 0 0 0 915.96235795886605 280.03052359420099 0 280.03052359420099 -67.256852705940673 0 0 0 0 789.00066334275471 235.0166729430789 0 235.0166729430789 -55.35772602888369 0 0 0 0 710.84284076343465 156.82573852236919 0 156.82573852236919 -112.42360735428429 0 0 0 0 -8.6477769298050475 14.059286424000618 0 14.059286424000618 -14.696741567443526 0 0 0 0 111.96129537081288 136.99942002835587 0 136.99942002835587 35.794246070583085 0 0 0 0 706.57698832283131 164.45335861444084 0 164.45335861444084 -78.136236113315135 0 0 0 0 705.52195282441971 159.82191347334583 0 159.82191347334583 -92.389910396366759 0 0 0 0 298.38552459090715 130.45618853811311 0 130.45618853811311 -21.414809088736547 0 0 0 0 -6.4885211036349375 14.669935810587674 0 14.669935810587674 -9.5314512895557115 0 0 0 0 245.40753658839094 111.43565374518948 0 111.43565374518948 -29.542553874266559 0 0 0 0 236.5948895724141 119.1267799915413 0 119.1267799915413 34.198628938430375 0 0 0 0 83.753529521898599 55.289697684090243 0 55.289697684090243 1.3849556344994198 0 0 0 0 162.29740927601233 70.914485492684435 0 70.914485492684435 -15.641908278076698 0 0 0 0 -187.10346504059271 44.338379228132908 0 44.338379228132908 38.24507675797031 0 0 0 0 80.809297763553332 24.083297001294795 0 24.083297001294795 14.712011982652257 0 0 0 0 169.70055521584072 56.932915025271086 0 56.932915025271086 -46.525350472649734 0 0 0 0 135.84235313300451 -119.55285017288588 0 -119.55285017288588 44.767201018308697 0 0 0 0 76.082983495682129 68.392714218738888 0 68.392714218738888 7.0838093910570024 0 0 0 0 -18.34588177323468 22.567828244391507 0 22.567828244391507 12.517272754294194 0 0 0 0 420.02053409875953 66.711766706556773 0 66.711766706556773 -48.824162964284483 0 0 0 0 229.53346359718853 290.07505259524805 0 290.07505259524805 50.022933418458706 0 0 0 0 935.85420532479475 511.06295461866193 0 511.06295461866193 12.734748954282622 0 0 0 0 771.0989962103049 -388.78058336154731 0 -388.78058336154731 -28.501164004299426 0 0 0 0 374.60063515385264 462.13863189250515 0 462.13863189250515 174.83510004574418 0 0 0 0 -15.708500507047575 46.207525180171615 0 46.207525180171615 -92.940225529691816 0 0 0 0 4.5041205059264939 2.6329972570449769 0 2.6329972570449769 0.62789882853864043 0 0 0 0 545.29652194963273 -179.15140583302446 0 -179.15140583302446 34.753327988950332 0 0 0 0 -17.251753611577442 73.173339445964302 0 73.173339445964302 402.73919270447004 0 0 0 0 -162.57150571942475 272.68473419064185 0 272.68473419064185 184.36417931205506 0 0 0 0 73.835518031532246 68.159925623918184 0 68.159925623918184 -11.984369968121626 0 0 0 0 213.27108767499158 250.28250228944944 0 250.28250228944944 -159.38444603802145 0 0 0 0 51.923037981672678 155.38836699978219 0 155.38836699978219 -108.709291463927 0 0 0 0 -17.027834340668051 -77.405187705289791 0 -77.405187705289791 -6.9962124434405268 0 0 0 0 8.1521511812213419 20.603773424334832 0 20.603773424334832 -22.890876508729782 0 0 0 0 663.09685365774203 -63.696775373724449 0 -63.696775373724449 -36.275949821434551 0 0 0 0 366.08290046925686 -38.281791432159935 0 -38.281791432159935 31.891694359964276 0 0 0 0 491.93069005278085 100.63152044378967 0 100.63152044378967 -33.576995092510515 0 0 0 0 828.14751116526895 40.699806957555666 0 40.699806957555666 -160.87093002358597 0 0 0 0 763.63409564306494 153.38077442989379 0 153.38077442989379 -123.40878715241979 0 0 0 0 720.32784898632963 105.91698379940476 0 105.91698379940476 -174.91704411631054 0 0 0 0 676.60420040195459 117.02089575398304 0 117.02089575398304 -92.416140549480076 0 0 0 0 682.97964902568492 137.30685834167525 0 137.30685834167525 -29.442550073087205 0 0 0 0 17.04097236534183 -11.403414775795518 0 -11.403414775795518 -23.904677277551002 0 0 0 0 135.86454186585252 83.495134991981104 0 83.495134991981104 89.211228553445835 0 0 0 0 147.91899381371331 33.869133827480255 0 33.869133827480255 26.051389580574323 0 0 0 0 49.577607938612346 37.409126881677366 0 37.409126881677366 64.197251978584973 0 0 0 0 133.69661196068046 76.763684370424016 0 76.763684370424016 106.55488268952467 0 0 0 0 139.78109078831403 88.42090449637908 0 88.42090449637908 49.275699452024128 0 0 0 0 242.27897558146651 97.446451569241617 0 97.446451569241617 3.825434868260345 0 0 0 0 50.679647165517963 -21.651170020784775 0 -21.651170020784775 -57.469504977678639 0 0 0 0 44.145505195789156 -3.1150481611330179 0 -3.1150481611330179 -55.475198838284996 0 0 0 0 56.411822748889705 3.7618580239280455 0 3.7618580239280455 -40.579468258665713 0 0 0 0 177.0876600063657 87.820236555766996 0 87.820236555766996 1.6413724046888092 0 0 0 0 188.06143253813207 64.706677821501216 0 64.706677821501216 -12.143345254342421 0 0 0 0 165.08558229347545 64.709552364226511 0 64.709552364226511 -2.5483512327991775 0 0 0 0 42.926637138716409 5.0788540048897985 0 5.0788540048897985 -16.657233083577665 0 0 0 0 161.16881734646176 83.365599725224229 0 83.365599725224229 4.4586587456924462 0 0 0 0 192.79271861681036 81.48626856376822 0 81.48626856376822 2.2101633177808253 0 0 0 0 26.950986849980339 18.299787233659885 0 18.299787233659885 -20.731632637215732 0 0 0 0 194.3573466201633 55.690178553286387 0 55.690178553286387 34.431813920044078 0 0 0 0 181.27453017907101 84.006022059653333 0 84.006022059653333 -7.561872496498836 0 0 0 0 148.33262309611746 65.113171285473072 0 65.113171285473072 109.93316253786179 0 0 0 0 88.380191700678552 62.703218535441465 0 62.703218535441465 -18.932775748428128 0 0 0 0 79.380042346987466 87.74042890396322 0 87.74042890396322 -27.110382594744124 0 0 0 0 84.817010457041761 49.166617701545874 0 49.166617701545874 8.5955178468757367 0 0 0 0 32.278448570848084 37.487918176798516 0 37.487918176798516 -0.94429348262622526 0 0 0 0 25.44796877290355 70.273609987374584 0 70.273609987374584 15.862434859210225 0 0 0 0 10.540219478600193 54.035656699572428 0 54.035656699572428 -1.2568464235702095 0 0 0 0 53.659883887110539 46.931383306504145 0 46.931383306504145 9.0647641840481867 0 0 0 0 83.602774726697362 47.480748496411415 0 47.480748496411415 -24.704325738110128 0 0 0 0 40.144920593583635 65.357256609887642 0 65.357256609887642 -4.60005717386219 0 0 0 0 73.625105416482256 75.282639735281919 0 75.282639735281919 2.7659543045319879 0 0 0 0 69.535202523995395 97.614134342596117 0 97.614134342596117 -38.733903798023675 0 0 0 0 116.33130291386078 57.657625755166464 0 57.657625755166464 -28.339546705796238 0 0 0 0 101.74930807555897 64.908389175122977 0 64.908389175122977 12.090486169124144 0 0 0 0 153.70164693202332 179.46572240646265 0 179.46572240646265 -82.543883996514523 0 0 0 0 138.81510002170626 29.429893808880934 0 29.429893808880934 -70.780446806099462 0 0 0 0 104.45384885822317 34.850796277056382 0 34.850796277056382 1.5500759164166382 0 0 0 0 149.94543952598679 25.914402603065355 0 25.914402603065355 -73.732865579758709 0 0 0 0 134.31664705495791 -19.075269086070421 0 -19.075269086070421 -47.307441091707915 0 0 0 0 64.743781637730081 -50.279177358551351 0 -50.279177358551351 -15.474844515189034 0 0 0 0 72.355471115707587 -24.042834037383727 0 -24.042834037383727 -34.827206295105498 0 0 0 0 215.35732427571202 125.06749160638537 0 125.06749160638537 35.716157172217208 0 0 0 0 63.737206154083026 -30.006203767631543 0 -30.006203767631543 -26.44650518363396 0 0 0 0 239.04652221751894 80.071667027948024 0 80.071667027948024 -26.941914644492499 0 0 0 0 13.518454381353763 -5.367620572858641 0 -5.367620572858641 12.230890650544097 0 0 0 0 8.2990813034056217 4.1938854807499126 0 4.1938854807499126 -0.0091260668306816228 0 0 0 0 -12.813787487066364 18.692917984323572 0 18.692917984323572 10.996720895445833 0 0 0 0 -2.4981321180507621 16.956543878393859 0 16.956543878393859 -9.0806760098421364 0 0 0 0 3.1929134349293236 51.740140173945292 0 51.740140173945292 41.869544164026593 0 0 0 0 83.232783337391083 -40.587938513450354 0 -40.587938513450354 -9.0828032385079496 0 0 0 0 -15.007843162240988 4.9242351225202583 0 4.9242351225202583 26.958871651206209 0 0 0 0 47.948018980039024 -71.15329999110736 0 -71.15329999110736 21.716492367393585 0 0 0 0 24.316291309739427 -12.805323443262751 0 -12.805323443262751 -24.75524434455383 0 0 0 0 168.81417772377426 -40.858670538200386 0 -40.858670538200386 -36.086416647118313 0 0 0 0 203.82031387996176 -86.517501639007151 0 -86.517501639007151 -10.448001416994884 0 0 0 0 248.72917003189468 -60.772214863916361 0 -60.772214863916361 -6.6695120586318808 0 0 0 0 121.04901808361319 -135.13808005954979 0 -135.13808005954979 111.2088895650777 0 0 0 0 -30.29806334101886 -17.80797070783683 0 -17.80797070783683 144.0393642924123 0 0 0 0 4.1727024129195343 -0.21134452255595981 0 -0.21134452255595981 0.32470163872754831 0 0 0 0 109.76502347030464 -155.70640011674413 0 -155.70640011674413 181.86047245629743 0 0 0 0 345.54808143694754 322.53014437821548 0 322.53014437821548 327.05478302610027 0 0 0 0 545.28004938235063 255.97571230852549 0 255.97571230852549 77.675070816866537 0 0 0 0 399.3693650852897 -98.750879194019944 0 -98.750879194019944 319.20230025434876 0 0 0 0 583.14173149936732 -214.41175745686905 0 -214.41175745686905 22.979156848593448 0 0 0 0 195.82462204199078 122.07790173641024 0 122.07790173641024 27.347592764936962 0 0 0 0 352.93332043071837 59.297366113036787 0 59.297366113036787 -72.610027919290587 0 0 0 0 201.94834831110802 117.19027988747848 0 117.19027988747848 -49.013475609955549 0 0 0 0 139.14254264247825 7.9350819952613847 0 7.9350819952613847 51.927782261068387 0 0 0 0 188.91635309604442 136.56544895326647 0 136.56544895326647 77.451658013764245 0 0 0 0 216.21379343964938 3.5882745598392205 0 3.5882745598392205 -10.445741843453106 0 0 0 0 204.5842731417919 99.4136617979363 0 99.4136617979363 -89.15575885123144 0 0 0 0 472.04793586987785 -11.667414959133112 0 -11.667414959133112 -165.51872168239288 0 0 0 0 454.7621634493571 -68.463661331810727 0 -68.463661331810727 15.618763480382768 0 0 0 0 392.59971076162356 74.211963625967428 0 74.211963625967428 -12.563667416743556 0 0 0 0 732.06057874781845 36.591927988352836 0 36.591927988352836 -27.165279544160512 0 0 0 0 558.2846181242885 311.16589316890077 0 311.16589316890077 145.89804293805355 0 0 0 0 348.71551082590531 142.44268468475548 0 142.44268468475548 21.576264391122095 0 0 0 0 -16.372738491721975 -21.382002095790085 0 -21.382002095790085 66.451543246752408 0 0 0 0 -14.746317587499448 32.551475904948802 0 32.551475904948802 87.02924881839499 0 0 0 0 126.43130925877949 213.81793766756709 0 213.81793766756709 191.27114173441259 0 0 0 0 -0.89267478121566857 5.3532995296479058 0 5.3532995296479058 0.39988093240324574 0 0 0 0 175.30449110609538 101.93473614462619 0 101.93473614462619 67.680892179341754 0 0 0 0 210.39796544885894 78.506396466204933 0 78.506396466204933 -15.289355945538773 0 0 0 0 303.63109119521187 162.73972154507101 0 162.73972154507101 17.623127608802633 0 0 0 0 327.90347053486448 48.304209294247812 0 48.304209294247812 -99.239106431086839 0 0 0 0 322.79417708797018 18.410829197710882 0 18.410829197710882 -80.142022472547978 0 0 0 0 422.55365662959912 87.613330693151966 0 87.613330693151966 -82.948940141463027 0 0 0 0 180.57174486123643 -12.645806877957966 0 -12.645806877957966 -18.934774360835945 0 0 0 0 299.4215321602428 77.926295224983733 0 77.926295224983733 -17.637227584287757 0 0 0 0 59.351576219534991 38.95263831002967 0 38.95263831002967 39.988568058899546 0 0 0 0 6.6164787473697562 8.4250465392104097 0 8.4250465392104097 25.06076921449278 0 0 0 0 65.009160820634406 23.663553047323148 0 23.663553047323148 51.408377663650754 0 0 0 0 67.82459037397939 -10.831883157816264 0 -10.831883157816264 6.4359569371190446 0 0 0 0 -0.55319306247045574 7.6464054567454696 0 7.6464054567454696 3.4024394407406362 0 0 0 0 0.75952245448210531 -1.6981085741897477 0 -1.6981085741897477 7.3304536932281055 0 0 0 0 228.79689901310485 62.878101871619492 0 62.878101871619492 -75.449273087072811 0 0 0 0 14.247730884420719 8.9167103207115446 0 8.9167103207115446 9.0426634836104149 0 0 0 0 2131.4558030854387 -751.78522557604902 0 -751.78522557604902 160.76453688275205 0 0 0 0 759.11383190230117 -254.3205312435914 0 -254.3205312435914 20.10117196151441 0 0 0 0 522.7138141310752 -61.48343346061921 0 -61.48343346061921 1.9794435121530114 0 0 0 0 533.13203381998756 -36.303985409616416 0 -36.303985409616416 -28.734711163097131 0 0 0 0 35.467623272678509 33.200925310594002 0 33.200925310594002 11.193953283677843 0 0 0 0 65.821881266625496 79.479334447034802 0 79.479334447034802 -10.107758929770519 0 0 0 0 72.307773064210778 101.85077746392562 0 101.85077746392562 -13.33433900902628 0 0 0 0 72.832896583994398 227.46903063529703 0 227.46903063529703 -10.01186923419391 0 0 0 0 86.687915077863266 79.02944014794744 0 79.02944014794744 11.847378578665204 0 0 0 0 22.488303989822345 81.419057389983848 0 81.419057389983848 0.61018356986833666 0 0 0 0 191.21730680002656 84.324316781774087 0 84.324316781774087 -18.024156859727555 0 0 0 0 145.45231995476934 74.791722775049493 0 74.791722775049493 -10.244140516690095 0 0 0 0 36.435803068423411 72.844727427392627 0 72.844727427392627 -74.710569637851791 0 0 0 0 8.1457893320366566 62.825358611784125 0 62.825358611784125 -25.631082536762776 0 0 0 0 -83.600097331644065 6.3668021483125585 0 6.3668021483125585 87.372782920259851 0 0 0 0 -19.583227677707328 200.15210705617528 0 200.15210705617528 19.300204292011585 0 0 0 0 36.491481347786845 55.462376467374455 0 55.462376467374455 -14.703923624828946 0 0 0 0 -68.344807271098489 144.0874685460567 0 144.0874685460567 44.77276384648394 0 0 0 0 43.981817318653668 7.3981029028510772 0 7.3981029028510772 -3.9718680907005144 0 0 0 0 368.38483852845604 76.993840003804962 0 76.993840003804962 -103.38620438307771 0 0 0 0 -94.381465207636666 130.24790009016351 0 130.24790009016351 -27.831750598556027 0 0 0 0 -84.772579766591662 71.443074557209002 0 71.443074557209002 50.096832371720666 0 0 0 0 40.719761338350338 131.09936516540785 0 131.09936516540785 18.772939728454716 0 0 0 0 -203.71483097882447 189.17726993529777 0 189.17726993529777 90.14208584460539 0 0 0 0 128.57104743040691 44.142485941266386 0 44.142485941266386 13.508425185337273 0 0 0 0 -104.57842574323877 150.0819571925374 0 150.0819571925374 492.56646804649017 0 0 0 0 718.92235560277186 672.02496210515517 0 672.02496210515517 369.96778937262479 0 0 0 0 1512.6292352868768 589.26925106709314 0 589.26925106709314 -245.26440298832983 0 0 0 0 488.67613037729461 114.61240948674094 0 114.61240948674094 -277.25053468315127 0 0 0 0 1665.8940415228426 -334.35345117443421 0 -334.35345117443421 -315.95896627691945 0 0 0 0 -8.4498011597606819 -654.63767562640533 0 -654.63767562640533 37.789252267607083 0 0 0 0 34.539753466184465 -49.429478935248369 0 -49.429478935248369 18.723936308646017 0 0 0 0 -26.539357705405564 -575.17366419763039 0 -575.17366419763039 -279.67895022418998 0 0 0 0 -470.95208928523061 -262.21068843436842 0 -262.21068843436842 9.4728901775924896 0 0 0 0 208.96576446937979 -127.77212971426297 0 -127.77212971426297 69.262611676971375 0 0 0 0 39.257714031395153 -442.11136295939104 0 -442.11136295939104 -90.146653840242834 0 0 0 0 -566.66260349733057 -149.06652837434194 0 -149.06652837434194 555.6354214415378 0 0 0 0 573.16505328888888 -718.35714399417725 0 -718.35714399417725 806.00757670613348 0 0 0 0 227.56414717258303 -239.3819858599436 0 -239.3819858599436 -78.665123417240466 0 0 0 0 186.0794504101097 -64.128930228638481 0 -64.128930228638481 -14.263653224211588 0 0 0 0 339.40858389294817 -214.92222626524378 0 -214.92222626524378 -112.99836898957346 0 0 0 0 335.68533288410254 -78.047421780256627 0 -78.047421780256627 -170.97895952089857 0 0 0 0 -19.087696793383316 -18.981639927000529 0 -18.981639927000529 -6.20345331109122 0 0 0 0 322.66491163795581 25.886626966070253 0 25.886626966070253 8.4518044023679977 0 0 0 0 43.038225658165175 -11.428822134099391 0 -11.428822134099391 33.119515519943889 0 0 0 0 -372.90134021276754 -90.435359611408785 0 -90.435359611408785 30.828139414206817 0 0 0 0 85.410971177451387 -68.858561165947734 0 -68.858561165947734 -14.362121716724062 0 0 0 0 -201.64723469338787 -246.7154907406557 0 -246.7154907406557 208.38789900168376 0 0 0 0 -17.562835060232601 -17.686964711302103 0 -17.686964711302103 -1.8153689123549004 0 0 0 0 -474.09190207074425 -358.63239155745418 0 -358.63239155745418 -191.64868052374186 0 0 0 0 -159.14293674880173 -101.78867645135961 0 -101.78867645135961 -5.2010932713819784 0 0 0 0 51.291275237838107 -17.729478286244245 0 -17.729478286244245 -48.085970402662475 0 0 0 0 36.819376339204609 -21.395642486581437 0 -21.395642486581437 -65.913068417479735 0 0 0 0 48.515146411396813 -23.49347829509837 0 -23.49347829509837 -63.770885974467291 0 0 0 0 97.663670775377454 -45.063306679255852 0 -45.063306679255852 -44.613551930115769 0 0 0 0 380.77229541576526 -313.64706772683212 0 -313.64706772683212 -565.70514130197989 0 0 0 0 129.54821923867166 220.61036466787891 0 220.61036466787891 -46.84662035245492 0 0 0 0 204.6533005979727 -20.184606821003399 0 -20.184606821003399 -145.27155328931258 0 0 0 0 3.5588724557019304 63.093793675594497 0 63.093793675594497 52.936124945252232 0 0 0 0 109.47488491582192 -44.317094322799406 0 -44.317094322799406 -43.540300916988954 0 0 0 0 531.81313694344135 19.610501116349042 0 19.610501116349042 -216.18758883157716 0 0 0 0 11.45284115098184 -26.022195372717761 0 -26.022195372717761 -146.86758066949187 0 0 0 0 31.981719703773479 -1.1510314020153203 0 -1.1510314020153203 -17.212698930377705 0 0 0 0 5.52780575606252 14.998646860987009 0 14.998646860987009 -77.413979722900734 0 0 0 0 -94.242705396085512 -394.81509297129924 0 -394.81509297129924 -54.954894798036548 0 0 0 0 543.62328498705756 -296.98584839200157 0 -296.98584839200157 -326.97431689360019 0 0 0 0 109.2987546948425 -89.21876873077872 0 -89.21876873077872 -191.41808136018517 0 0 0 0 430.74401922064135 -157.94017185467965 0 -157.94017185467965 -178.93446385986681 0 0 0 0 131.96560615178896 -128.2656792383641 0 -128.2656792383641 -71.511316758813336 0 0 0 0 92.21417014056351 80.190786135048256 0 80.190786135048256 12.128944640382542 0 0 0 0 40.264924966664694 65.827486819454293 0 65.827486819454293 -97.250268516083452 0 0 0 0 -294.51729791284015 192.67643769664892 0 192.67643769664892 -85.725644131675836 0 0 0 0 9.7258916507671529 9.1674112017744847 0 9.1674112017744847 -85.78528657541392 0 0 0 0 1.5441610700827368 -0.4133841303566328 0 -0.4133841303566328 -14.973340583633753 0 0 0 0 128.70606361837417 59.322148336623741 0 59.322148336623741 -99.764430939581189 0 0 0 0 72.875704509926436 37.009152946820109 0 37.009152946820109 -55.27566110441785 0 0 0 0 80.058370486542117 21.935485945086498 0 21.935485945086498 -100.60231267677136 0 0 0 0 375.62359005468898 421.81560725809322 0 421.81560725809322 -22.277030627396016 0 0 0 0 -0.81877216574406475 14.769947512968514 0 14.769947512968514 -64.118892424236535 0 0 0 0 26.847437465447001 44.421397462978803 0 44.421397462978803 -48.938553067697285 0 0 0 0 -288.86354820721317 656.12157212099191 0 656.12157212099191 21.605922221724541 0 0 0 0 132.96619767643278 -490.90155896661963 0 -490.90155896661963 -252.38184386410285 0 0 0 0 1496.0570191123261 1041.4718891110442 0 1041.4718891110442 879.83496218144569 0 0 0 0 457.44617656205082 -25.496725026090644 0 -25.496725026090644 -120.6329250042927 0 0 0 0 -178.01832317584194 440.63935983401871 0 440.63935983401871 410.1867414485173 0 0 0 0 91.920629225609446 152.36424962620214 0 152.36424962620214 -21.737612917644583 0 0 0 0 666.35818697098875 634.78664485269042 0 634.78664485269042 13.839943309075636 0 0 0 0 1253.9077369535298 18.85076435800147 0 18.85076435800147 -259.07102755578853 0 0 0 0 787.55023384963715 113.94932082833907 0 113.94932082833907 -277.04064989290873 0 0 0 0 712.30024539656006 116.19725337752857 0 116.19725337752857 -178.94338993107658 0 0 0 0 785.13563962814806 123.80006994796122 0 123.80006994796122 -196.58113519167637 0 0 0 0 391.08030232872989 88.486127518068997 0 88.486127518068997 -110.25016591003623 0 0 0 0 533.75909224781208 97.690159033810232 0 97.690159033810232 -116.65650712406 0 0 0 0 702.90203830475366 183.47505027602628 0 183.47505027602628 -134.57265727785125 0 0 0 0 323.13509027956752 271.08632547698608 0 271.08632547698608 27.411335732130055 0 0 0 0 227.49807441084704 56.529476325150085 0 56.529476325150085 -54.869753677206972 0 0 0 0 172.82616733503528 93.117707085087204 0 93.117707085087204 -38.539693199546264 0 0 0 0 101.56990249516093 6.0345731513559713 0 6.0345731513559713 -50.511799273838733 0 0 0 0 67.34889004426077 37.23389545981945 0 37.23389545981945 -14.252715060929859 0 0 0 0 -16.757374815744697 -21.946644842970727 0 -21.946644842970727 -40.685462219769761 0 0 0 0 65.003175580591233 -0.80760754388805367 0 -0.80760754388805367 -71.1028097870294 0 0 0 0 37.998914395859174 63.421566929223673 0 63.421566929223673 -24.597821747818671 0 0 0 0 82.124806333289598 -5.2793464591211432 0 -5.2793464591211432 16.150849239065792 0 0 0 0 232.13830847636564 32.585640977919866 0 32.585640977919866 -39.540645910385365 0 0 0 0 250.87793959106784 127.22263368466884 0 127.22263368466884 16.615790817494144 0 0 0 0 250.66339819208952 -61.205470832301899 0 -61.205470832301899 -25.178386399037208 0 0 0 0 35.322142210818129 52.895472636687828 0 52.895472636687828 18.441307624558661 0 0 0 0 310.98021872836398 -2.6391396381236518 0 -2.6391396381236518 -50.647582973663702 0 0 0 0 36.5582905850315 60.62405665621074 0 60.62405665621074 -25.950406718748127 0 0 0 0 37.432098691007866 21.082551506351734 0 21.082551506351734 4.5751735043229882 0 0 0 0 -143.0319203768413 130.36612932126889 0 130.36612932126889 -456.26121476382923 0 0 0 0 -275.92653351157787 474.08791988791472 0 474.08791988791472 -481.27842922743912 0 0 0 0 26.012876582889589 15.61773433612224 0 15.61773433612224 6.967453761396122 0 0 0 0 -118.87877507691155 584.34710166664127 0 584.34710166664127 -758.74938099136284 0 0 0 0 166.0966730057844 97.772149066888687 0 97.772149066888687 8.3554201924089284 0 0 0 0 117.62561994592397 -107.40038582936666 0 -107.40038582936666 115.44490867724471 0 0 0 0 520.98337436153088 -343.4937098348164 0 -343.4937098348164 149.65113142678706 0 0 0 0 640.68112502852455 -20.50798893741603 0 -20.50798893741603 -137.45784110089858 0 0 0 0 569.48133395964396 -202.63027711697532 0 -202.63027711697532 31.407194658288745 0 0 0 0 943.02632218212239 277.51345739830776 0 277.51345739830776 -119.99859254920824 0 0 0 0 1325.2580363367597 -79.14898388285792 0 -79.14898388285792 -142.32218994891264 0 0 0 0 843.47523042464672 20.020336183603774 0 20.020336183603774 -160.76466160136988 0 0 0 0 607.52139169599104 34.683872956885352 0 34.683872956885352 -144.48505865861716 0 0 0 0 297.88670833985088 27.9468318030913 0 27.9468318030913 -282.70858863548165 0 0 0 0 16.05846591701868 -7.4807564256020953 0 -7.4807564256020953 -99.688144292803685 0 0 0 0 39.038720248790696 -31.35851872067127 0 -31.35851872067127 0.90391941401529152 0 0 0 0 223.41596853651572 -302.74347995952303 0 -302.74347995952303 -420.531553130666 0 0 0 0 520.59869158580841 84.761151557666381 0 84.761151557666381 -51.198639172871481 0 0 0 0 -57.274255952321255 -97.961697553596423 0 -97.961697553596423 -116.19286678118806 0 0 0 0 291.2660168986913 -40.199105965224135 0 -40.199105965224135 -203.05823364637899 0 0 0 0 184.66285207576584 137.94961084263286 0 137.94961084263286 -271.54611444727016 0 0 0 0 109.44484735527658 62.210527413223645 0 62.210527413223645 -262.56181600582022 0 0 0 0 172.20051477810193 88.774091075101296 0 88.774091075101296 -397.59720754207956 0 0 0 0 96.75688941932458 259.46293401800858 0 259.46293401800858 -502.87054275637411 0 0 0 0 -58.402704152933438 364.69306809103819 0 364.69306809103819 -443.22969281248191 0 0 0 0 31.818099532742053 244.98182512623407 0 244.98182512623407 -401.86861124658753 0 0 0 0 -153.53823319170624 206.31308769970929 0 206.31308769970929 -393.21000358526362 0 0 0 0 -145.46915130483103 236.00875036163325 0 236.00875036163325 -291.70266933008497 0 0 0 0 -22.436333438352449 124.1187855838034 0 124.1187855838034 -325.81251379789319 0 0 0 0 196.73573027984821 100.1755886039391 0 100.1755886039391 -282.56588078723144 0 0 0 0 170.19886113810935 149.90477330878457 0 149.90477330878457 -382.53017810845267 0 0 0 0 189.83699486451223 82.591533116759592 0 82.591533116759592 -325.77380804273344 0 0 0 0 95.823370528465603 145.29012203159209 0 145.29012203159209 -257.84276343495003 0 0 0 0 20.904788477811962 201.8675940953799 0 201.8675940953799 -309.88808762776898 0 0 0 0 92.293337035080185 136.82786780352581 0 136.82786780352581 -278.0318962658821 0 0 0 0 142.21094311976776 106.40205152950421 0 106.40205152950421 -247.84114425345251 0 0 0 0 56.453782201754166 54.192242912038822 0 54.192242912038822 31.866167908801977 0 0 0 0 46.509086929960176 101.25672365345599 0 101.25672365345599 -162.5896700955509 0 0 0 0 88.904285976550455 104.05080063590776 0 104.05080063590776 29.414096573478673 0 0 0 0 113.68022137715889 106.38280987038524 0 106.38280987038524 -242.0083010628332 0 0 0 0 101.43691461739945 126.73157832052311 0 126.73157832052311 -226.67956070342188 0 0 0 0 132.00199802563293 141.24668157921587 0 141.24668157921587 -258.73538346186706 0 0 0 0 88.727372832945548 141.71296693630939 0 141.71296693630939 -231.34848497858184 0 0 0 0 89.15691009076545 143.39181495736557 0 143.39181495736557 -224.85764837972238 0 0 0 0 71.066971406224184 171.27259640911871 0 171.27259640911871 -267.31645975565061 0 0 0 0 42.704517726670019 143.65481324603024 0 143.65481324603024 -194.17840287055878 0 0 0 0 27.8256964799657 163.78788726375342 0 163.78788726375342 -181.12949712800764 0 0 0 0 30.460428129998036 173.06740098386217 0 173.06740098386217 -204.32459832783934 0 0 0 0 62.638711230596527 145.94843814694104 0 145.94843814694104 -215.95613304013568 0 0 0 0 80.148351898649707 129.28130367378253 0 129.28130367378253 -206.21776049590699 0 0 0 0 62.517508921213448 143.99886035634336 0 143.99886035634336 -214.98172319085279 0 0 0 0 82.396270515033393 92.347326657716167 0 92.347326657716167 -234.2569766466695 0 0 0 0 88.335771476646187 105.13773749056236 0 105.13773749056236 -220.19118614623494 0 0 0 0 13.148575047272715 16.64242600273684 0 16.64242600273684 -46.165065218802091 0 0 0 0 -19.346503087537712 19.807180368150057 0 19.807180368150057 -10.431348007790007 0 0 0 0 99.892870649928227 132.09743050061843 0 132.09743050061843 65.824224982654414 0 0 0 0 -75.871725297998637 174.56563719864062 0 174.56563719864062 -76.517067098087864 0 0 0 0 4.6863960467347567 3.2818003133727132 0 3.2818003133727132 1.8225154956260106 0 0 0 0 -232.66704052130808 489.01821076104716 0 489.01821076104716 -55.952049804523995 0 0 0 0 6.5337643558159471 245.88935585097715 0 245.88935585097715 -359.2658006850761 0 0 0 0 51.05896933042095 79.437927384391514 0 79.437927384391514 118.66251484843633 0 0 0 0 242.06486206720001 64.013890358413846 0 64.013890358413846 31.680477453523054 0 0 0 0 84.42409196641529 -40.229066103374862 0 -40.229066103374862 -139.14988789993367 0 0 0 0 -0.35478953816345893 142.19624083387134 0 142.19624083387134 -68.869839878832863 0 0 0 0 0.94004086708957857 19.438659647997838 0 19.438659647997838 2.7666393437136918 0 0 0 0 49.173676227203032 44.078195997688567 0 44.078195997688567 29.301065184441541 0 0 0 0 -223.39840461003769 -176.745554981846 0 -176.745554981846 -112.37726464258861 0 0 0 0 26.186060512089171 -152.3041428500328 0 -152.3041428500328 -113.15965177228645 0 0 0 0 -71.333129873761209 -116.56575380932372 0 -116.56575380932372 -100.99180720654113 0 0 0 0 -48.204559127188986 3.8018253732625453 0 3.8018253732625453 53.232423321711394 0 0 0 0 116.63175316673005 79.158408494551622 0 79.158408494551622 -250.33541344871355 0 0 0 0 94.775758877047338 74.047954378755094 0 74.047954378755094 -244.10774448834854 0 0 0 0 109.57606761237548 24.700312118993679 0 24.700312118993679 -28.886134924322505 0 0 0 0 18.507633965590159 8.0985245753999209 0 8.0985245753999209 -3.2198676201175331 0 0 0 0 51.441142824473786 8.5373751473315451 0 8.5373751473315451 -64.945101168675706 0 0 0 0 30.6489529536193 88.263243264076664 0 88.263243264076664 43.664357181398373 0 0 0 0 109.12000079011341 -117.61180384707518 0 -117.61180384707518 2.8538215496264456 0 0 0 0 1008.9818689086896 -238.64924026817971 0 -238.64924026817971 -300.20788424032799 0 0 0 0 588.87195054945187 128.18262340523142 0 128.18262340523142 -37.158372449215676 0 0 0 0 630.23532219987828 -215.57574157400995 0 -215.57574157400995 -49.174027101307729 0 0 0 0 447.73883938256768 51.408892906430992 0 51.408892906430992 -211.05639145186797 0 0 0 0 2109.8284525055424 191.48800629587913 0 191.48800629587913 -504.83102783403956 0 0 0 0 8.8370256888746326 -0.21207154952840312 0 -0.21207154952840312 -1.2503817297229496 0 0 0 0 1587.4415100741817 1046.5186156121681 0 1046.5186156121681 621.91402519593248 0 0 0 0 503.14613662748889 -464.63306201377327 0 -464.63306201377327 -764.52671556871155 0 0 0 0 -172.90908059732283 98.992810070762289 0 98.992810070762289 -214.29359777809441 0 0 0 0 344.22455338714281 121.79144761943826 0 121.79144761943826 90.99484274122733 0 0 0 0 640.73177610183484 469.03273435129631 0 469.03273435129631 494.47178294200103 0 0 0 0 365.36814309642068 175.14835333822521 0 175.14835333822521 200.97733602001972 0 0 0 0 -318.75161467237922 205.84087519193372 0 205.84087519193372 -482.31569872926411 0 0 0 0 -5.1157029644771228 2.3962039739501506 0 2.3962039739501506 -1.8809366331077939 0 0 0 0 81.253347385965753 49.736073592750472 0 49.736073592750472 53.658050192192604 0 0 0 0 21.441903576283948 -136.34468418260803 0 -136.34468418260803 -427.90981259765613 0 0 0 0 -7.2546020747395232 -15.340838000471194 0 -15.340838000471194 -393.99157193868814 0 0 0 0 57.600652402652486 -45.443453340822089 0 -45.443453340822089 -500.66373002309138 0 0 0 0 16.254910033865599 -151.49523929377756 0 -151.49523929377756 -211.27774995357322 0 0 0 0 112.78361287070584 17.1884592407132 0 17.1884592407132 17.026414368086989 0 0 0 0 19.929659877585493 -1.3284733630641909 0 -1.3284733630641909 -0.95910312637123951 0 0 0 0 230.16722159966594 250.48485837268527 0 250.48485837268527 257.19768387137447 0 0 0 0 -44.365676951565547 -107.12382993912979 0 -107.12382993912979 -162.51277134741031 0 0 0 0 69.217317901959177 163.58039836152784 0 163.58039836152784 -30.475976572615764 0 0 0 0 149.63059631641227 300.83306999020715 0 300.83306999020715 -292.10706392544489 0 0 0 0 149.7180528180761 56.066168090427709 0 56.066168090427709 -31.43546671999502 0 0 0 0 90.8918099307798 23.672129943764503 0 23.672129943764503 -72.426210293219455 0 0 0 0 132.35336277085662 278.31131010010677 0 278.31131010010677 -0.18197622933439561 0 0 0 0 329.31819714359881 -28.628509587551889 0 -28.628509587551889 -96.473395568744309 0 0 0 0 257.23692538323837 39.746542002357074 0 39.746542002357074 -70.987164426530427 0 0 0 0 73.289226115623023 254.17809498422503 0 254.17809498422503 -285.75173228805943 0 0 0 0 529.34112834626285 354.46867154183929 0 354.46867154183929 100.5486016824716 0 0 0 0 761.92969967017416 -28.147422444611948 0 -28.147422444611948 -255.89764913964154 0 0 0 0 490.49107161452412 277.06481738830917 0 277.06481738830917 -48.990498610934083 0 0 0 0 312.0156498910801 240.46944361287387 0 240.46944361287387 -325.73048910486796 0 0 0 0 283.13364324527356 97.921430532410795 0 97.921430532410795 -190.54385422184532 0 0 0 0 453.25688689364324 0.79245577525534827 0 0.79245577525534827 -264.45607243865743 0 0 0 0 255.00501886218404 45.944435384955824 0 45.944435384955824 -67.347943673782481 0 0 0 0 322.04433830322841 66.506435853501898 0 66.506435853501898 -188.04298988209393 0 0 0 0 220.98267819043031 55.170419179123201 0 55.170419179123201 -58.032087520336972 0 0 0 0 359.35874143957335 8.2978611151793302 0 8.2978611151793302 -264.68582757856711 0 0 0 0 255.89513917443387 48.258032638630617 0 48.258032638630617 -68.111759435086213 0 0 0 0 269.85761282677538 154.53104959263965 0 154.53104959263965 -245.44037472697164 0 0 0 0 364.94648086549387 -0.53400447269586948 0 -0.53400447269586948 -134.80823112380858 0 0 0 0 309.09566952893852 60.226818517657421 0 60.226818517657421 -69.502868069354008 0 0 0 0 396.17783433029126 56.431246716289024 0 56.431246716289024 -36.578325997848424 0 0 0 0 370.50045454630799 -29.805973437716375 0 -29.805973437716375 34.62579568900037 0 0 0 0 499.53518866783998 106.89881657100977 0 106.89881657100977 149.08745646717534 0 0 0 0 303.14740607068688 -9.4893772055638692 0 -9.4893772055638692 51.980105353640283 0 0 0 0 390.76305551231326 5.6885564606682237 0 5.6885564606682237 -70.88936486686211 0 0 0 0 340.32935487950817 -52.555856174503333 0 -52.555856174503333 114.85825413347084 0 0 0 0 351.27305463382982 -80.732675583918081 0 -80.732675583918081 38.867888557731931 0 0 0 0 362.20863512609071 -109.86711299403714 0 -109.86711299403714 258.43229893730495 0 0 0 0 378.33371587434885 83.877405808410003 0 83.877405808410003 -117.05158526459581 0 0 0 0 226.65377382797669 21.734672979907373 0 21.734672979907373 -122.20958299015638 0 0 0 0 343.87404120950487 -67.230738835201009 0 -67.230738835201009 6.5271080750280817 0 0 0 0 340.11896322693065 23.682698307326973 0 23.682698307326973 -120.95946332515541 0 0 0 0 319.98054586404623 -35.107766078614532 0 -35.107766078614532 57.888912821343183 0 0 0 0 354.32511772236739 -99.821875169858686 0 -99.821875169858686 98.289958403612218 0 0 0 0 697.04942625119702 -81.936322619116254 0 -81.936322619116254 -148.94073045659752 0 0 0 0 300.07296974348856 110.03496931568043 0 110.03496931568043 -99.38437320646517 0 0 0 0 355.06531453516163 -130.13963181461531 0 -130.13963181461531 348.67953102508363 0 0 0 0 545.41998358833791 152.83728211024686 0 152.83728211024686 195.62245287742735 0 0 0 0 426.58300165653554 -46.715225633618502 0 -46.715225633618502 22.966794994870725 0 0 0 0 414.07769952273293 -31.869194864332712 0 -31.869194864332712 10.011329724664392 0 0 0 0 383.20678596102607 -36.358037829632394 0 -36.358037829632394 25.17990590752288 0 0 0 0 409.55936906722172 10.052403279545615 0 10.052403279545615 91.732769891740645 0 0 0 0 341.27492612685762 -44.496202171145114 0 -44.496202171145114 178.82791596050629 0 0 0 0 388.27040524191762 -106.98507736676311 0 -106.98507736676311 108.8292397109177 0 0 0 0 336.67584726028701 -67.192317733305572 0 -67.192317733305572 82.67033780724887 0 0 0 0 422.80389557767398 -72.958730835730648 0 -72.958730835730648 -0.56160870550229447 0 0 0 0 394.52426149279972 -20.330488451891142 0 -20.330488451891142 21.270934408940775 0 0 0 0 406.64116060024662 -27.826171820130639 0 -27.826171820130639 23.105260019926391 0 0 0 0 366.53432407108448 -31.616933686275843 0 -31.616933686275843 88.259781454470613 0 0 0 0 336.00854187868754 -2.2241525916015235 0 -2.2241525916015235 23.5190853871336 0 0 0 0 374.86298125314806 35.219130303732072 0 35.219130303732072 48.627167205652995 0 0 0 0 285.5988955459261 -57.997080215272035 0 -57.997080215272035 22.339201206711778 0 0 0 0 364.67964418707516 -24.295613896311352 0 -24.295613896311352 32.622542767632694 0 0 0 0 596.88568557062536 -143.004267429435 0 -143.004267429435 -297.42950178515912 0 0 0 0 304.55133227670967 -113.46690846203843 0 -113.46690846203843 -1.1170810287516861 0 0 0 0 67.690893069916825 7.71349858479212 0 7.71349858479212 0.19758600256878012 0 0 0 0 381.94898325720283 -123.65406028636289 0 -123.65406028636289 -14.287613606662489 0 0 0 0 353.0018589741934 -101.86180831833212 0 -101.86180831833212 -15.351294745900304 0 0 0 0 338.12439929013158 -42.976631966858804 0 -42.976631966858804 34.232880525503788 0 0 0 0 162.64478561613851 12.625884106489366 0 12.625884106489366 33.914724316330648 0 0 0 0 276.19731248089556 77.609154815640977 0 77.609154815640977 -149.00580622518373 0 0 0 0 2.649365599797755 3.5253288795714717 0 3.5253288795714717 3.5703203734466662 0 0 0 0 211.53101231534583 -54.420635681162821 0 -54.420635681162821 16.77476821723576 0 0 0 0 319.34247884817501 -83.193782920280512 0 -83.193782920280512 -20.663291017343909 0 0 0 0 226.67167075862562 -108.29676918449331 0 -108.29676918449331 -26.885519750596359 0 0 0 0 405.25389587668542 -301.95036045579832 0 -301.95036045579832 164.14987520925933 0 0 0 0 24.100869869976602 12.87971076121298 0 12.87971076121298 1.3284675458636297 0 0 0 0 168.51260544153138 -81.899037644642931 0 -81.899037644642931 236.95878907148563 0 0 0 0 128.50705075860424 -407.97201827788103 0 -407.97201827788103 700.14691559457424 0 0 0 0 1.5402805307507599 1.8474443682302191 0 1.8474443682302191 2.883497772801924 0 0 0 0 776.65909555341477 -131.58126749644589 0 -131.58126749644589 -340.30251001276883 0 0 0 0 401.97465820500656 -68.271848586639862 0 -68.271848586639862 0.067559566942691163 0 0 0 0 600.33935257047051 -5.8402864339345797 0 -5.8402864339345797 6.4706302425706781 0 0 0 0 434.90614082497541 98.478658953475588 0 98.478658953475588 36.957662322749911 0 0 0 0 335.4923848244689 66.125021219470455 0 66.125021219470455 90.633863935705904 0 0 0 0 319.99542625066078 22.593940893113086 0 22.593940893113086 46.986383141634064 0 0 0 0 377.68464792613986 43.012879925060361 0 43.012879925060361 -8.5347206503010966 0 0 0 0 329.67467260234025 47.229100346275118 0 47.229100346275118 -3.9075463578733434 0 0 0 0 332.2209619323994 -23.348930504247619 0 -23.348930504247619 -17.474269017448933 0 0 0 0 431.66522629073643 28.816789531403629 0 28.816789531403629 -40.248869205432129 0 0 0 0 607.61972253556178 7.0396236990873149 0 7.0396236990873149 -108.29456563281678 0 0 0 0 266.38536517095599 96.200085088119977 0 96.200085088119977 -36.358617313470859 0 0 0 0 64.200714763236647 32.414639477252877 0 32.414639477252877 4.7407093799893119 0 0 0 0 233.13850454408384 17.941479880456427 0 17.941479880456427 -4.9769479363330902 0 0 0 0 210.11636089616036 -17.290894338678527 0 -17.290894338678527 -12.106921440202314 0 0 0 0 264.18978124466503 -77.272096656980921 0 -77.272096656980921 19.655795997133083 0 0 0 0 336.46098365204671 -128.96576215095865 0 -128.96576215095865 21.676615874438625 0 0 0 0 1.604542358020117 1.5969793601816527 0 1.5969793601816527 0.67439638219155285 0 0 0 0 74.436874102504589 -7.9557329599660989 0 -7.9557329599660989 -97.737801267696341 0 0 0 0 442.70790265129017 -129.57186835779112 0 -129.57186835779112 -52.891071069025202 0 0 0 0 281.84295733745557 19.514215641179817 0 19.514215641179817 -180.94476210230459 0 0 0 0 368.14732981163525 -193.56991586008644 0 -193.56991586008644 -136.79069659131346 0 0 0 0 38.93792844905537 -3.4910004950417708 0 -3.4910004950417708 -12.094948559790296 0 0 0 0 91.36096749897888 -65.479360956560413 0 -65.479360956560413 -241.88877615361889 0 0 0 0 108.71138114245832 63.301310143057435 0 63.301310143057435 -75.793583606875472 0 0 0 0 117.41832187214141 -45.685184254783053 0 -45.685184254783053 -235.14028932494512 0 0 0 0 14.63616452474751 -20.584676558819542 0 -20.584676558819542 1.4591852297551502 0 0 0 0 46.174918119573704 -101.32691200032241 0 -101.32691200032241 -102.21203789328865 0 0 0 0 91.287701674680648 -156.25180727347743 0 -156.25180727347743 -41.894254412567534 0 0 0 0 -51.361675290228959 -139.03161207341964 0 -139.03161207341964 131.91587333307132 0 0 0 0 46.232358591892989 -728.42780438263981 0 -728.42780438263981 82.475006875567487 0 0 0 0 328.71712071690126 -272.28850231279102 0 -272.28850231279102 -742.0650847760844 0 0 0 0 147.66828617608746 -89.482248531609287 0 -89.482248531609287 -35.369696395532365 0 0 0 0 529.69417644347732 -190.98463499544732 0 -190.98463499544732 119.13467542687067 0 0 0 0 4.5716724554325552 3.126638016325483 0 3.126638016325483 0.16347769606806128 0 0 0 0 204.92067435577906 202.94586945388278 0 202.94586945388278 -102.90543505211372 0 0 0 0 295.77772471696608 -353.12125405168717 0 -353.12125405168717 401.66213070300574 0 0 0 0 113.84898211446125 -74.474416082473908 0 -74.474416082473908 -16.145130971694016 0 0 0 0 662.97303012300654 -47.587654097495488 0 -47.587654097495488 -73.160870307156074 0 0 0 0 442.69849113287455 -137.31599012313109 0 -137.31599012313109 -109.31132596673933 0 0 0 0 77.157101537944982 -46.725152853704458 0 -46.725152853704458 -78.113112820286915 0 0 0 0 205.06518581592044 -301.7936081548059 0 -301.7936081548059 -146.65348609338798 0 0 0 0 112.1279775668642 -67.593649996501568 0 -67.593649996501568 -19.302413706802689 0 0 0 0 205.37804000993467 -39.969539648150267 0 -39.969539648150267 -102.01887925079245 0 0 0 0 108.85088279127376 -44.230957053394832 0 -44.230957053394832 -80.389475229745585 0 0 0 0 -30.962132515806843 -23.449284825644696 0 -23.449284825644696 2.7217821171448406 0 0 0 0 -345.61256761830009 -19.504961114911566 0 -19.504961114911566 81.950065857114623 0 0 0 0 132.14266917542801 -95.071532106277559 0 -95.071532106277559 -42.207180417128228 0 0 0 0 -67.542238408897902 -219.4354515142204 0 -219.4354515142204 -20.934542262255491 0 0 0 0 16.222487461978744 -125.55996820249675 0 -125.55996820249675 22.048556307034687 0 0 0 0 29.332754715112969 -92.129083081796125 0 -92.129083081796125 -133.95505468735792 0 0 0 0 61.870803372245163 -34.230211245532715 0 -34.230211245532715 -33.273258332065872 0 0 0 0 692.36673601517577 -65.616863723552115 0 -65.616863723552115 -440.982708139225 0 0 0 0 -31.440728334971936 -194.29326552030216 0 -194.29326552030216 -101.14690970547099 0 0 0 0 39.585830633373973 -21.976805782184243 0 -21.976805782184243 12.248748411413224 0 0 0 0 852.47027272982814 393.12012241681441 0 393.12012241681441 -302.00479912198898 0 0 0 0 749.22637473996292 318.90815686913948 0 318.90815686913948 -128.50592673843494 0 0 0 0 14.738840042676316 -7.4033593228022312 0 -7.4033593228022312 4.0506254301518396 0 0 0 0 1772.6140962612553 830.30263593883683 0 830.30263593883683 102.96421415514124 0 0 0 0 -64.693867242567649 -394.7394109665629 0 -394.7394109665629 492.2260997007179 0 0 0 0 -297.14929662755458 -165.05734517032397 0 -165.05734517032397 690.03471025308681 0 0 0 0 571.30672747366771 696.11249544619568 0 696.11249544619568 1818.9705023527822 0 0 0 0 508.30258325093018 135.85522950034465 0 135.85522950034465 -505.19076468274216 0 0 0 0 1514.9390818581451 -413.66974159172241 0 -413.66974159172241 -119.03570063154439 0 0 0 0 352.3900881635418 244.21554142806599 0 244.21554142806599 -117.53897817820689 0 0 0 0 786.10713792946808 86.10209822238528 0 86.10209822238528 -201.47214907610942 0 0 0 0 72.191750867417795 335.82444354951804 0 335.82444354951804 -122.24939342183859 0 0 0 0 -54.508047470149222 209.51863267751423 0 209.51863267751423 55.33297714055152 0 0 0 0 46.422689600125523 408.54635632436998 0 408.54635632436998 134.91886345447529 0 0 0 0 307.27902685404297 157.98457723254432 0 157.98457723254432 39.023349182023594 0 0 0 0 -615.45341229021142 110.96669866889533 0 110.96669866889533 638.22248811108147 0 0 0 0 53.186328596822044 134.53276226353321 0 134.53276226353321 38.086896342909114 0 0 0 0 -52.926706088784158 339.34354945696396 0 339.34354945696396 94.584699429240572 0 0 0 0 80.155276330653649 136.6798132228256 0 136.6798132228256 43.814759901774366 0 0 0 0 -83.163968220236711 562.35734406275878 0 562.35734406275878 522.1103885909688 0 0 0 0 -139.86063718576588 86.382654267266844 0 86.382654267266844 296.1683097076384 0 0 0 0 317.96118779905919 120.48995878813093 0 120.48995878813093 33.02198246126045 0 0 0 0 259.40934481192789 -80.950534296092883 0 -80.950534296092883 105.52283190060461 0 0 0 0 307.94991735286476 185.47534276707484 0 185.47534276707484 176.08276094533358 0 0 0 0 -42.198975370629341 85.367588190107199 0 85.367588190107199 50.14350532528988 0 0 0 0 -177.75644661135766 161.19204464308768 0 161.19204464308768 159.43007765437142 0 0 0 0 41.301405400349125 23.348863265760556 0 23.348863265760556 4.5218852152848044 0 0 0 0 -16.449122666133007 -36.882721444741037 0 -36.882721444741037 -61.19273232795058 0 0 0 0 296.46070803875773 -58.547524474175589 0 -58.547524474175589 -81.098133911847071 0 0 0 0 263.61947365073507 -13.198039735571971 0 -13.198039735571971 -22.195688920322141 0 0 0 0 257.8851518924057 -480.55617380537296 0 -480.55617380537296 -114.60391447153233 0 0 0 0 315.30503655400787 -88.802515541613275 0 -88.802515541613275 -50.097737054304162 0 0 0 0 281.77486023825475 -9.2947481323616969 0 -9.2947481323616969 -25.290565819226483 0 0 0 0 367.12926846853588 -46.278421764593077 0 -46.278421764593077 -231.40367434224754 0 0 0 0 296.97376592407272 -58.500472519685445 0 -58.500472519685445 -95.395117016427321 0 0 0 0 322.67862606345079 -28.524907036699005 0 -28.524907036699005 -62.157554467969021 0 0 0 0 529.937483491085 118.03590973881364 0 118.03590973881364 -282.37728226404488 0 0 0 0 -267.15877982226084 166.2861250279293 0 166.2861250279293 -460.73527959978674 0 0 0 0 30.585988477774293 28.740369107731738 0 28.740369107731738 -9.1585664625069825 0 0 0 0 395.55359329827479 -787.72249978585023 0 -787.72249978585023 -1510.3067649530312 0 0 0 0 72.17233722799574 -353.46893549927518 0 -353.46893549927518 491.50497291155625 0 0 0 0 2527.6806588436884 -824.57476040808979 0 -824.57476040808979 -120.31398552067003 0 0 0 0 1611.2530745442054 591.99885239385003 0 591.99885239385003 -903.60456512521705 0 0 0 0 4.5973317134786384 -23.44462892473652 0 -23.44462892473652 -6.3461405977930259 0 0 0 0 78.122161589184543 546.17044259391332 0 546.17044259391332 -96.96733271062476 0 0 0 0 -65.724475988956328 9.708150002885759 0 9.708150002885759 24.040384846062352 0 0 0 0 -34.670112606986095 27.344441324622153 0 27.344441324622153 33.078519099529331 0 0 0 0 1.0771411459127482 4.6437583841121715 0 4.6437583841121715 16.54439551100419 0 0 0 0 197.84654612020415 -30.28644748671195 0 -30.28644748671195 7.8305468475264206 0 0 0 0 288.40178524975772 -31.160479345154272 0 -31.160479345154272 -15.882803120847711 0 0 0 0 374.04040389239537 26.980267301702042 0 26.980267301702042 106.8539971353116 0 0 0 0 315.29863157908926 -101.47882412060471 0 -101.47882412060471 9.7704823204639979 0 0 0 0 348.14612412876284 -50.471997908110779 0 -50.471997908110779 -46.632149360713811 0 0 0 0 594.46720241154901 -298.89900002911645 0 -298.89900002911645 157.04304799737929 0 0 0 0 430.42118216003132 -71.127665224935754 0 -71.127665224935754 -61.120717467589202 0 0 0 0 367.75069015116128 53.01823649548669 0 53.01823649548669 -114.56256142293023 0 0 0 0 413.35604190877848 133.79589685358224 0 133.79589685358224 -335.10826791269119 0 0 0 0 841.22297552660416 62.299879223523931 0 62.299879223523931 -144.08278246614236 0 0 0 0 415.52493282003297 333.34715821151303 0 333.34715821151303 320.80665784155826 0 0 0 0 1371.4836801709785 83.532377501336669 0 83.532377501336669 93.853976458678517 0 0 0 0 1553.69166277265 584.66941480843002 0 584.66941480843002 95.862436990126298 0 0 0 0 356.36986728047839 -111.49475478871318 0 -111.49475478871318 533.67924603445135 0 0 0 0 548.63261382102314 12.729707306868477 0 12.729707306868477 154.27659695524562 0 0 0 0 1136.4682862352849 423.55071875873 0 423.55071875873 6.0148977127537364 0 0 0 0 401.45363945177598 366.13981669420355 0 366.13981669420355 88.760844785420886 0 0 0 0 1177.8180579562104 359.8918619168935 0 359.8918619168935 68.869861143986782 0 0 0 0 982.25679908755501 141.35621499474382 0 141.35621499474382 -55.129060124738317 0 0 0 0 11.169833975055987 -7.782099672562893 0 -7.782099672562893 9.0131248531400274 0 0 0 0 -116.0974991829687 -154.47696934265605 0 -154.47696934265605 -94.905004466216724 0 0 0 0 100.52041361271142 -58.902807409510388 0 -58.902807409510388 -155.2421628179909 0 0 0 0 55.314740529242727 -185.09404867129797 0 -185.09404867129797 252.38515964040198 0 0 0 0 4.5366462337638449 -4.0075313669349004 0 -4.0075313669349004 1.8823827577782914 0 0 0 0 -284.62245638357695 -94.117904695634024 0 -94.117904695634024 259.12161080626902 0 0 0 0 218.89247490237315 139.91233628093164 0 139.91233628093164 175.96698492260293 0 0 0 0 0.26385905503652463 0.98424113816726244 0 0.98424113816726244 6.1395460347728879 0 0 0 0 59.47498651686692 -148.93974501170851 0 -148.93974501170851 320.96435417491648 0 0 0 0 138.48543146335351 149.35830974323198 0 149.35830974323198 -374.75224683676163 0 0 0 0 -32.683346675349412 -2.3916153663840305 0 -2.3916153663840305 32.891012847494494 0 0 0 0 13.270476295655923 11.955515525201978 0 11.955515525201978 19.806817552219453 0 0 0 0 3.0029014026449659 46.313205304802068 0 46.313205304802068 4.3432426079452853 0 0 0 0 646.89046955540721 -102.90931496913618 0 -102.90931496913618 -377.54040160564728 0 0 0 0 -7.0415589943913801 55.420220806083989 0 55.420220806083989 -1.0781711299547823 0 0 0 0 13.362136842650216 54.153339553823571 0 54.153339553823571 -2.0935811489739535 0 0 0 0 -3.6540723437401539 54.50904504168534 0 54.50904504168534 -0.94939260905630363 0 0 0 0 -1.3687067254468275 55.728409829528573 0 55.728409829528573 -1.5354172509750015 0 0 0 0 -13.384894984877974 49.039627519256783 0 49.039627519256783 0.84883188583899027 0 0 0 0 3.6516433034730653 47.401377680207588 0 47.401377680207588 0.77491032819125394 0 0 0 0 -306.10619153579182 337.22282349581519 0 337.22282349581519 218.9099431475006 0 0 0 0 16.295814584217169 18.261454391241752 0 18.261454391241752 18.225301412048456 0 0 0 0 -23.679431100261809 -21.030593816507462 0 -21.030593816507462 37.311912823451166 0 0 0 0 2.8640580996310838 9.6622564342654655 0 9.6622564342654655 1.1788563298640264 0 0 0 0 38.892203001732923 -8.96598773956066 0 -8.96598773956066 35.422548959710184 0 0 0 0 -40.608248639531666 98.918772645313766 0 98.918772645313766 280.57037495818986 0 0 0 0 107.39954438799032 179.06157183829055 0 179.06157183829055 304.9600517219119 0 0 0 0 -131.68102652489279 139.44903700195255 0 139.44903700195255 280.34305820995723 0 0 0 0 156.3616662571003 5.9623797548265429 0 5.9623797548265429 -64.752214140229626 0 0 0 0 5.3500121437709822 42.160766606641346 0 42.160766606641346 5.4657956911287329 0 0 0 0 32.731390911068047 21.970905588456276 0 21.970905588456276 2.5031262683660316 0 0 0 0 -8.6255757275157521 72.243966637417543 0 72.243966637417543 -14.2496481409853 0 0 0 0 -13.565396255387896 84.878846289451758 0 84.878846289451758 -50.334561695117145 0 0 0 0 26.189382950611616 51.745638949170939 0 51.745638949170939 -22.96191402576369 0 0 0 0 -93.401306293699236 -780.47416326151688 0 -780.47416326151688 263.24238239260922 0 0 0 0 8.8521408418317549 -12.259010933235615 0 -12.259010933235615 25.624240469199723 0 0 0 0 -169.22462460159022 174.59939976806345 0 174.59939976806345 -21.222214296780294 0 0 0 0 -196.92511366120601 35.852984427635647 0 35.852984427635647 41.615004070745272 0 0 0 0 -19.289185155457744 73.283335295942379 0 73.283335295942379 -7.9549429844555561 0 0 0 0 -30.902213053181185 48.475997565601574 0 48.475997565601574 11.063022702445778 0 0 0 0 -66.389308915021047 73.068042649357267 0 73.068042649357267 1.7661105002334807 0 0 0 0 -91.6906595272917 6.2841645379343163 0 6.2841645379343163 34.554104247528812 0 0 0 0 22.264567584642919 212.37337068872148 0 212.37337068872148 -188.46115566664594 0 0 0 0 36.689403450875034 -414.39533335085616 0 -414.39533335085616 42.403662635323599 0 0 0 0 -302.42227128334343 576.51035737928305 0 576.51035737928305 1026.1550873796295 0 0 0 0 12.393834472632079 1090.2503294697708 0 1090.2503294697708 1594.5143025460256 0 0 0 0 1984.8652682709028 462.61321641619247 0 462.61321641619247 -305.8521017295825 0 0 0 0 1503.5486571726578 -1208.9503318365496 0 -1208.9503318365496 91.105434903285641 0 0 0 0 46.942200664989599 888.56225015252255 0 888.56225015252255 -189.87644542446651 0 0 0 0 2.7551406918133736 -2.4554486751687001 0 -2.4554486751687001 8.7831290939444351 0 0 0 0 1817.1464559414117 -70.128769377310164 0 -70.128769377310164 -2.1167390797400003 0 0 0 0 239.52251258511569 216.19355808826367 0 216.19355808826367 388.21391354416301 0 0 0 0 1245.298640837319 751.01908681971008 0 751.01908681971008 88.013932051679149 0 0 0 0 -12.584141527622251 147.53043377534323 0 147.53043377534323 -0.6332802071410697 0 0 0 0 440.20089258399776 30.981095382675676 0 30.981095382675676 -40.725620286648336 0 0 0 0 8.8537419116940459 -3.8124683085437248 0 -3.8124683085437248 -3.0900017867989931 0 0 0 0 28.000926616446392 -10.348903214097103 0 -10.348903214097103 1.03741224707084 0 0 0 0 1438.2779712954377 812.0915667399322 0 812.0915667399322 509.16555524509204 0 0 0 0 404.93157696462549 -392.46141720485866 0 -392.46141720485866 471.10529716603924 0 0 0 0 37.67405070992163 -67.662033019263845 0 -67.662033019263845 261.37175060396476 0 0 0 0 147.7038377000099 -152.76964573979694 0 -152.76964573979694 62.179325565091858 0 0 0 0 391.4343974383255 -283.24214057439576 0 -283.24214057439576 78.373345526255434 0 0 0 0 396.59036829577599 -450.80391175915065 0 -450.80391175915065 368.71006804633635 0 0 0 0 873.09049936444899 -296.82006170804561 0 -296.82006170804561 -126.98490571389084 0 0 0 0 501.35371574448436 -129.48501006458082 0 -129.48501006458082 -195.22697224578224 0 0 0 0 435.47624679107059 -191.22110665946803 0 -191.22110665946803 -34.451845522889926 0 0 0 0 431.32609566750756 -100.50584120961094 0 -100.50584120961094 -179.38364672557873 0 0 0 0 463.34253536563119 -94.364991461210593 0 -94.364991461210593 -189.60365781376277 0 0 0 0 532.48557900040942 -173.52684148209391 0 -173.52684148209391 -148.81201665178378 0 0 0 0 606.19419877369182 -101.51162651014602 0 -101.51162651014602 -228.74626221806284 0 0 0 0 386.2655146621255 54.05718417116077 0 54.05718417116077 -198.03242275102821 0 0 0 0 422.59089339387174 11.9468100467152 0 11.9468100467152 -293.31802048194004 0 0 0 0 321.18238542055769 167.21112715407071 0 167.21112715407071 -261.20925004115816 0 0 0 0 278.03916672161722 204.96294836206471 0 204.96294836206471 -280.62417330459175 0 0 0 0 554.7762553974203 129.05630858604172 0 129.05630858604172 -367.65484082112744 0 0 0 0 584.91938416865924 148.39570782487135 0 148.39570782487135 -417.83283100915651 0 0 0 0 1108.4967941333744 -45.454630595872004 0 -45.454630595872004 -408.1437676239957 0 0 0 0 2096.231266958137 -442.60138190135876 0 -442.60138190135876 -59.973019194319932 0 0 0 0 722.50598967833957 -163.85942073241222 0 -163.85942073241222 -83.078900881428126 0 0 0 0 1489.2062723243953 1128.0859643879176 0 1128.0859643879176 477.01968012188445 0 0 0 0 2.8200263689551264 -6.2903012115942687 0 -6.2903012115942687 12.061715790727661 0 0 0 0 -552.31817669165503 -293.06025111396229 0 -293.06025111396229 334.20312510591611 0 0 0 0 -389.78658736645775 993.68033636944006 0 993.68033636944006 751.50484437982959 0 0 0 0 319.04391085348107 359.16705983696738 0 359.16705983696738 -25.31754392390576 0 0 0 0 83.067187684293458 793.64156432245363 0 793.64156432245363 538.75867274486882 0 0 0 0 -854.50803435816215 -15.098424288615206 0 -15.098424288615206 -103.78536922897183 0 0 0 0 -1788.6013624348161 1382.8732694702867 0 1382.8732694702867 902.12301414959802 0 0 0 0 1421.8597667608847 -750.25534186198638 0 -750.25534186198638 -963.72169333438796 0 0 0 0 803.0483511141183 540.37112774673733 0 540.37112774673733 -312.84767084429041 0 0 0 0 121.68962909585753 323.68664562677441 0 323.68664562677441 -943.30867621841026 0 0 0 0 121.23581251153155 332.94166078626949 0 332.94166078626949 -297.55222153079012 0 0 0 0 -556.43258439775423 324.51111023088151 0 324.51111023088151 -71.296050507578911 0 0 0 0 34.82415514512104 427.50113100009912 0 427.50113100009912 -327.01545541506675 0 0 0 0 624.17557834438185 359.90122562929446 0 359.90122562929446 -543.79285928868194 0 0 0 0 35.26228846010963 423.00496035350989 0 423.00496035350989 -295.4373010298732 0 0 0 0 35.383100073392285 17.070070174029134 0 17.070070174029134 -10.360946482476422 0 0 0 0 272.11936282089482 301.67766211442949 0 301.67766211442949 -260.40925349815006 0 0 0 0 -121.01986815415694 316.69640072444327 0 316.69640072444327 -170.44937943430887 0 0 0 0 -74.439374751716969 122.34838330435196 0 122.34838330435196 -9.3110741729778965 0 0 0 0 -432.91930131645631 255.52547492770373 0 255.52547492770373 -58.771570457221969 0 0 0 0 -432.74434318937165 672.80685166157491 0 672.80685166157491 -412.09160450269337 0 0 0 0 657.4876577391733 -993.99176953464485 0 -993.99176953464485 -730.18420078908093 0 0 0 0 365.1351633671693 38.508357987619092 0 38.508357987619092 -426.75618576847046 0 0 0 0 83.321026119643648 3.4778089355286284 0 3.4778089355286284 40.721374174745961 0 0 0 0 -230.21402097270402 -691.38676821437548 0 -691.38676821437548 -386.72924643272563 0 0 0 0 25.813661441310053 -2.0994020015385946 0 -2.0994020015385946 -7.7895589677513044 0 0 0 0 707.02250694193208 -450.4747772019291 0 -450.4747772019291 -750.7709515160459 0 0 0 0 -40.143545608694694 380.43143733595934 0 380.43143733595934 -208.78276006004671 0 0 0 0 -392.82932314628488 -46.428700395677879 0 -46.428700395677879 -309.96732165066169 0 0 0 0 70.29271271409236 40.548052543971494 0 40.548052543971494 25.930484285071493 0 0 0 0 533.47153647363666 197.10667380520681 0 197.10667380520681 -281.78746024833526 0 0 0 0 37.365515824196336 435.12418610247187 0 435.12418610247187 -19.841163103686995 0 0 0 0 175.77322299273146 472.08778465792238 0 472.08778465792238 -171.10670200229652 0 0 0 0 165.96103659838627 319.38135976924423 0 319.38135976924423 -235.10473784716305 0 0 0 0 59.191089588781324 205.00305916408252 0 205.00305916408252 12.500219207940972 0 0 0 0 14.480800833736794 166.15564838637238 0 166.15564838637238 173.51099012843042 0 0 0 0 61.934615077283524 179.07464923620864 0 179.07464923620864 145.99946597581265 0 0 0 0 124.87931432845653 431.83622369077784 0 431.83622369077784 124.23021857099229 0 0 0 0 194.15689098645089 426.75100078858668 0 426.75100078858668 -26.034348555558608 0 0 0 0 630.8186956814061 898.31054983791364 0 898.31054983791364 402.99751348680729 0 0 0 0 1845.1111547236869 273.74422570860042 0 273.74422570860042 -639.00494646867082 0 0 0 0 -130.1310205332702 453.9241086099355 0 453.9241086099355 449.23072162526796 0 0 0 0 -535.54683658066347 227.22288378182651 0 227.22288378182651 416.52935405012249 0 0 0 0 -181.58867785730035 55.392705640673739 0 55.392705640673739 282.80330467597378 0 0 0 0 -6.8849144714768045 74.230799750617734 0 74.230799750617734 233.89347890153658 0 0 0 0 69.000246401461482 15.444842517412326 0 15.444842517412326 279.32713078278175 0 0 0 0 82.555324942055449 114.89027709840229 0 114.89027709840229 91.23233861839617 0 0 0 0 106.91482579574949 123.00815230868102 0 123.00815230868102 93.864744736907596 0 0 0 0 -37.509424536528968 150.70415627213879 0 150.70415627213879 185.78092573367758 0 0 0 0 3.7334078904767218 13.594134946508724 0 13.594134946508724 -18.037503055299588 0 0 0 0 133.25736065309778 -32.180580955909136 0 -32.180580955909136 -7.353990332212561 0 0 0 0 199.50190995463163 -42.138260072432786 0 -42.138260072432786 4.1657990710984905 0 0 0 0 273.60136464646621 -58.825321505678858 0 -58.825321505678858 -10.793677392701284 0 0 0 0 380.14682490197993 -43.906330444046944 0 -43.906330444046944 -68.539914729084558 0 0 0 0 353.208741014314 -88.862840356209745 0 -88.862840356209745 -54.282899794850891 0 0 0 0 50.631225023092803 17.662583782356705 0 17.662583782356705 -22.027159247488342 0 0 0 0 216.44317931961086 -24.484447163325513 0 -24.484447163325513 -43.097273114658492 0 0 0 0 271.60055797992572 -63.50337352644965 0 -63.50337352644965 -17.357711519956865 0 0 0 0 46.41272014782021 8.9594835275293008 0 8.9594835275293008 10.253435541100771 0 0 0 0 180.37789842085044 32.781169094442248 0 32.781169094442248 -10.690848637208546 0 0 0 0 43.086020261731164 53.515473045970793 0 53.515473045970793 -20.750256622396591 0 0 0 0 7.5834784163987239 5.8048594075123354 0 5.8048594075123354 -5.0030765513649591 0 0 0 0 198.43260403348631 -106.33936379087118 0 -106.33936379087118 -100.46436696955425 0 0 0 0 3.6950145171251734 127.12727480644867 0 127.12727480644867 -7.2843580012013263 0 0 0 0 50.725605080600261 9.3755831610634406 0 9.3755831610634406 -22.014929804400289 0 0 0 0 97.862795998862396 47.749674378777854 0 47.749674378777854 -45.138245133951386 0 0 0 0 -5.43942928071192 11.548409910066766 0 11.548409910066766 37.228245329792117 0 0 0 0 136.15305568360782 -62.540719120383073 0 -62.540719120383073 33.015456911594242 0 0 0 0 53.534490283826166 18.185300322326921 0 18.185300322326921 -18.143126919297856 0 0 0 0 129.20834712073338 -141.15362101997562 0 -141.15362101997562 111.82806471786625 0 0 0 0 202.48510677860759 -137.45789154176964 0 -137.45789154176964 -32.495262764699874 0 0 0 0 181.63784965806326 -65.514413186801903 0 -65.514413186801903 -12.846597272156941 0 0 0 0 275.46113307302676 -66.507663194514407 0 -66.507663194514407 -14.23392056571538 0 0 0 0 273.27992981230636 -83.064708883478488 0 -83.064708883478488 -97.700159280426305 0 0 0 0 46.220063948601819 2.06409408434547 0 2.06409408434547 18.973231546813622 0 0 0 0 105.95277569984319 -24.360079474654412 0 -24.360079474654412 10.561684480830763 0 0 0 0 127.99792918967432 9.5102893849748398 0 9.5102893849748398 -17.010704171661018 0 0 0 0 53.690867904337274 26.658677246302517 0 26.658677246302517 -14.039517932182591 0 0 0 0 125.54660290962278 10.673324264851544 0 10.673324264851544 -50.508502428179781 0 0 0 0 150.04247584506879 -29.646469980983284 0 -29.646469980983284 8.6764534266412738 0 0 0 0 30.520801418848606 10.577956108004807 0 10.577956108004807 -17.611903979526751 0 0 0 0 271.65277565431825 -68.019379202314212 0 -68.019379202314212 -7.7487601859302231 0 0 0 0 96.807513629472851 58.361257397649297 0 58.361257397649297 12.524943735390707 0 0 0 0 228.95871337591961 -93.144504966053773 0 -93.144504966053773 54.958614041986948 0 0 0 0 86.658602250999309 34.405102287190346 0 34.405102287190346 -17.873553782975268 0 0 0 0 129.80019058556718 21.244961747666821 0 21.244961747666821 -18.876961727688467 0 0 0 0 223.52162561124715 0.66341198510554023 0 0.66341198510554023 26.365981935134187 0 0 0 0 124.69122452372386 8.9871060020861719 0 8.9871060020861719 4.5911972544746362 0 0 0 0 258.39966918406571 5.5746205940988602 0 5.5746205940988602 10.441428368334527 0 0 0 0 248.40659081202102 18.520369950571649 0 18.520369950571649 10.217996333518386 0 0 0 0 33.361803468220963 40.043181151963097 0 40.043181151963097 18.56344257064049 0 0 0 0 224.67719601459976 -13.256194000327469 0 -13.256194000327469 18.127061094374767 0 0 0 0 146.27136330179059 -35.239764725388184 0 -35.239764725388184 -5.7558098931586104 0 0 0 0 201.24108487661579 10.953120462386551 0 10.953120462386551 34.020528596881718 0 0 0 0 98.962471733304028 -20.93872326993619 0 -20.93872326993619 9.420025026814983 0 0 0 0 49.964536334002332 -97.03826113664536 0 -97.03826113664536 -24.186776457310316 0 0 0 0 67.783956880099197 0.11451279306352546 0 0.11451279306352546 -14.094878434417435 0 0 0 0 326.25239575878368 4.7623477342372098 0 4.7623477342372098 -110.60789393950836 0 0 0 0 303.87301927326007 64.663596072359269 0 64.663596072359269 -1.6966465529512789 0 0 0 0 412.57614037045641 -43.446972151497903 0 -43.446972151497903 -87.92085546492217 0 0 0 0 -484.70035896550326 46.131901540417402 0 46.131901540417402 1979.0023505983863 0 0 0 0 93.800174786390926 -410.66288518413694 0 -410.66288518413694 -190.9647598068882 0 0 0 0 19.045368043145572 79.014971990076447 0 79.014971990076447 130.99365689301794 0 0 0 0 173.34275425260421 -15.192974587438869 0 -15.192974587438869 11.330983719487449 0 0 0 0 176.50100618686338 -17.585883993791299 0 -17.585883993791299 -18.829006110104046 0 0 0 0 162.87605251289904 -39.449324140633962 0 -39.449324140633962 -3.3521867335032942 0 0 0 0 199.62604109221138 -34.101646129681058 0 -34.101646129681058 -9.050373620110804 0 0 0 0 200.05549973028246 -21.204756033778722 0 -21.204756033778722 -20.850976406539758 0 0 0 0 179.50589902544743 67.823292775341315 0 67.823292775341315 -79.989822008112242 0 0 0 0 45.75972168870257 -17.236611831668299 0 -17.236611831668299 -20.443984796501269 0 0 0 0 225.94437605849816 -24.282190358162552 0 -24.282190358162552 -65.649155939954653 0 0 0 0 203.27459908084711 3.3746211968177704 0 3.3746211968177704 -39.803134319601895 0 0 0 0 218.68778832125827 9.8250562351495319 0 9.8250562351495319 -90.137070952407271 0 0 0 0 201.63830112978758 48.802536635243769 0 48.802536635243769 -96.694643264290562 0 0 0 0 219.68847019310124 1.3040446589635337 0 1.3040446589635337 -114.91224186397176 0 0 0 0 226.75084781189798 26.396213498511315 0 26.396213498511315 -78.204347877547548 0 0 0 0 181.96189895831048 15.369589503590362 0 15.369589503590362 -14.059960823461097 0 0 0 0 190.51441818902094 14.596054411112959 0 14.596054411112959 -42.349173511630624 0 0 0 0 195.8254535732558 38.941275285985853 0 38.941275285985853 -28.523938725779658 0 0 0 0 198.77434772423294 -0.87574624367164233 0 -0.87574624367164233 -21.421791758624408 0 0 0 0 229.49167672463227 8.785952641350292 0 8.785952641350292 -25.772730113798957 0 0 0 0 298.42997262989775 25.501682028402058 0 25.501682028402058 3.2790186680240367 0 0 0 0 52.451521708546139 41.159599934968057 0 41.159599934968057 0.75382265495717427 0 0 0 0 206.18494538044615 15.674694476683953 0 15.674694476683953 15.074317253359595 0 0 0 0 17.459165332505563 -9.2766111726266303 0 -9.2766111726266303 -1.8130348179364608 0 0 0 0 427.34504995135649 -198.81420515417813 0 -198.81420515417813 37.449698939214613 0 0 0 0 300.64228140758496 -70.711742024782779 0 -70.711742024782779 -25.325481304144887 0 0 0 0 77.182029862427356 -22.475939823241099 0 -22.475939823241099 -17.66023272734056 0 0 0 0 114.15244877712757 39.850128800542734 0 39.850128800542734 25.561591890979798 0 0 0 0 360.49304612516426 98.142475051247402 0 98.142475051247402 -193.1339065423158 0 0 0 0 121.36054608167251 252.82104726594025 0 252.82104726594025 -39.287275104096807 0 0 0 0 177.7763125225656 83.900583395714037 0 83.900583395714037 10.639548899486147 0 0 0 0 113.68555224016927 194.02685411874336 0 194.02685411874336 -159.50275942309599 0 0 0 0 538.14352716082976 235.05700156594472 0 235.05700156594472 -60.359965867816754 0 0 0 0 196.56662256099298 151.99555211588267 0 151.99555211588267 -143.97439043132363 0 0 0 0 128.03554084904113 59.77036087038789 0 59.77036087038789 17.125775477390519 0 0 0 0 10.551040015627713 27.360085673564619 0 27.360085673564619 16.732959621495315 0 0 0 0 31.337034685668186 209.88607392289123 0 209.88607392289123 -115.26773269584737 0 0 0 0 -43.38020177501312 793.87881513614229 0 793.87881513614229 23.683939885879226 0 0 0 0 171.05206313931558 109.90705367042574 0 109.90705367042574 -212.27403432511346 0 0 0 0 355.35039392800718 -51.635766232360766 0 -51.635766232360766 -134.6508822953183 0 0 0 0 -29.257498140968892 -20.273106057401947 0 -20.273106057401947 17.037516922893701 0 0 0 0 167.19826437276424 -5.5683844215382123 0 -5.5683844215382123 -131.96576457975971 0 0 0 0 54.679548405318201 -102.59921872436826 0 -102.59921872436826 39.190628646596451 0 0 0 0 373.96341192720502 -199.26234651803361 0 -199.26234651803361 -37.698770328903265 0 0 0 0 314.39289587817984 -83.043635785345032 0 -83.043635785345032 -105.99557949194786 0 0 0 0 377.55026267316134 -24.063220770316548 0 -24.063220770316548 -212.98718281556012 0 0 0 0 413.01482823939477 -58.446613344402977 0 -58.446613344402977 -183.96829224533576 0 0 0 0 439.47800995115358 67.736504374109245 0 67.736504374109245 -190.34121691443579 0 0 0 0 590.99444844371101 -58.228844032903908 0 -58.228844032903908 -184.13216824271802 0 0 0 0 598.23011495549144 -328.33122631366268 0 -328.33122631366268 33.28591768693417 0 0 0 0 149.5494418265589 1382.8316386730394 0 1382.8316386730394 596.40425806481744 0 0 0 0 -495.09594502928803 -370.45665405455111 0 -370.45665405455111 -979.37332853017688 0 0 0 0 14.689574708617748 2.8071175642776538 0 2.8071175642776538 -2.0150857303765335 0 0 0 0 129.33908669101277 57.006640364554343 0 57.006640364554343 19.957337377659243 0 0 0 0 913.37399705556163 -16.25628132932934 0 -16.25628132932934 -211.67410210661637 0 0 0 0 206.72306350970393 -154.86866532360727 0 -154.86866532360727 50.671810924002784 0 0 0 0 10.844484380671929 104.30432728583321 0 104.30432728583321 37.38062100474815 0 0 0 0 41.386830332149771 1.3905227540694085 0 1.3905227540694085 8.4510875026177921 0 0 0 0 133.99456501752138 -18.318964989451899 0 -18.318964989451899 -71.517813012300849 0 0 0 0 61.485166300117271 -0.6233832907414012 0 -0.6233832907414012 -75.53738923703412 0 0 0 0 148.81512745937289 -35.490895017297333 0 -35.490895017297333 -120.3105929685255 0 0 0 0 205.95403200597502 11.675154651808612 0 11.675154651808612 -102.55814404875832 0 0 0 0 4.0641447383750346 -108.467743695575 0 -108.467743695575 -64.410821769585027 0 0 0 0 15.126992156534868 -10.075793686512867 0 -10.075793686512867 5.0029495487366731 0 0 0 0 259.04680454097979 14.985837174850246 0 14.985837174850246 62.30360982961929 0 0 0 0 9.7646041897965006 79.412947365521191 0 79.412947365521191 148.17011043512457 0 0 0 0 524.32192668190692 104.33035130352016 0 104.33035130352016 16.004597712344776 0 0 0 0 179.24468506852281 -60.375441496253643 0 -60.375441496253643 197.5443706542286 0 0 0 0 226.36678018155726 107.54067804584776 0 107.54067804584776 24.921091839086102 0 0 0 0 396.07347414713149 250.7812435085234 0 250.7812435085234 141.46253880892266 0 0 0 0 555.91510170099355 174.86418491830568 0 174.86418491830568 8.2766925492605878 0 0 0 0 346.96939025339088 265.89677246820497 0 265.89677246820497 171.69605695501218 0 0 0 0 214.50317947490475 17.321033287704608 0 17.321033287704608 -17.980945786855273 0 0 0 0 406.1317778042212 4.4705567086078091 0 4.4705567086078091 -309.12853570104187 0 0 0 0 155.24051321238221 -98.715379705578698 0 -98.715379705578698 -78.32599251314744 0 0 0 0 912.40226088577765 199.91210087613962 0 199.91210087613962 22.540737355459797 0 0 0 0 895.99862495908746 335.79101653305304 0 335.79101653305304 148.52589844540984 0 0 0 0 411.26527808859828 -357.17911216119484 0 -357.17911216119484 163.18739025648301 0 0 0 0 7.3842468384558799 -2.3444146945915563 0 -2.3444146945915563 0.91578915651825388 0 0 0 0 510.65968246776902 -266.98604196965971 0 -266.98604196965971 540.15062952348615 0 0 0 0 -10.043346018850571 -161.15830254723647 0 -161.15830254723647 284.87727237893989 0 0 0 0 -58.114957131867413 -19.098396487033035 0 -19.098396487033035 124.052231101372 0 0 0 0 85.29249707001145 -121.55449366781566 0 -121.55449366781566 -0.78343475078119695 0 0 0 0 165.93393789138645 -200.30676734312061 0 -200.30676734312061 -35.119206491627367 0 0 0 0 -0.41614200107142096 -146.42576617226254 0 -146.42576617226254 122.25863087261081 0 0 0 0 -70.486179734580219 -39.087717578043168 0 -39.087717578043168 4.4930998395782638 0 0 0 0 -64.586929938290268 -106.3680353448355 0 -106.3680353448355 89.468605023530699 0 0 0 0 6.1476710619026562 -125.40037399673196 0 -125.40037399673196 52.395434345336696 0 0 0 0 -42.032278749917168 -110.41533531130987 0 -110.41533531130987 69.187788639218184 0 0 0 0 -20.882290141002159 -103.03288884142785 0 -103.03288884142785 30.746057875152246 0 0 0 0 3.3077798494268791 -33.318524689556511 0 -33.318524689556511 -26.850744646751536 0 0 0 0 61.727526366637903 -112.68291257872966 0 -112.68291257872966 60.103284691331567 0 0 0 0 61.44259549358685 -117.74253584658041 0 -117.74253584658041 -2.0425393059925909 0 0 0 0 165.10345915744256 -63.06380128004173 0 -63.06380128004173 -72.399659585648124 0 0 0 0 253.59249837367679 -92.731803835157905 0 -92.731803835157905 -67.152165967524851 0 0 0 0 259.73480901169478 -30.473227505643209 0 -30.473227505643209 -129.56534534948742 0 0 0 0 236.17700668140606 -177.54871562421388 0 -177.54871562421388 18.250889897116792 0 0 0 0 304.84062132348481 -268.39950726361934 0 -268.39950726361934 -25.600097532738062 0 0 0 0 524.36063461264712 -347.55527381247731 0 -347.55527381247731 -8.0880614050789781 0 0 0 0 -5.383351949552889 -189.99646995688258 0 -189.99646995688258 91.5903060377033 0 0 0 0 147.17123357496894 -315.45601504578411 0 -315.45601504578411 134.5416068633908 0 0 0 0 173.90267318714177 -238.18463289978797 0 -238.18463289978797 76.665738524224025 0 0 0 0 182.53568922443083 -327.41009092271213 0 -327.41009092271213 234.28374709992011 0 0 0 0 108.0537556467898 136.87920675871101 0 136.87920675871101 541.02116186991975 0 0 0 0 86.780641116361949 584.49243716278193 0 584.49243716278193 673.91784441675759 0 0 0 0 20.547437583618432 -4.4414799849995248 0 -4.4414799849995248 1.0941093613554338 0 0 0 0 -147.59539793358999 -123.40140829340999 0 -123.40140829340999 167.52000293470803 0 0 0 0 177.73924084719079 -25.443786653111587 0 -25.443786653111587 -37.037487554676524 0 0 0 0 275.32309903782152 -119.65187244826029 0 -119.65187244826029 -248.80778109172297 0 0 0 0 427.82417543319752 96.155192505518471 0 96.155192505518471 77.702629483259443 0 0 0 0 57.636610811934162 -14.432731635549651 0 -14.432731635549651 3.3770333477806753 0 0 0 0 106.19566822360503 -121.41863758187912 0 -121.41863758187912 -340.41255193871888 0 0 0 0 18.880537322242162 26.949663372242753 0 26.949663372242753 -306.39046630421285 0 0 0 0 -155.8055031804879 58.888814430577519 0 58.888814430577519 -69.745501129576951 0 0 0 0 54.611962682640296 -112.79180593500871 0 -112.79180593500871 -112.06167751363319 0 0 0 0 77.124277893206454 -77.312697131514781 0 -77.312697131514781 -166.74724872585585 0 0 0 0 65.036720301533933 -163.4629367953836 0 -163.4629367953836 -194.32190233302626 0 0 0 0 161.81576155429553 -27.242110821663189 0 -27.242110821663189 -42.81726195930559 0 0 0 0 -247.16566710890038 290.26357876841575 0 290.26357876841575 260.22218896088589 0 0 0 0 212.91337102517718 73.589102566857036 0 73.589102566857036 329.88379932142925 0 0 0 0 371.05206215262297 -387.11107109387467 0 -387.11107109387467 314.56231829202443 0 0 0 0 196.24769907491282 44.607187406181765 0 44.607187406181765 73.354303019773397 0 0 0 0 49.227165479227551 44.971619335646324 0 44.971619335646324 -151.31904676549146 0 0 0 0 81.657148947400856 -30.915978383718269 0 -30.915978383718269 5.7883932492914871 0 0 0 0 241.44887392262171 -161.9207774587876 0 -161.9207774587876 -4.4167891793022136 0 0 0 0 69.634899349563057 53.607696807366665 0 53.607696807366665 17.615721400364464 0 0 0 0 191.56424076617259 -9.1941193399266581 0 -9.1941193399266581 -189.12502431454709 0 0 0 0 80.226514272217173 85.009300523595741 0 85.009300523595741 -268.01201954443422 0 0 0 0 223.880409786565 76.488219933462915 0 76.488219933462915 45.929254499119452 0 0 0 0 209.32348367265513 23.259430232055252 0 23.259430232055252 29.91524000046229 0 0 0 0 51.442370288085954 34.863385064578637 0 34.863385064578637 38.499085096769051 0 0 0 0 237.47973155767249 75.961681256921111 0 75.961681256921111 74.236116133543874 0 0 0 0 169.38563928965453 -8.2891182835878396 0 -8.2891182835878396 -37.244574310659587 0 0 0 0 208.40992547180213 0.74351393174847402 0 0.74351393174847402 -28.199331601646435 0 0 0 0 202.41090461763815 16.305718244046915 0 16.305718244046915 -28.359310274224175 0 0 0 0 67.765555963371298 9.4890626194835193 0 9.4890626194835193 8.7603060742874099 0 0 0 0 170.12587934901967 -6.8744102265988545 0 -6.8744102265988545 -19.332864169228742 0 0 0 0 117.21789738009829 68.753133951644315 0 68.753133951644315 -38.718552392716902 0 0 0 0 -86.40146423690021 196.60414168895937 0 196.60414168895937 -34.412187930703439 0 0 0 0 258.96388517395826 -3.6353026228207455 0 -3.6353026228207455 -109.04248637727392 0 0 0 0 273.52497596702233 67.281070555784709 0 67.281070555784709 -95.373240889664203 0 0 0 0 205.12798637160449 123.22020787511471 0 123.22020787511471 -16.439267243602558 0 0 0 0 212.50688028725563 120.07136237355348 0 120.07136237355348 -130.01993658180851 0 0 0 0 668.32286386829219 108.8596845654701 0 108.8596845654701 -216.44248278470536 0 0 0 0 568.60731975798262 -113.08526806546777 0 -113.08526806546777 -151.24169595118838 0 0 0 0 409.30023508085287 150.5173121653005 0 150.5173121653005 -222.56133349738684 0 0 0 0 400.51265660717036 -83.563060606708461 0 -83.563060606708461 -155.64527560240401 0 0 0 0 585.58948198071448 -530.92710730327053 0 -530.92710730327053 233.57210016292589 0 0 0 0 704.83081696002046 -189.08798586654598 0 -189.08798586654598 -181.66162915202801 0 0 0 0 427.81634425160883 -154.51840123522948 0 -154.51840123522948 -150.2039264561825 0 0 0 0 1171.8053301181135 334.93523350300131 0 334.93523350300131 -245.60544333111784 0 0 0 0 329.91087446350139 351.50381885218604 0 351.50381885218604 -242.90283144866112 0 0 0 0 -390.52299603291613 981.19880407306482 0 981.19880407306482 -311.45596380956243 0 0 0 0 4238.1823849799257 1573.1356860954545 0 1573.1356860954545 -1110.6371413883253 0 0 0 0 543.82772162911715 -304.89479393495515 0 -304.89479393495515 -242.28597349690972 0 0 0 0 1435.2101277827169 -752.64217073075838 0 -752.64217073075838 -49.551989290850003 0 0 0 0 -320.67050545058737 7.613203044600823 0 7.613203044600823 15.188235310694324 0 0 0 0 176.03424605258181 -27.889128139450094 0 -27.889128139450094 -36.715913306672157 0 0 0 0 251.12281419296914 57.020230672848314 0 57.020230672848314 10.105502886141039 0 0 0 0 250.58075296912284 41.741672791667042 0 41.741672791667042 -93.546001258339857 0 0 0 0 185.42094601298356 -29.158089934541579 0 -29.158089934541579 -35.991652704224379 0 0 0 0 2720.5759553785902 -295.81256762916291 0 -295.81256762916291 625.05529107356097 0 0 0 0 309.07539538195124 123.61590549366656 0 123.61590549366656 -33.542852257306095 0 0 0 0 235.91358775123081 105.55340049155706 0 105.55340049155706 28.710267013866542 0 0 0 0 236.58026206100476 110.20184278651777 0 110.20184278651777 34.604166915986752 0 0 0 0 182.12083014397649 71.599065801296092 0 71.599065801296092 7.2435502407006425 0 0 0 0 181.65474482723221 66.242702156502219 0 66.242702156502219 37.126266282561119 0 0 0 0 156.72638750390615 40.922507522266642 0 40.922507522266642 32.271048389998214 0 0 0 0 129.36182690608257 3.8668685547127097 0 3.8668685547127097 9.9767356929110065 0 0 0 0 164.33075917293172 -44.963645688025053 0 -44.963645688025053 -15.442755731573925 0 0 0 0 161.35430490950239 -41.99222782204788 0 -41.99222782204788 49.428253307152772 0 0 0 0 134.29504153096059 -108.97313384964582 0 -108.97313384964582 21.334283049767237 0 0 0 0 3.3637898046018933 25.323348117696696 0 25.323348117696696 16.617016651228468 0 0 0 0 322.85550455159682 -69.699438038036988 0 -69.699438038036988 -34.440010746452572 0 0 0 0 223.85869741553324 11.928861370542108 0 11.928861370542108 28.456110076982895 0 0 0 0 272.00716100218415 38.273810715951186 0 38.273810715951186 -20.890685795347053 0 0 0 0 198.46388389051572 -38.48227804556609 0 -38.48227804556609 -33.77573179596402 0 0 0 0 241.05327441002009 49.153927627356097 0 49.153927627356097 40.07102378368927 0 0 0 0 253.53628381765157 60.340875184770539 0 60.340875184770539 -64.177971062051029 0 0 0 0 291.17930425228406 8.5406085024848153 0 8.5406085024848153 13.823642203573399 0 0 0 0 235.99486515279568 22.620308232282241 0 22.620308232282241 25.478314015566866 0 0 0 0 192.9098172664817 -117.02161027527336 0 -117.02161027527336 38.448250821391412 0 0 0 0 163.45951761782635 -298.93290056998603 0 -298.93290056998603 74.660659979146885 0 0 0 0 69.546205252294612 16.264255450313556 0 16.264255450313556 -43.904198795144431 0 0 0 0 154.78392044772772 0.75501803604993256 0 0.75501803604993256 98.372708226218492 0 0 0 0 213.35374949753168 24.129004518885722 0 24.129004518885722 -28.014897243498581 0 0 0 0 -10.945709026098484 -87.467302412726895 0 -87.467302412726895 -48.630454090545754 0 0 0 0 206.36031090336473 -11.002234253964616 0 -11.002234253964616 -208.45556628183112 0 0 0 0 -242.94679473215365 -30.910826582686241 0 -30.910826582686241 132.83325608896484 0 0 0 0 88.042947386798915 -18.672625706487452 0 -18.672625706487452 -310.03003081440681 0 0 0 0 88.437619517178973 -3.5951439048913016 0 -3.5951439048913016 -73.638674625675776 0 0 0 0 25.688855776410549 -13.944370179524412 0 -13.944370179524412 -2.1241501643714926 0 0 0 0 149.42382231623924 -183.47486026003753 0 -183.47486026003753 -310.40519059829239 0 0 0 0 178.89167780481512 -125.11555223188134 0 -125.11555223188134 -310.2211388922849 0 0 0 0 67.673276707995683 303.70507264359912 0 303.70507264359912 -269.18133237997063 0 0 0 0 -110.40339116792893 231.17446141101391 0 231.17446141101391 -263.18836158251361 0 0 0 0 -72.579238606471336 86.770780450640814 0 86.770780450640814 20.477873475738306 0 0 0 0 9.1886264582167314 1.2849446574281558 0 1.2849446574281558 -3.3658404862779676 0 0 0 0 10.365002517628589 2.6551285081294793 0 2.6551285081294793 -1.7038983640035212 0 0 0 0 -16.848111230414361 -237.21469310091561 0 -237.21469310091561 -207.48951474736532 0 0 0 0 50.047893445763464 -18.70668014005804 0 -18.70668014005804 -2.8356087994034525 0 0 0 0 41.868396407565065 16.451550404755693 0 16.451550404755693 -10.174535978642062 0 0 0 0 97.940950465155765 64.992911543622085 0 64.992911543622085 -23.880698275170289 0 0 0 0 118.75822717591655 -379.82183796235495 0 -379.82183796235495 -100.07007343466921 0 0 0 0 69.456819186525536 -12.739104205926196 0 -12.739104205926196 -6.6459621049998532 0 0 0 0 70.151560815108496 6.8829559253553896 0 6.8829559253553896 -13.128298935704947 0 0 0 0 17.01379664245178 11.138634961373327 0 11.138634961373327 -355.56856843525657 0 0 0 0 56.122588728583651 -79.185828886890704 0 -79.185828886890704 12.591323386528529 0 0 0 0 28.949588728690287 -122.93539970176971 0 -122.93539970176971 -0.7971190975204081 0 0 0 0 57.596032728266437 -110.47476775914492 0 -110.47476775914492 3.5551346489046409 0 0 0 0 74.94243310083732 -56.828044993336562 0 -56.828044993336562 21.94514129128013 0 0 0 0 4.8266422051528934 -82.389686555186017 0 -82.389686555186017 20.586668184098016 0 0 0 0 183.93265298870392 -246.89344726060926 0 -246.89344726060926 -217.43353710679366 0 0 0 0 -90.080279562447686 224.34869102414314 0 224.34869102414314 182.23313643443771 0 0 0 0 170.929192724936 87.091779015912039 0 87.091779015912039 561.4637965307943 0 0 0 0 17.50003812002933 -5.2675544926578652 0 -5.2675544926578652 -6.5955870121644882 0 0 0 0 433.01614000322297 -320.74631218312652 0 -320.74631218312652 -90.800517696937277 0 0 0 0 -104.30592543602688 93.640478859336781 0 93.640478859336781 589.74518431521392 0 0 0 0 6.6077105727947014 0.28828112984491838 0 0.28828112984491838 -1.2353428553862082 0 0 0 0 200.17780329685775 -436.23782822481166 0 -436.23782822481166 383.79406822123747 0 0 0 0 171.21149107793462 -27.90545566944661 0 -27.90545566944661 -34.373529162904561 0 0 0 0 75.889681891812643 31.14834278314234 0 31.14834278314234 -25.275946738964258 0 0 0 0 98.161625981825637 -38.059468382291016 0 -38.059468382291016 -0.21877473842550899 0 0 0 0 92.896024729761848 -1.6748333289715447 0 -1.6748333289715447 -29.916695284879097 0 0 0 0 75.606820446233939 11.196118070989371 0 11.196118070989371 -26.474788469702339 0 0 0 0 90.764943969727028 -6.5373722835047374 0 -6.5373722835047374 -6.0348059934526646 0 0 0 0 98.689186644332949 -31.330816420499104 0 -31.330816420499104 -35.423626686126681 0 0 0 0 143.91841829312034 16.77264138895498 0 16.77264138895498 -27.6052399555374 0 0 0 0 126.15010298328707 -25.368672631764639 0 -25.368672631764639 -45.592202899873882 0 0 0 0 122.90489929451724 23.278858981113444 0 23.278858981113444 -28.186008381344436 0 0 0 0 409.45878523198189 147.73081306876793 0 147.73081306876793 108.27342451317782 0 0 0 0 359.65628139894397 65.833493561643991 0 65.833493561643991 21.45391879894305 0 0 0 0 445.30494001240004 -39.912383668514849 0 -39.912383668514849 -29.104683349520201 0 0 0 0 -8.6274535241536796 -44.710537678969558 0 -44.710537678969558 45.177842944046006 0 0 0 0 146.81076066195965 -21.380435922585093 0 -21.380435922585093 25.750605471912422 0 0 0 0 146.49490569065938 -44.949875255624519 0 -44.949875255624519 -34.338360881753033 0 0 0 0 32.263561132835179 -33.759037924819296 0 -33.759037924819296 23.130258108586077 0 0 0 0 30.009642653341871 -97.580073654773514 0 -97.580073654773514 54.087594790498088 0 0 0 0 53.204206919297576 26.624107018536051 0 26.624107018536051 104.71825734160393 0 0 0 0 56.130276291194605 -13.20686099690738 0 -13.20686099690738 -5.0057745700478335 0 0 0 0 43.421343593600966 -58.985829134009236 0 -58.985829134009236 49.85106663028516 0 0 0 0 -0.20073162540211342 -32.584916432930186 0 -32.584916432930186 -4.9612638843100285 0 0 0 0 39.841639104764909 -32.606969783035311 0 -32.606969783035311 -52.814879328056122 0 0 0 0 12.670148134125895 -8.0493467532164971 0 -8.0493467532164971 3.2527973480267178 0 0 0 0 69.510360981701979 -59.425515428586493 0 -59.425515428586493 35.820677956052997 0 0 0 0 51.611831948540384 -17.210128299090869 0 -17.210128299090869 -9.3819833193108835 0 0 0 0 139.44694696967781 -175.58266238788929 0 -175.58266238788929 66.944981034925149 0 0 0 0 114.98601885818061 -115.48130304198639 0 -115.48130304198639 79.396661532096005 0 0 0 0 25.456383638156694 -135.44708108108171 0 -135.44708108108171 63.484811640271801 0 0 0 0 62.580562330556631 -14.076149749996631 0 -14.076149749996631 -60.073793434924823 0 0 0 0 143.6484581781524 -102.97413847797293 0 -102.97413847797293 37.267843538211309 0 0 0 0 113.01664294183138 -128.88710600334525 0 -128.88710600334525 -2.0020571296008711 0 0 0 0 50.76554947838369 -58.631590787669666 0 -58.631590787669666 67.141803456569221 0 0 0 0 -6.8235694885618159 -5.6627434957019318 0 -5.6627434957019318 16.975700459334966 0 0 0 0 755.74853176437318 168.56245817101444 0 168.56245817101444 102.27055176315662 0 0 0 0 22.125100686680526 -164.55178320438836 0 -164.55178320438836 -0.61213360429246677 0 0 0 0 790.39100058481563 142.87292427056673 0 142.87292427056673 117.96039072708663 0 0 0 0 -256.80171934995451 -254.74661582531735 0 -254.74661582531735 563.9116657942177 0 0 0 0 46.276434887717187 -107.18830503634035 0 -107.18830503634035 -51.94107197617268 0 0 0 0 -92.098071344953496 -85.983353989973693 0 -85.983353989973693 -17.58908152672484 0 0 0 0 56.192370656921412 -133.10193497803266 0 -133.10193497803266 8.6023028722192976 0 0 0 0 122.943817560561 -92.384580608635588 0 -92.384580608635588 -35.488176249418757 0 0 0 0 126.64739728969107 -111.35422501421908 0 -111.35422501421908 20.781125314395467 0 0 0 0 136.87801976346236 -56.458131519937524 0 -56.458131519937524 7.6946993256556198 0 0 0 0 130.575366817342 -79.691287098856264 0 -79.691287098856264 -22.483442789862238 0 0 0 0 55.556494899006793 -89.178639473782823 0 -89.178639473782823 -2.50953402106461 0 0 0 0 8.5328613870951813 -64.204566839383915 0 -64.204566839383915 -11.761321744888846 0 0 0 0 54.257469049678548 -127.36370791347224 0 -127.36370791347224 -59.511084286095866 0 0 0 0 182.96767351734525 -73.997164023173355 0 -73.997164023173355 16.209324892544828 0 0 0 0 289.01020645699464 -90.451030302651361 0 -90.451030302651361 -49.144892630491171 0 0 0 0 66.346140058484536 3.9500767252137337 0 3.9500767252137337 -62.12928412500024 0 0 0 0 351.65716534643434 59.833038599053452 0 59.833038599053452 -208.0922135288929 0 0 0 0 282.84286277834326 220.35883437286066 0 220.35883437286066 -339.92226372679943 0 0 0 0 204.43983845366893 -145.66093985975749 0 -145.66093985975749 65.295566109911306 0 0 0 0 187.04239584630704 -88.198471338608215 0 -88.198471338608215 10.590211451413779 0 0 0 0 167.68132907529071 -80.882107432201792 0 -80.882107432201792 14.200737810708233 0 0 0 0 168.70078328669479 -75.648142194351749 0 -75.648142194351749 38.954877505896548 0 0 0 0 166.94121584753157 -84.817101785290106 0 -84.817101785290106 9.0635270252269038 0 0 0 0 160.09964230222977 -72.55015726098236 0 -72.55015726098236 13.093524443818751 0 0 0 0 161.97606373710732 -74.234407015425859 0 -74.234407015425859 -2.7422278735357395 0 0 0 0 180.55627133404414 -114.60300336616183 0 -114.60300336616183 -93.060602682052377 0 0 0 0 16.959896393469535 -64.889170595430187 0 -64.889170595430187 54.696334234307869 0 0 0 0 70.389475595754448 -106.17074739257197 0 -106.17074739257197 14.180484370532213 0 0 0 0 72.333580840229388 -70.14209961962797 0 -70.14209961962797 23.540117928096151 0 0 0 0 138.14298555151618 -82.168995023565913 0 -82.168995023565913 23.919658993087069 0 0 0 0 193.31416325800819 -142.80589918460691 0 -142.80589918460691 27.759289826515214 0 0 0 0 135.69232136775099 -89.104685260611404 0 -89.104685260611404 72.804326632345692 0 0 0 0 233.94047731439059 -240.35105662576098 0 -240.35105662576098 133.42388561232193 0 0 0 0 60.81253432923404 -123.28637276494737 0 -123.28637276494737 129.12787467875751 0 0 0 0 154.73266057547153 -360.19533411567954 0 -360.19533411567954 -11.171488992508785 0 0 0 0 212.87937164888717 -202.47889513772725 0 -202.47889513772725 102.49014673206193 0 0 0 0 391.48429932694853 -438.02279485909105 0 -438.02279485909105 -22.881725657228344 0 0 0 0 -653.28801227408985 -565.00841290969163 0 -565.00841290969163 -33.845257443403625 0 0 0 0 1009.7808121445851 354.66601436670157 0 354.66601436670157 -87.050707332800812 0 0 0 0 -8.6251635471128907 3.8475316686894985 0 3.8475316686894985 6.1590995745698933 0 0 0 0 262.01941765548838 -74.412918399225788 0 -74.412918399225788 -14.372102529781635 0 0 0 0 155.3628384090116 -182.45420120284325 0 -182.45420120284325 -116.57058706510543 0 0 0 0 177.32068377052929 -112.83729284339915 0 -112.83729284339915 -99.168180589888152 0 0 0 0 128.42035331271472 -146.88061738306669 0 -146.88061738306669 -38.195020931611225 0 0 0 0 297.45468513087678 -85.883054540003727 0 -85.883054540003727 -7.0929482884004278 0 0 0 0 349.56007983357995 -346.00369882924986 0 -346.00369882924986 -212.9687757540047 0 0 0 0 254.36759708104182 -98.60435669693743 0 -98.60435669693743 27.454995710586445 0 0 0 0 314.12391960549348 5.6981294626795034 0 5.6981294626795034 82.736626483755572 0 0 0 0 224.60910519624747 18.66587720415373 0 18.66587720415373 243.07127693764505 0 0 0 0 480.14948500241098 -86.291675448872184 0 -86.291675448872184 -52.596632747041895 0 0 0 0 479.0484709187831 148.25261929207181 0 148.25261929207181 137.24602120529107 0 0 0 0 222.27218993301267 -58.321532960275363 0 -58.321532960275363 175.79362381526744 0 0 0 0 32.592947273927166 -32.423584953062118 0 -32.423584953062118 281.322650394628 0 0 0 0 477.24662959552325 -62.683894022103232 0 -62.683894022103232 105.78570592825963 0 0 0 0 143.76913964058062 60.336389871535665 0 60.336389871535665 -3.6719439956497446 0 0 0 0 120.54640178490172 75.772662707565814 0 75.772662707565814 55.339788639143762 0 0 0 0 146.99723963433189 217.40163320021065 0 217.40163320021065 39.587594844252635 0 0 0 0 302.7423114446583 157.46906248648338 0 157.46906248648338 24.987940145373614 0 0 0 0 232.96463344056792 25.365430179975874 0 25.365430179975874 13.511794748437751 0 0 0 0 415.50109940191714 132.75238972820193 0 132.75238972820193 -76.207751725652315 0 0 0 0 182.45614757518408 65.728107183175339 0 65.728107183175339 -11.623862606345732 0 0 0 0 208.18260677685612 23.637782669312287 0 23.637782669312287 -34.266342440091648 0 0 0 0 207.46489530896724 14.357929584821591 0 14.357929584821591 31.233543431831777 0 0 0 0 163.24247695808441 -33.104072412230693 0 -33.104072412230693 -5.1606532508194816 0 0 0 0 275.33978307148209 69.364892726109701 0 69.364892726109701 76.858293600081197 0 0 0 0 179.39502073673802 -16.031627645900542 0 -16.031627645900542 -19.655174718056859 0 0 0 0 230.98702445492017 35.002040953029223 0 35.002040953029223 52.068347453277966 0 0 0 0 207.44883738560748 -97.938855834797323 0 -97.938855834797323 -77.211742186895208 0 0 0 0 196.42860178857154 -74.09957812277753 0 -74.09957812277753 -12.229539791920615 0 0 0 0 309.3601524023361 -62.821714547716056 0 -62.821714547716056 102.84824459143238 0 0 0 0 128.58774392500482 14.396109785851621 0 14.396109785851621 -41.342300721923436 0 0 0 0 253.76885175847951 -39.919719307049789 0 -39.919719307049789 -29.231451214910109 0 0 0 0 3687.8512711259687 799.62522105560174 0 799.62522105560174 -392.04920521385702 0 0 0 0 5498.9938952951888 535.08458066409469 0 535.08458066409469 -1324.531048181572 0 0 0 0 3744.0316255114449 981.37102268611034 0 981.37102268611034 -709.55651492477523 0 0 0 0 2208.3142918909798 1164.6550965603142 0 1164.6550965603142 268.05816037751367 0 0 0 0 2441.5280549187373 1267.612439682599 0 1267.612439682599 219.54163706235465 0 0 0 0 2217.6272563983748 1022.2560113766144 0 1022.2560113766144 168.23420605742285 0 0 0 0 1611.6525605670431 970.04122718339954 0 970.04122718339954 367.9772166346516 0 0 0 0 1465.5382818016769 970.83336171943711 0 970.83336171943711 206.83363605017519 0 0 0 0 2206.5171672093711 369.17759273339038 0 369.17759273339038 -466.48537297477003 0 0 0 0 2866.0086558828079 362.81938820483128 0 362.81938820483128 -586.88359222611302 0 0 0 0 665.38682465087004 638.00198093069014 0 638.00198093069014 3.9269749400066303 0 0 0 0 2169.8803642335497 827.20993250174411 0 827.20993250174411 21.674808533735813 0 0 0 0 264.25286354284071 285.77443177429711 0 285.77443177429711 -242.48524194139895 0 0 0 0 2180.1307809148857 -163.56153599200684 0 -163.56153599200684 -695.42004111586175 0 0 0 0 696.57639448348891 482.61864281195335 0 482.61864281195335 -618.8737980496619 0 0 0 0 3443.9066544053294 -105.3926202546657 0 -105.3926202546657 -1296.5813946474666 0 0 0 0 3587.2547724694195 -371.51338777030742 0 -371.51338777030742 -1176.4396411921109 0 0 0 0 4127.4759606891785 151.21256092919771 0 151.21256092919771 -1431.9183932732476 0 0 0 0 5499.0742649643707 -321.12461046990899 0 -321.12461046990899 -1815.0504472858042 0 0 0 0 3915.6809867412867 -949.45190058312085 0 -949.45190058312085 -1534.7431931210917 0 0 0 0 5500.4580646252971 -1540.094912371733 0 -1540.094912371733 -1372.6981846147812 0 0 0 0 2361.4239603547312 -404.02399023786961 0 -404.02399023786961 -1069.1691279396518 0 0 0 0 2569.3758712519557 -1598.840922257255 0 -1598.840922257255 170.79017529772898 0 0 0 0 29.265255450245323 8.0138529537842551 0 8.0138529537842551 5.1033801061179505 0 0 0 0 5491.8161143248826 -3317.6247869719591 0 -3317.6247869719591 1141.5182635385318 0 0 0 0 285.94180755041702 -873.65565918052755 0 -873.65565918052755 1193.8736097259005 0 0 0 0 879.84948499623624 1128.5749209281187 0 1128.5749209281187 1609.8765397214461 0 0 0 0 5484.3690074870237 976.73400190712857 0 976.73400190712857 277.41746649001124 0 0 0 0 741.29365371777533 -1242.1226920517502 0 -1242.1226920517502 1261.6737744699276 0 0 0 0 478.74123590319209 -989.74122270009707 0 -989.74122270009707 1206.9987748164508 0 0 0 0 51.992667604260987 -871.47416688806197 0 -871.47416688806197 1405.8670673837614 0 0 0 0 380.69924145662935 -676.35365588477885 0 -676.35365588477885 541.78801995350932 0 0 0 0 945.64296458331796 -432.08522881530916 0 -432.08522881530916 1001.1878991645599 0 0 0 0 273.01910110457061 -1178.8449437217357 0 -1178.8449437217357 1521.777251975107 0 0 0 0 935.23333952944733 1113.4899106619825 0 1113.4899106619825 -62.160635996779092 0 0 0 0 76.755609087827736 -887.183095402768 0 -887.183095402768 813.42874082400067 0 0 0 0 -311.09887322567602 287.86864357311197 0 287.86864357311197 356.66274303996408 0 0 0 0 63.687882205684453 27.516131289253053 0 27.516131289253053 8.0279776728232104 0 0 0 0 1951.9382350711294 -1052.2706872904803 0 -1052.2706872904803 -492.70422198657229 0 0 0 0 947.48805124742103 779.70879416150512 0 779.70879416150512 -2027.7675666567684 0 0 0 0 67.590461776545325 32.31181645899418 0 32.31181645899418 9.0264184849842515 0 0 0 0 680.83159702490366 -1040.4711795821295 0 -1040.4711795821295 254.51780800799088 0 0 0 0 4799.8217503334754 -1289.9397010137477 0 -1289.9397010137477 -32.044118356774334 0 0 0 0 4168.2802445816487 -853.27067030045237 0 -853.27067030045237 -561.34913285549101 0 0 0 0 4364.2540034464319 822.89150609185958 0 822.89150609185958 1056.0940402015267 0 0 0 0 3448.8070630124098 -1357.3058532308764 0 -1357.3058532308764 1040.2617566471063 0 0 0 0 900.23043958808375 -1190.0183835223315 0 -1190.0183835223315 2552.2822839603987 0 0 0 0 4201.4273529942293 1464.8584071069126 0 1464.8584071069126 1171.4058500473166 0 0 0 0 1945.072508117255 441.79689575004613 0 441.79689575004613 711.8685437414133 0 0 0 0 1124.0661185121535 -507.642422870362 0 -507.642422870362 1092.071158220137 0 0 0 0 559.06809833603256 798.19642846183706 0 798.19642846183706 1130.3646936600303 0 0 0 0 611.98127417767728 931.80658214314451 0 931.80658214314451 1258.7554807255274 0 0 0 0 543.27583878663427 995.99844057407699 0 995.99844057407699 2007.985811558181 0 0 0 0 1766.6644740907086 1538.0199962756274 0 1538.0199962756274 989.34499798124443 0 0 0 0 40.501955337297787 -6.1617025235299572 0 -6.1617025235299572 2.1146902760445432 0 0 0 0 1978.615726768825 2347.9965205504391 0 2347.9965205504391 3270.6462126237348 0 0 0 0 454.59529661373017 -228.79138813253758 0 -228.79138813253758 -1123.950579289723 0 0 0 0 106.48483005120394 -17.433628336096113 0 -17.433628336096113 1.4882484307152488 0 0 0 0 34.41098139551741 381.83474734313768 0 381.83474734313768 361.22091087897661 0 0 0 0 336.99465493079697 393.44053697746949 0 393.44053697746949 -640.96384422350752 0 0 0 0 1281.8297531442258 -1647.6834854033809 0 -1647.6834854033809 -131.55710867522657 0 0 0 0 2477.4857629261733 -777.13044314019271 0 -777.13044314019271 -427.16515943983359 0 0 0 0 2060.370188484977 633.12286787189475 0 633.12286787189475 669.12506371168138 0 0 0 0 710.49042126733548 -228.23917086935776 0 -228.23917086935776 482.62592426055744 0 0 0 0 278.72015462041327 399.92420536085245 0 399.92420536085245 688.79723195039867 0 0 0 0 720.85829547682988 152.68438558540174 0 152.68438558540174 464.7533477673303 0 0 0 0 35.634020787787449 -155.7305072342441 0 -155.7305072342441 763.44661970097297 0 0 0 0 -53.959822940789763 -372.41971753694645 0 -372.41971753694645 372.3634252371844 0 0 0 0 26.46181003072661 63.265473572766695 0 63.265473572766695 708.69868749171064 0 0 0 0 120.06040107737499 -733.2007881534397 0 -733.2007881534397 -388.36038273175836 0 0 0 0 79.748737560327754 -824.77904490893377 0 -824.77904490893377 477.15525192467931 0 0 0 0 1619.1522822223615 -790.69750198778092 0 -790.69750198778092 925.90348883197271 0 0 0 0 1188.4265740901319 -63.139865786361952 0 -63.139865786361952 -270.89651893101222 0 0 0 0 885.65409819299384 -168.11061771762706 0 -168.11061771762706 815.5012361783597 0 0 0 0 2221.7591877552459 1056.9544281486442 0 1056.9544281486442 1419.7133376165443 0 0 0 0 5321.6285381054367 251.55494523697098 0 251.55494523697098 -308.20072499169964 0 0 0 0 32.399789157752785 14.086261913289352 0 14.086261913289352 3.911398622600621 0 0 0 0 -77.423579317650365 2346.5245612693243 0 2346.5245612693243 35.870223991443595 0 0 0 0 2335.236986400243 1753.8836794545496 0 1753.8836794545496 -88.58074293165464 0 0 0 0 3218.2490411658682 694.51353453133106 0 694.51353453133106 -456.76645447253622 0 0 0 0 697.57384635486051 629.74404250532189 0 629.74404250532189 -318.13922364615519 0 0 0 0 1227.3726279609355 496.21660347349075 0 496.21660347349075 -476.51637545581457 0 0 0 0 1763.3850182118422 1430.6873854709534 0 1430.6873854709534 -84.438568164019898 0 0 0 0 1441.0692349817655 1578.9584702774998 0 1578.9584702774998 -67.727483963064572 0 0 0 0 1814.534049574555 968.16406837866589 0 968.16406837866589 5.8260822538053745 0 0 0 0 1593.7674600897008 1036.2584853853034 0 1036.2584853853034 383.32098040909727 0 0 0 0 93.330813966956157 174.29576750092599 0 174.29576750092599 -6.7081442333519874 0 0 0 0 90.437303830265591 418.11648570780642 0 418.11648570780642 -321.11642810179592 0 0 0 0 -0.29052552901788431 1.6653018086510016 0 1.6653018086510016 -1.2084626401977658 0 0 0 0 105.49797631939842 -17.086383091814842 0 -17.086383091814842 -25.892564275453765 0 0 0 0 216.21708160932394 -238.4098866824238 0 -238.4098866824238 -714.79878211290224 0 0 0 0 970.67528725460033 19.486950369761189 0 19.486950369761189 -688.16016111978684 0 0 0 0 -39.561361378626316 123.16231566039096 0 123.16231566039096 63.219478540963792 0 0 0 0 91.985023835887944 -6.3842622269908063 0 -6.3842622269908063 -28.228026573020813 0 0 0 0 -48.411308259050202 90.134873911006252 0 90.134873911006252 221.96479946202089 0 0 0 0 65.16391507138178 -538.00298664020193 0 -538.00298664020193 -557.61796036671421 0 0 0 0 3.6054334591822226 -435.88650153413073 0 -435.88650153413073 2.7512730413172903 0 0 0 0 62.074681934376713 104.16668375077006 0 104.16668375077006 106.65974676493806 0 0 0 0 26.43284794626652 -16.08132396733226 0 -16.08132396733226 19.725102099952164 0 0 0 0 -6.8346411844031536 -99.488848092993067 0 -99.488848092993067 49.298713468415627 0 0 0 0 -44.472528332829825 270.40869801452834 0 270.40869801452834 354.77326094518821 0 0 0 0 13.502693978077208 23.29295928867009 0 23.29295928867009 40.624174948089504 0 0 0 0 -4.5288604677880357 59.7083655893166 0 59.7083655893166 99.625544911915313 0 0 0 0 107.04320332493808 79.328890953131122 0 79.328890953131122 1.9762248489778358 0 0 0 0 91.330457391024538 61.545921349254968 0 61.545921349254968 -5.9298464378880453 0 0 0 0 106.5357765068984 101.66592029481944 0 101.66592029481944 75.811197074081292 0 0 0 0 157.94449237586377 64.188004208392158 0 64.188004208392158 63.984537706621268 0 0 0 0 168.40994780843857 150.43830275301752 0 150.43830275301752 109.01117610738402 0 0 0 0 208.79319485510496 54.645607942477 0 54.645607942477 -30.929690229510925 0 0 0 0 430.10549619256199 201.36604896906942 0 201.36604896906942 29.675227109530624 0 0 0 0 592.05039247441164 22.806991611907506 0 22.806991611907506 -41.325969798081644 0 0 0 0 526.63292528230158 10.196782534488648 0 10.196782534488648 60.428283136844584 0 0 0 0 1007.3044586328324 -125.93292006526099 0 -125.93292006526099 39.503581345401244 0 0 0 0 797.74420655142603 -231.62559748262311 0 -231.62559748262311 42.691825280796621 0 0 0 0 764.60189372968307 -220.82174036256242 0 -220.82174036256242 127.8245323175679 0 0 0 0 702.44555636450241 -500.481544128481 0 -500.481544128481 216.25057358198137 0 0 0 0 1080.3309576468746 -388.77904737091183 0 -388.77904737091183 99.296783052940697 0 0 0 0 869.03648967064146 -198.29969496021829 0 -198.29969496021829 78.71536972098238 0 0 0 0 1343.7715764010209 -433.97701251570652 0 -433.97701251570652 184.85889156577105 0 0 0 0 677.38676801694965 242.21435360419423 0 242.21435360419423 90.673451917492685 0 0 0 0 725.60463464400527 -18.58769164697685 0 -18.58769164697685 73.717520578471522 0 0 0 0 965.10272460497072 81.36937664719153 0 81.36937664719153 -93.108089797034609 0 0 0 0 1270.5642107168787 -527.30533706402571 0 -527.30533706402571 1580.2671479379683 0 0 0 0 5.9593563065339907 -7.940634676153703 0 -7.940634676153703 8.4114634820519711 0 0 0 0 -229.65749677454369 46.759057377559202 0 46.759057377559202 1533.2282087729761 0 0 0 0 1096.3081906217558 20.17482729037539 0 20.17482729037539 -4.3185962447359998 0 0 0 0 1582.9102401611599 -14.237343288170109 0 -14.237343288170109 -102.33716020858893 0 0 0 0 665.0787939417387 597.81366192611722 0 597.81366192611722 1094.4832299923528 0 0 0 0 1396.6558212157543 -795.75000117079128 0 -795.75000117079128 309.34651583667164 0 0 0 0 7.8767663012278319 -0.45561663575219524 0 -0.45561663575219524 0.70546991832262929 0 0 0 0 1847.1298699137478 -107.98592576155858 0 -107.98592576155858 1104.6935036539076 0 0 0 0 12.331940113785095 277.38054064482327 0 277.38054064482327 968.33564353544477 0 0 0 0 536.61855300512252 812.01560111978677 0 812.01560111978677 803.92004150284833 0 0 0 0 993.01645706577256 752.91014825824573 0 752.91014825824573 1050.5419786891187 0 0 0 0 924.17778005086438 446.27811755344993 0 446.27811755344993 306.97275119227942 0 0 0 0 606.01460565265734 529.85088873824907 0 529.85088873824907 304.6196020747152 0 0 0 0 1084.9036583484267 269.61951572817259 0 269.61951572817259 -485.25110946039877 0 0 0 0 573.55054415505583 351.56934051963219 0 351.56934051963219 -244.59331799728454 0 0 0 0 -1279.0695832735219 -518.18758721698987 0 -518.18758721698987 858.50105049521676 0 0 0 0 291.68291769069401 -1341.6437465616909 0 -1341.6437465616909 1203.8804418232646 0 0 0 0 2186.1547079231386 -33.813115280013292 0 -33.813115280013292 61.727407973540863 0 0 0 0 414.58357416198123 -122.92193399749988 0 -122.92193399749988 60.869465504458688 0 0 0 0 143.9569778710611 307.5460102570778 0 307.5460102570778 -623.50259091491557 0 0 0 0 -1.5431920158116554 -2.2809468225706837 0 -2.2809468225706837 2.9763871134401598 0 0 0 0 751.94701632115357 -383.35225260749706 0 -383.35225260749706 -77.077011158285586 0 0 0 0 543.94031288944643 58.690664040216177 0 58.690664040216177 59.347721465712311 0 0 0 0 -1106.2738137311499 -1533.8999620954417 0 -1533.8999620954417 480.30302548594943 0 0 0 0 89.821304762916043 -40.532545593239774 0 -40.532545593239774 69.964696616803849 0 0 0 0 101.30421193748771 -269.49092163364458 0 -269.49092163364458 -390.90115527106491 0 0 0 0 -1218.7424485615302 -562.21874840858334 0 -562.21874840858334 181.04523148358044 0 0 0 0 175.13334754906282 -170.43317434202538 0 -170.43317434202538 162.93505649845702 0 0 0 0 18.554704051732081 3.1522651564638977 0 3.1522651564638977 -14.742716464788989 0 0 0 0 -93.640295054923627 -1592.428320602997 0 -1592.428320602997 -422.65224050146435 0 0 0 0 -756.10808501495922 185.00046309438017 0 185.00046309438017 -68.823369209619045 0 0 0 0 629.70364831249026 -1111.7669440611185 0 -1111.7669440611185 -390.61370098591374 0 0 0 0 -139.29846762618399 -426.61125225977872 0 -426.61125225977872 470.95289961000549 0 0 0 0 -1491.3787396171429 -926.76846971167674 0 -926.76846971167674 347.03443186484674 0 0 0 0 -167.44903887248074 86.688574250110491 0 86.688574250110491 513.13645885680228 0 0 0 0 -311.8835847316368 -355.54209315344781 0 -355.54209315344781 443.31610142114357 0 0 0 0 13.216526486521616 -190.26495478774223 0 -190.26495478774223 524.61295427286541 0 0 0 0 19.744216783677984 -83.410890686146558 0 -83.410890686146558 65.773904712516014 0 0 0 0 113.6769630536146 133.00102735733572 0 133.00102735733572 257.17969721234022 0 0 0 0 141.46800948494274 74.101597894525639 0 74.101597894525639 243.67329402120549 0 0 0 0 -20.375158193899551 82.367375606452583 0 82.367375606452583 92.051997473997744 0 0 0 0 37.801642694161274 -77.624918970805993 0 -77.624918970805993 230.85738996741475 0 0 0 0 24.641401078396484 -116.0214967810906 0 -116.0214967810906 177.06157880160936 0 0 0 0 -133.50852003649197 107.41220335776688 0 107.41220335776688 123.83311861226321 0 0 0 0 23.966737578379252 63.262066139003537 0 63.262066139003537 50.336397706282241 0 0 0 0 10.337473784587928 164.20607195617868 0 164.20607195617868 -200.17549492085527 0 0 0 0 38.926512593105144 -55.194936587065058 0 -55.194936587065058 -240.89561671318666 0 0 0 0 1.9355498843144616 5.5626881543239293 0 5.5626881543239293 2.765456056094596 0 0 0 0 -60.844267612255862 138.16582896050068 0 138.16582896050068 -214.74819440473948 0 0 0 0 238.0813937970197 365.58607041571031 0 365.58607041571031 367.26494970381464 0 0 0 0 312.19527469037712 243.95377044496126 0 243.95377044496126 -219.57125737076967 0 0 0 0 2.2373685852967071 0.44523410537005148 0 0.44523410537005148 3.5619177174576802 0 0 0 0 132.21511647145962 348.89947208868216 0 348.89947208868216 573.51141224611797 0 0 0 0 187.58806626057594 495.03270986691723 0 495.03270986691723 240.71838250519977 0 0 0 0 -114.55184053207267 -103.68265578631326 0 -103.68265578631326 -157.1714087596356 0 0 0 0 533.54588698457883 167.86802867477581 0 167.86802867477581 -387.39058946726982 0 0 0 0 311.13345886678326 186.74071712186878 0 186.74071712186878 -341.2458536518352 0 0 0 0 238.71437848712776 129.24005556435714 0 129.24005556435714 -163.21098083481502 0 0 0 0 14.655549305027819 23.139027770159974 0 23.139027770159974 -20.123316163327285 0 0 0 0 153.6638970317826 -27.565771550347602 0 -27.565771550347602 -7.1635002310759521 0 0 0 0 598.13710160190567 423.32375778630785 0 423.32375778630785 275.5721859596797 0 0 0 0 476.62212001670923 510.69385026995769 0 510.69385026995769 333.07574078744597 0 0 0 0 109.29334032243969 -11.471511575168051 0 -11.471511575168051 -22.860300924024159 0 0 0 0 52.246139905252676 -48.600534374252675 0 -48.600534374252675 15.097956138204381 0 0 0 0 97.629579368032864 -6.5670592313690577 0 -6.5670592313690577 -2.6505653839590195 0 0 0 0 132.14558210909155 -25.671175011732281 0 -25.671175011732281 -7.0230526748721775 0 0 0 0 681.36221975837907 -183.58506207823757 0 -183.58506207823757 -461.32724409117645 0 0 0 0 99.396734854036367 -1.9503527379165462 0 -1.9503527379165462 -17.640322826115153 0 0 0 0 113.82660602820943 -6.5844862205766503 0 -6.5844862205766503 -19.925952517090991 0 0 0 0 -56.513808065155899 -54.056880969572241 0 -54.056880969572241 -0.18409179967935074 0 0 0 0 50.080665232448737 -29.054937637668282 0 -29.054937637668282 -15.382417562941562 0 0 0 0 85.511638536741884 -23.097026709862348 0 -23.097026709862348 -14.711088901649191 0 0 0 0 114.51200063939905 -94.205516111198563 0 -94.205516111198563 -507.36095500360068 0 0 0 0 -18.553872282574957 -46.074824825486914 0 -46.074824825486914 -359.27289552081038 0 0 0 0 3.0074252855445991 -9.7959260070233434 0 -9.7959260070233434 -4.8668080226718269 0 0 0 0 25.531798461539438 51.142067751056857 0 51.142067751056857 -67.501975127023798 0 0 0 0 50.862958785428617 -4.2965639114049257 0 -4.2965639114049257 -7.8836229283605226 0 0 0 0 12.546799586478542 -0.64187990168905884 0 -0.64187990168905884 -9.2372295694684787 0 0 0 0 26.211448385045514 21.905726296410649 0 21.905726296410649 -32.653985656166697 0 0 0 0 579.14361495361663 -179.47270459092647 0 -179.47270459092647 -1115.4822518436811 0 0 0 0 -224.76387430161412 -688.87768178216152 0 -688.87768178216152 -748.52203910590129 0 0 0 0 263.80838455150661 -10.849078797962079 0 -10.849078797962079 -509.5674132494126 0 0 0 0 253.81303046863468 -82.83536237195068 0 -82.83536237195068 -414.01863135948315 0 0 0 0 521.43815306937358 352.18429782434043 0 352.18429782434043 -237.54185164262185 0 0 0 0 299.00153244208195 261.28867651695975 0 261.28867651695975 -45.133009055301073 0 0 0 0 333.6631349201607 317.52987546757458 0 317.52987546757458 -177.1051320877433 0 0 0 0 297.90877632908359 252.21787955745245 0 252.21787955745245 104.40853294167295 0 0 0 0 464.52428492407125 201.45213340770633 0 201.45213340770633 -135.56025623736301 0 0 0 0 464.16392601366533 27.759318182185961 0 27.759318182185961 -27.725209000144861 0 0 0 0 382.49619381839875 -57.267773782769233 0 -57.267773782769233 -20.253919745667218 0 0 0 0 357.11340599763935 213.67234950174145 0 213.67234950174145 -320.22508524884086 0 0 0 0 34.32157702359109 28.306144947741501 0 28.306144947741501 -232.43192710365474 0 0 0 0 147.16822614648117 -144.76923709932561 0 -144.76923709932561 124.44189329284301 0 0 0 0 2.5737818893770026 1.2934533619675523 0 1.2934533619675523 -0.29906519258562325 0 0 0 0 -4.5137361718298052 20.933569095224115 0 20.933569095224115 37.532707955195747 0 0 0 0 417.85858637950514 150.0859797250825 0 150.0859797250825 -2.022684020872866 0 0 0 0 479.90155458781464 -0.64393128880144346 0 -0.64393128880144346 -15.342784403655997 0 0 0 0 397.46327011210815 -39.924476171478489 0 -39.924476171478489 -141.81504727732533 0 0 0 0 73.52472780140306 -197.79759415748691 0 -197.79759415748691 -25.172476895168444 0 0 0 0 100.26775732406168 -75.057801945957053 0 -75.057801945957053 76.347373377677684 0 0 0 0 65.745700063737047 -33.86188144611684 0 -33.86188144611684 -2.9733616097176041 0 0 0 0 0.073884786675989744 40.792327591665583 0 40.792327591665583 20.58169913002348 0 0 0 0 28.927915911836863 37.679765534647686 0 37.679765534647686 10.057803329235867 0 0 0 0 -9.7894682320429638 19.091269511324299 0 19.091269511324299 9.5164622465872526 0 0 0 0 18.730783984957696 39.524603928046666 0 39.524603928046666 16.689068773732135 0 0 0 0 -94.527518054197571 29.314928205783872 0 29.314928205783872 150.41084782779268 0 0 0 0 298.87444147686801 200.05880966114003 0 200.05880966114003 -17.104951748645476 0 0 0 0 -9.846740089559006 7.8641902948176572 0 7.8641902948176572 4.8755709763157853 0 0 0 0 384.42352048541397 72.313386432898895 0 72.313386432898895 -180.48622689886628 0 0 0 0 -16.535426801841822 -198.31266032908488 0 -198.31266032908488 -33.700674992412019 0 0 0 0 -47.297080741316904 64.173885873474092 0 64.173885873474092 30.694397778213897 0 0 0 0 5.3816549052337557 27.08519717488775 0 27.08519717488775 23.195818284512761 0 0 0 0 -31.216371744225398 52.251287872282319 0 52.251287872282319 -13.293285616828371 0 0 0 0 15.134950520506937 28.228693037798763 0 28.228693037798763 -1.5307118306403713 0 0 0 0 -10.183557686210406 36.110750682779326 0 36.110750682779326 -1.5119281988177136 0 0 0 0 -321.95744640980774 257.96310693671279 0 257.96310693671279 480.73825032894979 0 0 0 0 274.70519369086105 53.414750387211214 0 53.414750387211214 179.61623266049787 0 0 0 0 477.22314397727314 256.41080449108426 0 256.41080449108426 74.070138380112198 0 0 0 0 -128.00561068303068 -21.545413266808509 0 -21.545413266808509 -259.02578564966939 0 0 0 0 -112.04360860669294 63.090302646214326 0 63.090302646214326 -55.290613274099087 0 0 0 0 0.7508890976920668 -1.1773856220302719 0 -1.1773856220302719 2.8693600984361352 0 0 0 0 -241.80061162814673 17.589420997697857 0 17.589420997697857 50.252669964685992 0 0 0 0 11.249334775429428 26.61556561708985 0 26.61556561708985 8.245394178351507 0 0 0 0 4.8535237771302491 40.589439451967337 0 40.589439451967337 -1.4064346886984822 0 0 0 0 -0.66392329280279228 45.824864156499643 0 45.824864156499643 3.2397912352444109 0 0 0 0 23.730213183747765 16.121975380376171 0 16.121975380376171 -1.1080330133681855 0 0 0 0 5.1746634274672196 26.666026100828564 0 26.666026100828564 15.636503279233128 0 0 0 0 -46.329498258645309 1.6153985040687466 0 1.6153985040687466 4.4741686498818494 0 0 0 0 -114.08140356520926 21.011231846519991 0 21.011231846519991 49.399065120013802 0 0 0 0 -53.034282756350876 -37.253807271174082 0 -37.253807271174082 176.80168261995459 0 0 0 0 -131.38311121769948 -104.75732806692395 0 -104.75732806692395 128.15869527071482 0 0 0 0 37.585503189013252 -96.317006546423727 0 -96.317006546423727 208.58114274458012 0 0 0 0 -8.0042300926631871 -3.2674106189868972 0 -3.2674106189868972 2.7152809042653629 0 0 0 0 -111.82949680103775 110.32320933381379 0 110.32320933381379 72.913271422548775 0 0 0 0 29.507292137681759 19.634990761958598 0 19.634990761958598 17.487157212864563 0 0 0 0 -30.847586137723525 -1.9812745493988047 0 -1.9812745493988047 4.2597033270800759 0 0 0 0 -37.390785657600645 -2.0916832742586848 0 -2.0916832742586848 40.558199225374665 0 0 0 0 -82.358914955322689 -117.8997948033084 0 -117.8997948033084 -17.889873495816573 0 0 0 0 -9.3570982660239679 -72.635355787813751 0 -72.635355787813751 18.082039440129392 0 0 0 0 -52.78102024250984 -16.858840670018708 0 -16.858840670018708 27.060509835967423 0 0 0 0 -144.29436201162025 28.655791642979239 0 28.655791642979239 4.9550363516364087 0 0 0 0 -7.6685365744333467 -3.6960044119697812 0 -3.6960044119697812 5.9410108051779389 0 0 0 0 194.39943066609703 267.33611344810311 0 267.33611344810311 104.83911797997868 0 0 0 0 2.8397583821005909 -3.3527447656035676 0 -3.3527447656035676 10.643102168076041 0 0 0 0 207.82569036256609 216.07126749653827 0 216.07126749653827 183.50130396227269 0 0 0 0 147.42819205368141 223.48908380182695 0 223.48908380182695 266.47066675914755 0 0 0 0 301.76323009573025 525.43506100955142 0 525.43506100955142 329.57432360653905 0 0 0 0 270.50479985012498 418.34345234016166 0 418.34345234016166 42.671082459550647 0 0 0 0 229.24243524101257 350.08525618806362 0 350.08525618806362 298.92945448589461 0 0 0 0 108.9465521297534 235.88918293052041 0 235.88918293052041 277.05429215920765 0 0 0 0 65.498403611520189 224.68597584351022 0 224.68597584351022 292.76063442590385 0 0 0 0 96.772113757717307 342.2828304550344 0 342.2828304550344 614.40826220466295 0 0 0 0 226.86782787850825 427.01990551331608 0 427.01990551331608 325.44457869844763 0 0 0 0 19.266891798250384 3.127696080641182 0 3.127696080641182 6.6904167833727612 0 0 0 0 91.462361471261829 39.407699719485663 0 39.407699719485663 -44.694703313906444 0 0 0 0 108.97821324702818 67.325467325240368 0 67.325467325240368 203.56035898160809 0 0 0 0 -65.61070267346804 21.098923887948729 0 21.098923887948729 390.33190881739466 0 0 0 0 119.04778358210751 203.41234313638881 0 203.41234313638881 287.64874516599963 0 0 0 0 22.28574487521837 11.793087808814107 0 11.793087808814107 26.275574185075278 0 0 0 0 -10.358818925567903 -9.1165465810263413 0 -9.1165465810263413 18.835541672669933 0 0 0 0 -20.606156359543093 8.2506422063052014 0 8.2506422063052014 177.3607517631815 0 0 0 0 191.78781401285596 24.007624277097875 0 24.007624277097875 94.269303479855807 0 0 0 0 -0.6072302145520112 -2.4947141855710342 0 -2.4947141855710342 3.3477424250068819 0 0 0 0 4.0961370715112366 20.536188411824661 0 20.536188411824661 35.737790422533777 0 0 0 0 20.477204613261165 5.3600727128982726 0 5.3600727128982726 53.556814675300302 0 0 0 0 21.176196745374909 11.538237919543008 0 11.538237919543008 41.825939905521409 0 0 0 0 -1.6049085687641238 5.2225275059817733 0 5.2225275059817733 25.501887404031706 0 0 0 0 -3.6767970455912291 -1.1517567211224105 0 -1.1517567211224105 62.53078494075362 0 0 0 0 153.34299002854095 127.64522703069326 0 127.64522703069326 60.255240173060429 0 0 0 0 2.2608554340987155 -0.58393372393823739 0 -0.58393372393823739 4.7514480116694813 0 0 0 0 18.391502412094269 63.140411079208889 0 63.140411079208889 139.97271622939024 0 0 0 0 1047.9127163471312 -447.44067133976205 0 -447.44067133976205 197.17935697468556 0 0 0 0 25.026794331453857 21.381294845153661 0 21.381294845153661 50.004485731007662 0 0 0 0 3.3161739818833382 4.4889974957639112 0 4.4889974957639112 5.7010136865624403 0 0 0 0 1239.9069665470888 -366.12118889066096 0 -366.12118889066096 107.52853697584351 0 0 0 0 954.13482610822757 -584.71087438277914 0 -584.71087438277914 237.40239478791045 0 0 0 0 25.574943877432815 18.660542446608957 0 18.660542446608957 15.225047050341704 0 0 0 0 22.973859207508212 30.508617684980891 0 30.508617684980891 22.173548267469869 0 0 0 0 13.92614354541729 9.5504689423996751 0 9.5504689423996751 42.895122383951275 0 0 0 0 47.516811469766253 42.438135717220575 0 42.438135717220575 1.4636024366791389 0 0 0 0 87.815871323095053 29.234285358268153 0 29.234285358268153 40.806806749528505 0 0 0 0 31.12488163337548 7.7851202680431015 0 7.7851202680431015 37.615500121327386 0 0 0 0 51.797777988445461 34.061797695994834 0 34.061797695994834 21.243626282147531 0 0 0 0 43.564845739412704 -10.923133135450826 0 -10.923133135450826 65.610954474963364 0 0 0 0 -100.29291687483419 540.66040503105978 0 540.66040503105978 -168.42660806649656 0 0 0 0 -364.06674319078184 519.00784521892069 0 519.00784521892069 589.69670034052979 0 0 0 0 -413.5712513288272 200.50242935690949 0 200.50242935690949 2288.8149836254888 0 0 0 0 143.80539277626667 110.30666947414284 0 110.30666947414284 -121.79154619068868 0 0 0 0 127.25988166439492 187.75229716381 0 187.75229716381 35.882615538843311 0 0 0 0 74.261362541528797 107.8368188448585 0 107.8368188448585 16.889372194644238 0 0 0 0 45.031800616292458 150.29856298775485 0 150.29856298775485 287.1303307849339 0 0 0 0 116.38562871218164 162.75904920589892 0 162.75904920589892 90.560606789011217 0 0 0 0 124.57405517366078 192.50673593242482 0 192.50673593242482 1.1223071730928496 0 0 0 0 208.91380864305688 185.55327992289654 0 185.55327992289654 90.583435070686392 0 0 0 0 214.90211029516649 40.45057555043968 0 40.45057555043968 156.86805244359857 0 0 0 0 -13.585919897654094 45.288863924171892 0 45.288863924171892 111.04065161268227 0 0 0 0 -32.961576558886009 102.62331078178568 0 102.62331078178568 26.324742680437339 0 0 0 0 53.554149589937879 22.855199083949174 0 22.855199083949174 42.619940813232461 0 0 0 0 -2.2978103837122035 -10.507684890451856 0 -10.507684890451856 -239.7084038122739 0 0 0 0 -12.547136972792941 0.67491384939609134 0 0.67491384939609134 155.44703939848932 0 0 0 0 534.85372104228009 -25.626246452589839 0 -25.626246452589839 12.908915506369794 0 0 0 0 -35.665737893235928 93.364320725394464 0 93.364320725394464 -18.527682733527172 0 0 0 0 105.88076606053619 20.423443692069895 0 20.423443692069895 -9.5215169096154568 0 0 0 0 45.923754513742438 15.203013459369132 0 15.203013459369132 13.290828795362298 0 0 0 0 28.407890001272506 23.405320973196694 0 23.405320973196694 17.275976601725109 0 0 0 0 122.77843294939885 147.81944629957934 0 147.81944629957934 -82.221646980784499 0 0 0 0 564.84417045576993 -382.48520583674053 0 -382.48520583674053 82.541504763076944 0 0 0 0 184.97488398233691 -286.75352960607597 0 -286.75352960607597 253.93540038468109 0 0 0 0 1055.7394824788789 -209.58747427642311 0 -209.58747427642311 -13.101405269601855 0 0 0 0 1.2406492276064043 0.34578908045934043 0 0.34578908045934043 -0.81758133351782547 0 0 0 0 1104.1494058667813 -534.5887247399919 0 -534.5887247399919 232.48341514035843 0 0 0 0 986.43388296273042 -326.00198569526219 0 -326.00198569526219 43.873084886975221 0 0 0 0 -1.0534276318718199 -2.8859362264785631 0 -2.8859362264785631 0.23668480142624659 0 0 0 0 -266.51243184879058 203.51441120240975 0 203.51441120240975 123.48004750473956 0 0 0 0 540.15196538119199 -125.31114750104553 0 -125.31114750104553 114.66717011971377 0 0 0 0 1108.9433208637929 -347.13777406015834 0 -347.13777406015834 82.277931532838238 0 0 0 0 530.94133623545099 -158.57709390885805 0 -158.57709390885805 114.12708063528135 0 0 0 0 694.49330086022633 -54.032742406479308 0 -54.032742406479308 91.379149331532972 0 0 0 0 693.4306886902034 78.852841139851463 0 78.852841139851463 -3.882920242347609 0 0 0 0 -403.14367557774676 -74.125542254787433 0 -74.125542254787433 270.78411025625792 0 0 0 0 108.13210191055259 318.47669521325952 0 318.47669521325952 -1007.0064127081478 0 0 0 0 -246.15383658619976 -80.217665470891006 0 -80.217665470891006 -133.69970033394929 0 0 0 0 47.408903548069816 5.5817171905714247 0 5.5817171905714247 -0.86079525637897147 0 0 0 0 2.349415630731059 -5.5280242952568415 0 -5.5280242952568415 0.10694490352904396 0 0 0 0 1137.2438482414291 -335.04143436786626 0 -335.04143436786626 74.379281666228053 0 0 0 0 -198.37748751406616 -554.0091326933989 0 -554.0091326933989 -685.77765680829543 0 0 0 0 -171.98228495258081 88.064842639951166 0 88.064842639951166 -730.74989012685546 0 0 0 0 -326.27156363354879 111.20330627343719 0 111.20330627343719 -497.10170604387531 0 0 0 0 151.48809444176732 418.9139218737655 0 418.9139218737655 -820.25807418408658 0 0 0 0 727.22752606886206 169.04010433756321 0 169.04010433756321 314.49123855751532 0 0 0 0 1164.2390598870115 -192.76627577206455 0 -192.76627577206455 106.55188321051901 0 0 0 0 1707.4366848789214 -866.83228467595109 0 -866.83228467595109 266.29624731798685 0 0 0 0 1494.3757003777355 118.85833982473787 0 118.85833982473787 299.71826591544232 0 0 0 0 1829.1429280587472 -289.85054785458306 0 -289.85054785458306 126.85125544970106 0 0 0 0 1384.5566666473605 -489.58765900305661 0 -489.58765900305661 784.34659191438186 0 0 0 0 2461.3650929083815 37.416770104598982 0 37.416770104598982 296.11834852067113 0 0 0 0 1.3091390833539265 -0.5211114482000383 0 -0.5211114482000383 1.5666627196804384 0 0 0 0 1272.9933402497845 -371.15917495484973 0 -371.15917495484973 249.18687380199844 0 0 0 0 1301.0513862809748 -211.45079649145555 0 -211.45079649145555 -28.304171054795006 0 0 0 0 1144.537540808029 -95.573511613842129 0 -95.573511613842129 215.29496225686808 0 0 0 0 1090.9463889206381 -186.87591308079755 0 -186.87591308079755 183.198319868814 0 0 0 0 726.08357536763651 -71.295025338393316 0 -71.295025338393316 201.61848870659742 0 0 0 0 624.84889525694598 142.59550893120377 0 142.59550893120377 23.959099547551887 0 0 0 0 365.03997096321837 -83.265088347849996 0 -83.265088347849996 139.29954747410738 0 0 0 0 -748.71936163680948 -224.6235996407795 0 -224.6235996407795 309.25061746275605 0 0 0 0 -100.31972378521823 -303.51816999039124 0 -303.51816999039124 -33.685638728020422 0 0 0 0 -208.311979065591 91.060950421739108 0 91.060950421739108 180.65066729107639 0 0 0 0 503.69944896902962 -118.58281541038423 0 -118.58281541038423 120.44788202304881 0 0 0 0 109.34054133063182 165.37533933810482 0 165.37533933810482 226.31491985528828 0 0 0 0 50.441435894521419 122.92883503753501 0 122.92883503753501 -63.388866698136553 0 0 0 0 141.52168042318954 -28.963595767670995 0 -28.963595767670995 142.52904311246675 0 0 0 0 34.029556113409996 -35.855807831307615 0 -35.855807831307615 15.435391510773474 0 0 0 0 -233.05390380954486 -46.244095636900965 0 -46.244095636900965 124.37093750190888 0 0 0 0 81.062846455344697 -41.497746188493807 0 -41.497746188493807 33.481417582435597 0 0 0 0 38.822449126314304 -43.960009858000276 0 -43.960009858000276 24.421057767012648 0 0 0 0 80.491858216817491 -74.837204033961868 0 -74.837204033961868 251.13750956109061 0 0 0 0 342.52135988556256 -3.6227763861782307 0 -3.6227763861782307 127.64942151106624 0 0 0 0 174.18298026300909 296.6918550850711 0 296.6918550850711 281.67050151033339 0 0 0 0 16.758327732415637 267.48230514348404 0 267.48230514348404 340.90043649995096 0 0 0 0 159.97635513961723 267.15926910698198 0 267.15926910698198 603.24993160475128 0 0 0 0 912.1230481111852 -380.96790297329608 0 -380.96790297329608 -495.18283578910632 0 0 0 0 116.36602270283038 39.379248330174789 0 39.379248330174789 110.17958232185373 0 0 0 0 399.34389725347864 179.53651203041591 0 179.53651203041591 -646.88290800453615 0 0 0 0 743.30272914132001 -93.290603715258158 0 -93.290603715258158 -95.170237927195558 0 0 0 0 745.93556064480799 -72.231415760445088 0 -72.231415760445088 -466.87072594157871 0 0 0 0 501.4675961041994 41.954577842298249 0 41.954577842298249 11.081896006180614 0 0 0 0 504.16682151335954 55.84989725795981 0 55.84989725795981 -178.55230776593817 0 0 0 0 175.43284028323251 174.87765046146887 0 174.87765046146887 -200.11666949378196 0 0 0 0 -381.31402748239998 430.42342544162784 0 430.42342544162784 -7.4005525307329663 0 0 0 0 83.884088137918297 413.76248985014945 0 413.76248985014945 -495.84545355875525 0 0 0 0 -14.723683558579268 -12.71669602945952 0 -12.71669602945952 14.653284760817364 0 0 0 0 209.44752636592602 51.475237328057091 0 51.475237328057091 339.80366921305176 0 0 0 0 -30.783338349945552 92.3572700198566 0 92.3572700198566 257.71953543285554 0 0 0 0 159.03466871238197 235.39369965919235 0 235.39369965919235 331.21553251333887 0 0 0 0 21.534444857597563 -6.3810256702907679 0 -6.3810256702907679 -9.5444816825332364 0 0 0 0 27.645967699150788 -39.899238900774861 0 -39.899238900774861 352.37912249621104 0 0 0 0 161.1787218879399 133.3400916965993 0 133.3400916965993 52.800120368162936 0 0 0 0 170.02850583498366 173.57902430258986 0 173.57902430258986 111.31896555545185 0 0 0 0 235.41758171352558 158.80375906505628 0 158.80375906505628 26.940587742306434 0 0 0 0 167.73104871665419 199.80030833174567 0 199.80030833174567 120.94537389514994 0 0 0 0 253.42486509548326 158.90031467490189 0 158.90031467490189 -63.906489106073082 0 0 0 0 256.12530999094452 101.56631411800417 0 101.56631411800417 -28.803368144811202 0 0 0 0 253.30965970581747 112.64232056846294 0 112.64232056846294 -67.218107468300019 0 0 0 0 198.78831290962989 112.32232663981793 0 112.32232663981793 -30.096264656678102 0 0 0 0 166.67677303652454 197.24761856770328 0 197.24761856770328 173.53412021206779 0 0 0 0 184.2689144701435 403.68939772026931 0 403.68939772026931 -92.565237816519101 0 0 0 0 12.67560830995787 -3.8349012007847563 0 -3.8349012007847563 -4.5168991061724251 0 0 0 0 278.52463332844491 -40.94384841352894 0 -40.94384841352894 -158.01131643909139 0 0 0 0 14.628192506061168 76.525820255692366 0 76.525820255692366 -168.91802291135252 0 0 0 0 235.54376485313924 -21.177230237963158 0 -21.177230237963158 -38.81615238500035 0 0 0 0 319.68231036966608 93.437887723047254 0 93.437887723047254 -323.28163992276882 0 0 0 0 319.6149731627811 88.805510159173366 0 88.805510159173366 -68.01449233857943 0 0 0 0 262.11052793600356 50.090350509942901 0 50.090350509942901 -92.363585076514937 0 0 0 0 261.0092687039778 41.604750967452411 0 41.604750967452411 -8.5610697498709669 0 0 0 0 257.82259840175539 4.8566655310328315 0 4.8566655310328315 -32.94995961811037 0 0 0 0 264.97463461678126 -10.420082180441113 0 -10.420082180441113 -28.087237366371482 0 0 0 0 242.56134766925243 -4.7820910670793637 0 -4.7820910670793637 15.587266974894646 0 0 0 0 234.78897049494844 0.79236959634692994 0 0.79236959634692994 34.399386464205691 0 0 0 0 229.439013507872 -35.794299926252506 0 -35.794299926252506 85.754973965752015 0 0 0 0 264.67160921255709 -26.845333585742083 0 -26.845333585742083 41.515740390178053 0 0 0 0 239.90741094137775 -16.600520812264222 0 -16.600520812264222 66.197523423425991 0 0 0 0 247.85516777945304 -6.9840731706625547 0 -6.9840731706625547 51.060490790394852 0 0 0 0 269.02675627141434 -41.870274259397092 0 -41.870274259397092 95.874478477684988 0 0 0 0 337.72216328958166 -13.213679781550127 0 -13.213679781550127 50.607764686917221 0 0 0 0 -10.960297204814481 -12.884314637598223 0 -12.884314637598223 11.17278864564739 0 0 0 0 347.25729296290956 61.912461323375567 0 61.912461323375567 58.655000597343133 0 0 0 0 268.22074429408531 34.055668316839956 0 34.055668316839956 54.14086850620788 0 0 0 0 243.22732107393676 -22.953044457177612 0 -22.953044457177612 49.641147347019285 0 0 0 0 259.40429634065367 -45.747313331531814 0 -45.747313331531814 13.591107922326614 0 0 0 0 120.76160319228075 -18.048175059722666 0 -18.048175059722666 163.17838388012902 0 0 0 0 186.32663796357519 -189.49756215015418 0 -189.49756215015418 299.9835100283176 0 0 0 0 143.90524131235725 -117.01189300263616 0 -117.01189300263616 228.50251705758092 0 0 0 0 206.5370950702054 -94.83296875317842 0 -94.83296875317842 163.02018616260591 0 0 0 0 186.17174876512581 -69.06005960873847 0 -69.06005960873847 134.96280234903134 0 0 0 0 240.95640340997488 -48.999382658866068 0 -48.999382658866068 85.49438422249068 0 0 0 0 205.70938586868579 -15.390235043451867 0 -15.390235043451867 93.830687866929111 0 0 0 0 180.70857934890773 20.381502438584988 0 20.381502438584988 51.024608240610178 0 0 0 0 182.49542342962559 -12.651406067444245 0 -12.651406067444245 107.94275662753671 0 0 0 0 125.35338662762661 54.891590769090499 0 54.891590769090499 43.20713854595283 0 0 0 0 223.69374411637546 32.672605968309426 0 32.672605968309426 -0.45594779621183079 0 0 0 0 223.87748300613021 29.898130148323844 0 29.898130148323844 19.59922738011096 0 0 0 0 169.75931148431846 68.466240780714486 0 68.466240780714486 3.8516356417099473 0 0 0 0 226.65120537098846 67.936794092676223 0 67.936794092676223 -26.517317934777793 0 0 0 0 206.7457084376947 42.311044206264341 0 42.311044206264341 22.048107698868222 0 0 0 0 217.16926301899366 78.058803645210531 0 78.058803645210531 -26.377309457111963 0 0 0 0 133.92921488110733 35.843760018328567 0 35.843760018328567 31.810800625868524 0 0 0 0 173.88183241219667 55.585368701987335 0 55.585368701987335 -21.687836732148185 0 0 0 0 129.50326548633166 70.147822695116815 0 70.147822695116815 -47.258233218181715 0 0 0 0 104.87642865921953 31.021765606041413 0 31.021765606041413 6.9973757172460864 0 0 0 0 81.239025950140785 81.543597053499411 0 81.543597053499411 35.554279167751474 0 0 0 0 126.07244321945473 -12.422983214496412 0 -12.422983214496412 143.37804883276181 0 0 0 0 105.67500598834886 7.1612365044911428 0 7.1612365044911428 159.17412291229039 0 0 0 0 52.984618272497755 12.622407570714714 0 12.622407570714714 209.09074111665268 0 0 0 0 124.91246824779614 -92.526516472648126 0 -92.526516472648126 239.59474247311414 0 0 0 0 -17.251966947776964 125.2816088550386 0 125.2816088550386 37.348256648666691 0 0 0 0 104.89924721088391 38.037819698080447 0 38.037819698080447 26.688453345678454 0 0 0 0 97.318852311407682 84.381982449240638 0 84.381982449240638 -67.05282239775056 0 0 0 0 70.641808124067211 -22.374592866756668 0 -22.374592866756668 6.50798071520338 0 0 0 0 146.94816290191375 -24.13536827549342 0 -24.13536827549342 -235.47050270777788 0 0 0 0 11.388578234007582 222.76740965685474 0 222.76740965685474 -225.2958749368031 0 0 0 0 -212.35328843974276 418.53866491973076 0 418.53866491973076 109.75745425781224 0 0 0 0 92.899835885065841 -75.058126766732926 0 -75.058126766732926 -105.36858855096654 0 0 0 0 144.61305451809312 8.8386132081703295 0 8.8386132081703295 -174.95169367518236 0 0 0 0 114.6706944098114 5.6414806596137623 0 5.6414806596137623 -47.309321868163757 0 0 0 0 -245.89888017263729 672.36477128753359 0 672.36477128753359 15.287380150506579 0 0 0 0 -248.0791257347737 588.45702177311432 0 588.45702177311432 121.89867065656317 0 0 0 0 -230.68898707459448 571.21532406947154 0 571.21532406947154 133.28691675038863 0 0 0 0 -232.7885141595616 581.06682431854279 0 581.06682431854279 326.86101721713931 0 0 0 0 -117.06520694636856 500.9047321211001 0 500.9047321211001 242.45561999421807 0 0 0 0 197.84176571421267 101.75459227957197 0 101.75459227957197 24.551864398597559 0 0 0 0 213.61556293869216 81.287993672261251 0 81.287993672261251 -17.582366918098842 0 0 0 0 163.93707407932379 64.566368112121722 0 64.566368112121722 -10.887226611561447 0 0 0 0 161.28766991000157 67.917930367950959 0 67.917930367950959 -12.525674207406595 0 0 0 0 109.92051825879025 36.527756939671178 0 36.527756939671178 -3.544585178086848 0 0 0 0 132.98702447886171 21.040724399587972 0 21.040724399587972 -50.492870054948895 0 0 0 0 39.08273329390795 -57.518389073034598 0 -57.518389073034598 -28.90824942893974 0 0 0 0 -302.04486931185238 826.63354516549225 0 826.63354516549225 83.135665986394088 0 0 0 0 49.327800551904147 22.947319955780145 0 22.947319955780145 44.645671680894139 0 0 0 0 175.42768776167941 106.39844140843992 0 106.39844140843992 24.369183379420818 0 0 0 0 115.17457582551287 85.083191086672258 0 85.083191086672258 100.20104362067168 0 0 0 0 1985.9085703385354 -303.7517972019341 0 -303.7517972019341 -211.8586233302558 0 0 0 0 -371.29075458097941 238.73278541063883 0 238.73278541063883 -34.020952469974873 0 0 0 0 6.0460196117073224 1.6513532180251644 0 1.6513532180251644 6.952608722628316 0 0 0 0 77.425844574127041 -31.696836927498598 0 -31.696836927498598 10.369791145707595 0 0 0 0 1129.0821564413782 -643.01809508692349 0 -643.01809508692349 -244.99879043233523 0 0 0 0 1659.937048281834 21.313740767080162 0 21.313740767080162 -306.78184179623713 0 0 0 0 408.34102193149738 -694.29237165287486 0 -694.29237165287486 995.12221633394074 0 0 0 0 -365.12510230085172 895.58177761814113 0 895.58177761814113 350.82590897488262 0 0 0 0 -452.55979893670883 703.92887550122578 0 703.92887550122578 580.59527536293899 0 0 0 0 -415.15848193943384 428.42676581120577 0 428.42676581120577 455.44399443175098 0 0 0 0 1958.8130195860431 -156.75671474881301 0 -156.75671474881301 -357.0210189299687 0 0 0 0 1829.8829244946414 -305.05124226624019 0 -305.05124226624019 -157.75850264251494 0 0 0 0 1182.9210453091364 -132.58534669446817 0 -132.58534669446817 -88.564277182325895 0 0 0 0 1412.1590613721492 -154.55728299274097 0 -154.55728299274097 -132.28361035072885 0 0 0 0 1433.9350844073924 -236.81694858626724 0 -236.81694858626724 -161.89877278071435 0 0 0 0 1300.4692410221323 -232.90713151451564 0 -232.90713151451564 -148.40960215706946 0 0 0 0 861.23021519673057 -85.265008682581538 0 -85.265008682581538 -28.862046208891115 0 0 0 0 909.3580800764903 -23.125003925932106 0 -23.125003925932106 -86.681882863042119 0 0 0 0 1020.0162370695907 1.4225849113536242 0 1.4225849113536242 -259.56794305987569 0 0 0 0 1222.1833195519866 -231.84015542163979 0 -231.84015542163979 -86.823709088683245 0 0 0 0 -177.22491842685849 582.50933072608859 0 582.50933072608859 20.912768313504785 0 0 0 0 -175.34450832555922 511.40868444194189 0 511.40868444194189 -71.530761858612095 0 0 0 0 6.2874264713609591 711.30314928492226 0 711.30314928492226 141.19400444113671 0 0 0 0 -77.62787769685383 550.26200531085306 0 550.26200531085306 194.34609949977676 0 0 0 0 -355.17730286260485 589.90272993879989 0 589.90272993879989 198.16737698988823 0 0 0 0 -285.22509251179872 592.05163927979265 0 592.05163927979265 197.75084302888354 0 0 0 0 -349.33021169580752 661.79861257697848 0 661.79861257697848 121.86958124824878 0 0 0 0 -435.1511061800411 652.1513527759962 0 652.1513527759962 250.70998760393741 0 0 0 0 -346.16749459211132 685.86188806990322 0 685.86188806990322 260.30413762739045 0 0 0 0 -359.14738505869173 597.30139172853524 0 597.30139172853524 285.71040693324903 0 0 0 0 -264.83259289473062 419.96259386505881 0 419.96259386505881 -118.85092969012112 0 0 0 0 -419.57741870434256 383.56692117467355 0 383.56692117467355 115.59849468299217 0 0 0 0 -302.17258124928048 226.94420721080314 0 226.94420721080314 -192.46268661591603 0 0 0 0 -121.40632986754645 266.77891785653992 0 266.77891785653992 -589.95418628225889 0 0 0 0 -101.42940576271212 318.97727533146099 0 318.97727533146099 -455.02970886229014 0 0 0 0 -60.207725914602634 296.62035350269525 0 296.62035350269525 -613.61099716464378 0 0 0 0 -82.674172158149304 490.51568650328772 0 490.51568650328772 -363.26333636289201 0 0 0 0 -270.50967661257891 404.51831965402516 0 404.51831965402516 -118.94019865081646 0 0 0 0 -6.3759502729953965 618.39257397975689 0 618.39257397975689 -204.9788252133003 0 0 0 0 -63.317832351291145 451.10606210750166 0 451.10606210750166 -554.70510271207604 0 0 0 0 -17.32512625399977 666.33710537676598 0 666.33710537676598 -592.48360676492302 0 0 0 0 81.303796944615897 497.12792964553773 0 497.12792964553773 -453.30113019115015 0 0 0 0 285.00697788424441 289.81060227126 0 289.81060227126 -258.75514683111396 0 0 0 0 168.19858059141552 429.42922887458553 0 429.42922887458553 -559.45591601582419 0 0 0 0 744.12066978306393 71.482304723380366 0 71.482304723380366 -438.45705034274943 0 0 0 0 431.53292326852534 -156.89039338193652 0 -156.89039338193652 -603.63308300208882 0 0 0 0 -57.843445786013035 508.25785666462434 0 508.25785666462434 -387.19403974961278 0 0 0 0 576.79988198111187 478.52272285478909 0 478.52272285478909 -139.87800556289221 0 0 0 0 577.43886433206239 -84.889392737592033 0 -84.889392737592033 -76.840638463254436 0 0 0 0 937.00089544736693 -172.38345292364011 0 -172.38345292364011 362.88028714542452 0 0 0 0 1266.1563591599115 -59.295601412017277 0 -59.295601412017277 -124.32281669141776 0 0 0 0 956.49716427235398 477.45994272683492 0 477.45994272683492 85.262753118673572 0 0 0 0 695.72901972633554 295.29406936871419 0 295.29406936871419 -20.994118354898092 0 0 0 0 427.08481762310839 750.01086144203146 0 750.01086144203146 181.36698016976516 0 0 0 0 147.63228930885089 670.25849363511952 0 670.25849363511952 -141.63047250541786 0 0 0 0 107.02188990180002 496.11984070959352 0 496.11984070959352 4.8983249538578093 0 0 0 0 765.63171723022242 154.09593321254579 0 154.09593321254579 -1042.0941784990864 0 0 0 0 551.92696174461526 -498.2388852501997 0 -498.2388852501997 -67.221377725345519 0 0 0 0 1257.07374223035 -489.07532470240767 0 -489.07532470240767 -114.9154421070898 0 0 0 0 608.94747899889626 -116.96594779345651 0 -116.96594779345651 -106.80598883945277 0 0 0 0 427.9660408681375 -534.87735063614673 0 -534.87735063614673 1548.9990606215633 0 0 0 0 11.260157758167196 7.9411324491034518 0 7.9411324491034518 0.61314479443592529 0 0 0 0 4344.9255952169187 2314.9086980498687 0 2314.9086980498687 -82.420746940377285 0 0 0 0 -575.19015541580291 789.98169619660746 0 789.98169619660746 252.24631437870084 0 0 0 0 1907.7252402328886 2143.3934034450176 0 2143.3934034450176 107.5483802542069 0 0 0 0 9.737818755402202 4.0438775187188583 0 4.0438775187188583 2.8746875805571488 0 0 0 0 1744.8429664689029 -1664.6873290204458 0 -1664.6873290204458 1161.148167249796 0 0 0 0 -47.048698220431106 807.52051900691731 0 807.52051900691731 652.15376693858707 0 0 0 0 -188.35490575956646 495.5516611872863 0 495.5516611872863 537.64943939179284 0 0 0 0 87.476912072859704 697.14868604659932 0 697.14868604659932 593.78599722743547 0 0 0 0 130.34123886874295 755.21787848820895 0 755.21787848820895 371.36140487103694 0 0 0 0 1013.5656920333568 1050.0772887106086 0 1050.0772887106086 427.98879576813852 0 0 0 0 258.30709509339067 589.95901236454029 0 589.95901236454029 269.56655194370614 0 0 0 0 1757.1871213905979 -651.52706036137351 0 -651.52706036137351 516.13440421562382 0 0 0 0 1198.7870998183207 280.5789259427911 0 280.5789259427911 163.25100165934418 0 0 0 0 2758.2482562180376 803.41333126021345 0 803.41333126021345 -96.099508663322922 0 0 0 0 1239.0990719390684 1427.8710210595964 0 1427.8710210595964 594.44200232279036 0 0 0 0 8338.3063766450505 1945.2778217474797 0 1945.2778217474797 -529.80119609212443 0 0 0 0 3874.9937525201531 -755.72774791970278 0 -755.72774791970278 -306.42553321610376 0 0 0 0 3606.2718320407039 3245.8133372901093 0 3245.8133372901093 395.71218944588509 0 0 0 0 -295.91695974496542 274.79609626848014 0 274.79609626848014 381.12498810746456 0 0 0 0 -578.41748088612803 463.58507651057971 0 463.58507651057971 653.80923086614575 0 0 0 0 -373.38107095306623 1264.865523889117 0 1264.865523889117 631.04065250440067 0 0 0 0 -222.07632924400968 172.48295183369379 0 172.48295183369379 98.59796934460519 0 0 0 0 1945.0826979667763 187.00156160824338 0 187.00156160824338 1641.3984903630821 0 0 0 0 -4.8955524773045909 -72.479795300724163 0 -72.479795300724163 329.3238149156889 0 0 0 0 -7.4445546778297285 -85.298252567870804 0 -85.298252567870804 306.39561286484513 0 0 0 0 285.69018201576546 -305.27792125136392 0 -305.27792125136392 346.73226376875937 0 0 0 0 -173.05485636331832 -109.11210871664449 0 -109.11210871664449 332.67461816721504 0 0 0 0 360.58958024812455 -375.08793081465103 0 -375.08793081465103 287.20912133143332 0 0 0 0 2761.7302121255198 1841.838109065721 0 1841.838109065721 -308.26066587658102 0 0 0 0 33.112349666085777 -6.9578378985424862 0 -6.9578378985424862 1.0965117430210478 0 0 0 0 1599.5555606654962 2162.5587373379126 0 2162.5587373379126 152.31898015614121 0 0 0 0 3629.2214603926695 274.3561296914782 0 274.3561296914782 141.48907049417761 0 0 0 0 293.40917576339416 -283.49792344113456 0 -283.49792344113456 403.89083229195251 0 0 0 0 1119.0754898867453 -509.97980842821909 0 -509.97980842821909 296.12713740444684 0 0 0 0 772.70306764837005 171.37528185838255 0 171.37528185838255 77.310273013918675 0 0 0 0 1151.4838511424896 -501.84885816864852 0 -501.84885816864852 325.89000541496199 0 0 0 0 1086.9926101219626 115.65607860736519 0 115.65607860736519 172.06654413416794 0 0 0 0 1257.4326368002075 111.20943564907193 0 111.20943564907193 81.036408724898422 0 0 0 0 718.0131414202624 -286.1157059666732 0 -286.1157059666732 188.43284480024545 0 0 0 0 279.93034041348437 -294.51951003068427 0 -294.51951003068427 385.08137181144139 0 0 0 0 104.55843487467791 -95.125566012735476 0 -95.125566012735476 258.153389100514 0 0 0 0 375.99606982726255 -200.60107106006365 0 -200.60107106006365 239.78374693224885 0 0 0 0 -68.624343777133618 6.3869990225983884 0 6.3869990225983884 577.7506042737042 0 0 0 0 230.06551722374934 1228.3574021821032 0 1228.3574021821032 594.34767697170469 0 0 0 0 -4.5115150387412086 -0.68781700582087524 0 -0.68781700582087524 4.0433641903437625 0 0 0 0 -131.29450822818035 -133.34339976102086 0 -133.34339976102086 79.475333549085121 0 0 0 0 762.68893273104914 1371.925902645085 0 1371.925902645085 2561.8673900733966 0 0 0 0 243.47237525162564 -1660.4147776370842 0 -1660.4147776370842 873.13155754650415 0 0 0 0 -399.92922453170468 -234.51019651110619 0 -234.51019651110619 278.36303767430218 0 0 0 0 47.752926198336354 12.446315497823946 0 12.446315497823946 23.532605712482564 0 0 0 0 6.4556655110381769 -7.4129830862988939 0 -7.4129830862988939 -0.0025103390918372881 0 0 0 0 -402.85109905009449 -82.866000341896324 0 -82.866000341896324 -19.690700121753252 0 0 0 0 20.517211337020854 70.29062552786263 0 70.29062552786263 36.479380088361211 0 0 0 0 34.995051736565642 -7.2763312156370166 0 -7.2763312156370166 -8.1271945002388417 0 0 0 0 33.258592611848144 -151.03160026678142 0 -151.03160026678142 264.58470898151779 0 0 0 0 99.646565183822531 -94.751990016659875 0 -94.751990016659875 149.37585666641826 0 0 0 0 183.0392904340988 -129.32462990791191 0 -129.32462990791191 -196.39009630643704 0 0 0 0 137.68890715748421 -261.31430194610039 0 -261.31430194610039 46.649862097589903 0 0 0 0 44.194893964930088 -66.266004276108106 0 -66.266004276108106 88.663461705136797 0 0 0 0 449.57587459521892 -699.8408691022471 0 -699.8408691022471 -1293.5811781972066 0 0 0 0 65.408676155377179 -143.58505962425261 0 -143.58505962425261 1240.1074797439314 0 0 0 0 26.157538513980995 1.1264340310879994 0 1.1264340310879994 0.07775042998178805 0 0 0 0 -181.29705493740039 -112.59339962118429 0 -112.59339962118429 1249.6518591150921 0 0 0 0 2.1101623329782342 7.9858501938653266 0 7.9858501938653266 -2.2505848650212461 0 0 0 0 -43.036916808516253 -276.37551433013505 0 -276.37551433013505 974.75130663270033 0 0 0 0 217.6107274236274 -562.12069989346764 0 -562.12069989346764 24.057896201056792 0 0 0 0 166.02645906360704 -21.112033693398189 0 -21.112033693398189 -170.37595882898586 0 0 0 0 470.32621345311054 -309.94648780044645 0 -309.94648780044645 -915.28290221297084 0 0 0 0 -552.58984717961971 -849.71470661138778 0 -849.71470661138778 175.89885715710989 0 0 0 0 27.640514979290003 8.6371236827059619 0 8.6371236827059619 -0.048517664200076638 0 0 0 0 219.79319889197723 -569.79579582537963 0 -569.79579582537963 -103.3864076764421 0 0 0 0 4.9643022267700871 -596.43024112122112 0 -596.43024112122112 -106.2803512458263 0 0 0 0 222.75203195423819 332.0299232887528 0 332.0299232887528 -800.76975479543444 0 0 0 0 -96.479570616385899 -217.99876734406007 0 -217.99876734406007 -110.83065724242351 0 0 0 0 -183.80954389988619 90.015205301831884 0 90.015205301831884 -153.42562503179624 0 0 0 0 34.500871814889251 -105.03013227666679 0 -105.03013227666679 -125.59572259560264 0 0 0 0 -82.748530118959025 951.33805274715996 0 951.33805274715996 1278.4756134705503 0 0 0 0 36.001534365296834 8.3869958316435458 0 8.3869958316435458 -7.1117839230914921 0 0 0 0 1717.9347308714059 1054.9813053776343 0 1054.9813053776343 1102.8900560692782 0 0 0 0 -660.71878463174653 -656.16333335319541 0 -656.16333335319541 88.097113285242813 0 0 0 0 603.48451585817384 974.55802425001184 0 974.55802425001184 63.585811210014072 0 0 0 0 1994.4882995512307 876.09105561815159 0 876.09105561815159 -53.798050225384941 0 0 0 0 -380.6528438564419 -24.589844301077392 0 -24.589844301077392 -321.22691833318004 0 0 0 0 -59.4648805221928 296.91801409407088 0 296.91801409407088 -310.75167641761072 0 0 0 0 95.11838321905816 15.522758943987355 0 15.522758943987355 -326.87296807596795 0 0 0 0 17.6510165120729 6.025825780688379 0 6.025825780688379 -6.8126456582845094 0 0 0 0 420.36993920926761 -59.169785106758354 0 -59.169785106758354 -892.121716673435 0 0 0 0 295.36568213168357 226.6810984301992 0 226.6810984301992 -465.86080094158751 0 0 0 0 18.741088287891131 4.1872696347057925 0 4.1872696347057925 0.44467784393119403 0 0 0 0 -243.48368693780503 323.51836568472027 0 323.51836568472027 793.69903163043 0 0 0 0 -150.46467422832939 207.35039594313821 0 207.35039594313821 388.91503696840846 0 0 0 0 -154.94322212268344 129.99521845965441 0 129.99521845965441 86.207723653680659 0 0 0 0 49.529248806128606 6.8081739439316546 0 6.8081739439316546 -2.2119277623160194 0 0 0 0 1977.649267118366 1030.1147089140813 0 1030.1147089140813 -814.19986659657502 0 0 0 0 766.52944067216595 -367.81547943488113 0 -367.81547943488113 -1519.7173385872547 0 0 0 0 82.134817952086451 616.22647441408481 0 616.22647441408481 -882.50589288932497 0 0 0 0 -377.34553087197128 606.15292795821915 0 606.15292795821915 -616.67978380000568 0 0 0 0 -447.28514900183654 -189.62583671269567 0 -189.62583671269567 -576.06616118776765 0 0 0 0 -151.66400880196306 1079.9348919338208 0 1079.9348919338208 1404.5416060877205 0 0 0 0 -1773.0474291213541 -141.21386716035431 0 -141.21386716035431 1946.4288181151751 0 0 0 0 -946.754801090603 -1006.9834789141078 0 -1006.9834789141078 328.60295141774259 0 0 0 0 147.3307376890516 296.12970192184184 0 296.12970192184184 90.294502668807581 0 0 0 0 -125.26831027779554 86.791542814422428 0 86.791542814422428 304.87912104422475 0 0 0 0 1638.1791688970552 452.27844929138064 0 452.27844929138064 86.39157128664192 0 0 0 0 208.47973810022995 68.741611621654329 0 68.741611621654329 -2.7467132368474267 0 0 0 0 576.12477659330762 318.88333980678726 0 318.88333980678726 69.792550467360343 0 0 0 0 531.82012372795725 -353.65130864425009 0 -353.65130864425009 192.11448782187199 0 0 0 0 15.902066414613103 10.868218368050954 0 10.868218368050954 9.2490966639982162 0 0 0 0 1074.6921810311469 -393.24713581854758 0 -393.24713581854758 179.95268151998062 0 0 0 0 1003.8785228950146 -163.65266450178842 0 -163.65266450178842 -83.220461129069008 0 0 0 0 350.77672092033754 -264.38465528596589 0 -264.38465528596589 148.29959675759437 0 0 0 0 541.26291313267939 2.2738032596312223 0 2.2738032596312223 -134.98171291332801 0 0 0 0 534.47799345980457 -13.010329959908631 0 -13.010329959908631 -151.98263056988799 0 0 0 0 433.69548852406297 27.825527207663072 0 27.825527207663072 -165.04726376578537 0 0 0 0 160.99619121437718 4.2288668033561407 0 4.2288668033561407 -129.40762513150912 0 0 0 0 432.75791737632971 203.04784674280563 0 203.04784674280563 -44.769617119704208 0 0 0 0 41.064750281173474 84.642153861383804 0 84.642153861383804 -20.85517811653699 0 0 0 0 346.37790633776603 82.616283704088346 0 82.616283704088346 -152.17575891193815 0 0 0 0 373.21948274379247 7.2119247753925038 0 7.2119247753925038 -139.04136356294657 0 0 0 0 312.35968333952769 -114.65623630194659 0 -114.65623630194659 32.866230180603509 0 0 0 0 417.96483973979775 37.257741424850792 0 37.257741424850792 -102.67930147715924 0 0 0 0 531.2015783478746 31.323735547288834 0 31.323735547288834 -145.54836476177479 0 0 0 0 435.16246363194659 101.22702634311281 0 101.22702634311281 -53.136786986530979 0 0 0 0 388.23886241549189 50.818567175670978 0 50.818567175670978 -104.83321449243704 0 0 0 0 339.29104600655774 135.34286457194321 0 135.34286457194321 -51.090347029841723 0 0 0 0 129.67249007109058 16.558027685914112 0 16.558027685914112 19.970375489288926 0 0 0 0 138.26512466790882 71.788545953150333 0 71.788545953150333 0.29433583880199876 0 0 0 0 9.1776071864973829 25.653958935730444 0 25.653958935730444 10.025061311031788 0 0 0 0 127.84629896331171 47.832754097568341 0 47.832754097568341 -7.5799098463725159 0 0 0 0 17.633454224520854 8.722118143577525 0 8.722118143577525 2.9787569661939379 0 0 0 0 23.399834237558196 48.208152545698603 0 48.208152545698603 10.126306250804191 0 0 0 0 1.1123730150493429 11.000226447204199 0 11.000226447204199 0.36877133031029885 0 0 0 0 26.576262732429313 1.2656963872964297 0 1.2656963872964297 -14.823265786045795 0 0 0 0 23.739821978143326 4.4802143235853435 0 4.4802143235853435 -30.737386400188676 0 0 0 0 44.358927454610864 35.513961313963883 0 35.513961313963883 17.862182244962348 0 0 0 0 153.60138937864394 46.278444341059185 0 46.278444341059185 6.7575340970670368 0 0 0 0 108.14387463938328 -10.788735258024417 0 -10.788735258024417 30.815653649976412 0 0 0 0 327.80913332664568 -31.54525995142194 0 -31.54525995142194 12.821790470903579 0 0 0 0 49.250017871308955 163.97558833331959 0 163.97558833331959 -27.709870153700649 0 0 0 0 125.74870670163364 180.61212709220536 0 180.61212709220536 -39.911483257102418 0 0 0 0 201.38846225345333 89.443398486247588 0 89.443398486247588 -15.349624813845367 0 0 0 0 78.684400383324828 4.2478037818464145 0 4.2478037818464145 -47.76739289026591 0 0 0 0 145.30695687077241 24.43178338550706 0 24.43178338550706 -42.208386370164135 0 0 0 0 79.757211158386781 9.2921738920304051 0 9.2921738920304051 -24.157801358425331 0 0 0 0 -0.65463412479732597 2.9191341313046451 0 2.9191341313046451 4.6522614601299459 0 0 0 0 -19.940811342079542 18.400541381342919 0 18.400541381342919 90.504520538082943 0 0 0 0 -50.263311750542925 3.6958748621595987 0 3.6958748621595987 225.52946902484109 0 0 0 0 509.88342252000803 369.50473764485662 0 369.50473764485662 -216.77934703400751 0 0 0 0 684.32686779086362 -255.67094728843585 0 -255.67094728843585 62.388354235150473 0 0 0 0 438.34409486985533 -156.25284173620457 0 -156.25284173620457 23.638299472278959 0 0 0 0 118.50410611373275 -19.069057357015701 0 -19.069057357015701 -27.760180165217303 0 0 0 0 288.12592789051632 -0.64665938468124295 0 -0.64665938468124295 -122.13198157403303 0 0 0 0 41.144555757197146 11.75638090148805 0 11.75638090148805 -2.2010552889232482 0 0 0 0 919.77136506369425 660.41910383126424 0 660.41910383126424 538.8812313130727 0 0 0 0 438.99633562394592 89.974822587996186 0 89.974822587996186 -191.3256713696087 0 0 0 0 129.32354199401743 -79.13766048430125 0 -79.13766048430125 -251.77554525665892 0 0 0 0 170.08147707596072 262.88308692651935 0 262.88308692651935 111.05938256404806 0 0 0 0 -60.260391072559287 153.66052902047295 0 153.66052902047295 118.1258055440403 0 0 0 0 -0.65264297670984206 1.4803414579812681 0 1.4803414579812681 5.3841311721818013 0 0 0 0 415.96670404874749 174.99426823077511 0 174.99426823077511 -127.20808630801889 0 0 0 0 -112.1025919425374 -173.53207516665873 0 -173.53207516665873 293.32834067878321 0 0 0 0 17.209632033324993 30.438202099177389 0 30.438202099177389 -33.314017407233266 0 0 0 0 -53.641434945151559 139.48198943560368 0 139.48198943560368 31.57153196441368 0 0 0 0 181.3274829556467 171.61951474490843 0 171.61951474490843 -94.506222540103636 0 0 0 0 246.84616815441404 -7.500608671055943 0 -7.500608671055943 -20.824461373116037 0 0 0 0 565.81196712485144 -266.76937840265822 0 -266.76937840265822 88.122649370630825 0 0 0 0 193.32754440738063 8.0348050442462409 0 8.0348050442462409 -1.4426264292753785 0 0 0 0 277.48768983177433 -22.772177894309834 0 -22.772177894309834 -22.554796204298782 0 0 0 0 308.11107371620164 -116.22320345386811 0 -116.22320345386811 19.360628304802503 0 0 0 0 9.3668504947274442 6.6381954774009415 0 6.6381954774009415 4.0782984352875111 0 0 0 0 267.88629630084324 -169.44293252239925 0 -169.44293252239925 81.107156614290943 0 0 0 0 36.026595661474857 92.479725958027075 0 92.479725958027075 -81.341892516975349 0 0 0 0 139.67433761095162 57.055506465419057 0 57.055506465419057 -107.30652154770473 0 0 0 0 130.00646895552563 -66.648048006574697 0 -66.648048006574697 -20.134044968581293 0 0 0 0 -21.531615836778656 -30.027168381427146 0 -30.027168381427146 15.69852948130665 0 0 0 0 97.710300519938755 35.82950264632882 0 35.82950264632882 3.8320285315958245 0 0 0 0 48.609881486874656 19.792039206905429 0 19.792039206905429 -19.995596640900317 0 0 0 0 113.38173675490543 19.364900328214844 0 19.364900328214844 -32.360397123012717 0 0 0 0 51.253748949424335 37.743213100112143 0 37.743213100112143 -13.233138467636309 0 0 0 0 -45.403650491312874 -1113.9400654523859 0 -1113.9400654523859 -494.73392385903935 0 0 0 0 18.391860818086059 1.2430161921524956 0 1.2430161921524956 -32.734817944054797 0 0 0 0 82.203244133255794 21.574812649344494 0 21.574812649344494 -163.25114509493869 0 0 0 0 977.27038690672998 -1062.2300830505269 0 -1062.2300830505269 -635.21682020792832 0 0 0 0 10.08305160296166 -3.8016910284036811 0 -3.8016910284036811 -10.422767809330736 0 0 0 0 25.758991409459625 -17.18225896648778 0 -17.18225896648778 -28.629394159472582 0 0 0 0 46.904759660887066 -4.2331705878889352 0 -4.2331705878889352 -38.613439195953106 0 0 0 0 10.287682236958062 -6.5945083259089188 0 -6.5945083259089188 -36.569554399564765 0 0 0 0 98.238106240387424 -156.83524836441811 0 -156.83524836441811 76.621298786627563 0 0 0 0 -14.882852302932037 -23.057979837606439 0 -23.057979837606439 -20.290925562155106 0 0 0 0 122.13176425267011 -89.674653623446829 0 -89.674653623446829 -57.947892539001487 0 0 0 0 69.96037216433615 -32.297487092137999 0 -32.297487092137999 -13.109163512042869 0 0 0 0 178.80874673536164 -27.611312907365118 0 -27.611312907365118 8.7961297864654853 0 0 0 0 141.18156189964066 -41.977988936824659 0 -41.977988936824659 68.605668284200419 0 0 0 0 177.99980204354506 -97.986864634436643 0 -97.986864634436643 95.432010199119304 0 0 0 0 302.50836836057715 -145.36487604575996 0 -145.36487604575996 84.383476193885315 0 0 0 0 147.69357218721416 -119.96549762303312 0 -119.96549762303312 179.83434552327662 0 0 0 0 135.1813315997133 -217.76012278818075 0 -217.76012278818075 274.18900057055089 0 0 0 0 0.86043942473000357 -2.1257149334961127 0 -2.1257149334961127 -2.3992499284346751 0 0 0 0 109.5696149093128 -123.02724858139618 0 -123.02724858139618 150.3881315628314 0 0 0 0 251.982676519503 -123.67497246326661 0 -123.67497246326661 42.181535928639278 0 0 0 0 211.85877514825552 -99.470547042141334 0 -99.470547042141334 27.609998801558959 0 0 0 0 92.166633836983237 -120.75610427915228 0 -120.75610427915228 25.489080118414734 0 0 0 0 117.40016020287294 4.1857688914773803 0 4.1857688914773803 -28.69373780827982 0 0 0 0 134.58251260142424 -39.758639905623795 0 -39.758639905623795 148.86241624543982 0 0 0 0 170.2705562379997 -26.262724110355634 0 -26.262724110355634 38.508501595880716 0 0 0 0 86.065724144194974 -29.812690509276308 0 -29.812690509276308 47.235705700040967 0 0 0 0 130.17574676901131 7.6579112092205435 0 7.6579112092205435 -56.477876571963407 0 0 0 0 85.858934154603048 22.783732279493506 0 22.783732279493506 15.354998245346906 0 0 0 0 -170.46033769680798 51.09644311237858 0 51.09644311237858 -99.54553594123314 0 0 0 0 69.639096858270932 124.05168285118822 0 124.05168285118822 -234.4055519805373 0 0 0 0 123.21918652970635 35.683105386638886 0 35.683105386638886 -225.03178401705242 0 0 0 0 59.003322261909489 48.022522391007868 0 48.022522391007868 -90.705744466543109 0 0 0 0 84.911961307477213 -21.23435038422932 0 -21.23435038422932 -46.839955472790734 0 0 0 0 80.019875757221598 64.710311107306723 0 64.710311107306723 -82.209357004865836 0 0 0 0 79.140547806644463 44.727145739854137 0 44.727145739854137 -146.20926030491205 0 0 0 0 46.217072264553281 -135.49600429409796 0 -135.49600429409796 -122.57486939381127 0 0 0 0 -62.098049267253373 114.60830625877753 0 114.60830625877753 -153.92255410343438 0 0 0 0 -28.368156567943515 36.490710445815807 0 36.490710445815807 -67.880627470472746 0 0 0 0 62.656343352166004 -65.324519148409649 0 -65.324519148409649 -31.142583069277464 0 0 0 0 44.478219054901274 -93.20099823372037 0 -93.20099823372037 -55.459695139923213 0 0 0 0 -132.0518086772463 -41.986468971131586 0 -41.986468971131586 -68.494447050621204 0 0 0 0 112.5435954608547 -88.584321229449685 0 -88.584321229449685 -172.68900760109682 0 0 0 0 29.663625751474058 -4.8277518573633458 0 -4.8277518573633458 -4.5161507323265608 0 0 0 0 149.93937863071915 -36.734496644829392 0 -36.734496644829392 -199.57194317692509 0 0 0 0 38.901409228212202 5.1325982304248932 0 5.1325982304248932 -2.3815391265792547 0 0 0 0 -11.314190823347701 -26.446293961275742 0 -26.446293961275742 -17.008427926525581 0 0 0 0 107.4889740942308 -52.221782275280802 0 -52.221782275280802 -138.56783352253657 0 0 0 0 78.672590964108167 -174.18007773963507 0 -174.18007773963507 21.923074284788527 0 0 0 0 86.023456956536393 -47.617369723832311 0 -47.617369723832311 -42.529151097588908 0 0 0 0 74.742294552212115 -158.4581763688424 0 -158.4581763688424 77.701096610689987 0 0 0 0 46.013048041140792 11.0459888881594 0 11.0459888881594 -102.1183305953673 0 0 0 0 45.478939492037171 89.723856334384095 0 89.723856334384095 -32.64269237739876 0 0 0 0 -11.33932224966793 110.09435437632294 0 110.09435437632294 99.83060202731042 0 0 0 0 -15.864047582585499 48.572728973210104 0 48.572728973210104 -59.729865048955389 0 0 0 0 -50.740505647147074 95.887922874382014 0 95.887922874382014 258.89930039304045 0 0 0 0 -16.789230461945408 146.70291172855968 0 146.70291172855968 239.30556431188472 0 0 0 0 5.7257856637152145 -19.094780196779766 0 -19.094780196779766 164.98936550317535 0 0 0 0 -10.438620402812376 101.38466655320633 0 101.38466655320633 312.3594983803174 0 0 0 0 -33.117081217613304 37.98544827058339 0 37.98544827058339 152.44127500966033 0 0 0 0 43.063272990169935 231.84245728598211 0 231.84245728598211 240.46551503550521 0 0 0 0 270.08219472611381 354.70979579003921 0 354.70979579003921 64.604743834902763 0 0 0 0 16.506852505466668 13.450281221803994 0 13.450281221803994 516.88740607843442 0 0 0 0 -64.804474592820043 224.57780149050836 0 224.57780149050836 177.10518790869969 0 0 0 0 -22.444653100523283 93.297288405147356 0 93.297288405147356 87.985353699686812 0 0 0 0 93.337061583108152 157.08814854326886 0 157.08814854326886 -421.53037315150414 0 0 0 0 -30.761269208474005 -89.823900658029388 0 -89.823900658029388 -314.77365145277452 0 0 0 0 -76.395348527468741 265.73949121280964 0 265.73949121280964 -46.161031824484553 0 0 0 0 -533.06137320170819 64.185178319946829 0 64.185178319946829 45.603199073965015 0 0 0 0 5.4385906975761884 0.46271385995307135 0 0.46271385995307135 0.036255816282847922 0 0 0 0 17.228823442565044 177.49780644701028 0 177.49780644701028 137.28108895611132 0 0 0 0 79.72354071684822 247.7295976644489 0 247.7295976644489 31.454252240334824 0 0 0 0 54.390476688423291 1.7065912420921756 0 1.7065912420921756 -0.70930118714351986 0 0 0 0 17.01942250590298 1.9988568461420999 0 1.9988568461420999 0.22435843202530581 0 0 0 0 327.29044250154402 -69.95810773272558 0 -69.95810773272558 -167.83094826479152 0 0 0 0 133.00809937805752 61.159661135580222 0 61.159661135580222 -292.78448311793653 0 0 0 0 53.09568459809816 -22.879722108110684 0 -22.879722108110684 -208.10527135322741 0 0 0 0 -19.955970284732757 91.062496032660533 0 91.062496032660533 -8.433265853964258 0 0 0 0 81.839930658607045 50.035069073539404 0 50.035069073539404 -84.768256020466538 0 0 0 0 138.92972885016934 19.281060366108022 0 19.281060366108022 -18.071817079779066 0 0 0 0 136.97494993925648 59.678893641117469 0 59.678893641117469 -83.121834002209994 0 0 0 0 121.89729937693482 129.42961959344279 0 129.42961959344279 -81.577070283425428 0 0 0 0 251.48577323291829 50.918505515914376 0 50.918505515914376 -41.961601514468384 0 0 0 0 142.1035570185195 30.045265980415024 0 30.045265980415024 1.7204620828283623 0 0 0 0 225.82163579162443 -34.578841484460781 0 -34.578841484460781 23.849998363174564 0 0 0 0 105.01826179336058 190.0675123079825 0 190.0675123079825 -109.29387490223803 0 0 0 0 117.74952340699383 153.76637771505568 0 153.76637771505568 -39.262297485184433 0 0 0 0 95.400499405390292 69.362067495753976 0 69.362067495753976 -217.95784629305081 0 0 0 0 66.583981192092324 128.91733803146417 0 128.91733803146417 -67.307074264508401 0 0 0 0 128.97465610460495 237.87142499885701 0 237.87142499885701 -145.04950584408198 0 0 0 0 273.84440940379864 449.51152785755289 0 449.51152785755289 230.57274673438076 0 0 0 0 1120.453378043203 698.61129792223926 0 698.61129792223926 103.05051921102691 0 0 0 0 109.50924259939347 -155.73791517957125 0 -155.73791517957125 510.49231755874138 0 0 0 0 -117.33306523525425 -369.42354740407654 0 -369.42354740407654 275.95409073098449 0 0 0 0 -5.3915644840196393 19.001386748112196 0 19.001386748112196 -3.6001055017539665 0 0 0 0 688.76828518719412 -141.52049685180941 0 -141.52049685180941 -308.65839472951006 0 0 0 0 414.17194475920405 339.12969323936176 0 339.12969323936176 -1190.1939882537285 0 0 0 0 62.192982270867248 1.0809568859115171 0 1.0809568859115171 -2.0977923672132519 0 0 0 0 -153.61424499795248 606.48855004004929 0 606.48855004004929 -185.38401855637153 0 0 0 0 1671.4260913335602 -1536.9235505721274 0 -1536.9235505721274 57.558662149592202 0 0 0 0 13.380091355886464 2.628598075588072 0 2.628598075588072 1.2121317875429745 0 0 0 0 2965.2158484868778 -1662.8055460260086 0 -1662.8055460260086 -315.8592855703144 0 0 0 0 -448.01078649529336 -896.7285872623662 0 -896.7285872623662 524.82014433893301 0 0 0 0 1315.875689358887 -601.32347556971217 0 -601.32347556971217 128.48600057322642 0 0 0 0 1682.4728055036976 -927.73430891692601 0 -927.73430891692601 114.09168574486486 0 0 0 0 2555.0852369149798 -364.98566577178769 0 -364.98566577178769 25.134716784426928 0 0 0 0 3122.4217259046127 -609.21738086076982 0 -609.21738086076982 -1.2000535062127966 0 0 0 0 273.76463253892143 -225.32153313049514 0 -225.32153313049514 318.28150391051145 0 0 0 0 1239.6273730667162 -282.88329177156118 0 -282.88329177156118 441.21484309076862 0 0 0 0 619.54379794807755 70.418059633760862 0 70.418059633760862 507.24189384978047 0 0 0 0 4780.7688397488673 -748.62539344494235 0 -748.62539344494235 -1016.7991307606136 0 0 0 0 4758.4810768461612 -769.71213518542788 0 -769.71213518542788 -519.19985465764796 0 0 0 0 3456.0904031797254 -1144.1759669602959 0 -1144.1759669602959 -439.00158346249935 0 0 0 0 4276.0685109378537 -889.68644687717983 0 -889.68644687717983 -531.59042163500385 0 0 0 0 5503.0168154313942 -1173.2603615806909 0 -1173.2603615806909 -773.08755821156569 0 0 0 0 4479.6869023037689 -1238.5318561440279 0 -1238.5318561440279 64.704185068626046 0 0 0 0 3321.6702350591149 -1700.7865716287797 0 -1700.7865716287797 24.268904919161997 0 0 0 0 5486.5867334929644 -2844.9223447199715 0 -2844.9223447199715 3.4665205577842784 0 0 0 0 3261.0890053174007 -1615.4287616862773 0 -1615.4287616862773 802.03195947488109 0 0 0 0 -26.401794252604304 9.504861204943154 0 9.504861204943154 397.92852388501456 0 0 0 0 1352.2882261325067 -2586.8734936761348 0 -2586.8734936761348 1499.4374729146075 0 0 0 0 5492.5872688102954 4151.3494059880968 0 4151.3494059880968 3280.5524968580835 0 0 0 0 40.844219917413426 -9.5229603392517106 0 -9.5229603392517106 3.9509180177111558 0 0 0 0 2707.7567850087362 2391.792388425326 0 2391.792388425326 2313.8664986472904 0 0 0 0 604.754585311759 359.87106188242001 0 359.87106188242001 -599.44500948327914 0 0 0 0 174.09814719407586 -318.11193724826944 0 -318.11193724826944 -776.50951820415298 0 0 0 0 -16.809329045635636 21.091719947148292 0 21.091719947148292 -16.499954942915082 0 0 0 0 386.70195945197338 397.10379736941786 0 397.10379736941786 -262.25628593137162 0 0 0 0 -119.84420919635158 -8.0116567863034192 0 -8.0116567863034192 -48.640817199162598 0 0 0 0 428.9407723063814 -33.445210178826301 0 -33.445210178826301 -241.57497238403357 0 0 0 0 65.650326833012514 162.74429041476333 0 162.74429041476333 111.43185741203934 0 0 0 0 2752.4312239294341 2003.4684804491917 0 2003.4684804491917 1676.6998292709347 0 0 0 0 98.177915793251898 -30.327791862969477 0 -30.327791862969477 1.6137171066752671 0 0 0 0 1515.5289186543923 1387.7330100615329 0 1387.7330100615329 1372.4294638646147 0 0 0 0 1776.1744305464417 1704.994269754935 0 1704.994269754935 1318.022928935909 0 0 0 0 2089.5917775686612 1352.5956459530439 0 1352.5956459530439 856.11025953261526 0 0 0 0 1181.7066257564111 1026.609808175132 0 1026.609808175132 1156.7476020753188 0 0 0 0 1390.5539416792963 754.17311646917642 0 754.17311646917642 703.28630595421782 0 0 0 0 132.53986811271665 -42.083214572382083 0 -42.083214572382083 -2.8382526529180989 0 0 0 0 1426.9152370812735 1061.2021669605062 0 1061.2021669605062 747.97807653457619 0 0 0 0 1572.1332715227036 950.31861831734079 0 950.31861831734079 668.17389125407453 0 0 0 0 2159.6847599172288 1287.6002538317825 0 1287.6002538317825 493.85862458116077 0 0 0 0 3480.5526388496983 1648.9400573136747 0 1648.9400573136747 430.25432585697558 0 0 0 0 3478.9076194199806 1745.3957547533855 0 1745.3957547533855 262.74059372460209 0 0 0 0 5498.5578585688781 1585.9151234578896 0 1585.9151234578896 -504.83708952815113 0 0 0 0 5500.6743889618983 2579.886974742974 0 2579.886974742974 573.35877071208813 0 0 0 0 4498.6757991910417 773.09143984931734 0 773.09143984931734 -318.11374299335318 0 0 0 0 4487.6751893465407 846.44186670377303 0 846.44186670377303 -722.86289217631133 0 0 0 0 4548.8875092296657 1550.0960829114379 0 1550.0960829114379 -230.90085272196583 0 0 0 0 5498.5393486105013 1337.6394033635981 0 1337.6394033635981 -741.15499407614459 0 0 0 0 3189.7072407191954 1007.3734925593086 0 1007.3734925593086 -84.347433870499458 0 0 0 0 4508.9621503171657 1383.043046065198 0 1383.043046065198 -160.84224334746804 0 0 0 0 0.051427002562675739 -1.3982981891049064 0 -1.3982981891049064 0.52765295281762192 0 0 0 0 188.26576039151405 58.544065962349578 0 58.544065962349578 43.684708036190386 0 0 0 0 1.0868178706686109 -4.5061547855710558 0 -4.5061547855710558 17.547854409166007 0 0 0 0 174.23242735184613 31.873945892596112 0 31.873945892596112 0.55006342165779643 0 0 0 0 120.22756869759178 22.268384830790865 0 22.268384830790865 78.568421976800892 0 0 0 0 55.748287371752667 -9.6097548039831509 0 -9.6097548039831509 62.50680024188614 0 0 0 0 107.03162350115599 -8.4207586338866349 0 -8.4207586338866349 10.572963744031767 0 0 0 0 37.674218288256299 40.352050895054248 0 40.352050895054248 13.515436753892963 0 0 0 0 79.733456513640704 81.265527670516349 0 81.265527670516349 41.866253139031869 0 0 0 0 124.16570791913546 40.784361680711754 0 40.784361680711754 114.22779018140773 0 0 0 0 142.37308769078663 13.470696268756456 0 13.470696268756456 3.7156870172284471 0 0 0 0 138.50371028235531 23.776658500041435 0 23.776658500041435 -5.5967982332697375 0 0 0 0 2665.1575342767537 -183.98196145564378 0 -183.98196145564378 155.18802512571358 0 0 0 0 20.966332020666016 -5.6723862386778308 0 -5.6723862386778308 14.528464675412833 0 0 0 0 201.11430890876363 14.611685284798796 0 14.611685284798796 -2.6982864226379206 0 0 0 0 42.321562157876116 40.387692008958581 0 40.387692008958581 9.5879732632662069 0 0 0 0 151.91824294113758 6.7991581883676417 0 6.7991581883676417 -0.86391524848977497 0 0 0 0 2724.0623389772227 145.15327404656551 0 145.15327404656551 116.06656772869889 0 0 0 0 3912.554468589944 758.46524423474523 0 758.46524423474523 -283.6404769007512 0 0 0 0 4451.2805473396438 74.020276401033499 0 74.020276401033499 -522.87067811667293 0 0 0 0 5501.2068175479944 486.63374582294244 0 486.63374582294244 -709.766414574848 0 0 0 0 5492.5235096045653 -162.82624661022277 0 -162.82624661022277 -471.37324802829511 0 0 0 0 4316.85793451473 -21.923776852897561 0 -21.923776852897561 556.90473204754653 0 0 0 0 3908.3634136957116 85.034179642271738 0 85.034179642271738 566.5811848499809 0 0 0 0 4212.493659377129 -741.69223951689094 0 -741.69223951689094 -123.26742266846907 0 0 0 0 6984.8097006953758 -593.48761284383352 0 -593.48761284383352 -151.52960158442454 0 0 0 0 5524.7999717796847 1396.9182383632137 0 1396.9182383632137 496.83099611407351 0 0 0 0 3325.1686587631848 1470.0975289386627 0 1470.0975289386627 1221.7176116639203 0 0 0 0 11.81776950085731 -3.4149155388200825 0 -3.4149155388200825 1.8625379219249478 0 0 0 0 5499.6356443771292 1361.0145856059987 0 1361.0145856059987 293.6483585147804 0 0 0 0 2320.8514940232562 -1.0048862503039118 0 -1.0048862503039118 1336.8306382716225 0 0 0 0 2377.6910579547912 399.88892415203259 0 399.88892415203259 -1.5419993691976686 0 0 0 0 5066.5492672159253 242.83991433216681 0 242.83991433216681 -53.439127335092905 0 0 0 0 5097.5021540683956 429.43883461743678 0 429.43883461743678 58.480320276048943 0 0 0 0 6444.8466411075788 564.77150419152781 0 564.77150419152781 -581.23582349466778 0 0 0 0 5208.0388829390286 -776.71556560139334 0 -776.71556560139334 -186.09605719513092 0 0 0 0 3302.3356011730066 -394.40052130558058 0 -394.40052130558058 48.76049215061812 0 0 0 0 11.202169874517907 -4.7977441186069143 0 -4.7977441186069143 0.84486353907016931 0 0 0 0 5496.0407177739526 -822.28901083708286 0 -822.28901083708286 -1121.2896337640038 0 0 0 0 994.33952779397077 -302.36531583484555 0 -302.36531583484555 322.28274530587589 0 0 0 0 356.60478346063974 109.92307596864944 0 109.92307596864944 691.17601004004939 0 0 0 0 1656.6846444082839 133.12812535908466 0 133.12812535908466 454.92424322387922 0 0 0 0 3076.4237687126588 705.64245364788644 0 705.64245364788644 41.987176586162207 0 0 0 0 1035.261869367896 321.57865565850881 0 321.57865565850881 940.94455782081786 0 0 0 0 2392.5844320676697 -246.22827947942474 0 -246.22827947942474 409.20866222107321 0 0 0 0 2384.7466846313764 1966.8786833497377 0 1966.8786833497377 523.45740649778645 0 0 0 0 1612.2561590717669 -183.89655004015754 0 -183.89655004015754 681.7062279045233 0 0 0 0 -137.74703271397448 -267.15193975455372 0 -267.15193975455372 1072.4860872672871 0 0 0 0 544.04013756255154 -255.76902660446709 0 -255.76902660446709 402.77113035224068 0 0 0 0 -0.7403069520527481 -3.0036679834843483 0 -3.0036679834843483 -3.0914953567499763 0 0 0 0 362.598956937818 783.73928282958968 0 783.73928282958968 520.70657385052118 0 0 0 0 199.63261766713549 47.989781038957744 0 47.989781038957744 -1.1737246100706216 0 0 0 0 566.79299981254735 -110.67668005732048 0 -110.67668005732048 -501.32397869840224 0 0 0 0 11.351352869154852 10.27408169428972 0 10.27408169428972 12.443265422138115 0 0 0 0 -74.028944986581337 1059.1061605655386 0 1059.1061605655386 727.00899122626561 0 0 0 0 37.005476541249664 -84.425368632956634 0 -84.425368632956634 -281.88335838786406 0 0 0 0 28.331907555369867 29.561566128420878 0 29.561566128420878 30.851807548150955 0 0 0 0 179.34783009077364 16.935316749459616 0 16.935316749459616 11.518617194553372 0 0 0 0 16.066818171550452 3.5507927259890835 0 3.5507927259890835 -13.837759676455565 0 0 0 0 242.45946527381602 21.371111316551378 0 21.371111316551378 -10.629854428720137 0 0 0 0 222.4953647548391 -86.823113585347301 0 -86.823113585347301 21.47513820818051 0 0 0 0 136.46594186603761 -13.919648269013237 0 -13.919648269013237 -5.8976132927227809 0 0 0 0 397.93971686727309 -105.73299583488762 0 -105.73299583488762 6.5674136294360608 0 0 0 0 384.57295679127856 13.086365554995552 0 13.086365554995552 1.0074989689071252 0 0 0 0 -16.679068732824817 -85.859286085041333 0 -85.859286085041333 482.52733685240401 0 0 0 0 -0.34873384964109277 0.12558345174372221 0 0.12558345174372221 2.3959994394225683 0 0 0 0 -57.169828093414253 129.15968979721981 0 129.15968979721981 306.64207004838374 0 0 0 0 89.064440837755683 51.030294958118574 0 51.030294958118574 409.83514789127929 0 0 0 0 -86.088349062436464 90.027724044655457 0 90.027724044655457 525.9301150842831 0 0 0 0 352.40492384447134 77.771328500714532 0 77.771328500714532 485.40953755647445 0 0 0 0 127.59155050505069 -148.94412288026885 0 -148.94412288026885 763.31872347690944 0 0 0 0 5.7171710724651348 117.61371026860644 0 117.61371026860644 276.19608263480359 0 0 0 0 -71.987526369252009 121.29729848114226 0 121.29729848114226 319.51727128791174 0 0 0 0 -74.365341164426354 89.741269604774971 0 89.741269604774971 429.45020896326628 0 0 0 0 -50.687659184579388 93.449777086268796 0 93.449777086268796 300.60478944103875 0 0 0 0 20.866094382152369 -45.428139287753652 0 -45.428139287753652 144.70087990794309 0 0 0 0 -16.993837895933666 -67.191617336631097 0 -67.191617336631097 305.04874599059076 0 0 0 0 52.286033179418155 125.04705954799519 0 125.04705954799519 277.3592220179271 0 0 0 0 22.153220043699548 47.17895719195667 0 47.17895719195667 296.25580704615368 0 0 0 0 34.183248003348126 15.931167037891555 0 15.931167037891555 62.884482552532518 0 0 0 0 133.20223854104552 19.499925652764887 0 19.499925652764887 58.891706429930082 0 0 0 0 0.34542106661908178 1.1133225079004632 0 1.1133225079004632 3.0632985976864866 0 0 0 0 199.04481975683302 -40.238162818299315 0 -40.238162818299315 -16.858703722758946 0 0 0 0 292.64841443145997 -14.958426497045366 0 -14.958426497045366 -12.911190717999489 0 0 0 0 50.791709016739333 69.565544505680236 0 69.565544505680236 76.946535146093126 0 0 0 0 -0.27525265575147273 0.36273982657266401 0 0.36273982657266401 2.0299581621003071 0 0 0 0 257.15480820008088 110.98344943709708 0 110.98344943709708 78.901264482588658 0 0 0 0 48.792762392702798 -25.253907123259321 0 -25.253907123259321 48.633476428184622 0 0 0 0 147.98758536302194 -46.117050145381654 0 -46.117050145381654 -7.648165970903392 0 0 0 0 171.32114990989066 -15.105493044466812 0 -15.105493044466812 23.664917212611726 0 0 0 0 179.96509852420422 12.059982327253238 0 12.059982327253238 62.861013982052555 0 0 0 0 148.75190558488248 -18.096703567146278 0 -18.096703567146278 56.127400934987691 0 0 0 0 172.49134246741596 -13.918159791794551 0 -13.918159791794551 23.701341363830508 0 0 0 0 36.49943015538156 21.038272149334489 0 21.038272149334489 17.048863628855543 0 0 0 0 61.273644409338033 38.564629119053038 0 38.564629119053038 10.627640903879584 0 0 0 0 72.743187096944894 -81.950294211535891 0 -81.950294211535891 -70.65099525456526 0 0 0 0 132.38376637192147 -21.790826037615957 0 -21.790826037615957 -21.945278532146688 0 0 0 0 68.717202555664699 -86.070684818968175 0 -86.070684818968175 -15.427908189665686 0 0 0 0 71.518595867484692 -72.486015441462087 0 -72.486015441462087 -21.295118899784484 0 0 0 0 100.44261928868946 -96.777283592744425 0 -96.777283592744425 -106.08099279072343 0 0 0 0 77.55806311086053 -153.65846191634637 0 -153.65846191634637 -120.83671042430825 0 0 0 0 147.90207635432114 -37.871492454273323 0 -37.871492454273323 -11.749620687760139 0 0 0 0 134.1430169848245 71.854226203151256 0 71.854226203151256 66.498194413527017 0 0 0 0 177.6114349050622 2.0580350201094006 0 2.0580350201094006 53.062128839548109 0 0 0 0 72.784815947947209 -122.3373024180554 0 -122.3373024180554 -120.69722304851496 0 0 0 0 54.012348325246421 -125.46850162483875 0 -125.46850162483875 -55.184874724853671 0 0 0 0 1.947819605928089 -95.440150472759399 0 -95.440150472759399 46.683996868651775 0 0 0 0 -5.0130863091326319 -105.49154008133235 0 -105.49154008133235 196.24602486603044 0 0 0 0 107.83414921323129 -117.83614822562902 0 -117.83614822562902 147.74361315562135 0 0 0 0 14.05802953687089 -119.48963387564061 0 -119.48963387564061 205.89669627945477 0 0 0 0 11.460835207093623 -262.01077312693468 0 -262.01077312693468 108.54894801467435 0 0 0 0 50.616176994211855 -76.606465857879471 0 -76.606465857879471 118.07802096665182 0 0 0 0 5.2178047784254886 -119.07315704920177 0 -119.07315704920177 -24.749060275909187 0 0 0 0 62.322786412987625 -206.69418700929907 0 -206.69418700929907 -192.25508318066932 0 0 0 0 243.36746738894726 -253.2139924632811 0 -253.2139924632811 -136.90530606180891 0 0 0 0 43.279875592041208 -172.98447566030853 0 -172.98447566030853 -168.62956486543044 0 0 0 0 183.87303506120224 -431.29026942747191 0 -431.29026942747191 -429.88331455138859 0 0 0 0 188.62985350045091 -60.318741886132159 0 -60.318741886132159 0.095794532547920141 0 0 0 0 -23.648823066016121 -393.09291908213891 0 -393.09291908213891 -240.82122714542584 0 0 0 0 228.9275313517719 -40.457820443771652 0 -40.457820443771652 -58.683433054708985 0 0 0 0 -12.228098590741865 -168.8276102195623 0 -168.8276102195623 -19.420740484123428 0 0 0 0 184.36500775002605 -58.104706818127966 0 -58.104706818127966 130.71955422213523 0 0 0 0 12.502707106134039 -236.27224572701698 0 -236.27224572701698 -170.08451724852353 0 0 0 0 260.23747909103986 42.817843694269868 0 42.817843694269868 35.150111813593867 0 0 0 0 169.66105558814871 -49.196587091351276 0 -49.196587091351276 -5.8667754957795184 0 0 0 0 238.07894992468937 9.5492989173492333 0 9.5492989173492333 3.0240663983795457 0 0 0 0 273.31292031312478 42.670327792001899 0 42.670327792001899 -2.5676870661483235 0 0 0 0 247.8059251432569 18.654152564872902 0 18.654152564872902 -13.95104511699401 0 0 0 0 374.55348029310699 78.564977018907939 0 78.564977018907939 4.0300944352206898 0 0 0 0 254.63521447717358 7.8866137364111637 0 7.8866137364111637 -29.102283919852198 0 0 0 0 137.54604894091062 32.587353820030501 0 32.587353820030501 90.599661279191423 0 0 0 0 216.61334931752936 110.18666486455675 0 110.18666486455675 126.93927540941809 0 0 0 0 386.59667027920841 210.82587378206995 0 210.82587378206995 150.30102712132839 0 0 0 0 216.34070358817553 105.19586507425748 0 105.19586507425748 89.572405832150594 0 0 0 0 536.60636875329146 89.355642440138737 0 89.355642440138737 76.016363888498745 0 0 0 0 577.71667249110942 277.87158593111701 0 277.87158593111701 151.45626324417663 0 0 0 0 129.76621123992663 362.21744496992221 0 362.21744496992221 514.44691207623998 0 0 0 0 91.389983731904067 159.96475666421316 0 159.96475666421316 276.75252652196014 0 0 0 0 352.01744289732449 -192.92631226480532 0 -192.92631226480532 191.61057940914043 0 0 0 0 351.0818140883589 -115.56303328830289 0 -115.56303328830289 141.4220398988723 0 0 0 0 494.74653720366769 91.097450894400254 0 91.097450894400254 86.781964358081723 0 0 0 0 438.10431032044289 -141.63335534266571 0 -141.63335534266571 105.91451521567274 0 0 0 0 422.38805558058175 17.470945589725503 0 17.470945589725503 16.77008154587611 0 0 0 0 310.37554360124341 26.906780081121042 0 26.906780081121042 15.988630131275102 0 0 0 0 257.61901266168934 -138.52814470587032 0 -138.52814470587032 150.28845222181371 0 0 0 0 319.47916259546037 -42.040298405333942 0 -42.040298405333942 37.383032647006075 0 0 0 0 253.57329319797282 -80.508963406966814 0 -80.508963406966814 25.74091732707052 0 0 0 0 242.43749421317261 -41.768505275319399 0 -41.768505275319399 -96.96797981703412 0 0 0 0 350.56080076361832 -12.912208128549537 0 -12.912208128549537 -62.845818131811939 0 0 0 0 200.11101878976478 -82.734085249189775 0 -82.734085249189775 -60.35172491457206 0 0 0 0 275.48369894729694 2.7332136700360934 0 2.7332136700360934 -36.054139068752647 0 0 0 0 206.06419531814504 -69.291870019714707 0 -69.291870019714707 4.3367989793801058 0 0 0 0 246.98328881810448 -142.30434083175987 0 -142.30434083175987 -182.5744297848596 0 0 0 0 324.82783198410471 -230.12471258180631 0 -230.12471258180631 -399.41247493023002 0 0 0 0 216.51854564495875 -77.652887142238669 0 -77.652887142238669 9.1993613618785837 0 0 0 0 252.390992791803 -201.72513351376591 0 -201.72513351376591 -350.35274006935424 0 0 0 0 152.3601441067367 -114.03745524111332 0 -114.03745524111332 15.344414214600874 0 0 0 0 127.38486445091257 -97.179010316328572 0 -97.179010316328572 221.77084369971408 0 0 0 0 225.62303182257165 -67.871824239191938 0 -67.871824239191938 16.262362479635549 0 0 0 0 209.82431911201274 186.36576220375377 0 186.36576220375377 38.019151788150339 0 0 0 0 184.20829109319311 -199.82174655368794 0 -199.82174655368794 390.23093845900485 0 0 0 0 255.93714328421629 -80.198749710489096 0 -80.198749710489096 77.788481010450596 0 0 0 0 461.91371632438677 -185.60727390818784 0 -185.60727390818784 125.35816984729331 0 0 0 0 298.14493610928912 -143.46013727605384 0 -143.46013727605384 148.48766315037301 0 0 0 0 184.24331257052836 -164.34805423784678 0 -164.34805423784678 234.01924244058296 0 0 0 0 230.77440405754896 -121.86376792608189 0 -121.86376792608189 157.94833498019079 0 0 0 0 194.49580847411562 -175.35302652245355 0 -175.35302652245355 240.95814663126657 0 0 0 0 31.405834679678719 47.413666695353385 0 47.413666695353385 36.192142414685804 0 0 0 0 101.96756619519147 -91.130045602571272 0 -91.130045602571272 84.895399421307047 0 0 0 0 48.899073115664123 -51.72220210447 0 -51.72220210447 27.314492354996037 0 0 0 0 154.98312156399334 -36.633450125242689 0 -36.633450125242689 71.103905196303458 0 0 0 0 240.61241475259885 -166.10863137436309 0 -166.10863137436309 -18.571972187865413 0 0 0 0 248.26720793490131 -2.8552933604159705 0 -2.8552933604159705 81.007077539169586 0 0 0 0 215.9361902998935 -10.091165723925769 0 -10.091165723925769 108.62281548813871 0 0 0 0 180.99690266521065 -46.841811244544488 0 -46.841811244544488 58.441113276792748 0 0 0 0 214.09602695566718 15.427555488541657 0 15.427555488541657 73.122897069363262 0 0 0 0 298.28634230204625 -17.969942639266719 0 -17.969942639266719 66.215469402132797 0 0 0 0 325.28922356675321 -19.518798779526605 0 -19.518798779526605 29.62509633411787 0 0 0 0 258.17912576839444 9.1661379430800025 0 9.1661379430800025 73.481950778850205 0 0 0 0 271.21589536903775 -61.389528844195866 0 -61.389528844195866 94.864215018186314 0 0 0 0 177.5657420281641 -543.75963888518459 0 -543.75963888518459 88.323754546183082 0 0 0 0 4.8590830530735332 -29.898453126793079 0 -29.898453126793079 5.7364291644781176 0 0 0 0 221.6013980160933 14.865302101425641 0 14.865302101425641 23.203607324881432 0 0 0 0 231.5399730473423 -74.306868545090481 0 -74.306868545090481 11.388194298741629 0 0 0 0 106.71933927855025 -86.215702790900451 0 -86.215702790900451 -5.235700009181528 0 0 0 0 397.72583286551526 19.690234112652888 0 19.690234112652888 -46.273441171359423 0 0 0 0 55.074969081591711 -3.5992279158810447 0 -3.5992279158810447 -7.7070659485459068 0 0 0 0 341.64654575012173 -110.48394545751353 0 -110.48394545751353 -133.36316862139211 0 0 0 0 70.698838594573317 -124.1665927707927 0 -124.1665927707927 -14.48585973092213 0 0 0 0 219.49824301998231 -22.083623936083995 0 -22.083623936083995 -33.723635989994634 0 0 0 0 87.820830243203346 -70.753176995100375 0 -70.753176995100375 13.29176952764004 0 0 0 0 14.330535580520518 -75.98057888445328 0 -75.98057888445328 -32.136899279117642 0 0 0 0 140.53617665828858 -95.192547944925593 0 -95.192547944925593 -4.664566513817789 0 0 0 0 342.07466264229151 48.944354369936718 0 48.944354369936718 -102.78348333893587 0 0 0 0 299.32802630367223 -14.293436934548254 0 -14.293436934548254 -191.68050797402475 0 0 0 0 -0.18622722063078001 0.90677475600648449 0 0.90677475600648449 -2.6796082668977306 0 0 0 0 412.98342420120025 86.449750142013727 0 86.449750142013727 -246.62410741264375 0 0 0 0 426.27259065647377 -9.5035108288207084 0 -9.5035108288207084 -303.76536540848588 0 0 0 0 202.49805935140466 64.406831693840786 0 64.406831693840786 108.06085663942031 0 0 0 0 414.10945746480138 413.82905515131199 0 413.82905515131199 151.60333948677089 0 0 0 0 140.21592547927867 179.44487145385961 0 179.44487145385961 82.818424189401668 0 0 0 0 724.25187703204574 74.692487382551462 0 74.692487382551462 -191.04797661371379 0 0 0 0 407.42279011657956 -41.455467110304767 0 -41.455467110304767 -231.30704041752961 0 0 0 0 580.6479978239513 -175.55023457504149 0 -175.55023457504149 -239.81542503506012 0 0 0 0 146.50368368762429 -149.3467576791893 0 -149.3467576791893 -193.18293037841522 0 0 0 0 205.38573497577454 -171.72889151961152 0 -171.72889151961152 102.14160149431632 0 0 0 0 510.55168803358538 -158.57834158331281 0 -158.57834158331281 74.058476846303847 0 0 0 0 678.93620246843784 155.71655175681781 0 155.71655175681781 277.98360417777349 0 0 0 0 574.91673961299784 -258.45852598572964 0 -258.45852598572964 73.892944512741678 0 0 0 0 331.38018590913271 -123.26388900331267 0 -123.26388900331267 176.6150423625771 0 0 0 0 333.03300426024362 -463.06613860667517 0 -463.06613860667517 548.38022618877721 0 0 0 0 142.28545616428164 -218.36711886819634 0 -218.36711886819634 420.28684692008676 0 0 0 0 232.8940436457342 -93.824655603204519 0 -93.824655603204519 250.7753903430762 0 0 0 0 1458.114573581086 162.81573101135405 0 162.81573101135405 -99.895620196433811 0 0 0 0 1153.7511273138371 -401.88202429315356 0 -401.88202429315356 216.6178564299853 0 0 0 0 1159.0007126078417 312.74523296417533 0 312.74523296417533 93.082147384859923 0 0 0 0 924.62794650328578 -230.32459901601919 0 -230.32459901601919 -280.21342827982528 0 0 0 0 1119.7197144542297 272.73962158893124 0 272.73962158893124 828.1650908313195 0 0 0 0 -48.059621064632665 25.911016460634755 0 25.911016460634755 19.496453058459792 0 0 0 0 -91.531353314174339 -97.685863507445447 0 -97.685863507445447 222.94793214032165 0 0 0 0 69.592492551033502 -109.13172042192298 0 -109.13172042192298 129.43510705652716 0 0 0 0 -162.25576533882122 -52.198381559496056 0 -52.198381559496056 206.69776523670134 0 0 0 0 1246.9671885348216 210.24507865836858 0 210.24507865836858 62.526708482772165 0 0 0 0 2.2125314815674528 3.5070725818418111 0 3.5070725818418111 4.5459888723742665 0 0 0 0 232.91961391965742 -325.36689411052544 0 -325.36689411052544 238.38219293276325 0 0 0 0 1396.3534042191459 -8.9399596546081739 0 -8.9399596546081739 -142.02042075007034 0 0 0 0 4.1190664315758454 0.94210975248338968 0 0.94210975248338968 3.1662237553415782 0 0 0 0 1712.7706567175337 -273.31920815607168 0 -273.31920815607168 -169.84396180015483 0 0 0 0 1491.3991910576879 -261.82473322227952 0 -261.82473322227952 15.288428206906701 0 0 0 0 4.1129880718942218 8.5081629085381962 0 8.5081629085381962 11.016020619538649 0 0 0 0 -58.480147317844967 240.71923187839536 0 240.71923187839536 13.556578046164759 0 0 0 0 3.285771647581015 5.7820632384561463 0 5.7820632384561463 11.67641149727848 0 0 0 0 6.8141915955493459 16.03561032658115 0 16.03561032658115 18.652676449073674 0 0 0 0 62.979727799909597 156.49167107725839 0 156.49167107725839 471.90740755884417 0 0 0 0 15.133436164134764 3.0035846678416647 0 3.0035846678416647 25.058576009781063 0 0 0 0 1.4641714104201355 2.0777386848484696 0 2.0777386848484696 3.0844743066099607 0 0 0 0 1541.9369320951228 -602.69335790716877 0 -602.69335790716877 13.666608417469433 0 0 0 0 1197.5073013853107 85.743999599904555 0 85.743999599904555 -176.35861654906955 0 0 0 0 1130.751908740287 -302.24906503936586 0 -302.24906503936586 -171.0907957264385 0 0 0 0 1466.1939725266129 41.705524346177981 0 41.705524346177981 -47.804171800540644 0 0 0 0 7.2452195830442179 -6.1983512584196205 0 -6.1983512584196205 6.0977450824229784 0 0 0 0 24.100127175450325 -155.46809204394776 0 -155.46809204394776 511.2067240432408 0 0 0 0 -2.7310229261347558 -30.879387710839637 0 -30.879387710839637 385.91010389312623 0 0 0 0 -12.780429243975959 133.56599728930246 0 133.56599728930246 184.09948039082337 0 0 0 0 -99.512526966369478 -13.615913697620044 0 -13.615913697620044 170.43160872990575 0 0 0 0 223.04178969671193 50.718054194834622 0 50.718054194834622 -46.613589526795522 0 0 0 0 1229.4154544261983 -169.09847760476032 0 -169.09847760476032 -279.14896198109363 0 0 0 0 1418.6107998344232 -487.62495385485909 0 -487.62495385485909 -31.974364308061013 0 0 0 0 967.66636236736667 294.83739205707275 0 294.83739205707275 164.14704632839852 0 0 0 0 384.02609688375378 -288.75393675425676 0 -288.75393675425676 264.72121521516056 0 0 0 0 1982.5655511420919 -429.61264701079108 0 -429.61264701079108 -156.79369372245355 0 0 0 0 10.075634389844879 -4.5121272503086232 0 -4.5121272503086232 1.4001141391993017 0 0 0 0 1525.6921171020949 -52.408074761587613 0 -52.408074761587613 26.78145270121513 0 0 0 0 42.517756033834303 55.957938214054366 0 55.957938214054366 62.561125103497034 0 0 0 0 -263.40691595402313 -8.9974196935452255 0 -8.9974196935452255 344.3782200044518 0 0 0 0 2.5837153825877408 1.8310879030768774 0 1.8310879030768774 -2.1985383329893864 0 0 0 0 6.7478526210034033 -3.4816453193387815 0 -3.4816453193387815 18.565755848765548 0 0 0 0 -159.57399796812388 -69.290755247045979 0 -69.290755247045979 97.64417388730476 0 0 0 0 200.49847510986729 325.53708938085242 0 325.53708938085242 185.51310908892094 0 0 0 0 8.7759987150424763 -5.7120067008757474 0 -5.7120067008757474 0.14162244625348741 0 0 0 0 1081.5137005624711 140.78068505190049 0 140.78068505190049 -57.118637990805837 0 0 0 0 767.78662454089499 -16.020245342641488 0 -16.020245342641488 -38.920703624838097 0 0 0 0 1068.5160391162208 -121.89524774589336 0 -121.89524774589336 -52.694229003007649 0 0 0 0 971.39408297374757 -341.85996159997507 0 -341.85996159997507 269.89590663158151 0 0 0 0 1234.703427394008 -240.36524021498423 0 -240.36524021498423 31.721526125879336 0 0 0 0 1294.6837140939897 -211.26541000859243 0 -211.26541000859243 45.256575048752666 0 0 0 0 1632.4221555700642 -479.73085786023466 0 -479.73085786023466 257.31549000521409 0 0 0 0 1174.3618199620687 -670.53962939804137 0 -670.53962939804137 198.38025709959538 0 0 0 0 782.85805617019651 -444.64239422278786 0 -444.64239422278786 222.86973767290283 0 0 0 0 1409.7020581171155 -357.7586027720634 0 -357.7586027720634 18.529247915061205 0 0 0 0 1998.9384966478101 281.26806579709955 0 281.26806579709955 587.79622885179378 0 0 0 0 1395.2922285394288 -120.16980164842604 0 -120.16980164842604 1057.1862659714534 0 0 0 0 782.64017003617482 -419.69033257857575 0 -419.69033257857575 30.638448181223318 0 0 0 0 5.6897026916714424 6.4773373965526275 0 6.4773373965526275 6.9153053069914669 0 0 0 0 1.8915694395595324 1.5598701388592104 0 1.5598701388592104 1.8592643540091853 0 0 0 0 53.372701095184311 47.800743676386276 0 47.800743676386276 47.033122675233244 0 0 0 0 952.96860432518588 -231.01731681572369 0 -231.01731681572369 -12.671608974857236 0 0 0 0 777.20375228974444 -517.13981473356068 0 -517.13981473356068 334.50807597979383 0 0 0 0 682.63818146160338 -274.83969974647584 0 -274.83969974647584 51.542662151715604 0 0 0 0 757.09274020412704 -228.88987683684695 0 -228.88987683684695 -27.724874196537939 0 0 0 0 739.8189621513593 -109.64992939671311 0 -109.64992939671311 34.765563001736382 0 0 0 0 922.41815506972489 -259.03125297818838 0 -259.03125297818838 -35.778718085030732 0 0 0 0 722.84322000335669 -165.03922553373945 0 -165.03922553373945 -65.780527981966657 0 0 0 0 666.27686715452 -156.84589660367922 0 -156.84589660367922 -35.281261774985978 0 0 0 0 741.33812387112994 -54.409264642850786 0 -54.409264642850786 -101.23267539198616 0 0 0 0 661.20669448573608 -187.75932424470045 0 -187.75932424470045 -25.711020510904021 0 0 0 0 695.88409783074167 -175.39734666881188 0 -175.39734666881188 -44.949184460261222 0 0 0 0 674.20576986366359 -215.12493967667592 0 -215.12493967667592 7.468650084349747 0 0 0 0 661.56655520368076 -173.55084613923117 0 -173.55084613923117 -2.6037403593317094 0 0 0 0 605.56111932557542 -118.24692802849904 0 -118.24692802849904 -23.314469966459626 0 0 0 0 626.09349314100109 -138.48976370650061 0 -138.48976370650061 -13.275929286678547 0 0 0 0 627.26973211872973 -137.68837676363924 0 -137.68837676363924 -13.38577323062168 0 0 0 0 641.88794316764688 -134.75025437872813 0 -134.75025437872813 -54.567282521713324 0 0 0 0 622.16031929176097 -96.001686632939069 0 -96.001686632939069 -43.796977463188369 0 0 0 0 535.00878675833519 -54.578440503155434 0 -54.578440503155434 -33.643841546288684 0 0 0 0 592.36116917282925 -113.86006239625102 0 -113.86006239625102 -0.078020602855129809 0 0 0 0 616.17465883773912 -109.95130896749237 0 -109.95130896749237 -22.291798160324277 0 0 0 0 29.504579486063449 -3.0770814754427556 0 -3.0770814754427556 0.14732593416366507 0 0 0 0 16.867525701643899 -13.680310488148486 0 -13.680310488148486 11.876874294633986 0 0 0 0 0.033312861944409633 0.021720419257206913 0 0.021720419257206913 -0.0087114517482643414 0 0 0 0 0.48045080607340651 0.097347299499602968 0 0.097347299499602968 -0.21568929886053995 0 0 0 0 1.5568476349144476 -0.69697702522048832 0 -0.69697702522048832 0.0006387454372633215 0 0 0 0 407.0367822033586 -37.191264746431258 0 -37.191264746431258 -17.528060266783172 0 0 0 0 472.17418036120944 -93.710459848254331 0 -93.710459848254331 0.035020959376570612 0 0 0 0 470.91638158221031 -15.128670923637969 0 -15.128670923637969 -53.39615641721764 0 0 0 0 420.33897220570361 -90.577759464319598 0 -90.577759464319598 -32.125152552663288 0 0 0 0 147.06925310642328 24.343351870826108 0 24.343351870826108 27.160215764453255 0 0 0 0 896.98950102470553 58.246185595627225 0 58.246185595627225 -120.77914681052016 0 0 0 0 426.87777991365874 38.20426636182134 0 38.20426636182134 -27.567596197168086 0 0 0 0 183.98534184355231 177.5724976197223 0 177.5724976197223 -6.9564703706662385 0 0 0 0 390.73885338734544 -29.299799168334403 0 -29.299799168334403 -51.575241001305244 0 0 0 0 24.498575156496372 -2.4401475872357423 0 -2.4401475872357423 -1.9707147779831757 0 0 0 0 12.366244652515888 2.1234560960200781 0 2.1234560960200781 -1.9462950287322656 0 0 0 0 14.292297996464185 -3.5767229627456345 0 -3.5767229627456345 7.9022755179552178 0 0 0 0 6.3519490546651696 1.4431524902755086 0 1.4431524902755086 -2.1645074577026735 0 0 0 0 5.6719094545011899 -5.212205773590739 0 -5.212205773590739 0.052418591830473815 0 0 0 0 -25.700242776671075 -45.02738796259581 0 -45.02738796259581 34.475919057111923 0 0 0 0 -0.0077305731351771101 -0.017805312544027174 0 -0.017805312544027174 0.29408842100860744 0 0 0 0 17.01974632202473 -12.259490018318843 0 -12.259490018318843 -0.90610238115277753 0 0 0 0 7.8860563284251839 17.004712093874332 0 17.004712093874332 20.60243190152778 0 0 0 0 -13.652947406779276 -6.3068607009853963 0 -6.3068607009853963 -17.450788267047415 0 0 0 0 24.650499071693048 11.064080158994287 0 11.064080158994287 1.6925759618018219 0 0 0 0 67.524703777395189 0.46909804757046913 0 0.46909804757046913 -55.192172077198393 0 0 0 0 0.11767108653526748 0.013683596941518772 0 0.013683596941518772 0.25440778891862881 0 0 0 0 24.781615552157746 11.676644780342553 0 11.676644780342553 4.5040047875508549 0 0 0 0 -4.0097309142001905 4.9499751837023496 0 4.9499751837023496 -4.8660294303288083 0 0 0 0 10.877648251655046 11.6914678568086 0 11.6914678568086 9.401531753815334 0 0 0 0 35.37011962707038 -4.2549236714627057 0 -4.2549236714627057 -13.470832333031183 0 0 0 0 30.528194225742482 -14.527739648600516 0 -14.527739648600516 35.894327757558301 0 0 0 0 38.08025890137651 -21.673105303081826 0 -21.673105303081826 9.2748691108458843 0 0 0 0 144.22437998573878 42.081228779457945 0 42.081228779457945 -6.2874814159576999 0 0 0 0 12.085152945597656 -6.0334836734089556 0 -6.0334836734089556 3.3899566822142848 0 0 0 0 1.6640569691675182 -0.46838974912770936 0 -0.46838974912770936 -0.94040766791981012 0 0 0 0 4.1252172326450705 -0.65153819544008229 0 -0.65153819544008229 -0.20644018283506202 0 0 0 0 1.8996987652499229 -0.89432994583298775 0 -0.89432994583298775 0.2966008624483063 0 0 0 0 0.47330312873532421 -0.12106791544738371 0 -0.12106791544738371 0.091343675754732928 0 0 0 0 14.53074568437296 -6.8197469979540912 0 -6.8197469979540912 -0.50244023274782412 0 0 0 0 29.786932221410098 -33.917976314001066 0 -33.917976314001066 16.593359402230334 0 0 0 0 0.66348270173639889 -0.50893898571203522 0 -0.50893898571203522 0.56699010974604069 0 0 0 0 52.842454940917378 2.6155219086337915 0 2.6155219086337915 -11.428325058749024 0 0 0 0 0.34196884744829958 -0.26075922064663359 0 -0.26075922064663359 0.15900419500888124 0 0 0 0 0.75631171985151013 -0.86498002734607615 0 -0.86498002734607615 -3.0121672846606913e-05 0 0 0 0 192.7714168644161 -17.614541092229885 0 -17.614541092229885 -9.1876626930071552 0 0 0 0 1.2434274164261296 -0.41344239323245896 0 -0.41344239323245896 0.29660086244825407 0 0 0 0 117.32600067452586 -19.319955526457097 0 -19.319955526457097 -39.197685720317594 0 0 0 0 137.34695094384369 -53.023894364234792 0 -53.023894364234792 -5.655950447723967 0 0 0 0 149.58793052937835 -61.323208366568238 0 -61.323208366568238 -0.052294331330806305 0 0 0 0 123.55905754162814 -50.765376854904289 0 -50.765376854904289 3.1992260848460887 0 0 0 0 119.1799518133339 -67.567550564118264 0 -67.567550564118264 -17.265882784587035 0 0 0 0 180.10191822354682 -110.03575967810775 0 -110.03575967810775 11.188775808713729 0 0 0 0 180.08579986813129 -68.055259354405223 0 -68.055259354405223 -30.953939769760893 0 0 0 0 197.78221532166936 -56.864165477639332 0 -56.864165477639332 -26.425643746120528 0 0 0 0 1.567366500256469 -0.92339324570974668 0 -0.92339324570974668 0.37865605289399729 0 0 0 0 292.73553608777729 39.801088400445018 0 39.801088400445018 -16.388619152555293 0 0 0 0 193.15353890118422 -293.07499735455667 0 -293.07499735455667 28.618061645243444 0 0 0 0 378.96649144287221 -102.52174864073044 0 -102.52174864073044 -26.15454318842842 0 0 0 0 74.040057629201328 -55.302925544517535 0 -55.302925544517535 39.344078970059684 0 0 0 0 48.024707996897632 -103.20745658305725 0 -103.20745658305725 50.833209391700791 0 0 0 0 226.848741008871 -235.64148203772515 0 -235.64148203772515 100.57339245557682 0 0 0 0 -5.5673603686736897 -23.977407314703385 0 -23.977407314703385 94.864390321468079 0 0 0 0 6.4657185858096682 -0.35810013003823826 0 -0.35810013003823826 -1.6747853726524995 0 0 0 0 103.37192464247346 -49.436274833981713 0 -49.436274833981713 -84.317791844123349 0 0 0 0 19.316061951933079 30.847664195254708 0 30.847664195254708 -71.325776797530807 0 0 0 0 -79.801058852928691 54.945883510330475 0 54.945883510330475 41.948597526022866 0 0 0 0 -118.56027145039479 -156.97368816398415 0 -156.97368816398415 202.79415335185246 0 0 0 0 -157.75356312200893 105.66046030927021 0 105.66046030927021 121.02911287643155 0 0 0 0 1.3201823816802403 -0.90529783983262746 0 -0.90529783983262746 0.66314369196816236 0 0 0 0 333.44631673651747 -88.568155320657979 0 -88.568155320657979 -70.301411750795751 0 0 0 0 -0.22155252912165224 -1.0194521496833033 0 -1.0194521496833033 1.5596633891897231 0 0 0 0 342.78388748137513 79.470961763317064 0 79.470961763317064 72.708684896550864 0 0 0 0 434.60830735781929 -310.34694377098862 0 -310.34694377098862 55.619709013180341 0 0 0 0 156.15184243943077 108.01796102339108 0 108.01796102339108 69.035031317729249 0 0 0 0 72.065345123875886 93.051674524979376 0 93.051674524979376 68.788447063832791 0 0 0 0 35.395980408487958 35.429933667998398 0 35.429933667998398 -16.754220240466339 0 0 0 0 146.93479360145284 18.833096208198072 0 18.833096208198072 2.3639593325503938 0 0 0 0 103.52327320934273 -0.67475183868961608 0 -0.67475183868961608 -73.236614413293864 0 0 0 0 48.263969055842608 74.098574517370338 0 74.098574517370338 -21.516753347386611 0 0 0 0 74.917231742460842 6.7041346049012702 0 6.7041346049012702 -18.030126715360012 0 0 0 0 77.248867193629849 6.6456887698184346 0 6.6456887698184346 -8.6531340205610832 0 0 0 0 118.52268163123517 -52.842852198461514 0 -52.842852198461514 17.232179984051072 0 0 0 0 66.693556732760044 -28.682412331905653 0 -28.682412331905653 6.8844487757405659 0 0 0 0 38.367539414270141 30.696729387762701 0 30.696729387762701 -3.6834332694082832 0 0 0 0 61.7810481086903 -0.29526354337605198 0 -0.29526354337605198 -15.18433049219491 0 0 0 0 12.127970901759454 2.6638945779118899 0 2.6638945779118899 -5.6123221362472346 0 0 0 0 24.837583137246895 -5.9818343847856852 0 -5.9818343847856852 0.30625862011428051 0 0 0 0 26.687557332596043 -10.025632017500357 0 -10.025632017500357 7.5078887912054597 0 0 0 0 30.062870238209143 -11.894874391284702 0 -11.894874391284702 7.1956730497722674 0 0 0 0 21.093370548359985 -5.1201657546685055 0 -5.1201657546685055 -0.97016015495631969 0 0 0 0 12.666107582161203 -2.8087944716877473 0 -2.8087944716877473 -5.5849166433517894 0 0 0 0 10.109465708897915 -3.8469696911161009 0 -3.8469696911161009 -1.1904046890376776 0 0 0 0 17.760280542745022 -2.2097005014318256 0 -2.2097005014318256 11.453319347408979 0 0 0 0 16.11982368844383 -3.574114461054549 0 -3.574114461054549 -0.56209846718507395 0 0 0 0 13.30674914678093 -11.673500269740998 0 -11.673500269740998 -0.65264898662417181 0 0 0 0 14.624528438202105 -2.4802132020445242 0 -2.4802132020445242 11.469039040046482 0 0 0 0 8.6230804696282917 -4.4197999577413043 0 -4.4197999577413043 1.5288903099219802 0 0 0 0 11.823869935993571 1.7321615319165176 0 1.7321615319165176 21.249185811518146 0 0 0 0 12.185980543414189 -3.7872683895633372 0 -3.7872683895633372 14.364520672289473 0 0 0 0 12.415739801537711 -4.8569030481353366 0 -4.8569030481353366 12.2065093092545 0 0 0 0 70.595925392883146 -43.406179126085704 0 -43.406179126085704 -5.5726150513837638 0 0 0 0 32.62936068150043 -21.806392337984136 0 -21.806392337984136 14.348365812034853 0 0 0 0 15.219555161485914 -12.613131248137279 0 -12.613131248137279 7.531035254087918 0 0 0 0 43.447654748742934 6.7726797033401454 0 6.7726797033401454 -2.2346327589569341 0 0 0 0 49.15451382228639 -19.314463540247743 0 -19.314463540247743 48.310169126307301 0 0 0 0 22.687296940479428 16.932626395949455 0 16.932626395949455 53.359183510305229 0 0 0 0 14.271405500650872 3.1019410664471252 0 3.1019410664471252 86.04599730013615 0 0 0 0 16.046032383586862 -0.091831454509701871 0 -0.091831454509701871 57.322247902442541 0 0 0 0 -46.204045995989873 -81.709306632536368 0 -81.709306632536368 21.132363689974227 0 0 0 0 18.188873883470535 -16.496241284089109 0 -16.496241284089109 14.635717775223091 0 0 0 0 31.125553595586098 -40.775930468581919 0 -40.775930468581919 -63.092623369423563 0 0 0 0 76.418482770677656 127.03899094142298 0 127.03899094142298 9.4623700832407849 0 0 0 0 -7.8770558696705848 35.990127466184731 0 35.990127466184731 188.28366289007226 0 0 0 0 36.174338127457304 6.8101651394915734 0 6.8101651394915734 132.73327799277922 0 0 0 0 4.7168398338835686 0.93673120959965672 0 0.93673120959965672 85.9570681922105 0 0 0 0 6.3140934713592287 -10.531603087376794 0 -10.531603087376794 90.958705807194747 0 0 0 0 50.008220366376918 -16.511595704270803 0 -16.511595704270803 71.040181858743153 0 0 0 0 141.19415753844441 -103.42711981067919 0 -103.42711981067919 -7.5625215858476622 0 0 0 0 71.077542922750581 6.4379367201645437 0 6.4379367201645437 86.622312550334755 0 0 0 0 211.81419636668579 -49.693354144059867 0 -49.693354144059867 3.2658193073621078 0 0 0 0 51.778521078114863 -43.785785959141322 0 -43.785785959141322 132.92451329220785 0 0 0 0 47.391160862229299 -24.632280245661377 0 -24.632280245661377 59.056799439109454 0 0 0 0 47.689831519441213 -24.861222497343078 0 -24.861222497343078 59.202000796650282 0 0 0 0 36.082124402106274 -23.701622931140264 0 -23.701622931140264 84.987994222429279 0 0 0 0 41.351156877877656 -31.688362667817557 0 -31.688362667817557 -19.493708856034615 0 0 0 0 30.694005082744923 -13.63105396793496 0 -13.63105396793496 -18.53504724297391 0 0 0 0 51.61332373280311 -23.431368998106336 0 -23.431368998106336 36.077123210109676 0 0 0 0 14.778645771037191 2.476996017177413 0 2.476996017177413 -6.7607641385328172 0 0 0 0 50.382893623784184 -20.971397775379046 0 -20.971397775379046 121.13351845353191 0 0 0 0 47.234278235700913 -86.117689120127579 0 -86.117689120127579 112.61158330677415 0 0 0 0 58.364854672458023 -59.152838347303032 0 -59.152838347303032 -16.070928944284333 0 0 0 0 48.158926086733118 -84.759764092426849 0 -84.759764092426849 54.813053607258212 0 0 0 0 24.582600955585917 -5.4716938194837184 0 -5.4716938194837184 -20.113455402470578 0 0 0 0 70.104519315093057 -16.582090626766785 0 -16.582090626766785 -48.182942225234683 0 0 0 0 56.415727320963924 -61.505411775981429 0 -61.505411775981429 -10.210041393042047 0 0 0 0 79.71124337151133 -5.4374759089883753 0 -5.4374759089883753 -33.144280003149156 0 0 0 0 66.360943100677105 -7.9971517719855001 0 -7.9971517719855001 -1.3094686252056817 0 0 0 0 159.57216597955266 -61.930859177164621 0 -61.930859177164621 55.778456594159252 0 0 0 0 73.321065682704557 -8.2163280943342301 0 -8.2163280943342301 -4.4682803873268018 0 0 0 0 -35.031504623999353 126.37214462242537 0 126.37214462242537 29.050875577842817 0 0 0 0 -1.8090644467883408 3.5888720499384306 0 3.5888720499384306 -5.3540714058681722 0 0 0 0 214.56260887402459 -85.251700696244143 0 -85.251700696244143 25.310085122484907 0 0 0 0 132.64976603824471 18.51346428115653 0 18.51346428115653 -9.2225459385745125 0 0 0 0 101.46917754234164 -27.283034661331783 0 -27.283034661331783 -4.2737669256080153 0 0 0 0 112.26547326849686 2.145698919035965 0 2.145698919035965 -10.86565575988925 0 0 0 0 63.891910161037231 18.184189626369516 0 18.184189626369516 0.68144806219333987 0 0 0 0 70.233140770258615 -5.4211867309222725 0 -5.4211867309222725 -4.8372560394890343 0 0 0 0 6.7461641009538766 -1.9920182316537591 0 -1.9920182316537591 -0.012678158072970014 0 0 0 0 110.30543248449976 -35.624248621237804 0 -35.624248621237804 -10.021795440290816 0 0 0 0 26.886977366753854 -29.096643128170484 0 -29.096643128170484 17.866273628171825 0 0 0 0 50.982398194333655 -28.688714047572603 0 -28.688714047572603 -0.73407107235607327 0 0 0 0 64.985182057425845 -34.241097647005063 0 -34.241097647005063 -8.3526746097457476 0 0 0 0 57.075988140066329 -0.2076406437257754 0 -0.2076406437257754 -6.713172603281393 0 0 0 0 74.962052206668886 -25.207241997779761 0 -25.207241997779761 -4.8780063620165492 0 0 0 0 60.872029357939027 -29.15901008883975 0 -29.15901008883975 0.026421636966688311 0 0 0 0 35.743822143253055 -20.339602435198913 0 -20.339602435198913 6.5172707317622098 0 0 0 0 67.790227506688097 9.4091499635866285 0 9.4091499635866285 -15.668079971255338 0 0 0 0 37.935954151552551 -4.5126715985330321 0 -4.5126715985330321 -10.318523387254089 0 0 0 0 49.215451326366519 -35.911444302119378 0 -35.911444302119378 6.7413528085556225 0 0 0 0 -46.760852245497517 -40.045094180355363 0 -40.045094180355363 -62.474053868812916 0 0 0 0 60.449915330827935 -30.456084785649182 0 -30.456084785649182 -1.5723633404645625 0 0 0 0 -48.854550871808897 -216.39202961359058 0 -216.39202961359058 89.812859338424005 0 0 0 0 62.431200181104941 -325.26582349203483 0 -325.26582349203483 43.394757684859087 0 0 0 0 -7.9325482502054001 -4.3412768262138854 0 -4.3412768262138854 1.6740532557319749 0 0 0 0 175.95109738275642 -50.7936649401762 0 -50.7936649401762 -35.550923589538229 0 0 0 0 178.58899123856099 16.481863098558733 0 16.481863098558733 54.173819891948142 0 0 0 0 53.415742251512711 36.930631382216575 0 36.930631382216575 -93.689002193967781 0 0 0 0 49.111076191358734 -35.535926046554323 0 -35.535926046554323 -19.408931387678741 0 0 0 0 57.03954647854215 -23.195020098367394 0 -23.195020098367394 -3.114858156656509 0 0 0 0 122.26302792370552 -72.802283246139154 0 -72.802283246139154 -135.89252964526463 0 0 0 0 105.52018970309291 7.5264126986983229 0 7.5264126986983229 -79.991496102537894 0 0 0 0 202.77845141192665 47.699434990463487 0 47.699434990463487 -53.899323924822966 0 0 0 0 133.46629808096623 -11.450874487742624 0 -11.450874487742624 45.826219381737246 0 0 0 0 302.31012533104513 46.089830455179595 0 46.089830455179595 7.0835082756615293 0 0 0 0 229.53525401835213 -68.907924467548355 0 -68.907924467548355 125.91378450252978 0 0 0 0 192.39062734314939 -9.0891022843827614 0 -9.0891022843827614 45.632093763717016 0 0 0 0 188.00208925880725 -79.398651214029428 0 -79.398651214029428 124.92483616703052 0 0 0 0 156.39539504998538 -117.71648511589478 0 -117.71648511589478 245.10464280735641 0 0 0 0 434.25942098122323 -246.16498284629716 0 -246.16498284629716 222.16396858053304 0 0 0 0 129.88148124888539 61.432293941911752 0 61.432293941911752 61.730796526990503 0 0 0 0 -136.78802712168545 -141.91840703754315 0 -141.91840703754315 -114.62934062293061 0 0 0 0 463.33044609059289 -331.82348055310717 0 -331.82348055310717 -13.026011290123506 0 0 0 0 170.40161338671169 -55.46073815785445 0 -55.46073815785445 99.050587085463576 0 0 0 0 181.31294248689665 51.505627560765561 0 51.505627560765561 232.57359573163592 0 0 0 0 112.81746885058237 -90.993840900450323 0 -90.993840900450323 246.92811408657724 0 0 0 0 209.69159203665913 -67.506771373614242 0 -67.506771373614242 165.67561635470145 0 0 0 0 110.77916950132931 42.527365820766477 0 42.527365820766477 77.276314661425886 0 0 0 0 86.50301732099615 -65.825230760747786 0 -65.825230760747786 269.09403528397223 0 0 0 0 100.7095583199407 116.32910792360173 0 116.32910792360173 -109.30574614481139 0 0 0 0 120.32295175781474 80.544203041531517 0 80.544203041531517 1.4805008723312767 0 0 0 0 65.728632021229714 113.52970248225597 0 113.52970248225597 -2.7432705562705451 0 0 0 0 103.76362218614668 39.601526522648768 0 39.601526522648768 76.20270016893096 0 0 0 0 113.10209847975057 45.118518973460709 0 45.118518973460709 -25.971025975027629 0 0 0 0 103.19263771717669 74.149096311254596 0 74.149096311254596 1.0206174611626011 0 0 0 0 175.98071964760311 -134.61270190916446 0 -134.61270190916446 99.544884456933033 0 0 0 0 -132.01230508997105 -128.35130783544628 0 -128.35130783544628 151.5901413292666 0 0 0 0 -46.700999482127372 -113.78822208853251 0 -113.78822208853251 401.45409729966514 0 0 0 0 66.687973934313732 16.624904899908511 0 16.624904899908511 130.06175101352233 0 0 0 0 26.169242366100661 32.102901365066089 0 32.102901365066089 144.62297636212099 0 0 0 0 -101.56630101724295 159.80031704562987 0 159.80031704562987 35.667442863643146 0 0 0 0 -6.9260591682395898 -1.5817076138700408 0 -1.5817076138700408 -0.98981280075540212 0 0 0 0 128.87103274013498 60.787468976229349 0 60.787468976229349 -19.003693656681321 0 0 0 0 104.83786762386444 10.121357496791742 0 10.121357496791742 -111.16087188258201 0 0 0 0 2.7602819552827214 -1.2857440554517439 0 -1.2857440554517439 0.14996576291885061 0 0 0 0 -3.8994139476271812 -47.319240033851884 0 -47.319240033851884 -25.807249852377794 0 0 0 0 -3.073974365281174 -2.810806685431686 0 -2.810806685431686 -14.764811582529951 0 0 0 0 118.34564392173343 -15.805051400411822 0 -15.805051400411822 -27.36363669029646 0 0 0 0 34.727034875162644 -33.241646513469902 0 -33.241646513469902 0.0067004926263749369 0 0 0 0 1.2107699972812611 -0.27325156440036835 0 -0.27325156440036835 -0.065478064970887359 0 0 0 0 -28.150788222017582 -23.920041560030203 0 -23.920041560030203 -0.028210622120043875 0 0 0 0 222.61658984131645 169.0675958401832 0 169.0675958401832 -1.6095144285093284 0 0 0 0 101.31549740937407 22.148810969447577 0 22.148810969447577 -19.557402043980233 0 0 0 0 80.65269640830229 20.994277116901316 0 20.994277116901316 -2.4292107091384594 0 0 0 0 69.696418515552068 -40.058088063002792 0 -40.058088063002792 9.5442630941081461 0 0 0 0 100.53015485659125 4.2694003642526468 0 4.2694003642526468 -1.2740003819581034 0 0 0 0 1.2354258492714507 -9.4269559804135383 0 -9.4269559804135383 2.3519903572739924 0 0 0 0 45.617470537108602 1.7291925267734882 0 1.7291925267734882 -7.7267501819389963 0 0 0 0 46.344659669412067 7.0527896424475784 0 7.0527896424475784 -0.96329891756295183 0 0 0 0 -195.39022865683364 74.726099187736025 0 74.726099187736025 134.28134541982507 0 0 0 0 29.747729895287193 46.551990023053122 0 46.551990023053122 28.053966355827356 0 0 0 0 82.367767084098887 50.805002717712 0 50.805002717712 -24.386256923533566 0 0 0 0 54.390883826767094 78.27953838515748 0 78.27953838515748 68.26437516471492 0 0 0 0 53.983378653123509 -74.934090290256449 0 -74.934090290256449 -30.473186901088638 0 0 0 0 3.3025817636865895 -0.19401204374307213 0 -0.19401204374307213 -0.18480479655274751 0 0 0 0 -50.22522351652151 -84.05233222197694 0 -84.05233222197694 -96.556217902145363 0 0 0 0 35.864995143087299 -13.365748202297652 0 -13.365748202297652 -3.7276042831138345 0 0 0 0 -283.08047407417325 90.423601626716618 0 90.423601626716618 107.70860372787388 0 0 0 0 -51.135455148294568 31.182052788500641 0 31.182052788500641 -59.924741149648071 0 0 0 0 -8.2643051822079769 -43.878880190925585 0 -43.878880190925585 -6.3548458810447066 0 0 0 0 6.0043929849923643 -4.4525919197730843 0 -4.4525919197730843 -3.9960887391496023 0 0 0 0 109.66228394189966 -1.8232428351278713 0 -1.8232428351278713 -13.6946718740503 0 0 0 0 53.184967628214508 -173.562429654337 0 -173.562429654337 -22.629248864748661 0 0 0 0 1.0282858236237189 -1.6056812741250326 0 -1.6056812741250326 -0.74780799979253398 0 0 0 0 119.259812658187 -69.341109368481852 0 -69.341109368481852 13.213319320719393 0 0 0 0 51.269574146572268 -98.835643254621331 0 -98.835643254621331 77.58045331356135 0 0 0 0 70.006369364302373 -37.221516179219975 0 -37.221516179219975 11.051165179362897 0 0 0 0 237.17470303099253 -18.154208357453797 0 -18.154208357453797 1.5305794030841997 0 0 0 0 15.033726929847035 -8.3034521502180496 0 -8.3034521502180496 23.565020462270581 0 0 0 0 -6.3246947196312249 -1.7610136753522276 0 -1.7610136753522276 28.205553337600058 0 0 0 0 -16.79829789645737 -50.883880824817453 0 -50.883880824817453 61.850233812924927 0 0 0 0 145.08921253232984 -146.80837587772118 0 -146.80837587772118 79.020918038396772 0 0 0 0 -0.44691675878059556 0.62399579880610645 0 0.62399579880610645 2.6510305285204385 0 0 0 0 38.18927375136991 15.257706605925478 0 15.257706605925478 23.460329845664603 0 0 0 0 235.79696219816105 90.501892060156138 0 90.501892060156138 -317.821443332027 0 0 0 0 32.760395305015891 3.9445226726258937 0 3.9445226726258937 -0.87469547041882756 0 0 0 0 -14.306344233511481 -45.162045058447916 0 -45.162045058447916 50.954717776249282 0 0 0 0 35.325808394201886 -41.717314216037892 0 -41.717314216037892 9.7154450023873551 0 0 0 0 35.7455991522869 -10.566947534985516 0 -10.566947534985516 -1.9656866316926007 0 0 0 0 16.486653977364767 -11.88094070239876 0 -11.88094070239876 -17.622072891074083 0 0 0 0 30.662451194773894 -40.121191909571849 0 -40.121191909571849 -151.2929626913126 0 0 0 0 -11.790163971469156 -63.951923686907378 0 -63.951923686907378 -17.764512690485788 0 0 0 0 25.525137590086388 -3.9132338938035218 0 -3.9132338938035218 -1.1973200639614452 0 0 0 0 78.15063927716983 -68.221476976951593 0 -68.221476976951593 -13.898666851562856 0 0 0 0 7.4200415408558911 -3.7659941717825838 0 -3.7659941717825838 -25.871252242040967 0 0 0 0 1.3255599561108511 -1.9944816423415261 0 -1.9944816423415261 -0.18034840705400845 0 0 0 0 41.361810559297226 -15.284989694225288 0 -15.284989694225288 -2.9606673575852667 0 0 0 0 2.0668388207574253 1.0611919609829101 0 1.0611919609829101 -0.7855900949081529 0 0 0 0 39.091203074232908 48.002048774385955 0 48.002048774385955 28.802596078889167 0 0 0 0 262.06146160326898 -80.220718158204335 0 -80.220718158204335 -5.2882475607860115 0 0 0 0 33.821876849181933 -4.5351394626785577 0 -4.5351394626785577 0.87410537144305955 0 0 0 0 490.81138885085238 2.2671198843275562 0 2.2671198843275562 -50.100380152259405 0 0 0 0 5432.071692886434 -2153.486402440225 0 -2153.486402440225 21.426220992150586 0 0 0 0 16.738610710952798 -3.0153490940302419 0 -3.0153490940302419 0.1513481476451625 0 0 0 0 498.8708771149104 -416.72241937707531 0 -416.72241937707531 85.591729233402077 0 0 0 0 1134.1455532916589 324.50885657569125 0 324.50885657569125 -345.57674716434406 0 0 0 0 5484.5635904822993 1488.4628410718137 0 1488.4628410718137 -223.07783546174687 0 0 0 0 5505.1576778639137 -517.42033701110745 0 -517.42033701110745 -504.04085257829024 0 0 0 0 4273.9552675739251 302.33509928922507 0 302.33509928922507 -356.27947741550929 0 0 0 0 -210.96313816335169 132.38058689219332 0 132.38058689219332 143.61147792079566 0 0 0 0 934.25641189262387 -1216.2062496472656 0 -1216.2062496472656 683.41901964538101 0 0 0 0 -313.18978609093028 57.225273007015005 0 57.225273007015005 370.57937197459285 0 0 0 0 -416.6978283685894 -216.69027075962549 0 -216.69027075962549 284.95642284299947 0 0 0 0 -184.72781527947518 -397.22703457619696 0 -397.22703457619696 -52.897986941124586 0 0 0 0 173.00871737918351 207.58078860772602 0 207.58078860772602 393.09123232993142 0 0 0 0 -158.61944609164493 14.193576032588886 0 14.193576032588886 389.99517798558549 0 0 0 0 956.71218495638459 692.64132320011561 0 692.64132320011561 -384.59422274992454 0 0 0 0 4157.5159594911092 -1296.0964870198725 0 -1296.0964870198725 684.79351086788768 0 0 0 0 15.088192773185256 3.5599840990133771 0 3.5599840990133771 -0.042036935186777646 0 0 0 0 5144.692389100499 -560.72486850436928 0 -560.72486850436928 -193.25209435280362 0 0 0 0 4003.2299210386118 434.03913994761513 0 434.03913994761513 -396.86381218461088 0 0 0 0 4773.8650137765508 -1190.4713263515521 0 -1190.4713263515521 -532.53446015913801 0 0 0 0 5619.6715790981543 -612.47935499701487 0 -612.47935499701487 -1226.6053909686909 0 0 0 0 5491.5318246860406 -1174.7921642742108 0 -1174.7921642742108 603.65807288727399 0 0 0 0 2251.1910226074688 -1499.4788763730749 0 -1499.4788763730749 346.11843067835429 0 0 0 0 1194.8837569173484 -587.85786668751359 0 -587.85786668751359 451.7033026052386 0 0 0 0 1760.7707048107404 -35.64830541130118 0 -35.64830541130118 -120.85078610083053 0 0 0 0 -348.7580600057845 -234.02083032482014 0 -234.02083032482014 716.38779793729873 0 0 0 0 21.765004139172675 -5.8279446531562513 0 -5.8279446531562513 5.2214753217385637 0 0 0 0 5493.107787024097 1446.3867943964899 0 1446.3867943964899 -145.10916773463597 0 0 0 0 4905.1613262214814 1729.4768064716854 0 1729.4768064716854 762.10410870395344 0 0 0 0 61.223825479362858 -13.434691044293174 0 -13.434691044293174 222.3432197970875 0 0 0 0 66.75416374814813 39.537391640214338 0 39.537391640214338 9.4821990267994352 0 0 0 0 38.134876687880023 7.3964292246680543 0 7.3964292246680543 -5.7789384445095493 0 0 0 0 49.656323262688716 1.5226346459734401 0 1.5226346459734401 -3.3471688685760399 0 0 0 0 -1411.5226130100782 -178.43541100856089 0 -178.43541100856089 520.18595760448898 0 0 0 0 39.915925492265572 6.863880535651731 0 6.863880535651731 7.0668060090954778 0 0 0 0 103.85928259172942 -32.774036650418651 0 -32.774036650418651 -168.31758741697581 0 0 0 0 14.594129993403286 4.2631614810159135 0 4.2631614810159135 -4.9243818808674273 0 0 0 0 3.7190511679218616 250.56357973398858 0 250.56357973398858 -337.34177206750564 0 0 0 0 -284.16097424132022 462.57758068350194 0 462.57758068350194 298.34600035584765 0 0 0 0 -137.65020572658977 -35.005990903794569 0 -35.005990903794569 503.87609128917688 0 0 0 0 -126.22754996432923 -7.7285939974802176 0 -7.7285939974802176 75.820502161359698 0 0 0 0 11.418814988686918 -0.74296440968782917 0 -0.74296440968782917 7.1214421245293344 0 0 0 0 45.406436642675544 114.55064753855294 0 114.55064753855294 96.42354851185506 0 0 0 0 48.269282885041321 -11.743159850507936 0 -11.743159850507936 3.9688654357977384 0 0 0 0 33.566517499682959 -17.822595989616275 0 -17.822595989616275 8.7857434932093383 0 0 0 0 60.275427145563299 3.3433002054234464 0 3.3433002054234464 -10.1370920723366 0 0 0 0 39.871765357426398 3.5998580722866649 0 3.5998580722866649 -9.4107503876025014 0 0 0 0 45.225905406870879 54.592588568962242 0 54.592588568962242 -44.912693451460257 0 0 0 0 50.539810851619848 8.3128201708113352 0 8.3128201708113352 0.31490375625970435 0 0 0 0 64.693095603463007 -9.4296219667607204 0 -9.4296219667607204 12.510556546104169 0 0 0 0 50.70160266489313 0.93397031146220399 0 0.93397031146220399 -4.7791156073201382 0 0 0 0 32.793922872321794 4.9083966849945853 0 4.9083966849945853 -6.5216848386604909 0 0 0 0 52.644153660410666 7.7120330333878542 0 7.7120330333878542 -2.9787698927298152 0 0 0 0 117.84449287620373 29.477463164661458 0 29.477463164661458 11.207557724484559 0 0 0 0 106.26284360728459 20.65241045010589 0 20.65241045010589 6.43354344034924 0 0 0 0 53.085397177492268 -6.3683245824690857 0 -6.3683245824690857 -2.8726951000246004 0 0 0 0 51.17012760261423 -0.12245333488397137 0 -0.12245333488397137 -5.5895527979921553 0 0 0 0 58.369010888534831 4.714006660979976 0 4.714006660979976 -2.4449141855204743 0 0 0 0 47.506154765883764 -11.158318819787624 0 -11.158318819787624 -5.384301921220203 0 0 0 0 75.920483389505534 6.6099072477013578 0 6.6099072477013578 6.5445110209998347 0 0 0 0 67.99138125983518 4.7185062156494268 0 4.7185062156494268 7.0321008193059242 0 0 0 0 13.155123109440837 2.5377292313393696 0 2.5377292313393696 2.6843323926341149 0 0 0 0 120.00786150705608 30.322833121763551 0 30.322833121763551 5.2025839212947176 0 0 0 0 117.9543590122048 28.514487329511212 0 28.514487329511212 6.9149465241407597 0 0 0 0 120.38604416562885 29.554464617325266 0 29.554464617325266 2.1403235512607353 0 0 0 0 1456.6197664263309 801.46009925533599 0 801.46009925533599 1027.6432113388794 0 0 0 0 121.65674024540203 38.415875066966578 0 38.415875066966578 9.3530597254866734 0 0 0 0 8.5666060750969422 6.4167952854145085 0 6.4167952854145085 13.881080586044581 0 0 0 0 5501.4658229018096 1788.9580554319177 0 1788.9580554319177 2235.5760406896247 0 0 0 0 5736.3675114951038 1533.7215212445467 0 1533.7215212445467 -500.96248206214801 0 0 0 0 3076.1400186396131 3101.8594360737898 0 3101.8594360737898 2184.1404442762087 0 0 0 0 11.794006685297518 8.264823385354461 0 8.264823385354461 7.8364812254177956 0 0 0 0 6013.5362658130762 2498.0545864643932 0 2498.0545864643932 943.26848448975306 0 0 0 0 5106.8488852813098 269.07004179991725 0 269.07004179991725 -105.7373045715762 0 0 0 0 54.311435847840869 13.383942725997699 0 13.383942725997699 4.2772683740395783 0 0 0 0 94.083848151203711 39.326914409962228 0 39.326914409962228 37.085048046661541 0 0 0 0 156.84129922080319 -81.752856700678194 0 -81.752856700678194 15.30460059739562 0 0 0 0 -283.8928087483655 -453.01528676853582 0 -453.01528676853582 -223.86236597694466 0 0 0 0 716.05237094104086 369.23147220670955 0 369.23147220670955 67.87717525688231 0 0 0 0 3.3746000285701712 -1.6017446581657566 0 -1.6017446581657566 -2.0752054480475612 0 0 0 0 402.08973168605007 -81.057433437147324 0 -81.057433437147324 -45.884793647634069 0 0 0 0 228.15063055579958 90.750019937512775 0 90.750019937512775 7.6531124401299166 0 0 0 0 49.529928809144621 -8.153701703645936 0 -8.153701703645936 42.405973299109974 0 0 0 0 48.283166902945595 -0.18829053257293538 0 -0.18829053257293538 -6.4154653786954441 0 0 0 0 -4.1520634773478378 5.7916230787145651 0 5.7916230787145651 2.6005106158918352 0 0 0 0 39.593383137267665 28.429265175872615 0 28.429265175872615 11.648290739509775 0 0 0 0 1.4098097962560132 0.47824925556744802 0 0.47824925556744802 19.482622260322842 0 0 0 0 73.428859038220253 -12.493473247593556 0 -12.493473247593556 -5.4485537580189884 0 0 0 0 157.98397041767021 34.438835246622148 0 34.438835246622148 4.6586797108255951 0 0 0 0 43.807532315462595 7.1469042431413072 0 7.1469042431413072 -3.5495562046815508 0 0 0 0 93.979467858560383 -6.1331442809168948 0 -6.1331442809168948 -15.492340403396611 0 0 0 0 23.483157279522857 22.391298578180567 0 22.391298578180567 -20.247105957751501 0 0 0 0 49.916107016753813 14.356418516786903 0 14.356418516786903 -30.271880179854634 0 0 0 0 15.52601068109891 6.1244547193618359 0 6.1244547193618359 -2.5615739571225555 0 0 0 0 8.4374462431151187 62.903910818251916 0 62.903910818251916 -58.694955437005433 0 0 0 0 30.954488198942272 -14.50461965113027 0 -14.50461965113027 16.618846548597617 0 0 0 0 71.461393322329968 -22.515807655046046 0 -22.515807655046046 15.122981646583412 0 0 0 0 6.5696594234179599 0.43073303624126424 0 0.43073303624126424 -1.8007306332711757 0 0 0 0 24.174765987729188 10.856376845323211 0 10.856376845323211 -7.3150775864015714 0 0 0 0 17.411901983054122 -27.115942212303935 0 -27.115942212303935 57.541429971936168 0 0 0 0 42.16500652092509 -71.071255224034189 0 -71.071255224034189 69.087296625450108 0 0 0 0 45.793491429038113 -60.323866420305876 0 -60.323866420305876 23.361948373451241 0 0 0 0 47.361756872327533 -47.162776620216619 0 -47.162776620216619 -7.8990471941515352 0 0 0 0 106.24323979203473 -45.959353561139096 0 -45.959353561139096 -8.8309841961613529 0 0 0 0 101.5618086508257 -48.250484964271237 0 -48.250484964271237 -7.983043012183316 0 0 0 0 87.676108444109559 -162.71480339149741 0 -162.71480339149741 -135.01953469275736 0 0 0 0 121.76946787974521 -96.569883745166436 0 -96.569883745166436 -13.073126250446876 0 0 0 0 5.7561819210895919 -115.49076668037634 0 -115.49076668037634 122.13954351929078 0 0 0 0 8.571902940311702 -116.98903266045363 0 -116.98903266045363 9.9231985857795735 0 0 0 0 30.045681226503802 -97.455708658548474 0 -97.455708658548474 94.262156871429397 0 0 0 0 130.40960487102711 -121.28748370426251 0 -121.28748370426251 316.23234564894483 0 0 0 0 94.165881690758397 -40.332694164232862 0 -40.332694164232862 138.01340011790217 0 0 0 0 -30.315278024179861 -140.40474462670829 0 -140.40474462670829 187.98773851086986 0 0 0 0 193.17657271729695 -146.23460094722299 0 -146.23460094722299 -46.332375337635995 0 0 0 0 -19.54171567587764 -209.12079783395734 0 -209.12079783395734 18.498591623881111 0 0 0 0 309.69916015745548 -18.806376064817414 0 -18.806376064817414 532.56079027560781 0 0 0 0 335.51155566138914 6.135320917664103 0 6.135320917664103 202.44901318943147 0 0 0 0 199.47299561419641 -230.62891240522708 0 -230.62891240522708 217.39782670017075 0 0 0 0 342.81486204618705 -41.410430859518669 0 -41.410430859518669 181.41366571504636 0 0 0 0 573.47778090744396 -173.8085760893357 0 -173.8085760893357 252.16984892188862 0 0 0 0 232.9517146119324 -96.870183210868845 0 -96.870183210868845 -136.46690827690929 0 0 0 0 398.52624961424044 -269.47497633690284 0 -269.47497633690284 -8.6277654663047088 0 0 0 0 185.88254590786528 -184.24842507008685 0 -184.24842507008685 -267.95695390792935 0 0 0 0 274.48723145227632 -173.60923980047536 0 -173.60923980047536 -267.59915649454979 0 0 0 0 289.05457878965535 -210.41305389891937 0 -210.41305389891937 -296.57794562898334 0 0 0 0 284.74330542521784 -99.541025400353845 0 -99.541025400353845 -439.45652529078711 0 0 0 0 60.350136705150362 -244.9913654333198 0 -244.9913654333198 -46.929049864748087 0 0 0 0 -17.64094912080327 -125.02433130341112 0 -125.02433130341112 -229.58711220785943 0 0 0 0 7.2141876612531632 -4.4608346763455984 0 -4.4608346763455984 -3.7216639034025043 0 0 0 0 10.234045754412364 -229.94423540272734 0 -229.94423540272734 -295.27626792437809 0 0 0 0 488.95048657048028 274.10204887957298 0 274.10204887957298 -13.965294611814215 0 0 0 0 -109.53489746119158 -268.43130404348767 0 -268.43130404348767 -238.66893986956961 0 0 0 0 101.49440807806241 -126.42062431762412 0 -126.42062431762412 -306.37918895770446 0 0 0 0 102.32478455650562 -132.15358223817026 0 -132.15358223817026 -272.65042262906155 0 0 0 0 -96.419967610418098 -152.52434364924193 0 -152.52434364924193 -204.26164425385861 0 0 0 0 31.419589477911359 -35.502991150221192 0 -35.502991150221192 -98.823385360497355 0 0 0 0 96.740621310542338 238.11247617585809 0 238.11247617585809 96.616094785009068 0 0 0 0 155.18564267849433 31.442569189489461 0 31.442569189489461 -341.1138385403159 0 0 0 0 138.25007841267507 -2.6501875025986692 0 -2.6501875025986692 -405.21683834063003 0 0 0 0 174.98474145719956 -68.826271094601111 0 -68.826271094601111 -286.18594670539045 0 0 0 0 65.503498268968542 -40.540146369981159 0 -40.540146369981159 -290.56292567023763 0 0 0 0 62.953416473363177 37.936318562755901 0 37.936318562755901 -128.77082450245621 0 0 0 0 22.958477370771504 7.853179111958184 0 7.853179111958184 -6.2347443347720404 0 0 0 0 49.156275687026209 101.13245565960159 0 101.13245565960159 -350.40785307469025 0 0 0 0 95.091985813036445 19.893527902971869 0 19.893527902971869 42.263467967952238 0 0 0 0 316.98236171355529 -78.399063512613566 0 -78.399063512613566 4.6762276858114546 0 0 0 0 205.3848953349152 -133.13058312782232 0 -133.13058312782232 85.079842369860671 0 0 0 0 24.948710887416269 4.7080787443383656 0 4.7080787443383656 -8.681321535494277 0 0 0 0 31.156522464589216 -48.691472727287987 0 -48.691472727287987 -58.981221770387265 0 0 0 0 95.507750357472105 17.220618081340035 0 17.220618081340035 -7.3980565540869065 0 0 0 0 59.882802752050338 -8.6437076008496661 0 -8.6437076008496661 -11.804599864624834 0 0 0 0 39.498854006923438 -18.482224725502135 0 -18.482224725502135 -3.8125254044953856 0 0 0 0 32.814907663618214 -57.719458899585334 0 -57.719458899585334 15.939891702313616 0 0 0 0 60.54003224929329 -49.3492582531062 0 -49.3492582531062 -5.1074792342369619 0 0 0 0 145.72669856710127 -54.623411543860129 0 -54.623411543860129 73.493646788479964 0 0 0 0 89.728060065346654 2.1180384396907357 0 2.1180384396907357 48.215428027073358 0 0 0 0 36.557903360022465 -43.71526136447892 0 -43.71526136447892 51.025429710796743 0 0 0 0 163.20400564739248 3.0595241719129262 0 3.0595241719129262 -20.223600094814174 0 0 0 0 159.56749783828855 23.44081569654918 0 23.44081569654918 30.242253007544605 0 0 0 0 330.88876723445719 -64.499818103521818 0 -64.499818103521818 -19.1734865235303 0 0 0 0 326.27306935397792 -15.475857879609975 0 -15.475857879609975 -10.442774486215058 0 0 0 0 213.44013916578842 -69.499975563478301 0 -69.499975563478301 35.498337876150941 0 0 0 0 -2.8005033149415226 -1.2097724782925354 0 -1.2097724782925354 -1.3915740933355312 0 0 0 0 195.63902605488693 -38.056761872783682 0 -38.056761872783682 13.711309824659111 0 0 0 0 182.73026490229677 -41.461901229821024 0 -41.461901229821024 -119.68711221710441 0 0 0 0 236.721885458217 -36.625352205930653 0 -36.625352205930653 -37.544578120982351 0 0 0 0 40.12598738190718 -13.829237819299351 0 -13.829237819299351 -105.73676641009058 0 0 0 0 16.085283469060016 -7.2410553837855787 0 -7.2410553837855787 -4.0076491304813411 0 0 0 0 193.29764183200314 33.516365927489005 0 33.516365927489005 -13.31031458252437 0 0 0 0 184.0316548863193 49.579719705616299 0 49.579719705616299 -20.54639166605466 0 0 0 0 110.42442394653335 -60.220964357225057 0 -60.220964357225057 -35.345984960757391 0 0 0 0 15.482681500478293 4.8258361494208089 0 4.8258361494208089 -9.2870241407450642 0 0 0 0 20.296319251094246 49.17187333936954 0 49.17187333936954 25.911044860779839 0 0 0 0 39.173872359406857 -7.8720180842664149 0 -7.8720180842664149 0.53206800517339481 0 0 0 0 118.38803661367274 79.301273759358992 0 79.301273759358992 -23.354021339120663 0 0 0 0 107.82358979706987 6.1954221770430991 0 6.1954221770430991 2.0033646236834102 0 0 0 0 210.80080071142584 -30.826634664291475 0 -30.826634664291475 8.7566024357120114 0 0 0 0 549.97303856574581 44.352832989924877 0 44.352832989924877 -268.41432635832734 0 0 0 0 368.01244080011384 249.11621151364886 0 249.11621151364886 82.033986044245921 0 0 0 0 328.43292080328683 -7.4094218509706025 0 -7.4094218509706025 -158.75856555586074 0 0 0 0 292.49427879543509 -113.84713053771543 0 -113.84713053771543 -232.87090056128994 0 0 0 0 -183.97120051115053 -180.60853284424331 0 -180.60853284424331 97.815456690005703 0 0 0 0 80.1416231079005 -55.161341875832079 0 -55.161341875832079 23.261541883811383 0 0 0 0 -0.58010429843318434 -17.757536642573058 0 -17.757536642573058 12.68927351668032 0 0 0 0 140.91334557707887 44.695060299850297 0 44.695060299850297 -58.153711441162272 0 0 0 0 91.412636777604348 -60.133952257233545 0 -60.133952257233545 -72.26276747582915 0 0 0 0 74.537261310120812 -55.618591473037213 0 -55.618591473037213 -19.891120647038861 0 0 0 0 122.04315040289657 -68.697196386963981 0 -68.697196386963981 -76.092059736309949 0 0 0 0 107.56272468509997 -106.47553296100145 0 -106.47553296100145 -86.375824119026674 0 0 0 0 216.17599559757218 -79.591057498183488 0 -79.591057498183488 -165.42818230252726 0 0 0 0 238.64932239218615 -65.233330285656294 0 -65.233330285656294 -164.04859335840933 0 0 0 0 179.71192284612334 -94.723235356262165 0 -94.723235356262165 -160.51364252276329 0 0 0 0 184.21976501882455 -134.19502682249612 0 -134.19502682249612 -264.35588729859279 0 0 0 0 207.08025884057861 -83.84337517571862 0 -83.84337517571862 -169.51137503470432 0 0 0 0 241.81191702261276 -42.950548496613749 0 -42.950548496613749 -172.91323846390378 0 0 0 0 257.28490752467769 -80.895799378961613 0 -80.895799378961613 -159.32522119775882 0 0 0 0 300.84997474474949 -57.734679952786962 0 -57.734679952786962 -181.05081527386682 0 0 0 0 299.60240860143676 -35.962941754496697 0 -35.962941754496697 -147.501353743138 0 0 0 0 236.19039296184201 2.2875709157313793 0 2.2875709157313793 -99.062834344779816 0 0 0 0 427.58108307013754 81.372001333398728 0 81.372001333398728 -96.932773471296372 0 0 0 0 357.89386548081529 9.4357030182748076 0 9.4357030182748076 -185.3321260789204 0 0 0 0 308.90434669615934 47.975525738545002 0 47.975525738545002 -40.384810773469781 0 0 0 0 266.87003222823841 -32.247781925793788 0 -32.247781925793788 -127.61430725496609 0 0 0 0 295.79639550464344 -63.573708185878104 0 -63.573708185878104 -198.03243800976611 0 0 0 0 261.64846830698662 -76.671355972557876 0 -76.671355972557876 -207.43644794891759 0 0 0 0 188.62904537515715 -68.153070526478814 0 -68.153070526478814 -167.81326670919543 0 0 0 0 311.62717046716716 121.80789010210259 0 121.80789010210259 -83.616382663347395 0 0 0 0 291.94389415369369 46.769281965860387 0 46.769281965860387 86.686672700103998 0 0 0 0 493.6850361649017 29.895586357142587 0 29.895586357142587 -65.072833080864712 0 0 0 0 -0.055297504300540368 0.36142246369129793 0 0.36142246369129793 -1.4585289907869932 0 0 0 0 25.686491975393437 0.1417279529155735 0 0.1417279529155735 -6.0676845274199422 0 0 0 0 75.825914470216958 3.0314622959605231 0 3.0314622959605231 -192.4824567330852 0 0 0 0 21.521200882532867 29.746769598306173 0 29.746769598306173 26.18943204150969 0 0 0 0 233.82135766285501 -43.292566655782366 0 -43.292566655782366 -192.51768165510066 0 0 0 0 -230.23375669348752 -185.37655250866771 0 -185.37655250866771 -270.48850962368834 0 0 0 0 117.2580210470187 -193.39066612439629 0 -193.39066612439629 -472.60808916853483 0 0 0 0 15.218396459589712 82.531795096734527 0 82.531795096734527 -260.44267176572396 0 0 0 0 185.3250668317778 -56.244667236227571 0 -56.244667236227571 -206.99295111965222 0 0 0 0 -263.65415029964061 -227.07960853011207 0 -227.07960853011207 -108.55968550919641 0 0 0 0 220.31151209845848 20.340949021239851 0 20.340949021239851 -335.72915292575317 0 0 0 0 9.9659410760447713 -2.2007766671684976 0 -2.2007766671684976 -2.4661758825174216 0 0 0 0 20.487007065617945 68.925863164017755 0 68.925863164017755 -264.36587047141569 0 0 0 0 27.89653432922205 -269.70332090101408 0 -269.70332090101408 -464.58560451802578 0 0 0 0 178.05752555107028 -11.273482949745926 0 -11.273482949745926 -188.53764121435347 0 0 0 0 115.66004664605134 55.630321362859604 0 55.630321362859604 7.6632835037571567 0 0 0 0 10.35350556092942 1.1048499583482396 0 1.1048499583482396 -2.3108470374242915 0 0 0 0 67.372824885733351 -1.0659289243026251 0 -1.0659289243026251 -9.7566400882773774 0 0 0 0 -6.4206767026043963 -174.9907298670758 0 -174.9907298670758 -123.65010595313663 0 0 0 0 -22.019137811643304 -92.836565029338033 0 -92.836565029338033 -34.422118891758942 0 0 0 0 22.823548246815335 -77.845766674232891 0 -77.845766674232891 -48.965655313905017 0 0 0 0 37.863632675114786 -21.99788853689779 0 -21.99788853689779 -4.5801233812962892 0 0 0 0 45.530747083550466 -22.795729943033308 0 -22.795729943033308 2.4147702497287629 0 0 0 0 14.558464138186537 -96.086664767552293 0 -96.086664767552293 -45.301356555155508 0 0 0 0 169.23517454092507 -20.659338002007644 0 -20.659338002007644 8.5794394581753295 0 0 0 0 81.829656770460133 -35.840526587918333 0 -35.840526587918333 6.7972333190241834 0 0 0 0 30.970597678597258 15.698341500798421 0 15.698341500798421 -7.8293007807616135 0 0 0 0 239.41325050026353 -93.466045896173455 0 -93.466045896173455 9.080875565315182 0 0 0 0 93.621698336672125 13.883932250238558 0 13.883932250238558 30.412118046807336 0 0 0 0 87.842791010057795 -24.261698512570661 0 -24.261698512570661 2.8354105458329739 0 0 0 0 96.124133436998818 -22.072946129789216 0 -22.072946129789216 -1.2989401596569223 0 0 0 0 114.94446828890068 -11.544070938782397 0 -11.544070938782397 11.640240600822381 0 0 0 0 68.282855986290087 14.78745434797554 0 14.78745434797554 73.453547427705416 0 0 0 0 148.05712382959609 47.177443853695422 0 47.177443853695422 27.411274682375279 0 0 0 0 133.66038874551305 89.512599579925791 0 89.512599579925791 66.311909430346532 0 0 0 0 213.79341275722254 152.15530459076808 0 152.15530459076808 113.69708945029834 0 0 0 0 277.75203236951347 117.9884263853246 0 117.9884263853246 32.080516584936959 0 0 0 0 57.760811866581207 14.353930095782289 0 14.353930095782289 174.10201849249458 0 0 0 0 205.50186459747783 134.61623426158371 0 134.61623426158371 105.60855916612354 0 0 0 0 415.38432485930389 103.21597828520908 0 103.21597828520908 61.859244228727789 0 0 0 0 47.606860489279711 -12.873650202007596 0 -12.873650202007596 1.0955564906109889 0 0 0 0 64.778072665503714 -330.20499683726825 0 -330.20499683726825 -601.65117202506622 0 0 0 0 -15.00834840706375 -71.040319103845604 0 -71.040319103845604 -270.83572314796129 0 0 0 0 70.905235620914027 -130.66184351000447 0 -130.66184351000447 -407.41059321863418 0 0 0 0 186.12374598547467 2.874204296644848 0 2.874204296644848 -357.27727353762975 0 0 0 0 64.207792501285439 -59.579841542337817 0 -59.579841542337817 -191.48053975433049 0 0 0 0 47.618198022566503 -110.23999003588006 0 -110.23999003588006 -340.01141273630708 0 0 0 0 108.83573943327065 -30.622024258137003 0 -30.622024258137003 -193.46262741148269 0 0 0 0 67.081269604481577 -21.242259974193288 0 -21.242259974193288 4.7318007382945462 0 0 0 0 57.060843281503821 -28.665282081747606 0 -28.665282081747606 -25.982389104834738 0 0 0 0 97.25057806860724 -31.037952063882674 0 -31.037952063882674 -15.665069063573966 0 0 0 0 199.05778934889531 -35.021596521341962 0 -35.021596521341962 -32.75043080497926 0 0 0 0 68.463023140910082 20.179347683268134 0 20.179347683268134 15.028209185089509 0 0 0 0 72.467895716238729 -18.416233860889548 0 -18.416233860889548 -17.548072186872833 0 0 0 0 88.916716520878254 -27.167474700647745 0 -27.167474700647745 -26.126572720365857 0 0 0 0 177.97196754635661 9.9739121987549879 0 9.9739121987549879 13.160232494799857 0 0 0 0 1.5325796804936545 -56.175083777230611 0 -56.175083777230611 0.14446943469101825 0 0 0 0 78.64696227106171 -24.338112933460877 0 -24.338112933460877 -34.786988815196736 0 0 0 0 43.349784295482095 -49.11537532492639 0 -49.11537532492639 -23.640098232138371 0 0 0 0 43.508212491620498 8.4865659122077659 0 8.4865659122077659 2.6217356630037898 0 0 0 0 150.32386040189886 -75.840997019963652 0 -75.840997019963652 -249.27001162183069 0 0 0 0 12.413199023951222 -3.5752819459602279 0 -3.5752819459602279 -8.1648063955695989 0 0 0 0 459.61480172607116 366.08145732660705 0 366.08145732660705 -3.6099669504329164 0 0 0 0 185.31372524581093 -269.70182257053102 0 -269.70182257053102 319.03950161330795 0 0 0 0 4.8483402594823133 4.3679325890916036 0 4.3679325890916036 0.23702227883719557 0 0 0 0 -21.054148887487827 40.371545763684253 0 40.371545763684253 -77.364687028228218 0 0 0 0 81.809720164601458 -291.36727191586124 0 -291.36727191586124 -70.815339940574631 0 0 0 0 237.60384795123173 42.199932325731197 0 42.199932325731197 -98.528600805509996 0 0 0 0 363.44100611117028 271.42197718360717 0 271.42197718360717 306.34464912276053 0 0 0 0 772.26553330445313 -62.096049925617535 0 -62.096049925617535 -83.658331822545733 0 0 0 0 810.0657113599591 157.40400592766639 0 157.40400592766639 -29.740996693099532 0 0 0 0 445.48625336267287 -57.153104088690952 0 -57.153104088690952 235.80461356204876 0 0 0 0 371.5674411342552 198.0966328825487 0 198.0966328825487 1.0595205830813939 0 0 0 0 18.201931568085627 -3.8956225520432923 0 -3.8956225520432923 0.12955308083899375 0 0 0 0 1011.1967377554538 886.90596089949804 0 886.90596089949804 474.42116016890145 0 0 0 0 588.8335984837031 288.00581779129317 0 288.00581779129317 -125.07745403185632 0 0 0 0 427.1170131877152 293.59648784471108 0 293.59648784471108 165.08732924939611 0 0 0 0 -203.41798059412395 -195.63363117838207 0 -195.63363117838207 -89.472703790431808 0 0 0 0 272.02283634480409 -254.70561133984447 0 -254.70561133984447 -294.69940129364193 0 0 0 0 173.00722959288396 190.00511371739745 0 190.00511371739745 -198.34339674307384 0 0 0 0 1291.6310234250268 -292.28481133585092 0 -292.28481133585092 -223.53595526024856 0 0 0 0 -0.85910717020567517 -0.92419054635973907 0 -0.92419054635973907 -14.591070019956874 0 0 0 0 -931.90100198796426 -353.26990009031624 0 -353.26990009031624 597.62702961504056 0 0 0 0 504.96175211199443 125.20740391786512 0 125.20740391786512 -412.96589020859074 0 0 0 0 289.97824973892421 -67.582604374201765 0 -67.582604374201765 -70.498288658966885 0 0 0 0 -7.4571510780401695 -11.766049513251161 0 -11.766049513251161 155.26017606373352 0 0 0 0 12.148967705322931 -3.5980695528390356 0 -3.5980695528390356 -34.639226179889945 0 0 0 0 231.91333278466482 -130.16953098357772 0 -130.16953098357772 -32.762795469518096 0 0 0 0 -442.71894378910656 114.02612385357702 0 114.02612385357702 86.2361431629256 0 0 0 0 -0.32199348268115102 0.85324415497461814 0 0.85324415497461814 -2.7689614364800583 0 0 0 0 357.97706583586114 643.95658962892162 0 643.95658962892162 145.69165579874709 0 0 0 0 -81.899183448840631 -724.14971018246274 0 -724.14971018246274 471.2405801815039 0 0 0 0 327.90949059172999 -225.08575006381398 0 -225.08575006381398 -12.884529810579807 0 0 0 0 347.37367407721467 -214.52577522626575 0 -214.52577522626575 -198.67278578158562 0 0 0 0 984.99670570181479 -274.56608201957346 0 -274.56608201957346 -276.65229660378645 0 0 0 0 184.77391314684064 -562.70388358190417 0 -562.70388358190417 -295.27865897756874 0 0 0 0 -183.03389679805696 -234.18447339111765 0 -234.18447339111765 -44.298616390123243 0 0 0 0 200.12387474886782 -310.15813625633564 0 -310.15813625633564 -32.807612269900346 0 0 0 0 240.25165641610511 -183.84352446302364 0 -183.84352446302364 -11.865018542165217 0 0 0 0 217.14076038177882 -158.94776484614556 0 -158.94776484614556 122.11597446676706 0 0 0 0 316.09859905519988 -24.776522823143864 0 -24.776522823143864 120.15115199276997 0 0 0 0 246.7240529103874 -110.70839064910109 0 -110.70839064910109 53.378160500864851 0 0 0 0 141.34209905266471 -53.124768018016198 0 -53.124768018016198 49.642079962156913 0 0 0 0 193.9113765147049 -38.287396026895976 0 -38.287396026895976 -1.7582146045640457 0 0 0 0 253.64642569480566 -13.100212237057804 0 -13.100212237057804 -40.466952584275987 0 0 0 0 278.71188456317759 -139.11986226442741 0 -139.11986226442741 39.843234491575913 0 0 0 0 0.19012724244299761 -0.35442928644454241 0 -0.35442928644454241 0.6117245765202437 0 0 0 0 138.00980326443096 -98.550295776062285 0 -98.550295776062285 -111.27691858885532 0 0 0 0 157.57091792928259 107.0199702614145 0 107.0199702614145 -16.070635587930155 0 0 0 0 101.58187646596343 7.4126564906205203 0 7.4126564906205203 -0.7816546241215292 0 0 0 0 -15.209616616542917 -67.391968037844521 0 -67.391968037844521 -5.0208729289247458 0 0 0 0 -36.775009984354256 20.669238979168767 0 20.669238979168767 29.497760163344992 0 0 0 0 19.793880899436772 90.840667818936481 0 90.840667818936481 -17.90872663450665 0 0 0 0 0.11361782018809663 -0.76102394438387932 0 -0.76102394438387932 0.76831929551806866 0 0 0 0 26.376741944084642 60.676849281158411 0 60.676849281158411 106.79558892329715 0 0 0 0 -21.877771291692625 118.62272991027316 0 118.62272991027316 37.898246294521869 0 0 0 0 64.000434586036135 184.50029974901179 0 184.50029974901179 -16.875067874110755 0 0 0 0 -0.40038554643889768 0.80824814366798137 0 0.80824814366798137 0.27210789649985578 0 0 0 0 376.92697475798195 122.59620713779009 0 122.59620713779009 79.457639783439845 0 0 0 0 102.10401465906762 179.41217967973034 0 179.41217967973034 204.18456347227539 0 0 0 0 1.7444468740729917 -0.22775151459100584 0 -0.22775151459100584 -0.093521833861418102 0 0 0 0 0.97852421732386574 -2.712147656444813 0 -2.712147656444813 -4.0711164625664651 0 0 0 0 -0.038697348907589912 22.819447471202011 0 22.819447471202011 -9.0434769618325959 0 0 0 0 71.098493428929942 32.408607195408877 0 32.408607195408877 -37.772553093707756 0 0 0 0 1.3064234924941047 1.8474192901671813 0 1.8474192901671813 -3.5805215292827857 0 0 0 0 176.07218972951523 105.86172016653381 0 105.86172016653381 -90.986922717614107 0 0 0 0 385.42262175606447 78.777056017357609 0 78.777056017357609 -111.46253368773432 0 0 0 0 115.84375251441088 18.940936493036702 0 18.940936493036702 -123.64629021125984 0 0 0 0 256.46113404649077 -52.333848865200252 0 -52.333848865200252 -283.37106706192401 0 0 0 0 183.10617279054713 52.335942569639883 0 52.335942569639883 -148.74878623047334 0 0 0 0 207.88931980592315 -58.27099842603252 0 -58.27099842603252 13.673309835517102 0 0 0 0 64.448171218973584 -181.30994479167066 0 -181.30994479167066 -94.783282288919509 0 0 0 0 66.34149353048997 -21.019737133488434 0 -21.019737133488434 -372.79206778224921 0 0 0 0 62.058971831385861 -178.0475365366276 0 -178.0475365366276 89.202910923454965 0 0 0 0 261.16291951197491 -66.302826504966106 0 -66.302826504966106 -66.824882950321353 0 0 0 0 386.96050181204919 126.76269452788893 0 126.76269452788893 58.525040403912271 0 0 0 0 190.55810304575425 -53.202443438531873 0 -53.202443438531873 46.403096132984501 0 0 0 0 625.14348821371095 -79.333206147385454 0 -79.333206147385454 12.203567504098828 0 0 0 0 421.73493770515779 -209.23784364698895 0 -209.23784364698895 173.10528495856943 0 0 0 0 483.44614826200996 -3.95443999895042 0 -3.95443999895042 32.443801902332552 0 0 0 0 255.48020043643191 -147.62346998366843 0 -147.62346998366843 78.096535147182919 0 0 0 0 236.46769658655103 -122.45961188517492 0 -122.45961188517492 177.83366794073436 0 0 0 0 1.3867218380121642 0.46545103417358291 0 0.46545103417358291 -0.96641316585591319 0 0 0 0 310.66435200285923 92.637044444226376 0 92.637044444226376 140.34126674022386 0 0 0 0 405.13006003281043 -151.48239239609148 0 -151.48239239609148 -15.801441535915501 0 0 0 0 293.31866533163702 -231.03328382777818 0 -231.03328382777818 54.398150379396384 0 0 0 0 153.78235983094783 -175.72005721116693 0 -175.72005721116693 120.07189116122845 0 0 0 0 60.042915470316075 -97.765877497515476 0 -97.765877497515476 99.360922625259263 0 0 0 0 241.95572806720156 -119.51721673855104 0 -119.51721673855104 -8.9856594101927385 0 0 0 0 -2.2407611550588626 -52.815767101814117 0 -52.815767101814117 59.629339374065239 0 0 0 0 546.59216246361029 180.61595167772816 0 180.61595167772816 44.128191585256786 0 0 0 0 3.2556043847102387 -2.3164166610127666 0 -2.3164166610127666 2.0802511833220407 0 0 0 0 18.760375394336734 61.154996910448432 0 61.154996910448432 -47.663413285027218 0 0 0 0 38.223752747988328 -38.245449237480443 0 -38.245449237480443 -23.051863252064777 0 0 0 0 12.163509149189679 1.9758892601160198 0 1.9758892601160198 -3.8676016362328527 0 0 0 0 -10.048671695432859 -19.441790875212689 0 -19.441790875212689 17.66095353349192 0 0 0 0 81.085639143762819 -16.054520066111365 0 -16.054520066111365 -16.605192813060057 0 0 0 0 24.977130487677641 0.36618224465883031 0 0.36618224465883031 21.76608056773722 0 0 0 0 161.96181347160018 -71.569233498599516 0 -71.569233498599516 16.892355186689429 0 0 0 0 52.753536086471286 -37.563440738041663 0 -37.563440738041663 14.148882693910764 0 0 0 0 138.00545320892707 -76.307436447646523 0 -76.307436447646523 12.840172252793735 0 0 0 0 174.06951291207952 -42.046837575127313 0 -42.046837575127313 -12.574651403022017 0 0 0 0 281.02698867439176 -99.746603223405373 0 -99.746603223405373 7.2203776004180327 0 0 0 0 156.18242333494709 -49.036800550023997 0 -49.036800550023997 29.522362528015265 0 0 0 0 314.69509207743977 -73.636738560863137 0 -73.636738560863137 20.793360401632981 0 0 0 0 184.3482010596199 -58.071113868849181 0 -58.071113868849181 -7.0588815228124986 0 0 0 0 257.49218559383007 -159.34531822951237 0 -159.34531822951237 25.654861037653063 0 0 0 0 286.93279428819369 -128.41207544911867 0 -128.41207544911867 0.9731480919713249 0 0 0 0 265.37311168154702 -119.68956857813544 0 -119.68956857813544 108.437277857965 0 0 0 0 450.29006909900636 -169.89992073638922 0 -169.89992073638922 49.675149734956449 0 0 0 0 315.83849460326019 -89.571447653247219 0 -89.571447653247219 49.415180091614275 0 0 0 0 241.83977879022132 -137.75381571780076 0 -137.75381571780076 33.701882224617975 0 0 0 0 2.1449566072222694 0.81139774551385813 0 0.81139774551385813 -1.3704239527879376 0 0 0 0 365.94638391173794 -179.51461720566712 0 -179.51461720566712 1.1844464116589961 0 0 0 0 376.42831651188317 -153.29668069419151 0 -153.29668069419151 -11.9052895613423 0 0 0 0 252.44220790522013 -200.57823078738664 0 -200.57823078738664 0.46278636887018365 0 0 0 0 235.91927001642762 -125.50379434405465 0 -125.50379434405465 24.571825029459276 0 0 0 0 131.84620966254442 -148.36211414864508 0 -148.36211414864508 120.6552930240977 0 0 0 0 -33.885419624450151 -8.7121917194804155 0 -8.7121917194804155 58.834337450376665 0 0 0 0 2.1671262553767292 -1.9348103373200161 0 -1.9348103373200161 1.4011780394498685 0 0 0 0 435.73625269619515 -310.84279429333355 0 -310.84279429333355 66.647984836486103 0 0 0 0 53.869251457392238 -202.24487554794297 0 -202.24487554794297 223.34064805164829 0 0 0 0 1.3781841909059835 0.48297657076119549 0 0.48297657076119549 -0.67219829885517479 0 0 0 0 276.66194231398549 67.690122330103378 0 67.690122330103378 273.52215198727242 0 0 0 0 245.42593529340229 -44.868577320489194 0 -44.868577320489194 134.7686503729353 0 0 0 0 331.11376585652761 -12.610128239978712 0 -12.610128239978712 63.668135507759821 0 0 0 0 303.21136232792196 -64.773340311346743 0 -64.773340311346743 15.209244690660512 0 0 0 0 145.04042023926741 -46.185559243511989 0 -46.185559243511989 68.803915691195471 0 0 0 0 297.2566674004338 -62.998362523039077 0 -62.998362523039077 11.066335653752049 0 0 0 0 470.58875947307388 -185.86175560346712 0 -185.86175560346712 55.083788140962398 0 0 0 0 263.11337722637109 -96.322601684154208 0 -96.322601684154208 69.948103203247229 0 0 0 0 -26.265016620673123 15.351220215037102 0 15.351220215037102 22.829303795578198 0 0 0 0 -17.718151707667857 -0.26602241805426274 0 -0.26602241805426274 14.669017278599199 0 0 0 0 -43.205504235753324 -8.7263226851828222 0 -8.7263226851828222 21.588006230925657 0 0 0 0 1.1290897467115428 -0.071962689860583851 0 -0.071962689860583851 -26.443089104599096 0 0 0 0 -7.3808511094248388 -11.014302579570085 0 -11.014302579570085 40.693713910968654 0 0 0 0 44.315015550411772 15.065619494164821 0 15.065619494164821 21.268633442788882 0 0 0 0 7.191096460170229 32.239440783054619 0 32.239440783054619 31.593992764561094 0 0 0 0 20.392276101920288 3.1948201835595285 0 3.1948201835595285 48.459839199419008 0 0 0 0 -18.779853831103537 4.2254695852574713 0 4.2254695852574713 45.610361735149581 0 0 0 0 126.56210556253791 -1.9517863193908056 0 -1.9517863193908056 32.927228019757308 0 0 0 0 83.630856045230757 -18.476072809014326 0 -18.476072809014326 66.81767585166358 0 0 0 0 77.436452696390916 16.163045779044978 0 16.163045779044978 25.428069449420263 0 0 0 0 60.284617391371285 -16.094423566525393 0 -16.094423566525393 49.115357265278362 0 0 0 0 171.40419322918751 -50.572169537144248 0 -50.572169537144248 34.983290107394396 0 0 0 0 113.42752565874252 4.4660851824785368 0 4.4660851824785368 23.935696369957441 0 0 0 0 287.52611717093532 -98.260787351914189 0 -98.260787351914189 41.864652785938915 0 0 0 0 185.107181426225 -23.770117335617329 0 -23.770117335617329 80.965661924568593 0 0 0 0 148.89322130859364 -84.155738074676719 0 -84.155738074676719 58.418327395222946 0 0 0 0 203.7829859810081 -50.488651168991481 0 -50.488651168991481 45.204312694750342 0 0 0 0 68.303109937929548 -25.557826306935908 0 -25.557826306935908 53.403600678524825 0 0 0 0 90.159692974571954 -22.197629740942318 0 -22.197629740942318 -5.323341706386465 0 0 0 0 11.892096148818382 2.9557810863898908 0 2.9557810863898908 3.9794901266064073 0 0 0 0 52.071618409932853 18.176943639198079 0 18.176943639198079 3.2154020583121792 0 0 0 0 41.098595166578889 -8.2695921780392379 0 -8.2695921780392379 53.376871845776705 0 0 0 0 -5.2009065666934475 16.686697955404213 0 16.686697955404213 10.06900684129451 0 0 0 0 7.3542315159429563 34.891305369305343 0 34.891305369305343 -25.057373684975801 0 0 0 0 -14.143608608515933 21.702356416154885 0 21.702356416154885 14.736213656460563 0 0 0 0 -3.9832853008119855 11.693435140910537 0 11.693435140910537 9.9827573908444265 0 0 0 0 -6.1108294206205755 16.250810684556882 0 16.250810684556882 3.9588254257880635 0 0 0 0 -16.407942612640909 26.157254071825477 0 26.157254071825477 9.1621932618631945 0 0 0 0 2.8490572855084793 2.1130616182471726 0 2.1130616182471726 1.1373091103556541 0 0 0 0 603.14808048817213 -204.33988825100073 0 -204.33988825100073 38.246176892210656 0 0 0 0 634.11409088119399 -185.62558347040488 0 -185.62558347040488 -0.28184603471747494 0 0 0 0 616.73804866874707 -232.58390016702236 0 -232.58390016702236 25.503709895443649 0 0 0 0 12.576878038140421 -0.34252809194375899 0 -0.34252809194375899 2.0242506582478086 0 0 0 0 415.09585018773214 -235.02277756400997 0 -235.02277756400997 121.34470513023768 0 0 0 0 4.3487713921895192 1.7662251208925568 0 1.7662251208925568 2.4950746470586971 0 0 0 0 12.045636021514156 2.1225561990181774 0 2.1225561990181774 -0.10415095617208509 0 0 0 0 10.655996849702206 0.078231667989939524 0 0.078231667989939524 2.0836891402462072 0 0 0 0 12.655168805678841 -2.2731317450022743 0 -2.2731317450022743 0.20554151784969577 0 0 0 0 -5.6256989802059252 -15.247587970190267 0 -15.247587970190267 -7.3360243250264148 0 0 0 0 8.9962721457151815 -2.9833521751586716 0 -2.9833521751586716 0.43784049383277501 0 0 0 0 16.197279297470232 -28.656989601926931 0 -28.656989601926931 -25.103078887629245 0 0 0 0 9.5163555241514359 -1.5854854604277335 0 -1.5854854604277335 -0.14635980598445553 0 0 0 0 40.271092474169564 22.147433580313248 0 22.147433580313248 -66.339269573373485 0 0 0 0 10.238308463470162 -1.3210050244235987 0 -1.3210050244235987 -0.90816422268185226 0 0 0 0 9.3611010933309444 -2.7994818391506513 0 -2.7994818391506513 -1.5922514319649395 0 0 0 0 55.181536711686931 -34.839822334089945 0 -34.839822334089945 -100.74805765766132 0 0 0 0 7.5028571311048609 -2.9741783629464891 0 -2.9741783629464891 1.5522771008941108 0 0 0 0 24.031662768244132 -11.280685186615536 0 -11.280685186615536 -73.159373667778567 0 0 0 0 24.375431573986134 -40.908466218235986 0 -40.908466218235986 0.032917743563062887 0 0 0 0 11.470373872034543 -21.04301718286267 0 -21.04301718286267 -8.7045114791681897 0 0 0 0 0.82523875813058112 -31.651425030389625 0 -31.651425030389625 -6.3697189250408215 0 0 0 0 -21.439007137028966 -33.861048779802154 0 -33.861048779802154 -0.012438515181625167 0 0 0 0 -2.3423380234598881 -20.00106511844518 0 -20.00106511844518 -2.6911756054473983 0 0 0 0 -2.9859392379003111 -21.827009513428827 0 -21.827009513428827 -7.5269423859122639 0 0 0 0 -5.7769133874389809 -11.587459790707285 0 -11.587459790707285 -3.5955824263735821 0 0 0 0 -20.262784040358383 -22.624711559746231 0 -22.624711559746231 -2.3820686250985013 0 0 0 0 -13.038331124262186 -10.753941307084986 0 -10.753941307084986 3.727165285463613 0 0 0 0 0.2405575429342548 -0.79927651078651252 0 -0.79927651078651252 0.37600428342783898 0 0 0 0 -53.889698239567224 -13.357099087893406 0 -13.357099087893406 6.0054813034566763 0 0 0 0 625.07506800928968 -138.60246087799717 0 -138.60246087799717 21.19994679581481 0 0 0 0 614.27176932354269 -121.38427155906783 0 -121.38427155906783 0.82608283886656864 0 0 0 0 597.55399634112837 -114.46402515938354 0 -114.46402515938354 0.074624583980014411 0 0 0 0 638.18821332976222 -155.71392089307838 0 -155.71392089307838 7.8277165049247941 0 0 0 0 1.9158347506862867 -1.710379122984591 0 -1.710379122984591 0.77161167303768519 0 0 0 0 650.74535278422991 -154.66461290039854 0 -154.66461290039854 9.4548425647842294 0 0 0 0 640.15255971139413 -149.20759661332136 0 -149.20759661332136 26.46557725130026 0 0 0 0 628.85878437693464 -185.52785061109847 0 -185.52785061109847 51.907499344983478 0 0 0 0 575.67221084002813 -78.025425218070978 0 -78.025425218070978 -1.6437740132303418 0 0 0 0 281.51286090943177 -113.7154751041375 0 -113.7154751041375 50.457715691589826 0 0 0 0 325.8845685631677 -42.916035560485362 0 -42.916035560485362 102.90565796655378 0 0 0 0 383.50477836239588 -132.01555727268678 0 -132.01555727268678 87.368943318650579 0 0 0 0 401.84835056930751 -134.04582835783597 0 -134.04582835783597 -19.565556636008125 0 0 0 0 514.16794505174039 -187.76745457383231 0 -187.76745457383231 -4.0562195164112538 0 0 0 0 7.0343674047035165 -21.122167832130771 0 -21.122167832130771 44.430071540180649 0 0 0 0 541.54179486368776 -19.753658728197355 0 -19.753658728197355 -40.715605546809918 0 0 0 0 16.807948598725488 -6.3189219961562628 0 -6.3189219961562628 3.8821949224384582 0 0 0 0 7.0476186369679681 -0.00742987349984503 0 -0.00742987349984503 0.28532594376858539 0 0 0 0 2.5984798314258342 0.58212084166883926 0 0.58212084166883926 0.05229017041269568 0 0 0 0 459.82934066223243 -197.62770160096989 0 -197.62770160096989 95.888100571593526 0 0 0 0 105.27982516563497 130.82875965645434 0 130.82875965645434 -45.210855354734669 0 0 0 0 391.99775907320145 51.079568846687287 0 51.079568846687287 -78.313856549137824 0 0 0 0 17.319182662598905 -42.303344184222141 0 -42.303344184222141 -13.229307670087735 0 0 0 0 110.0564456643333 21.305381632543199 0 21.305381632543199 7.1322430262971448 0 0 0 0 153.7727461970353 -36.957197519609778 0 -36.957197519609778 0.0025165941387170301 0 0 0 0 389.5635075186002 -122.44250555043655 0 -122.44250555043655 22.377197231114934 0 0 0 0 300.12911687455198 -63.629243041816302 0 -63.629243041816302 -0.10597803058880752 0 0 0 0 181.0807123050472 -48.790159356152252 0 -48.790159356152252 0.037715806455389717 0 0 0 0 277.72701881638932 -122.60388614751486 0 -122.60388614751486 30.877272788260953 0 0 0 0 130.85709428235714 -98.720761881458955 0 -98.720761881458955 44.915708444652651 0 0 0 0 73.327974916028325 -35.4799438427561 0 -35.4799438427561 36.931329949083775 0 0 0 0 177.6959298075526 -53.956233530693694 0 -53.956233530693694 44.511515021819172 0 0 0 0 40.989818815914532 -24.578291358439419 0 -24.578291358439419 -0.0016128785557323472 0 0 0 0 40.994666920538293 -24.652901831457108 0 -24.652901831457108 0.054780212780765551 0 0 0 0 91.996396951144561 -47.036927963720132 0 -47.036927963720132 8.0838036338106747 0 0 0 0 8.7500582886568736 -26.403233852868297 0 -26.403233852868297 35.717838296794952 0 0 0 0 18.0231814208164 -14.340578550796231 0 -14.340578550796231 3.9837999804956041 0 0 0 0 -50.277421586753917 17.725319260901994 0 17.725319260901994 31.338191315842053 0 0 0 0 4.0645890649681746 5.6575047682291313 0 5.6575047682291313 5.3250266897920167 0 0 0 0 -17.795746670468361 -42.06244738471959 0 -42.06244738471959 41.249301142381661 0 0 0 0 73.619815158046549 -37.191240883248781 0 -37.191240883248781 13.608472055155296 0 0 0 0 56.949009263829794 -22.243059055991893 0 -22.243059055991893 1.1914416491815061 0 0 0 0 151.69836593668151 -94.473360926398371 0 -94.473360926398371 57.082931895162254 0 0 0 0 55.329723889852175 -15.636812813298732 0 -15.636812813298732 47.71759346657732 0 0 0 0 217.89348351844819 -46.430221696177362 0 -46.430221696177362 76.577660097030488 0 0 0 0 154.44204764909227 -101.7109619565471 0 -101.7109619565471 73.8194537797891 0 0 0 0 203.74559984893131 -99.529280441735679 0 -99.529280441735679 85.776019628721826 0 0 0 0 155.72458597575314 -8.6631323094510151 0 -8.6631323094510151 37.648682374012665 0 0 0 0 146.76479409099557 -54.754907736243297 0 -54.754907736243297 13.680762747179415 0 0 0 0 76.529124343680451 34.256583355585349 0 34.256583355585349 3.8069462065428752 0 0 0 0 37.880747151299147 -44.15712677004683 0 -44.15712677004683 69.230472356639893 0 0 0 0 42.812918216492108 1.1616777727421912 0 1.1616777727421912 -34.635075776179008 0 0 0 0 -82.732520346311503 26.226898182766718 0 26.226898182766718 43.878161299390015 0 0 0 0 -1.488358218819485 -62.84643053034938 0 -62.84643053034938 -4.8375154320501679 0 0 0 0 3.8016774213604947 5.0379155311817101 0 5.0379155311817101 3.7540017279266125 0 0 0 0 1.8587895288219443 -16.732887085525078 0 -16.732887085525078 30.147507250057288 0 0 0 0 2.9211878837009806 3.7421326898948735 0 3.7421326898948735 -0.43268905520585932 0 0 0 0 -95.503797107870923 83.110060838905497 0 83.110060838905497 15.380143536589543 0 0 0 0 72.174896334458026 -23.639835422065801 0 -23.639835422065801 -50.813834703154413 0 0 0 0 -26.020721942855744 53.811304137342745 0 53.811304137342745 -10.495366380080497 0 0 0 0 11.645490827740616 8.1522318414672839 0 8.1522318414672839 5.654750123179026 0 0 0 0 -45.920325287603191 -24.316939567456416 0 -24.316939567456416 146.78473441032747 0 0 0 0 -29.655960910749855 7.4891111341274268 0 7.4891111341274268 39.364862992405051 0 0 0 0 23.263118822360411 -39.272675668246848 0 -39.272675668246848 77.640695394234513 0 0 0 0 -59.54566828787938 77.833130876664882 0 77.833130876664882 -0.48269984508283414 0 0 0 0 6.3060531004783229 1.8992006164182271 0 1.8992006164182271 -5.710859062053796 0 0 0 0 64.941840775718447 13.844031250633293 0 13.844031250633293 -42.256898706246602 0 0 0 0 11.403606098857495 8.8266942276665645 0 8.8266942276665645 5.1321192394800903 0 0 0 0 -16.162372647493612 -4.7141671739416324 0 -4.7141671739416324 -13.536322210524418 0 0 0 0 57.157423182500679 30.296931330945206 0 30.296931330945206 -20.884370107877658 0 0 0 0 97.411295313213486 -19.626511519886208 0 -19.626511519886208 -20.321202369778298 0 0 0 0 33.484071486018365 -4.3165739054103369 0 -4.3165739054103369 23.415023079614912 0 0 0 0 163.74441976397065 -49.562900012170871 0 -49.562900012170871 0.30091806301126667 0 0 0 0 95.116394567361567 -16.99631470043721 0 -16.99631470043721 14.118759393666551 0 0 0 0 111.71934153873008 23.194102538669341 0 23.194102538669341 -2.0324818321146267 0 0 0 0 36.756923057817403 28.251782769796655 0 28.251782769796655 -74.71356024765646 0 0 0 0 -34.697493360479712 -22.683865018452423 0 -22.683865018452423 26.079541038307639 0 0 0 0 714.02583592769224 291.24234252826955 0 291.24234252826955 134.08572138449756 0 0 0 0 727.60838927020086 223.59632185261944 0 223.59632185261944 103.69492240135116 0 0 0 0 887.08058050993714 447.21721120468919 0 447.21721120468919 373.36376861822737 0 0 0 0 636.81157865801651 101.43073577505447 0 101.43073577505447 527.22360255171407 0 0 0 0 611.33546315711283 173.35064169475334 0 173.35064169475334 335.81648886022958 0 0 0 0 415.27005894690956 34.906966234821937 0 34.906966234821937 128.54870019898317 0 0 0 0 396.08583671956148 141.91531171604765 0 141.91531171604765 413.69089393379727 0 0 0 0 -29.981757178087719 -59.835372382492096 0 -59.835372382492096 225.44556939531594 0 0 0 0 34.634509566632914 -112.11886080469753 0 -112.11886080469753 132.97081309619989 0 0 0 0 57.278372038053931 94.81022953334616 0 94.81022953334616 -14.899587246561396 0 0 0 0 63.952628610568354 -3.6830717375279391 0 -3.6830717375279391 213.02874093055902 0 0 0 0 21.090945853968151 49.118851233586327 0 49.118851233586327 -174.71638844886775 0 0 0 0 10.213798135588718 7.3666162133738737 0 7.3666162133738737 4.904961206052219 0 0 0 0 132.83124090869387 -94.852385495601084 0 -94.852385495601084 -34.179958838138305 0 0 0 0 27.084942801404395 353.31679781686523 0 353.31679781686523 206.40747107522657 0 0 0 0 4.7282462744468035 3.2414213426901313 0 3.2414213426901313 2.1016424887560623 0 0 0 0 867.97927839333715 388.00716022990099 0 388.00716022990099 88.222803613183714 0 0 0 0 973.60022776972619 115.05531819722978 0 115.05531819722978 -114.47488197122493 0 0 0 0 603.9556595255126 -70.798024364577486 0 -70.798024364577486 -103.37400912325143 0 0 0 0 883.6488907832827 325.71896667690589 0 325.71896667690589 24.011048815217691 0 0 0 0 620.0749231994123 13.090804587171021 0 13.090804587171021 -40.576874004421825 0 0 0 0 669.54665779345669 251.96526147730196 0 251.96526147730196 287.71627105155665 0 0 0 0 445.99955679124105 -15.431488877185302 0 -15.431488877185302 128.50638579362499 0 0 0 0 666.79983880117652 4.4511175136474321 0 4.4511175136474321 -156.00633571532603 0 0 0 0 815.63425631475548 392.45777875333329 0 392.45777875333329 22.03371758438152 0 0 0 0 858.62175762670813 115.13779881399375 0 115.13779881399375 -278.49223324001741 0 0 0 0 203.83394243635121 495.84401492400968 0 495.84401492400968 -328.26595708456966 0 0 0 0 2.3286948141773109 0.026972067666434896 0 0.026972067666434896 -1.749329090648942 0 0 0 0 927.93031207372405 -322.66371973383008 0 -322.66371973383008 174.45635968191914 0 0 0 0 -393.66560307785403 -251.11519625281721 0 -251.11519625281721 272.83119272243755 0 0 0 0 -4.144118479845929 -36.822214076814447 0 -36.822214076814447 -77.481374563929421 0 0 0 0 501.95453107065987 -256.27027930826239 0 -256.27027930826239 -186.82750784254483 0 0 0 0 520.16789054845867 -31.946454173157235 0 -31.946454173157235 -14.163856872466908 0 0 0 0 6.9368889840043266 -87.564987156837049 0 -87.564987156837049 63.754676486290464 0 0 0 0 632.86669539890136 495.51346899040118 0 495.51346899040118 76.563388031230829 0 0 0 0 613.10559025799739 460.3954366847272 0 460.3954366847272 18.397178943875588 0 0 0 0 414.73575566225918 661.29311320528564 0 661.29311320528564 -48.953214405467108 0 0 0 0 391.65367089844949 423.22173089474734 0 423.22173089474734 21.750632915926872 0 0 0 0 572.84758570045233 509.31584425730102 0 509.31584425730102 -37.967781748887319 0 0 0 0 5.2980615378764924 145.83824853589601 0 145.83824853589601 427.46677520352273 0 0 0 0 1200.3023768303683 54.96061676952047 0 54.96061676952047 -217.03311892886927 0 0 0 0 1103.4283322608026 -186.28602002533944 0 -186.28602002533944 -241.64258156469361 0 0 0 0 6.2065601663175016 2.3227568522667355 0 2.3227568522667355 0.22990076270672155 0 0 0 0 270.45522685194737 -150.42286341681972 0 -150.42286341681972 -186.9812298944029 0 0 0 0 1248.1124960003144 102.66456266220621 0 102.66456266220621 -287.56455597457983 0 0 0 0 448.93797045625979 240.76628144442182 0 240.76628144442182 0.71217159572996591 0 0 0 0 3.4020957666319305 2.8522996550712207 0 2.8522996550712207 2.1310887003233447 0 0 0 0 1332.3644518575456 -77.017320077826326 0 -77.017320077826326 -354.05094235090843 0 0 0 0 6.7161936461634468 -20.850985681306273 0 -20.850985681306273 19.503198318693542 0 0 0 0 217.97257354678732 -281.50548396863928 0 -281.50548396863928 95.634474547813852 0 0 0 0 5.9845025385853887 0.31440493333673203 0 0.31440493333673203 -3.9502082667452578 0 0 0 0 427.03322664898587 78.012588114887535 0 78.012588114887535 -313.85283845452273 0 0 0 0 9.9589689524362939 3.8035547669814207 0 3.8035547669814207 0.29913986947593996 0 0 0 0 13.191624361730646 334.28575200720576 0 334.28575200720576 -241.93047328422952 0 0 0 0 -147.21097046750947 222.43832515147 0 222.43832515147 -0.23732694922028941 0 0 0 0 -21.94352346357482 199.65754486249202 0 199.65754486249202 -0.2119131758541786 0 0 0 0 268.01076418804587 29.289985094158887 0 29.289985094158887 -71.524755777210544 0 0 0 0 -147.90650728801847 54.340945204955453 0 54.340945204955453 -147.37965138679883 0 0 0 0 -150.03014877047872 99.82067976222865 0 99.82067976222865 -0.1465150335668679 0 0 0 0 45.926210314733908 -300.6997033433039 0 -300.6997033433039 133.59789310042356 0 0 0 0 4.3603319675171406 1.0350968295992118 0 1.0350968295992118 -0.11319952411716117 0 0 0 0 4.6364771212664095 -0.22208463527638855 0 -0.22208463527638855 -2.1367023954398854 0 0 0 0 444.21053038525861 -73.818992608545273 0 -73.818992608545273 -149.0533225500501 0 0 0 0 733.20963453577133 -457.1315486013915 0 -457.1315486013915 284.40939827160423 0 0 0 0 426.27069868918625 -200.11215565537356 0 -200.11215565537356 82.644771263863959 0 0 0 0 997.86174799141008 -140.76168705081702 0 -140.76168705081702 49.608663498558101 0 0 0 0 831.15887118276441 -165.12174956463969 0 -165.12174956463969 -137.04713819379782 0 0 0 0 1193.791464770009 -198.64687678485035 0 -198.64687678485035 -133.95856439753993 0 0 0 0 1608.1549040990285 -146.83498763274426 0 -146.83498763274426 -72.094809709004949 0 0 0 0 1121.0212589642615 586.06607412792505 0 586.06607412792505 -4.9185808227379102 0 0 0 0 1476.3611215132405 -753.41190991645738 0 -753.41190991645738 246.97436172694168 0 0 0 0 925.30368414636177 -68.443464021672753 0 -68.443464021672753 75.587528277937992 0 0 0 0 1181.0793802821427 67.4452170446732 0 67.4452170446732 1.5962650019861928 0 0 0 0 840.45970208387007 108.05434725751205 0 108.05434725751205 -0.53432024565917613 0 0 0 0 1.2366803930101895 0.33317096038706495 0 0.33317096038706495 0.24684334183699186 0 0 0 0 669.98501826626671 24.391428912433447 0 24.391428912433447 51.250256357444385 0 0 0 0 787.34407893725438 64.747654176914267 0 64.747654176914267 -39.521823930500318 0 0 0 0 1053.3373175555935 37.170244518293543 0 37.170244518293543 -49.170882424648994 0 0 0 0 811.91773892004858 -71.937474745678912 0 -71.937474745678912 -85.69502517423814 0 0 0 0 827.02186574522057 -19.771050275019206 0 -19.771050275019206 -141.24788221705847 0 0 0 0 716.27291417545348 -96.033671054980317 0 -96.033671054980317 -165.51853137526183 0 0 0 0 469.50905810894619 -32.502889572999379 0 -32.502889572999379 -50.839570691983283 0 0 0 0 519.14313276277971 -68.400939549142777 0 -68.400939549142777 -169.28287022371316 0 0 0 0 798.03605693759164 -166.60120636550062 0 -166.60120636550062 -230.39595201703287 0 0 0 0 848.78045212393044 -142.87257277073184 0 -142.87257277073184 -222.0217418831117 0 0 0 0 776.46826663825777 -39.770190599895386 0 -39.770190599895386 -69.8539012462644 0 0 0 0 543.07590415937011 -151.51402069961387 0 -151.51402069961387 -111.24317626625884 0 0 0 0 787.34796378563624 -195.09500314479737 0 -195.09500314479737 -237.92434593580617 0 0 0 0 838.68257806380279 -280.94732702743556 0 -280.94732702743556 -160.16042357034996 0 0 0 0 558.05583565712732 -172.39465000927183 0 -172.39465000927183 -176.98134837426528 0 0 0 0 895.55460967472027 -197.03925764391812 0 -197.03925764391812 -230.70100915704666 0 0 0 0 995.7665378087404 104.96539011331348 0 104.96539011331348 -131.53236912301313 0 0 0 0 668.53530374595721 69.862069155915933 0 69.862069155915933 -129.74428385738963 0 0 0 0 658.44344545950298 230.57398043889106 0 230.57398043889106 -34.175167790198927 0 0 0 0 748.11608623075881 172.79925736614294 0 172.79925736614294 -0.12410552488200816 0 0 0 0 787.73316966219863 269.76232062446866 0 269.76232062446866 -105.92591772633307 0 0 0 0 453.29382366078789 269.14100084237685 0 269.14100084237685 76.016523586521885 0 0 0 0 660.31536151369801 220.31473618318199 0 220.31473618318199 21.760874623201175 0 0 0 0 598.92079857972567 177.47979305446361 0 177.47979305446361 0.10338142191192712 0 0 0 0 623.91924405079044 150.77227694914666 0 150.77227694914666 28.088568805906846 0 0 0 0 514.59523496330075 92.299738752697721 0 92.299738752697721 20.392396261798183 0 0 0 0 0.70985181860149282 0.31886539164179339 0 0.31886539164179339 0.25110427420062242 0 0 0 0 444.4445519541332 117.47461989670256 0 117.47461989670256 22.30708835737812 0 0 0 0 270.48458553940873 -17.239735348803833 0 -17.239735348803833 -64.216791306807323 0 0 0 0 178.0069867122802 107.17653308432091 0 107.17653308432091 -133.92742575200157 0 0 0 0 -209.24512309979764 33.896723222437515 0 33.896723222437515 -60.103394090134941 0 0 0 0 189.93876183937027 293.00128983289335 0 293.00128983289335 99.284549990943333 0 0 0 0 398.34860939059581 233.88323094320091 0 233.88323094320091 53.500703583062887 0 0 0 0 1056.4742878444958 338.40910633511226 0 338.40910633511226 -119.16946579821047 0 0 0 0 396.88731530838413 596.00012447640984 0 596.00012447640984 113.82034477581749 0 0 0 0 -30.848439317414886 816.01955680757897 0 816.01955680757897 -47.204787099348977 0 0 0 0 1133.6156954630569 809.72284111571742 0 809.72284111571742 -70.732507393192463 0 0 0 0 379.57189765128714 95.963237977345216 0 95.963237977345216 871.34428078894166 0 0 0 0 1495.1872668643518 -607.36248286261002 0 -607.36248286261002 273.65269432981199 0 0 0 0 1712.3026581658924 515.96448508012395 0 515.96448508012395 -327.89828641732612 0 0 0 0 3653.903377972194 898.79763288924005 0 898.79763288924005 -255.22330584028714 0 0 0 0 -206.53467171556258 -1043.774223920555 0 -1043.774223920555 -345.33392593155031 0 0 0 0 8.3031235650792041 -5.0585521665645672 0 -5.0585521665645672 1.743993041093427 0 0 0 0 2853.1939729146688 -744.3747683861219 0 -744.3747683861219 -406.19728715694509 0 0 0 0 3375.1150368674917 -1176.4767339803948 0 -1176.4767339803948 -325.5718084204982 0 0 0 0 2701.8167852431943 -515.80038023165525 0 -515.80038023165525 448.51539191797201 0 0 0 0 18.025844035532373 7.613983225007388 0 7.613983225007388 2.0048725870422279 0 0 0 0 595.08570801824681 -711.20948680965103 0 -711.20948680965103 433.04596819214612 0 0 0 0 2136.7379415583273 512.6354072169338 0 512.6354072169338 129.78679717184059 0 0 0 0 263.45741648276453 154.58005638802524 0 154.58005638802524 -363.3940928480547 0 0 0 0 34.098947474170188 17.608288629358753 0 17.608288629358753 5.7872634844661635 0 0 0 0 137.24050233894377 -48.527334632475061 0 -48.527334632475061 -456.83846356483753 0 0 0 0 117.85068674822105 308.00176019346418 0 308.00176019346418 -563.53794285239803 0 0 0 0 406.97425738150196 -159.31237648174903 0 -159.31237648174903 -224.50130089670733 0 0 0 0 32.046064172438491 65.633362382972123 0 65.633362382972123 -198.67507786288957 0 0 0 0 -23.792236843397404 -72.016432493269122 0 -72.016432493269122 84.978130953398249 0 0 0 0 534.86143705245922 63.865855941637165 0 63.865855941637165 -44.496679012852155 0 0 0 0 1055.4932358726655 -240.6226144940872 0 -240.6226144940872 -259.04810067057406 0 0 0 0 466.60618333645107 -330.24106766951923 0 -330.24106766951923 -145.83756581264242 0 0 0 0 1117.7693322009982 -98.975773820049767 0 -98.975773820049767 -203.28721363794921 0 0 0 0 1038.6646275026869 -84.684407297338112 0 -84.684407297338112 -161.08634599239599 0 0 0 0 1033.7718026619114 93.603012764051641 0 93.603012764051641 -105.78715437646224 0 0 0 0 1034.7409364212017 -303.96048024272727 0 -303.96048024272727 -147.65798963706447 0 0 0 0 911.72982194830547 131.25798315197403 0 131.25798315197403 -90.209415572449245 0 0 0 0 957.01886181715963 186.38602112202227 0 186.38602112202227 -25.073936169585977 0 0 0 0 877.15341931298462 -11.959179044231917 0 -11.959179044231917 -176.12713744533494 0 0 0 0 742.40373368338624 -93.640794071010305 0 -93.640794071010305 -150.41334189128202 0 0 0 0 791.10833585384535 128.7649580365985 0 128.7649580365985 37.577068089793329 0 0 0 0 585.74106244239374 -58.918741972083353 0 -58.918741972083353 -219.24158024995097 0 0 0 0 781.29674588954367 -210.06308986129847 0 -210.06308986129847 -219.66429077775274 0 0 0 0 441.96246200353198 -185.7561082443043 0 -185.7561082443043 -147.37055060634202 0 0 0 0 427.16229433982517 -130.86545667866017 0 -130.86545667866017 -7.3451083418239023 0 0 0 0 94.195267323057124 500.84219888484341 0 500.84219888484341 -707.75360297056432 0 0 0 0 30.952636317079794 16.505306498891741 0 16.505306498891741 5.8363807942694557 0 0 0 0 381.13310967222787 29.942216184631206 0 29.942216184631206 -183.00817036006725 0 0 0 0 -228.95070873995428 -183.91190966237718 0 -183.91190966237718 82.626611459761989 0 0 0 0 13.18702329020158 7.0704599942784796 0 7.0704599942784796 3.4634996436213985 0 0 0 0 -212.16016734749428 1006.9500348996744 0 1006.9500348996744 408.09248572244906 0 0 0 0 2248.1727827726572 -381.2414046461472 0 -381.2414046461472 81.943016764025515 0 0 0 0 1781.39869667936 718.52432449299204 0 718.52432449299204 461.82197416763574 0 0 0 0 1093.9204548712587 -420.23394040625567 0 -420.23394040625567 80.631319069314941 0 0 0 0 1558.8006543350057 357.59166692482336 0 357.59166692482336 -41.159614328472344 0 0 0 0 994.74974367840332 292.82136816529055 0 292.82136816529055 233.18719447986996 0 0 0 0 818.02931630185776 441.33405909829241 0 441.33405909829241 1028.3927264233971 0 0 0 0 1150.0928135859722 -172.97505893261177 0 -172.97505893261177 690.14452429530661 0 0 0 0 1669.3693924237232 529.10152902288405 0 529.10152902288405 420.51021083215619 0 0 0 0 1315.3748734600376 158.65651192462542 0 158.65651192462542 378.32422848431634 0 0 0 0 1121.6714068061556 419.07655049762781 0 419.07655049762781 34.752366562032421 0 0 0 0 641.99252590309152 165.16110914087866 0 165.16110914087866 473.41380877822212 0 0 0 0 647.58019147996674 -186.63262532691351 0 -186.63262532691351 269.01263695411683 0 0 0 0 440.52402352050376 38.11525751405695 0 38.11525751405695 56.892755042368663 0 0 0 0 456.32210943516111 -208.24243696943722 0 -208.24243696943722 -200.0323100346867 0 0 0 0 536.4929921735602 302.74631073553479 0 302.74631073553479 -336.70034554835667 0 0 0 0 473.2839970063651 179.73680763449877 0 179.73680763449877 5.1846563303602835 0 0 0 0 1243.6639225471445 1322.4238997787854 0 1322.4238997787854 -658.07381489388536 0 0 0 0 -240.26683555392083 1564.5317796513336 0 1564.5317796513336 -827.81810132936971 0 0 0 0 9.1210907585613086 4.1123708707436322 0 4.1123708707436322 0.15711261490598805 0 0 0 0 -549.17608734106761 291.40368068948726 0 291.40368068948726 -336.49562718259813 0 0 0 0 284.02187351005705 84.193034913275056 0 84.193034913275056 -442.45718506192225 0 0 0 0 219.82960360652942 -68.081371617549166 0 -68.081371617549166 -664.07219015500164 0 0 0 0 7.7512264621785647 -12.356946627406188 0 -12.356946627406188 6.2491804927016581 0 0 0 0 48.488796447330969 31.258399090657107 0 31.258399090657107 -34.40421752335908 0 0 0 0 0.33430947478672834 -2.0049282666290651 0 -2.0049282666290651 10.592866694903098 0 0 0 0 60.360668982626521 22.796297163300267 0 22.796297163300267 -42.549009752181178 0 0 0 0 64.141525146813365 41.137383427673171 0 41.137383427673171 -93.340755370128591 0 0 0 0 3191.2183334245638 957.86521406188558 0 957.86521406188558 471.40835509614146 0 0 0 0 2494.7159000664906 -49.607272012607439 0 -49.607272012607439 252.39571795876418 0 0 0 0 2784.175834968104 -1062.5968592691565 0 -1062.5968592691565 420.24101151951845 0 0 0 0 92.173845184821403 16.633388307441237 0 16.633388307441237 329.08120654383947 0 0 0 0 4.4124279494346723 -5.398739860872297 0 -5.398739860872297 2.4220442184555253 0 0 0 0 2218.4111942734162 609.62877884433487 0 609.62877884433487 -440.4652042244843 0 0 0 0 3505.1158442226588 -14.29112244536168 0 -14.29112244536168 -241.52281903765902 0 0 0 0 1687.8953704764717 870.33147132625345 0 870.33147132625345 -522.07648397477146 0 0 0 0 1520.4815858625807 1132.9102001181311 0 1132.9102001181311 -889.50316256794918 0 0 0 0 146.62004820513539 18.125815012717112 0 18.125815012717112 -103.22987721592256 0 0 0 0 -8.8130303741345415 -97.008783801380559 0 -97.008783801380559 662.09225358810818 0 0 0 0 283.37258642849702 406.16970641193814 0 406.16970641193814 551.58816479293182 0 0 0 0 65.127069244830636 -98.42551189102096 0 -98.42551189102096 325.02284647317902 0 0 0 0 0.44525247298991388 -1.0322366797141171 0 -1.0322366797141171 5.4778083128634201 0 0 0 0 150.7356096739677 282.71840361168802 0 282.71840361168802 808.17935712061717 0 0 0 0 951.21563082233479 989.21255886164249 0 989.21255886164249 404.83035298682353 0 0 0 0 465.29549301581574 277.70803167109943 0 277.70803167109943 352.26966778262249 0 0 0 0 578.6937304357125 -104.96224859037011 0 -104.96224859037011 3.8470050359871948 0 0 0 0 225.47213386675867 88.082112016042856 0 88.082112016042856 697.3006522112928 0 0 0 0 971.42355931304337 283.86324723929238 0 283.86324723929238 384.43892543288166 0 0 0 0 707.84920027470798 185.40642041356296 0 185.40642041356296 441.07697181836625 0 0 0 0 434.31903565156972 399.3550805306777 0 399.3550805306777 598.81309860396414 0 0 0 0 344.58915606990922 287.16784949641897 0 287.16784949641897 727.13703779561183 0 0 0 0 901.86432764261554 -440.16477351108006 0 -440.16477351108006 92.536091255365136 0 0 0 0 1049.5281058800247 -79.214141232002987 0 -79.214141232002987 -76.38771882234505 0 0 0 0 1191.3324661444931 -70.971672821659922 0 -70.971672821659922 -194.67078276657548 0 0 0 0 1942.5834792374226 477.6372253895106 0 477.6372253895106 143.59536803587798 0 0 0 0 1001.3426052434224 590.38048573828337 0 590.38048573828337 999.87204729415407 0 0 0 0 1288.095818452548 -776.59613673100876 0 -776.59613673100876 172.68421117418529 0 0 0 0 263.27869185736927 -85.163788738313087 0 -85.163788738313087 102.21100172638216 0 0 0 0 15.822531070733532 -0.58766463865167395 0 -0.58766463865167395 0.49482733015636882 0 0 0 0 1169.1621538840845 1066.2949664965154 0 1066.2949664965154 814.9225001566947 0 0 0 0 967.74309986791923 -134.4843004286804 0 -134.4843004286804 1087.7469479749054 0 0 0 0 2227.0487009084973 389.58283544495055 0 389.58283544495055 -20.03337584358178 0 0 0 0 1889.6523651954412 -276.03163316488315 0 -276.03163316488315 361.72195131093395 0 0 0 0 1515.3358774437802 65.270038403374201 0 65.270038403374201 -61.67204196302464 0 0 0 0 956.43586998886894 173.68154187319374 0 173.68154187319374 -79.269922621502815 0 0 0 0 1327.1075643693039 513.12808558380561 0 513.12808558380561 -36.986521590119992 0 0 0 0 1165.4735748524545 409.69303385799594 0 409.69303385799594 -89.565054642851464 0 0 0 0 1173.2262449384743 483.29039014758354 0 483.29039014758354 -73.782194194691328 0 0 0 0 505.3441239578533 327.11647052571107 0 327.11647052571107 17.529821611858097 0 0 0 0 537.75601246050792 154.10230532359265 0 154.10230532359265 604.87290081546746 0 0 0 0 738.05923720687861 274.75299819406928 0 274.75299819406928 374.51945140954467 0 0 0 0 891.42888326355023 -141.84364044108224 0 -141.84364044108224 313.31412389658732 0 0 0 0 671.97699415549869 -104.20254215382238 0 -104.20254215382238 37.718275965160615 0 0 0 0 625.56430580372398 108.969178705697 0 108.969178705697 95.198262848382001 0 0 0 0 1041.0272438935935 133.21767535499157 0 133.21767535499157 165.37785686649204 0 0 0 0 367.68030459745205 -232.18036250275736 0 -232.18036250275736 -20.83090039473106 0 0 0 0 -68.954163159127347 -78.959287491489249 0 -78.959287491489249 187.12248081628445 0 0 0 0 299.51285159108375 127.1957872498474 0 127.1957872498474 -88.575449451404893 0 0 0 0 388.96981697020829 -39.730167450127986 0 -39.730167450127986 -186.84787441310118 0 0 0 0 390.06808314558771 47.118105420449083 0 47.118105420449083 -39.230357700788772 0 0 0 0 329.71003589684551 28.808191135908942 0 28.808191135908942 32.947706768640273 0 0 0 0 681.31927426136099 129.5556154725316 0 129.5556154725316 -63.075039450572149 0 0 0 0 674.00873993744608 -19.788182134319413 0 -19.788182134319413 -93.300841720214066 0 0 0 0 999.78517637694313 129.09494224595426 0 129.09494224595426 -138.14736699236073 0 0 0 0 759.8555048716662 73.645855544641222 0 73.645855544641222 -110.13404413115592 0 0 0 0 557.50956777222746 155.6175878496598 0 155.6175878496598 -13.754617660522172 0 0 0 0 497.00384279919672 -14.411431912468458 0 -14.411431912468458 -91.223347964021741 0 0 0 0 651.57401694262808 213.88969343938777 0 213.88969343938777 12.108700492961589 0 0 0 0 514.74951974651776 61.866169091298502 0 61.866169091298502 -54.346680015053437 0 0 0 0 433.52653944477788 145.52071487941839 0 145.52071487941839 -9.3345722567632947 0 0 0 0 285.10723360686097 10.769686461685012 0 10.769686461685012 -5.0625201140458103 0 0 0 0 0.56793852181588989 -2.5712005736267542 0 -2.5712005736267542 7.6438716316134112 0 0 0 0 33.183672575018136 -18.638717953088303 0 -18.638717953088303 62.732313098865689 0 0 0 0 153.23522327665705 131.38120912452848 0 131.38120912452848 9.1663983714070127 0 0 0 0 209.43176468805177 -117.50909316777074 0 -117.50909316777074 -72.132080098862389 0 0 0 0 330.37974170743837 70.15109755167515 0 70.15109755167515 -6.5241352300658946 0 0 0 0 1150.0276701577532 427.50449985998932 0 427.50449985998932 -99.629992306058057 0 0 0 0 1042.346400813869 459.25125997443138 0 459.25125997443138 -71.197726422118649 0 0 0 0 1111.4650494553644 388.20209962237277 0 388.20209962237277 -111.16542071767753 0 0 0 0 1239.4881704557629 271.75128449206068 0 271.75128449206068 -157.32255015469968 0 0 0 0 922.09461232661852 243.95169296664881 0 243.95169296664881 -106.31619894060691 0 0 0 0 892.14841135924507 262.6110098316999 0 262.6110098316999 -72.589287845155241 0 0 0 0 725.6156953797763 162.39375501476684 0 162.39375501476684 -84.160485107105615 0 0 0 0 866.26217983965762 278.22014590827894 0 278.22014590827894 -13.102151610449539 0 0 0 0 812.02700041804928 200.77245507704197 0 200.77245507704197 -42.496889869987285 0 0 0 0 827.24672095570713 258.29896059022394 0 258.29896059022394 41.754519159246158 0 0 0 0 865.08528477844266 323.40799752792742 0 323.40799752792742 40.386697286528488 0 0 0 0 1064.9076828653342 300.47666760212115 0 300.47666760212115 -107.43959248969611 0 0 0 0 1077.7640938489531 376.78531357465243 0 376.78531357465243 -7.6196466692333615 0 0 0 0 1165.9450565689476 360.45547782151601 0 360.45547782151601 -106.30762082331404 0 0 0 0 1194.7182460988406 380.16953183312523 0 380.16953183312523 -32.255927899464155 0 0 0 0 1199.2799307411387 297.64438687140739 0 297.64438687140739 44.654787944208692 0 0 0 0 1172.6977481193899 390.63804101287138 0 390.63804101287138 -11.539189886555533 0 0 0 0 1271.5164354338194 246.59049248473605 0 246.59049248473605 190.43040050547233 0 0 0 0 1514.2971789302537 485.61247387202366 0 485.61247387202366 81.930156957089153 0 0 0 0 948.70631148837856 363.92969421939802 0 363.92969421939802 175.71060664834522 0 0 0 0 957.07432453738875 233.30743086102439 0 233.30743086102439 123.44226569131956 0 0 0 0 1174.1535080398171 417.96898887988777 0 417.96898887988777 156.03809195877602 0 0 0 0 925.52922374880291 294.86519828949076 0 294.86519828949076 96.965840727696104 0 0 0 0 946.33617694144505 306.85491318996509 0 306.85491318996509 36.209764932371854 0 0 0 0 728.00610971963033 225.29982232672546 0 225.29982232672546 112.03274337086668 0 0 0 0 647.04443089297274 229.47904619107931 0 229.47904619107931 63.614567837034429 0 0 0 0 736.78847870105892 191.36622396432062 0 191.36622396432062 20.875110543660412 0 0 0 0 530.04219951748382 146.66735122825594 0 146.66735122825594 132.73864798201021 0 0 0 0 692.32610911784286 163.78467896029269 0 163.78467896029269 56.814869284540691 0 0 0 0 480.5123048715177 143.16044904078626 0 143.16044904078626 149.50115280334376 0 0 0 0 640.69390266359551 136.58028485376781 0 136.58028485376781 68.59744615589716 0 0 0 0 634.61141500042868 222.81984645063494 0 222.81984645063494 158.44641057962963 0 0 0 0 878.10612072714139 203.56485851503021 0 203.56485851503021 81.280887439912476 0 0 0 0 681.50721809007882 195.85946455622866 0 195.85946455622866 203.82406041605645 0 0 0 0 869.70195013645935 216.98152271443558 0 216.98152271443558 276.13679405504263 0 0 0 0 1174.1602566246147 309.38186412397044 0 309.38186412397044 57.747542918301406 0 0 0 0 165.89684189844411 -87.184880974361477 0 -87.184880974361477 -49.047490271353354 0 0 0 0 298.17946741410924 88.74594396598107 0 88.74594396598107 -114.21775053273905 0 0 0 0 438.93308519507991 115.43237000345471 0 115.43237000345471 -10.4885669240266 0 0 0 0 307.24810028712818 47.896340161240673 0 47.896340161240673 6.7455702502929853 0 0 0 0 437.25462323465763 144.98147734286044 0 144.98147734286044 63.917308642048738 0 0 0 0 594.70286374352872 119.51813615010178 0 119.51813615010178 -36.184051408326809 0 0 0 0 539.1793760676228 133.79913652264986 0 133.79913652264986 39.77142144307345 0 0 0 0 413.12289956910536 68.748377065808654 0 68.748377065808654 55.942282704085699 0 0 0 0 241.66800118540414 31.382492054036447 0 31.382492054036447 85.574061897280444 0 0 0 0 419.02314043743536 41.607165824078038 0 41.607165824078038 -27.487234254738837 0 0 0 0 356.45435013182941 52.813325356495653 0 52.813325356495653 58.4599854459575 0 0 0 0 209.68219905061414 40.807461743638669 0 40.807461743638669 112.02541941536674 0 0 0 0 354.77691559340383 94.809643397720805 0 94.809643397720805 124.2900469878341 0 0 0 0 466.16635827254504 68.747564557310398 0 68.747564557310398 57.574281527794483 0 0 0 0 325.82339369234978 113.64052513824572 0 113.64052513824572 107.11285324566416 0 0 0 0 254.71441015187884 12.193463600749055 0 12.193463600749055 84.340824400973361 0 0 0 0 241.84679528791457 34.823821264377784 0 34.823821264377784 62.676879290691431 0 0 0 0 72.018711338707362 315.06280422083319 0 315.06280422083319 -117.15353294117813 0 0 0 0 38.65941997981281 -21.439517444104695 0 -21.439517444104695 118.1454487042447 0 0 0 0 157.0505735197803 35.299598116503148 0 35.299598116503148 101.69475037340089 0 0 0 0 79.734727968505467 52.48924697809116 0 52.48924697809116 106.08299137726863 0 0 0 0 0.65192650311888656 -2.6718503988817588 0 -2.6718503988817588 2.3139392351507997 0 0 0 0 193.33233436441515 64.696377153766662 0 64.696377153766662 89.190598028534623 0 0 0 0 142.44778486376163 -28.854165994130653 0 -28.854165994130653 78.716220897986204 0 0 0 0 241.13209574934444 36.064729839431493 0 36.064729839431493 73.608432381846796 0 0 0 0 9.9918282340231173 -20.552882905323031 0 -20.552882905323031 5.4363956298057374 0 0 0 0 -22.677606963930884 -112.83085742334561 0 -112.83085742334561 24.571176655215965 0 0 0 0 755.00739599353619 27.45403033604498 0 27.45403033604498 -32.392106053790485 0 0 0 0 753.40068692485511 22.889519033537226 0 22.889519033537226 11.530760189274588 0 0 0 0 701.34915963048115 -45.032438723976156 0 -45.032438723976156 -56.611397054761255 0 0 0 0 761.98785030603176 -28.824859864129394 0 -28.824859864129394 -56.93908648001343 0 0 0 0 816.73365930904401 -27.000561035521059 0 -27.000561035521059 -67.412519369151596 0 0 0 0 806.31597132959723 -68.374044114536446 0 -68.374044114536446 -65.441640631106566 0 0 0 0 836.8227884830485 104.00000660532771 0 104.00000660532771 54.620466527305325 0 0 0 0 858.66551065086242 -14.908849601545626 0 -14.908849601545626 -22.089954313345515 0 0 0 0 1123.814917368436 212.00002993207636 0 212.00002993207636 45.360907877582349 0 0 0 0 914.81425145547837 146.07088878742525 0 146.07088878742525 76.602171045008618 0 0 0 0 15.243867085431702 127.7815373785902 0 127.7815373785902 33.998960846761555 0 0 0 0 913.47797894997348 -157.87643198543901 0 -157.87643198543901 -55.281015367396321 0 0 0 0 1182.1364283364965 0.10448694308342965 0 0.10448694308342965 -49.97996961508079 0 0 0 0 951.71146035753191 -35.032188206690989 0 -35.032188206690989 -8.0435063979175538 0 0 0 0 941.69562422196032 -38.275341992512949 0 -38.275341992512949 -69.470555918876926 0 0 0 0 1035.9772468388837 38.446983391645517 0 38.446983391645517 -11.40090405614319 0 0 0 0 879.49539928842569 -122.31045124558113 0 -122.31045124558113 -78.747923342023569 0 0 0 0 1020.5601016342262 -68.25422190166455 0 -68.25422190166455 -64.079919483474441 0 0 0 0 874.55940554688277 -147.96581961580932 0 -147.96581961580932 -109.10440558010123 0 0 0 0 845.83891813576338 -118.87036015621015 0 -118.87036015621015 -72.572346390799794 0 0 0 0 823.6371224775794 -60.957591578031497 0 -60.957591578031497 -69.9381183092284 0 0 0 0 868.96954546438064 -117.6673671407234 0 -117.6673671407234 -93.099768794156262 0 0 0 0 774.35972020449117 -130.64800046694654 0 -130.64800046694654 -88.322532780974143 0 0 0 0 791.91425435050041 -99.42425590053972 0 -99.42425590053972 -80.183330022049631 0 0 0 0 748.57122648838413 -80.452106926247325 0 -80.452106926247325 -64.098868264743942 0 0 0 0 808.39614193385933 -120.62337598342674 0 -120.62337598342674 -88.283591648882975 0 0 0 0 824.44746481926995 -173.44067947108852 0 -173.44067947108852 -114.32448371168903 0 0 0 0 842.89740650812746 -146.8352414569199 0 -146.8352414569199 -110.06809932373653 0 0 0 0 801.65625573025318 -156.23901640430449 0 -156.23901640430449 -110.79605813177295 0 0 0 0 816.35809214430628 -171.50380705168391 0 -171.50380705168391 -112.24513264315192 0 0 0 0 817.81316339573823 -179.52671714811731 0 -179.52671714811731 -121.10258553555104 0 0 0 0 796.91306211892515 -178.8114560950271 0 -178.8114560950271 -115.39220837654466 0 0 0 0 799.29570680565666 -170.40381112636715 0 -170.40381112636715 -120.12258189092518 0 0 0 0 791.12741240096511 -185.98662763901848 0 -185.98662763901848 -102.31837209111109 0 0 0 0 749.72677513910457 -158.59847635316328 0 -158.59847635316328 -111.37614203168596 0 0 0 0 748.95936565037664 -153.57847967720988 0 -153.57847967720988 -114.06460791784411 0 0 0 0 749.70717580825294 -165.51796723485728 0 -165.51796723485728 -97.95136691648986 0 0 0 0 818.76811912402627 -197.91699769834941 0 -197.91699769834941 -92.600326230812698 0 0 0 0 524.94858011617907 -66.572083815641236 0 -66.572083815641236 -64.074642338438935 0 0 0 0 529.0539715027553 -18.277572842074733 0 -18.277572842074733 -57.757353273686022 0 0 0 0 661.26675576777779 -126.24513078215477 0 -126.24513078215477 -96.495873460091389 0 0 0 0 663.36749911837978 -119.65232383977491 0 -119.65232383977491 -77.331723594003051 0 0 0 0 739.22785993079015 -171.90187636710743 0 -171.90187636710743 -111.20885184929648 0 0 0 0 605.72489728077198 -200.53060455069408 0 -200.53060455069408 -41.268023576976702 0 0 0 0 487.01572794956155 -65.924356715508111 0 -65.924356715508111 -52.128142595774534 0 0 0 0 479.28318666518317 -94.815522468681138 0 -94.815522468681138 -41.744038831341186 0 0 0 0 320.45184099710605 -205.16145705187841 0 -205.16145705187841 142.80932814448033 0 0 0 0 677.60001095305779 -183.41967621898038 0 -183.41967621898038 -57.35737788509914 0 0 0 0 814.26621554349549 -163.63857034291141 0 -163.63857034291141 -75.643664684975192 0 0 0 0 688.73922901542392 -231.23129459775328 0 -231.23129459775328 -0.64151320560085878 0 0 0 0 818.29494896007236 -275.27267728822335 0 -275.27267728822335 -9.0983154010709768 0 0 0 0 940.44869701571588 -189.30111334395042 0 -189.30111334395042 -85.714117292336596 0 0 0 0 733.34631597524276 -190.07936636502745 0 -190.07936636502745 20.191064936275438 0 0 0 0 1024.3979259954212 -426.40080081354677 0 -426.40080081354677 114.82386269612334 0 0 0 0 608.36391102992638 -396.26135824705079 0 -396.26135824705079 166.0697362384085 0 0 0 0 -72.396490421335329 399.25057435540424 0 399.25057435540424 -772.37209213290453 0 0 0 0 707.87714220158523 -277.30696355943246 0 -277.30696355943246 121.27328671018546 0 0 0 0 21.818410658073219 8.4437454369307545 0 8.4437454369307545 -3.6431920689863397 0 0 0 0 1472.6918403103191 -878.7915841309856 0 -878.7915841309856 439.78031172120427 0 0 0 0 703.39395395776955 -298.24011058946257 0 -298.24011058946257 253.29263303276457 0 0 0 0 2047.8365169116441 -56.933566433098918 0 -56.933566433098918 -135.04033158993025 0 0 0 0 1771.0273632138851 373.0281221687128 0 373.0281221687128 38.943620368979737 0 0 0 0 48.223428381752456 9.9351947162064675 0 9.9351947162064675 34.522505207817971 0 0 0 0 58.470986312662717 -44.09387364730469 0 -44.09387364730469 22.297001864141748 0 0 0 0 107.37556122444948 43.120456383383384 0 43.120456383383384 -3.2602631076415491 0 0 0 0 8.8090487707167711 -17.416927915346065 0 -17.416927915346065 6.560336174272499 0 0 0 0 1238.8907454113069 178.71735693202072 0 178.71735693202072 -23.081620635957734 0 0 0 0 -24.152044978254708 9.9888127848514614 0 9.9888127848514614 56.122837785616866 0 0 0 0 1147.3084322804789 -16.21442109451641 0 -16.21442109451641 -45.040259553540182 0 0 0 0 1222.5139250378124 -131.87324212674184 0 -131.87324212674184 -76.882044344581345 0 0 0 0 1241.409275011727 191.40627209285367 0 191.40627209285367 33.672054393016879 0 0 0 0 1422.3955090609961 -67.023370595048164 0 -67.023370595048164 -135.18830765789971 0 0 0 0 66.812866928317817 53.878684145797735 0 53.878684145797735 -46.988487212335848 0 0 0 0 42.692447646404617 61.060226849197193 0 61.060226849197193 -35.398922115912455 0 0 0 0 124.83200470090378 122.58937565053452 0 122.58937565053452 -63.826009060138119 0 0 0 0 20.430728817591444 84.362639642733029 0 84.362639642733029 -36.194899312035886 0 0 0 0 155.68323278761818 163.2718784550421 0 163.2718784550421 -21.546228542447807 0 0 0 0 139.58037744525063 114.82714831863973 0 114.82714831863973 -73.594364845719156 0 0 0 0 131.71600256650709 122.85505426637314 0 122.85505426637314 -37.462976753763769 0 0 0 0 138.00556051729654 167.21511945448515 0 167.21511945448515 -17.068090389976987 0 0 0 0 428.21994143801567 211.93609230885716 0 211.93609230885716 0.17275819255416991 0 0 0 0 203.62768817765755 144.76945451765076 0 144.76945451765076 -34.510871364727265 0 0 0 0 197.18555320936866 139.3459240028906 0 139.3459240028906 -21.580985583154074 0 0 0 0 171.17494658338546 178.74147443845752 0 178.74147443845752 -7.3551887224034118 0 0 0 0 79.103707929015854 133.59478760978055 0 133.59478760978055 213.9005878372584 0 0 0 0 89.181013258988969 99.366061234535437 0 99.366061234535437 69.047753060508285 0 0 0 0 85.204470231097275 52.927374993860532 0 52.927374993860532 16.719226924928989 0 0 0 0 8.3671463035746001 2.3670140986481627 0 2.3670140986481627 0.98607786047143575 0 0 0 0 54.758514261993696 43.498891186735364 0 43.498891186735364 52.327618391246233 0 0 0 0 46.333845112065319 3.8240421304662959 0 3.8240421304662959 -2.2413072608278526 0 0 0 0 93.307594466561568 63.255374997177455 0 63.255374997177455 -51.395806623915632 0 0 0 0 68.219860965517 70.071535640042953 0 70.071535640042953 -40.154866980431962 0 0 0 0 44.727920005709166 -12.797937266655936 0 -12.797937266655936 -27.124737672154083 0 0 0 0 29.436267022945685 2.3762464835339188 0 2.3762464835339188 -7.5984886909682245 0 0 0 0 -75.368326575960964 -48.871850622510919 0 -48.871850622510919 80.243233956121486 0 0 0 0 14.444269098038035 -1.0759669556358915 0 -1.0759669556358915 0.7294216924462269 0 0 0 0 16.4956984542805 49.515550846146198 0 49.515550846146198 72.614545513195992 0 0 0 0 46.907741763629019 -17.572286953646881 0 -17.572286953646881 -101.16219369681676 0 0 0 0 47.712009776427294 -15.606024692649953 0 -15.606024692649953 -1.3419088138914503 0 0 0 0 376.21071537130047 261.08400070143034 0 261.08400070143034 178.50139315743945 0 0 0 0 -303.24656242440687 237.7204904964683 0 237.7204904964683 -164.24316405263164 0 0 0 0 41.981412356806686 113.10459662721837 0 113.10459662721837 -380.9678198742447 0 0 0 0 72.006898950989125 -154.11932507096952 0 -154.11932507096952 -198.16241541466661 0 0 0 0 -0.64339113891355737 -1.5877302225812571 0 -1.5877302225812571 -1.269954996862519 0 0 0 0 -42.990244607761269 183.29179696098896 0 183.29179696098896 -268.44471014777491 0 0 0 0 -34.356798280437943 18.581158573180346 0 18.581158573180346 -80.175087224861954 0 0 0 0 41.893621477530814 77.478260632016273 0 77.478260632016273 -163.7411154872899 0 0 0 0 1101.3638135656656 362.70334051855934 0 362.70334051855934 357.69469106484144 0 0 0 0 1244.8310769757663 340.90287932288447 0 340.90287932288447 13.263077488369163 0 0 0 0 1223.9919207099774 462.79632798964599 0 462.79632798964599 -12.966715341899544 0 0 0 0 361.15887344500516 681.33899651055162 0 681.33899651055162 92.858023000884486 0 0 0 0 890.86576846058597 623.63687137634497 0 623.63687137634497 62.993442338607565 0 0 0 0 502.07274959929055 295.82713261269055 0 295.82713261269055 103.75275770879853 0 0 0 0 475.5765815442428 295.89807752958404 0 295.89807752958404 152.48075308472198 0 0 0 0 557.93512761185411 268.94202240563754 0 268.94202240563754 130.58171788291611 0 0 0 0 5.4749871892903457 -0.85991052842450699 0 -0.85991052842450699 -2.8125051413446598 0 0 0 0 -50.463490864291089 734.12527344515206 0 734.12527344515206 116.14132098178143 0 0 0 0 260.29136355672381 395.01795132128041 0 395.01795132128041 88.976582677349143 0 0 0 0 71.120805256505264 61.635343548774138 0 61.635343548774138 -174.17499208584343 0 0 0 0 180.7664577444375 -78.345203014491062 0 -78.345203014491062 -98.442290484814066 0 0 0 0 160.00802270649001 8.2534620358489974 0 8.2534620358489974 -186.14276996846149 0 0 0 0 1.8588563032561325 1.4393710519186413 0 1.4393710519186413 3.9859016442736408 0 0 0 0 2442.08910703328 196.37776909068538 0 196.37776909068538 -183.71354598560524 0 0 0 0 -487.00030551714008 273.97915189484684 0 273.97915189484684 539.41915160921781 0 0 0 0 1748.1310493458586 738.46222487328555 0 738.46222487328555 291.04694894271194 0 0 0 0 1277.1941797750333 280.35045746594403 0 280.35045746594403 -68.271202661549523 0 0 0 0 1030.5488257692487 28.159371626486518 0 28.159371626486518 48.375645119160424 0 0 0 0 1658.6276064925623 -88.359053725363935 0 -88.359053725363935 54.333053274864675 0 0 0 0 133.99008898614557 43.79523578727003 0 43.79523578727003 -277.36352281274969 0 0 0 0 -203.35913030178926 -267.89193149872233 0 -267.89193149872233 -186.59796673510868 0 0 0 0 115.27231085130188 22.439872130581534 0 22.439872130581534 -39.223209693645003 0 0 0 0 -104.19093398442055 96.144068338557474 0 96.144068338557474 5.7244093028266434 0 0 0 0 1.3451404588008415 6.9231190035107772 0 6.9231190035107772 8.1305606369428141 0 0 0 0 840.53785450710711 194.93972401371005 0 194.93972401371005 26.558986411681872 0 0 0 0 938.40826214809204 255.47354672290953 0 255.47354672290953 -69.622610029930343 0 0 0 0 968.48945681608166 213.14650649539249 0 213.14650649539249 -78.533129916298094 0 0 0 0 -88.974170794434031 51.753008744281487 0 51.753008744281487 -50.870679905436646 0 0 0 0 115.39540400461192 6.8564217534731142 0 6.8564217534731142 94.846182065837638 0 0 0 0 407.8015710702166 -196.0988239570861 0 -196.0988239570861 -199.74488520485875 0 0 0 0 -1.603860297751055 -2.1107638243616975 0 -2.1107638243616975 -3.8566714399992748 0 0 0 0 323.63728980759333 8.121125871748518 0 8.121125871748518 -71.346761952300767 0 0 0 0 106.48569300177041 5.781132123302541 0 5.781132123302541 18.210360369834234 0 0 0 0 -80.757184710004367 91.668934100403021 0 91.668934100403021 -40.677693870417102 0 0 0 0 21.081823085056385 43.252302157024815 0 43.252302157024815 -42.811758110360643 0 0 0 0 17.293011901175134 -0.037835770057057516 0 -0.037835770057057516 -7.6810586609465634 0 0 0 0 4.9073958294902695 58.608332666307433 0 58.608332666307433 -36.157688065744878 0 0 0 0 142.65753512179072 20.971093456531889 0 20.971093456531889 -22.2513581048579 0 0 0 0 25.971005868312204 -65.616780625896524 0 -65.616780625896524 -123.14982045317186 0 0 0 0 -109.14756508782739 -159.36844270488609 0 -159.36844270488609 -129.39137593012015 0 0 0 0 99.239530275386642 13.471454267864829 0 13.471454267864829 -14.180710264964546 0 0 0 0 96.085876526359471 10.318474238072362 0 10.318474238072362 -8.5772707594735795 0 0 0 0 75.845448046224192 -78.137272912569188 0 -78.137272912569188 -131.20303903489889 0 0 0 0 630.86366186907981 -148.19792242095991 0 -148.19792242095991 -285.25868405479741 0 0 0 0 936.70750612718984 396.08851616863734 0 396.08851616863734 -381.2017688375422 0 0 0 0 1187.1003688676283 -123.36120946061249 0 -123.36120946061249 -1238.2603323329276 0 0 0 0 -5.0238334634568673 20.879727550736252 0 20.879727550736252 7.5288063738912889 0 0 0 0 8.794319759355858 -44.528279068416623 0 -44.528279068416623 91.070815983550347 0 0 0 0 117.79662227182416 315.80642935409946 0 315.80642935409946 598.86438046778414 0 0 0 0 69.704564929914454 52.780238236640798 0 52.780238236640798 23.425371796751804 0 0 0 0 215.34937417786568 -86.08777402056927 0 -86.08777402056927 -179.32503591347086 0 0 0 0 794.23085995280417 510.35939547245562 0 510.35939547245562 288.00003857225414 0 0 0 0 289.91778296227858 53.241692843024566 0 53.241692843024566 59.313810521758569 0 0 0 0 54.902954272343777 41.446692542632263 0 41.446692542632263 -0.43890167899962762 0 0 0 0 156.12992870034941 129.69106156911971 0 129.69106156911971 135.63425155435743 0 0 0 0 17.101614547588724 8.6923211893653445 0 8.6923211893653445 7.5636818008672968 0 0 0 0 154.18573055774323 179.42610574654918 0 179.42610574654918 252.21545504878816 0 0 0 0 123.03773459047079 -29.10946528592558 0 -29.10946528592558 -69.72306085915352 0 0 0 0 346.56339945810032 46.441750773880813 0 46.441750773880813 -40.95547980527499 0 0 0 0 40.582820641949866 -3.285914717477695 0 -3.285914717477695 -2.1407417589214273 0 0 0 0 278.76612500401097 17.382934147273318 0 17.382934147273318 -85.627479348223915 0 0 0 0 123.29913457893417 40.862673489008444 0 40.862673489008444 74.005068095037132 0 0 0 0 -4.3727313324343413 52.825765012056308 0 52.825765012056308 -32.734689335544317 0 0 0 0 184.51641698899766 -19.831939368152291 0 -19.831939368152291 -128.57896896598413 0 0 0 0 18.585001573938925 -4.6668320091789894 0 -4.6668320091789894 -34.734052161540156 0 0 0 0 104.22451799653936 -17.142169080998428 0 -17.142169080998428 -76.849472477386371 0 0 0 0 129.82517633205862 5.2685691026840686 0 5.2685691026840686 -62.638837084698025 0 0 0 0 -102.91416173103062 35.750791404137203 0 35.750791404137203 52.94498362106242 0 0 0 0 8.9059542575224384 -12.286050516280397 0 -12.286050516280397 -37.251048584465401 0 0 0 0 523.02870560562587 -17.451110974609492 0 -17.451110974609492 -44.347560408549271 0 0 0 0 257.09369449412043 -168.80700706074185 0 -168.80700706074185 81.030164118285029 0 0 0 0 299.94819118350279 59.867092914328282 0 59.867092914328282 -168.86472604491598 0 0 0 0 133.25299437483773 20.170666899100809 0 20.170666899100809 -61.769251642781455 0 0 0 0 24.019479472176556 2.3173246142288804 0 2.3173246142288804 -4.3895847129860091 0 0 0 0 166.34182592677826 266.63988394821092 0 266.63988394821092 164.63303528397728 0 0 0 0 519.56839238036264 473.14972539437667 0 473.14972539437667 67.17586142121263 0 0 0 0 1.2476411402104191 -2.039656393182014 0 -2.039656393182014 5.0576618341265576 0 0 0 0 36.293125979937031 -98.971762856453267 0 -98.971762856453267 -43.276780757915276 0 0 0 0 254.81470103110769 131.52602086552321 0 131.52602086552321 302.87586120019336 0 0 0 0 -81.652049489959609 -31.071908053194647 0 -31.071908053194647 -29.260102408160492 0 0 0 0 12.970275834813947 4.1074298393491517 0 4.1074298393491517 -39.249575839630324 0 0 0 0 394.35265244379116 183.89743041868047 0 183.89743041868047 -2.3476896183617555 0 0 0 0 9.343337704919918 -13.368364315425339 0 -13.368364315425339 3.2766660376050956 0 0 0 0 299.56187846162356 24.890710025911858 0 24.890710025911858 51.715878337749047 0 0 0 0 265.846002111095 70.235581204584548 0 70.235581204584548 -8.5955407526189731 0 0 0 0 -149.60470804473152 144.76238804412384 0 144.76238804412384 28.186471306186945 0 0 0 0 177.27392204070929 62.406952015717707 0 62.406952015717707 -64.927270793686375 0 0 0 0 259.08710232499288 112.21865547319646 0 112.21865547319646 -105.1618224039868 0 0 0 0 -0.40759580716297705 -1.7472848608975085 0 -1.7472848608975085 0.85468416548364745 0 0 0 0 168.40168354799971 58.44345664942648 0 58.44345664942648 33.30391899782785 0 0 0 0 244.54578858216701 -39.2405288105914 0 -39.2405288105914 -0.77838547073361042 0 0 0 0 56.260354739322793 118.91424413794823 0 118.91424413794823 2.0912661312119383 0 0 0 0 238.21099189406959 -60.33751998166872 0 -60.33751998166872 -116.18605449265806 0 0 0 0 246.0989536785055 143.44618503100662 0 143.44618503100662 53.964884844904873 0 0 0 0 126.26804249553243 105.75675352126399 0 105.75675352126399 -45.314428931090674 0 0 0 0 96.167811017570784 56.250910474247064 0 56.250910474247064 7.7320417366322545 0 0 0 0 463.80365852051182 32.128200655624369 0 32.128200655624369 -195.04215244746155 0 0 0 0 16.49778130867162 83.836334321433583 0 83.836334321433583 130.12440831418053 0 0 0 0 124.34626666681203 25.160614389788712 0 25.160614389788712 3.6344404653042277 0 0 0 0 29.048218139301753 -7.3741073373896597 0 -7.3741073373896597 8.0243087354949694 0 0 0 0 121.17842223693151 2.6518347609830926 0 2.6518347609830926 -9.8945232514445252 0 0 0 0 121.73091041980661 -15.536995732188757 0 -15.536995732188757 -74.222207583494992 0 0 0 0 192.7915340824984 194.7171523671368 0 194.7171523671368 -136.90640169966537 0 0 0 0 7.9261653148409437 10.214348727496358 0 10.214348727496358 1.6251415632475492 0 0 0 0 113.39623563482706 28.952117331220059 0 28.952117331220059 4.4373981837116485 0 0 0 0 173.21433270689158 324.09225029349091 0 324.09225029349091 28.391366359541735 0 0 0 0 30.901844923530007 220.17178159669629 0 220.17178159669629 225.92718914571333 0 0 0 0 142.0753918744449 3.6441430439604119 0 3.6441430439604119 -91.026127949009378 0 0 0 0 225.4662107075128 -87.105490431055387 0 -87.105490431055387 -171.83434351326059 0 0 0 0 237.11062976444373 48.15282104951666 0 48.15282104951666 -362.08983787640682 0 0 0 0 163.51023749403248 202.59540262497717 0 202.59540262497717 26.244272012963847 0 0 0 0 229.29030269561918 177.71783049162696 0 177.71783049162696 -43.846354867798937 0 0 0 0 76.868672482072725 20.435021336408226 0 20.435021336408226 72.693101838257007 0 0 0 0 184.88871158089387 70.36784858035054 0 70.36784858035054 -78.155547922121514 0 0 0 0 69.200785169465235 30.493473765245199 0 30.493473765245199 -80.742565315097409 0 0 0 0 100.68617983497097 84.405421672801822 0 84.405421672801822 -87.863439948207088 0 0 0 0 202.82265302611631 101.1423498725967 0 101.1423498725967 -96.205849341219164 0 0 0 0 97.618312602367951 112.54109649317525 0 112.54109649317525 -136.11621926132193 0 0 0 0 84.832213601679541 19.90360121186859 0 19.90360121186859 -164.292503144904 0 0 0 0 154.24356114532566 60.787135869250051 0 60.787135869250051 -291.21421868898506 0 0 0 0 128.88603983109164 26.238797956842948 0 26.238797956842948 3.9386489238427531 0 0 0 0 -151.34599551132123 137.9454479870094 0 137.9454479870094 100.52695363486919 0 0 0 0 43.51060444500763 173.54779631279573 0 173.54779631279573 -111.9790841112835 0 0 0 0 3.1503271260965562 1.7150628154017227 0 1.7150628154017227 0.68213446904361263 0 0 0 0 425.69371824595146 4.5124739179360915 0 4.5124739179360915 -94.495465984317207 0 0 0 0 227.06083808969561 -194.29097725989476 0 -194.29097725989476 -58.086019895702862 0 0 0 0 99.402576568507357 -161.23133919883156 0 -161.23133919883156 -64.144233538074033 0 0 0 0 51.977301702543627 -40.035614936347486 0 -40.035614936347486 -164.03850383865321 0 0 0 0 6.1337724934214748 1.7665945945531369 0 1.7665945945531369 0.10503841543990969 0 0 0 0 165.7123290186064 -215.43222793922604 0 -215.43222793922604 -70.184054181046591 0 0 0 0 14.293976193344861 1.9068672993146496 0 1.9068672993146496 -0.66497722145881411 0 0 0 0 98.960830609568802 -1.2919653562421161 0 -1.2919653562421161 -364.01069190082023 0 0 0 0 7.1225826341396896 -56.554088728988766 0 -56.554088728988766 -141.01227733166672 0 0 0 0 89.536399569660716 -16.674534737440801 0 -16.674534737440801 -128.29157092966545 0 0 0 0 153.86448688693054 -153.57086373885164 0 -153.57086373885164 -128.86728704414301 0 0 0 0 12.077658430775045 74.146816462975352 0 74.146816462975352 -160.88462064308885 0 0 0 0 59.48041790604475 -79.428363696214177 0 -79.428363696214177 -205.51015829678005 0 0 0 0 -1.0440012839681003 77.676042321292726 0 77.676042321292726 -5.921598928021762 0 0 0 0 59.643078092747601 106.85254213646849 0 106.85254213646849 -89.388366267254298 0 0 0 0 51.348855717718834 13.297054832732414 0 13.297054832732414 -107.41258571377121 0 0 0 0 14.240760377215224 1.1130937465426474 0 1.1130937465426474 -0.7923574085548778 0 0 0 0 76.496947161256685 27.533592036918606 0 27.533592036918606 -397.91093426745942 0 0 0 0 257.73926996949012 -79.150215788509684 0 -79.150215788509684 -567.02913206223866 0 0 0 0 279.00125482404837 138.24970166775336 0 138.24970166775336 60.174235554179972 0 0 0 0 -143.49233714331058 -70.218388186747291 0 -70.218388186747291 -15.116463662319916 0 0 0 0 143.7143293973495 -221.27341022940058 0 -221.27341022940058 -11.124112970504257 0 0 0 0 4.7976666509057395 -138.59807675734277 0 -138.59807675734277 245.20500345248047 0 0 0 0 231.77817531325854 41.110401289706033 0 41.110401289706033 264.4232493469716 0 0 0 0 664.39952210680349 -34.148743070060618 0 -34.148743070060618 133.84397117742481 0 0 0 0 199.76626197865698 -6.245579929058465 0 -6.245579929058465 466.64578069539243 0 0 0 0 5.180484778486516 0.9477779234971635 0 0.9477779234971635 0.1034980229214002 0 0 0 0 333.1477019936865 696.81746341516691 0 696.81746341516691 1061.971862919672 0 0 0 0 280.74053966125211 345.29607939737332 0 345.29607939737332 273.6168968515824 0 0 0 0 14.22152272478445 -1.402647173585315 0 -1.402647173585315 -3.3773996466881178 0 0 0 0 155.1592417571519 444.82187642887914 0 444.82187642887914 536.37595943063411 0 0 0 0 232.38135513426096 511.98314108967065 0 511.98314108967065 221.11764193239128 0 0 0 0 206.44669843034353 361.8907140035231 0 361.8907140035231 220.80127964573899 0 0 0 0 505.59632393412176 376.2050682334127 0 376.2050682334127 215.17200371785452 0 0 0 0 -98.083337427349761 227.72874101281184 0 227.72874101281184 286.7096300296713 0 0 0 0 379.78639347568969 116.19969282152556 0 116.19969282152556 -542.75451702059001 0 0 0 0 19.740349107434326 -13.961802738210338 0 -13.961802738210338 3.9771570082705683 0 0 0 0 1087.6746542494911 80.252812501885955 0 80.252812501885955 -54.710280163093557 0 0 0 0 -56.185135382998851 -178.94978687057846 0 -178.94978687057846 -326.29753366690784 0 0 0 0 238.60131049671327 15.368336586905571 0 15.368336586905571 -3.0840970454178205 0 0 0 0 22.836412978176327 -22.254557009257383 0 -22.254557009257383 2.4100475786838658 0 0 0 0 8.1909175490623056 1.6296674572398615 0 1.6296674572398615 -26.557724922581286 0 0 0 0 76.971033159497892 -75.876073568209222 0 -75.876073568209222 -46.532949015199847 0 0 0 0 216.03886531488388 -123.57388131975631 0 -123.57388131975631 12.694130291388092 0 0 0 0 29.851076605991693 7.2152342083663825 0 7.2152342083663825 -8.2690736674710479 0 0 0 0 632.34824398215278 -46.748589081217403 0 -46.748589081217403 529.05582677491248 0 0 0 0 369.28012846664933 316.80920308730202 0 316.80920308730202 -70.106950016609858 0 0 0 0 812.55491307741613 284.26445371404964 0 284.26445371404964 -353.57429484963018 0 0 0 0 1085.5910047567741 -36.25189495622817 0 -36.25189495622817 -849.9734285961963 0 0 0 0 438.85554390159086 -44.120752177964036 0 -44.120752177964036 -197.30278916715736 0 0 0 0 491.96329017117387 -85.750685983744802 0 -85.750685983744802 -375.00337819866729 0 0 0 0 399.84582337873871 -32.682517059544125 0 -32.682517059544125 -36.522858029787102 0 0 0 0 379.92731012415607 23.986371060552536 0 23.986371060552536 -164.03515395707393 0 0 0 0 359.62687356219976 72.253608679574313 0 72.253608679574313 -210.38425390173762 0 0 0 0 532.36787730009382 83.144123139501488 0 83.144123139501488 -340.6795605942832 0 0 0 0 -40.421868889039615 -8.4241030325594011 0 -8.4241030325594011 -116.96272442947517 0 0 0 0 352.27148985706663 125.86538347668184 0 125.86538347668184 -138.11527779776071 0 0 0 0 153.10390661039855 139.79223194754474 0 139.79223194754474 -98.282578056976575 0 0 0 0 92.297142619150691 67.993912328790486 0 67.993912328790486 -56.756244996776417 0 0 0 0 209.66835917189019 -356.18938598928236 0 -356.18938598928236 -8.5797907673713993 0 0 0 0 6.1195913028620907 0.52564674433346426 0 0.52564674433346426 -0.13614096413540488 0 0 0 0 34.490933581953868 195.22671725804855 0 195.22671725804855 -87.87865012321879 0 0 0 0 -51.234399645560188 5.1771994385393896 0 5.1771994385393896 -58.280134190508988 0 0 0 0 170.32452199843829 -130.77641126380706 0 -130.77641126380706 140.45251698046241 0 0 0 0 180.43736359430113 -216.1495946012889 0 -216.1495946012889 -12.738283660244861 0 0 0 0 183.5931025405298 -110.49648555422255 0 -110.49648555422255 126.39933886563887 0 0 0 0 266.16389195590455 -122.5985226184219 0 -122.5985226184219 76.424675754815155 0 0 0 0 -233.8020144518232 199.31509905353204 0 199.31509905353204 105.16136683085176 0 0 0 0 1.9951655824493599 4.6825165959280071 0 4.6825165959280071 -6.9420321428527014 0 0 0 0 605.22235619102139 -208.03670435740437 0 -208.03670435740437 -78.300995801753857 0 0 0 0 2.1014481627487669 4.9673177776834336 0 4.9673177776834336 -15.88043081341289 0 0 0 0 108.59726469733869 63.014849385720709 0 63.014849385720709 -185.71568604497133 0 0 0 0 100.23209880056675 130.46860235792747 0 130.46860235792747 -92.920415803833293 0 0 0 0 106.82898226185353 139.51251491498238 0 139.51251491498238 -94.595940025846517 0 0 0 0 188.46648693937459 264.40244200920563 0 264.40244200920563 -166.73539839644764 0 0 0 0 48.466200879076496 125.25086203998171 0 125.25086203998171 111.1933131624553 0 0 0 0 180.05407593082055 70.26800492853954 0 70.26800492853954 -422.64773705580228 0 0 0 0 722.51749905067845 -9.9532456807028211 0 -9.9532456807028211 -52.723014834162093 0 0 0 0 594.95727729329519 -222.54120062772574 0 -222.54120062772574 48.200831596630678 0 0 0 0 453.1025276415894 56.131270844197331 0 56.131270844197331 53.986041542541443 0 0 0 0 74.465109426571871 43.335644329561262 0 43.335644329561262 -93.684850908668068 0 0 0 0 46.962965736427577 51.697461614542931 0 51.697461614542931 418.30983843575643 0 0 0 0 86.853935469698627 -99.158096767302254 0 -99.158096767302254 67.20168496066097 0 0 0 0 -426.85831585829146 37.265731050091475 0 37.265731050091475 180.20246359216489 0 0 0 0 1.2379151984448669 3.7107725884109186 0 3.7107725884109186 -1.1520956440787899 0 0 0 0 370.0040979275218 107.60528952216919 0 107.60528952216919 80.433879656680801 0 0 0 0 191.77386411426414 -86.811378303863648 0 -86.811378303863648 156.67173743754734 0 0 0 0 323.2220732391288 54.12013881658396 0 54.12013881658396 26.684765469840244 0 0 0 0 407.58965831829119 47.747707091006575 0 47.747707091006575 -15.086845750640236 0 0 0 0 0.83727533099482798 1.4714871517176107 0 1.4714871517176107 0.10590987375679839 0 0 0 0 649.41924863420354 21.879117694254095 0 21.879117694254095 -57.325933726564557 0 0 0 0 118.06130971075618 74.524535473715517 0 74.524535473715517 -0.071859996656648897 0 0 0 0 -292.55675746441557 -67.248273621354997 0 -67.248273621354997 53.198038579425003 0 0 0 0 107.52774865279207 49.305338209880929 0 49.305338209880929 -51.322787037835752 0 0 0 0 207.47015162172465 -103.44882937389437 0 -103.44882937389437 -6.9913113559127993 0 0 0 0 576.01136110266089 79.150096320221465 0 79.150096320221465 -0.096561143625421286 0 0 0 0 537.33990374192945 -4.7178739629579383 0 -4.7178739629579383 -57.183182067825911 0 0 0 0 601.43425127325463 -92.948097078184816 0 -92.948097078184816 -46.704980547820647 0 0 0 0 101.29902840315481 -114.26553426882614 0 -114.26553426882614 -243.56842495679646 0 0 0 0 0.7311422075979408 0.091285568038756537 0 0.091285568038756537 -0.84487166817604153 0 0 0 0 -136.00848648644751 -210.99373784981555 0 -210.99373784981555 -216.78891708099187 0 0 0 0 -12.727020278471173 -47.017069466736174 0 -47.017069466736174 -111.879320960809 0 0 0 0 30.248736423731316 5.2500486985380448 0 5.2500486985380448 -127.05274346348875 0 0 0 0 23.273631519812625 29.083627036863504 0 29.083627036863504 -11.100510612547396 0 0 0 0 -27.826299465581542 -126.51978636387075 0 -126.51978636387075 -199.66493952214597 0 0 0 0 2.9553811967845149 2.116206306657233 0 2.116206306657233 -3.844806926111529 0 0 0 0 32.791590052409447 -50.520550362480321 0 -50.520550362480321 -192.86600530961641 0 0 0 0 64.308356038614875 -48.528801727674477 0 -48.528801727674477 -17.611913503011692 0 0 0 0 599.67204921790108 373.55731746621393 0 373.55731746621393 299.01676093063912 0 0 0 0 689.16379551036516 235.16515775015282 0 235.16515775015282 48.697766650253783 0 0 0 0 381.05152419947262 106.14551011611842 0 106.14551011611842 -20.97677264291724 0 0 0 0 356.65989757289935 117.7772030286317 0 117.7772030286317 -28.615580144061923 0 0 0 0 318.65701498013368 38.278075042757173 0 38.278075042757173 -144.17450088259238 0 0 0 0 432.39459012856241 82.285330626464884 0 82.285330626464884 -29.592609766300342 0 0 0 0 453.03005694599415 111.77237474905941 0 111.77237474905941 0.045036297218396568 0 0 0 0 372.05761086283019 15.714874467189141 0 15.714874467189141 -65.353864164635368 0 0 0 0 249.69366597630142 70.382088490349062 0 70.382088490349062 -0.064480256698338095 0 0 0 0 76.729312308947556 -38.639320921115193 0 -38.639320921115193 -36.514858956104561 0 0 0 0 26.099525531200925 13.204760482121699 0 13.204760482121699 -31.448364826660459 0 0 0 0 -10.45543541648658 31.02682568166021 0 31.02682568166021 -38.186010871742525 0 0 0 0 59.191091593234887 39.106915115588016 0 39.106915115588016 -11.174505670335776 0 0 0 0 29.005095260348753 45.199200947913965 0 45.199200947913965 0.027714416140897431 0 0 0 0 44.877609955699882 55.503280323604358 0 55.503280323604358 3.1386655298120729 0 0 0 0 52.260944975358143 47.343202166934674 0 47.343202166934674 0.098591863188458681 0 0 0 0 122.09792939748149 110.25485659578391 0 110.25485659578391 49.620815868231048 0 0 0 0 90.697416831302689 -2.9319287857669707 0 -2.9319287857669707 21.617606677051825 0 0 0 0 11.788596303638769 -0.14267721316858228 0 -0.14267721316858228 -19.192123241224834 0 0 0 0 4.8434728228166932 50.737739444696544 0 50.737739444696544 14.375369908425995 0 0 0 0 40.604604229840334 13.096638089189785 0 13.096638089189785 -63.516304364931685 0 0 0 0 4.9691841807216406 -32.24964327355157 0 -32.24964327355157 -60.423223064169562 0 0 0 0 33.801985530015372 26.13957894038499 0 26.13957894038499 11.815001713523429 0 0 0 0 98.185045746562537 -35.483797248703461 0 -35.483797248703461 -55.397293959379859 0 0 0 0 43.755223457490501 -28.823462432206615 0 -28.823462432206615 -119.61715697304989 0 0 0 0 35.951952453659032 -6.1813221784793502 0 -6.1813221784793502 -68.012886727722233 0 0 0 0 74.512717279023491 -39.24080494731399 0 -39.24080494731399 -116.71549756159577 0 0 0 0 40.324927831068635 -17.268400784143807 0 -17.268400784143807 -129.94244562213231 0 0 0 0 -1.8005357506190194 -41.930796885734289 0 -41.930796885734289 -167.40986065518931 0 0 0 0 -50.091858029860305 -71.049386817079096 0 -71.049386817079096 -132.59102203766457 0 0 0 0 -8.0961000511306338 -61.211314934172151 0 -61.211314934172151 -112.54221008618663 0 0 0 0 19.207777857052861 -40.912283152800285 0 -40.912283152800285 -148.86313653582062 0 0 0 0 172.14595569550875 60.65582616667308 0 60.65582616667308 -147.98444835534133 0 0 0 0 161.95940461824648 -0.43116130966416222 0 -0.43116130966416222 -122.13655762892978 0 0 0 0 145.83502840472738 29.211235507961518 0 29.211235507961518 -50.555900002518918 0 0 0 0 80.555171929532662 21.006558101495813 0 21.006558101495813 -116.24502425346003 0 0 0 0 144.08784645466949 -19.473923448701182 0 -19.473923448701182 -90.517255018445582 0 0 0 0 167.94694609343424 -35.918800882975063 0 -35.918800882975063 10.33223173395055 0 0 0 0 99.608623776468448 21.039444991987992 0 21.039444991987992 -32.299661611404169 0 0 0 0 209.38924790729652 35.312947591042217 0 35.312947591042217 -50.874133230777353 0 0 0 0 147.55162199019105 4.1252262354873039 0 4.1252262354873039 136.7033774192189 0 0 0 0 501.25886313125375 106.09126039471968 0 106.09126039471968 118.85058477941197 0 0 0 0 185.46166664006887 53.54493998929901 0 53.54493998929901 304.63971731746454 0 0 0 0 183.48938861041097 75.16968907286342 0 75.16968907286342 78.09032163142561 0 0 0 0 112.13760505709797 66.778373194779761 0 66.778373194779761 117.59238280815993 0 0 0 0 254.63447282192647 157.61653748032614 0 157.61653748032614 0.11492449041660899 0 0 0 0 118.94117487335461 120.07960985464319 0 120.07960985464319 164.14402638158219 0 0 0 0 373.88294715507072 319.75232767724731 0 319.75232767724731 192.43870115113904 0 0 0 0 -4.2744593818788417 77.881524879412908 0 77.881524879412908 -0.22603979938693591 0 0 0 0 432.2054933215295 171.43990006216913 0 171.43990006216913 -274.75039760829145 0 0 0 0 3.8008311834082633 1.747202914779818 0 1.747202914779818 0.32163724488806161 0 0 0 0 -4.4821025147939508 69.608566298015489 0 69.608566298015489 -78.778748678197232 0 0 0 0 9.7510806789096023 2.7076604811345253 0 2.7076604811345253 -0.046586822143402741 0 0 0 0 -50.208815445541404 344.86842980665722 0 344.86842980665722 348.62110069639067 0 0 0 0 -63.715365948133694 203.95968673885852 0 203.95968673885852 540.19237321668629 0 0 0 0 -70.850171823145502 252.2584778739668 0 252.2584778739668 393.14747625454288 0 0 0 0 -110.24507869710214 365.7104168010419 0 365.7104168010419 480.03309474391779 0 0 0 0 31.580871597165242 130.54170819857671 0 130.54170819857671 218.97077932000008 0 0 0 0 -60.451903555949684 352.69639954437457 0 352.69639954437457 828.14850557981345 0 0 0 0 412.35268014040412 447.91676905657079 0 447.91676905657079 441.08317157636736 0 0 0 0 12.499830253648952 3.3154512615540104 0 3.3154512615540104 0.36073893579287375 0 0 0 0 17.455050638323883 2.8293613459246094 0 2.8293613459246094 0.0047897933319918122 0 0 0 0 7.917761262942804 29.395596885144638 0 29.395596885144638 -11.53100168078708 0 0 0 0 3.4812950789905699 2.2364362707849921 0 2.2364362707849921 1.103226718000434 0 0 0 0 -7.0179960518726148 19.25312457177218 0 19.25312457177218 0.017358881587248024 0 0 0 0 -48.378195266544935 -139.55441780614962 0 -139.55441780614962 123.6046971255829 0 0 0 0 466.27985233988147 181.43426385707045 0 181.43426385707045 -98.230532994400548 0 0 0 0 3.9109351773513481 11.11219444509652 0 11.11219444509652 -5.6844472450875401 0 0 0 0 20.934143846447114 46.273024458362443 0 46.273024458362443 97.824216597258101 0 0 0 0 -99.259001788042951 -51.707897222471104 0 -51.707897222471104 -24.470619456437589 0 0 0 0 8.0764139831226771 9.2322431335906003 0 9.2322431335906003 5.0269526461348333 0 0 0 0 18.907626324144076 -84.234542619042315 0 -84.234542619042315 367.51299880896295 0 0 0 0 4.2361039633251494 -22.535831396203321 0 -22.535831396203321 160.9000754394051 0 0 0 0 401.44147529514157 837.84058206520308 0 837.84058206520308 862.05347422512159 0 0 0 0 -206.20068193098996 -110.69745567440714 0 -110.69745567440714 534.42386082863686 0 0 0 0 2.2818944901079021 3.1556829853942361 0 3.1556829853942361 4.0278957310097621 0 0 0 0 707.68253791789175 368.4367850768399 0 368.4367850768399 70.906586888098545 0 0 0 0 -3.139255870861632 0.81855082677788005 0 0.81855082677788005 -1.8587861358167168 0 0 0 0 352.4775628926327 169.70789061543408 0 169.70789061543408 36.488510149535159 0 0 0 0 -7.1794509448809549 80.170536890720939 0 80.170536890720939 317.0533392852675 0 0 0 0 -7.9781976124013454 92.30520995831175 0 92.30520995831175 180.26890147743427 0 0 0 0 267.95015596612939 207.13544173652156 0 207.13544173652156 119.69918901214405 0 0 0 0 -7.5367803756380454 27.128126562614199 0 27.128126562614199 10.124218950176882 0 0 0 0 708.61359751714178 213.48430965093507 0 213.48430965093507 509.55297990532335 0 0 0 0 1.3057671064536009 2.2223202728728211 0 2.2223202728728211 3.3263039456839927 0 0 0 0 -391.68557267053984 247.79300614922181 0 247.79300614922181 321.33486789488995 0 0 0 0 0.60923233431822155 19.101792720008362 0 19.101792720008362 -121.22494434564624 0 0 0 0 3.1846202038240961 4.9044605391142966 0 4.9044605391142966 5.4405466882544182 0 0 0 0 953.54024712147657 -53.526243401340025 0 -53.526243401340025 -246.1806247320103 0 0 0 0 179.7679554427159 -132.43501428238528 0 -132.43501428238528 -57.208175661781581 0 0 0 0 38.502509141660994 118.78299119603219 0 118.78299119603219 -197.23467158518872 0 0 0 0 -169.63931132710422 201.23938791384836 0 201.23938791384836 -104.15597735608753 0 0 0 0 31.321562219993211 130.74195992421249 0 130.74195992421249 -49.420576459307142 0 0 0 0 -48.408027252124157 55.222428563678136 0 55.222428563678136 -77.735391306518864 0 0 0 0 160.45838205728796 -91.013384437699187 0 -91.013384437699187 5.1542770278285843 0 0 0 0 183.48171952535631 -66.873196669782857 0 -66.873196669782857 26.702677554400537 0 0 0 0 147.38895787595538 -2.7841622529181791 0 -2.7841622529181791 -14.762104482229802 0 0 0 0 144.01145701966016 -2.7226253030316627 0 -2.7226253030316627 -8.4666085660899739 0 0 0 0 145.53319769888185 -6.3478402195842136 0 -6.3478402195842136 -14.769303987266937 0 0 0 0 147.23585758684203 -7.6922173521061268 0 -7.6922173521061268 -26.446636825954783 0 0 0 0 2.9554418057718976 5.1219271039393846 0 5.1219271039393846 3.8366984348735218 0 0 0 0 159.20610758458497 -54.343098265604581 0 -54.343098265604581 0.63807069707559094 0 0 0 0 -10.001243073020305 62.533811307137384 0 62.533811307137384 -24.65523012523829 0 0 0 0 168.85079832798601 40.151995568414989 0 40.151995568414989 -15.950690593195418 0 0 0 0 221.33001872067689 -92.443983385156841 0 -92.443983385156841 -19.142976736350903 0 0 0 0 287.41320050261857 132.81661849742085 0 132.81661849742085 56.273317437497816 0 0 0 0 66.508686973451404 53.111069710295936 0 53.111069710295936 -14.507271479527436 0 0 0 0 190.3577990034828 44.492270358543223 0 44.492270358543223 -107.60272293746721 0 0 0 0 128.54085230274939 17.962243247879627 0 17.962243247879627 -8.0592468909617416 0 0 0 0 145.68910258942924 110.31831734974834 0 110.31831734974834 -43.006046644686421 0 0 0 0 -157.48626009584495 16.074598918595854 0 16.074598918595854 48.627157760024602 0 0 0 0 125.0166064002222 30.46547942158999 0 30.46547942158999 -9.8429995370886321 0 0 0 0 139.61825065157609 67.486427089154745 0 67.486427089154745 -92.875285319091461 0 0 0 0 6.0678812073747395 283.45077900565752 0 283.45077900565752 -280.33211612184004 0 0 0 0 -113.7441068252665 323.42538931973286 0 323.42538931973286 5.5303791382948475 0 0 0 0 -54.946791900380049 33.972813044551003 0 33.972813044551003 84.843564899759485 0 0 0 0 421.44378013309324 212.03585791355317 0 212.03585791355317 57.452006746894767 0 0 0 0 72.877979117754876 16.381325495147976 0 16.381325495147976 -15.98512485037827 0 0 0 0 92.753332845983095 12.016293979603233 0 12.016293979603233 -26.450307750470756 0 0 0 0 72.389116394406301 13.3567354799182 0 13.3567354799182 -7.3951026148807841 0 0 0 0 81.606988047657069 0.88723902661683951 0 0.88723902661683951 6.4966795426992689 0 0 0 0 99.62822177290218 2.0334090807533016 0 2.0334090807533016 -18.998910026048975 0 0 0 0 42.400538701505866 71.556978922333087 0 71.556978922333087 -66.154813381835197 0 0 0 0 30.484595476321829 -4.7426828789047875 0 -4.7426828789047875 -8.2611582400849208 0 0 0 0 -4.0035494729572747 121.68494638437289 0 121.68494638437289 -46.419286558973909 0 0 0 0 -6.3770634924294427 96.449021459716278 0 96.449021459716278 -50.009709217109958 0 0 0 0 17.124920572969131 99.364133838419548 0 99.364133838419548 -50.867182548921846 0 0 0 0 -64.670262927698786 86.4585640421069 0 86.4585640421069 -2.4194663480811869 0 0 0 0 5.1503644235381216 123.25540137889834 0 123.25540137889834 -48.602518967819378 0 0 0 0 75.787583250002712 33.561673663865719 0 33.561673663865719 -10.843773942043549 0 0 0 0 -97.57547989624436 2.1478450385751557 0 2.1478450385751557 -9.402793695349601 0 0 0 0 23.879775599740697 14.93680971143111 0 14.93680971143111 3.1679809193145396 0 0 0 0 81.075533153489232 17.892852617004678 0 17.892852617004678 -24.392723493334927 0 0 0 0 1.3695980691700242 30.315669930555785 0 30.315669930555785 -20.429956737534809 0 0 0 0 29.364024244688039 -10.080795102018413 0 -10.080795102018413 -3.1483974873037903 0 0 0 0 36.909586310110171 -6.7553409493162349 0 -6.7553409493162349 29.089454459652416 0 0 0 0 68.151004432176705 -9.4293677222458427 0 -9.4293677222458427 -35.264187904874802 0 0 0 0 11.41974542989928 -0.45443607601515623 0 -0.45443607601515623 0.048765368807515141 0 0 0 0 10.945225532479981 4.5460436495848171 0 4.5460436495848171 -4.0111587466499268 0 0 0 0 68.744283248088323 -42.907437282712067 0 -42.907437282712067 -22.95645921154977 0 0 0 0 442.61327882081969 113.5973008476775 0 113.5973008476775 38.4230862470381 0 0 0 0 184.13507640938042 421.90798752392766 0 421.90798752392766 36.727005214521682 0 0 0 0 6.9680548687197188 -7.5199933300196165 0 -7.5199933300196165 -3.7634064742341651 0 0 0 0 32.421099024781142 17.017074439909834 0 17.017074439909834 -31.972286126274184 0 0 0 0 10.343537860121643 3.8741344851387112 0 3.8741344851387112 2.3127164028508607 0 0 0 0 44.234416883824451 -2.6856676299227331 0 -2.6856676299227331 -43.364903604637902 0 0 0 0 47.699541239329847 21.988617186864872 0 21.988617186864872 -31.271739731858588 0 0 0 0 2.3550374394690152 -19.404169386920728 0 -19.404169386920728 -18.089669735715802 0 0 0 0 77.553838750056457 -1.8429005225865467 0 -1.8429005225865467 -43.850050269741644 0 0 0 0 220.14948567135434 289.00853027759211 0 289.00853027759211 49.96300543009653 0 0 0 0 3.6080170722030971 2.0263291791165301 0 2.0263291791165301 0.73067708463599856 0 0 0 0 428.90686034894316 14.685614099638428 0 14.685614099638428 146.52370976872862 0 0 0 0 561.8457091950113 319.32823932776114 0 319.32823932776114 -187.89267773206234 0 0 0 0 -199.42048452241579 139.99496390763659 0 139.99496390763659 74.328472018458697 0 0 0 0 59.923559501679847 403.10767020469541 0 403.10767020469541 -0.35039361866267882 0 0 0 0 551.25626464252127 -22.099413809825251 0 -22.099413809825251 -164.76218191274185 0 0 0 0 277.33080553975014 407.83074799129622 0 407.83074799129622 297.05264174677416 0 0 0 0 103.40640990115935 147.0831695520817 0 147.0831695520817 490.82606550858981 0 0 0 0 85.040988952212501 236.38457028235939 0 236.38457028235939 273.28980103891848 0 0 0 0 23.793576024084246 -7.2670628176776404 0 -7.2670628176776404 -4.8096960273174663 0 0 0 0 -13.49518430486205 325.83002729286943 0 325.83002729286943 279.84253772518832 0 0 0 0 161.66581902425969 230.87604004164723 0 230.87604004164723 81.251052674208069 0 0 0 0 8.2008104733977234 6.3010730184668375 0 6.3010730184668375 -28.463233353111377 0 0 0 0 26.367899681004928 -74.031262029226014 0 -74.031262029226014 -17.093313684425311 0 0 0 0 332.84955885034287 117.44421491554056 0 117.44421491554056 164.39639036197741 0 0 0 0 556.06021334778052 127.50005725162305 0 127.50005725162305 157.93418569232063 0 0 0 0 -15.210003541316837 -21.608566665399053 0 -21.608566665399053 -12.866016669192391 0 0 0 0 14.579648697865196 -78.616528539478253 0 -78.616528539478253 -195.25812516686682 0 0 0 0 1.9043456204199174 -2.5315943615482794 0 -2.5315943615482794 -1.7431826011565348 0 0 0 0 20.152196826364502 -2.016805391820327 0 -2.016805391820327 -7.3661470806720608 0 0 0 0 -43.21209978206025 -48.022016384957141 0 -48.022016384957141 -128.9680169872899 0 0 0 0 1.1529390581121106 -0.0095580086560147492 0 -0.0095580086560147492 0.10855753265925039 0 0 0 0 81.833029410219751 20.72176414041698 0 20.72176414041698 -176.53229868151982 0 0 0 0 134.69373843005451 -13.37360936032087 0 -13.37360936032087 -162.18126024673688 0 0 0 0 127.42391280650918 15.045425025823874 0 15.045425025823874 -128.96313599046431 0 0 0 0 69.330107509857044 1.0730614273506376 0 1.0730614273506376 -53.007451083526632 0 0 0 0 92.908891018509166 25.342912409908649 0 25.342912409908649 -32.837111725778072 0 0 0 0 12.798867014644202 -37.07359619997743 0 -37.07359619997743 59.76085581163693 0 0 0 0 108.00577451824211 -59.916686427696163 0 -59.916686427696163 -4.3183582844061448 0 0 0 0 5143.7240020421887 -58.602389379179726 0 -58.602389379179726 -359.64600407427525 0 0 0 0 5193.222508660896 41.452657122183723 0 41.452657122183723 -211.77762249477843 0 0 0 0 5480.5844344647339 362.98894466670845 0 362.98894466670845 1.1236652445744486 0 0 0 0 6821.6486190976939 -1348.0156089731261 0 -1348.0156089731261 -376.50042549879186 0 0 0 0 123.31280230134143 -30.714329745255839 0 -30.714329745255839 670.85937887182251 0 0 0 0 15.211427467632404 3.1551352942947801 0 3.1551352942947801 0.37318999595655122 0 0 0 0 3146.4625049458118 -1063.1397933156841 0 -1063.1397933156841 -350.82293569781001 0 0 0 0 5167.9719460797787 -578.74960002065961 0 -578.74960002065961 -760.21541477385688 0 0 0 0 3627.0290107851179 -158.0319220946825 0 -158.0319220946825 -224.94224961457292 0 0 0 0 4682.2755978230853 59.312974887726682 0 59.312974887726682 223.4554202567748 0 0 0 0 4599.2653348549793 -257.02421408341513 0 -257.02421408341513 -223.41627065898933 0 0 0 0 4055.4711788788263 257.679780181571 0 257.679780181571 -88.44223818020123 0 0 0 0 5057.2085521667614 -717.72314185036328 0 -717.72314185036328 556.65606414961769 0 0 0 0 5157.3728874278122 1199.1251562730247 0 1199.1251562730247 -538.83979375980493 0 0 0 0 -333.98565286782105 -112.34695874152317 0 -112.34695874152317 693.20994687606049 0 0 0 0 2474.7570885098539 1056.4782694563373 0 1056.4782694563373 1.3658705866932905 0 0 0 0 2431.4947155174077 -301.76128869621681 0 -301.76128869621681 -26.74948482839477 0 0 0 0 2551.2141357316868 41.479095046910743 0 41.479095046910743 -214.14985103566596 0 0 0 0 1.7369123461218123 0.42286339287201713 0 0.42286339287201713 -2.2185733380744548 0 0 0 0 3434.7953206204547 -615.43715940262632 0 -615.43715940262632 -174.46358022411459 0 0 0 0 4209.276753300117 260.32147891679438 0 260.32147891679438 -443.83798890265302 0 0 0 0 4110.3344573319773 337.75330370389133 0 337.75330370389133 -429.58669030555552 0 0 0 0 4085.4590460594918 188.8924917183225 0 188.8924917183225 -380.25705373233018 0 0 0 0 2015.964659191879 1012.0506245779416 0 1012.0506245779416 -556.84534611767958 0 0 0 0 5647.8008183143684 -880.74753068672999 0 -880.74753068672999 679.83512806164163 0 0 0 0 13.642074086622699 4.1494937319021403 0 4.1494937319021403 -0.18021082533680444 0 0 0 0 1827.5580539437942 -458.74687327018415 0 -458.74687327018415 0.2696676754107506 0 0 0 0 2007.2207373246201 -2082.2731898379648 0 -2082.2731898379648 772.87673103006853 0 0 0 0 4697.172350233308 -1679.1473985263121 0 -1679.1473985263121 -228.96445522559259 0 0 0 0 2237.0378372865089 46.55914544160224 0 46.55914544160224 -1.0429443955893927 0 0 0 0 19.220210902275085 -0.62124393140949907 0 -0.62124393140949907 -0.073483114328752819 0 0 0 0 2206.4613707112439 793.53915640445416 0 793.53915640445416 287.92829107708172 0 0 0 0 5018.9919851371233 478.81255596231671 0 478.81255596231671 -453.18319287749284 0 0 0 0 1509.4468460006829 -1397.2090648691881 0 -1397.2090648691881 507.59203972926173 0 0 0 0 3343.3888647106942 -1214.1350049308783 0 -1214.1350049308783 -463.78896798809791 0 0 0 0 5749.4640937882068 -445.748560228918 0 -445.748560228918 -689.14559784324683 0 0 0 0 2596.1937060641212 368.08986654255625 0 368.08986654255625 453.06763319771062 0 0 0 0 -285.32285943777242 564.75683053385114 0 564.75683053385114 617.17856075767668 0 0 0 0 -410.41561533344793 190.31150276717506 0 190.31150276717506 -42.652753459975706 0 0 0 0 42.571000912084855 3.48790601803237 0 3.48790601803237 -0.83438256236348807 0 0 0 0 -391.63668803183828 -150.76342346405667 0 -150.76342346405667 -49.361533823931268 0 0 0 0 -523.26053340869839 158.52720131661636 0 158.52720131661636 723.08081030036544 0 0 0 0 1.6416000554235097 -3.2865634544408238 0 -3.2865634544408238 -0.96991551655279196 0 0 0 0 17.668008112144889 2.9246581278305395 0 2.9246581278305395 -0.0064845477169293399 0 0 0 0 17.663591252340211 3.2335084037957409 0 3.2335084037957409 0.64547449534937762 0 0 0 0 34.669757131636118 3.061365541154629 0 3.061365541154629 -8.3676718724300141 0 0 0 0 15.67699100577795 3.5254430109305046 0 3.5254430109305046 -5.5645317687999656 0 0 0 0 13.162434783764184 3.1187160629239088 0 3.1187160629239088 -17.617206499461563 0 0 0 0 24.033834718707112 15.632833881782858 0 15.632833881782858 -0.29230918188833588 0 0 0 0 20.499667234838853 44.308485973979558 0 44.308485973979558 182.9021649730862 0 0 0 0 -0.33454715216112163 9.1197181622340793 0 9.1197181622340793 -5.7370550959814484 0 0 0 0 -92.276249929054757 -32.142165699812381 0 -32.142165699812381 -38.215110524928832 0 0 0 0 -7.6499127821007278 34.029990684410564 0 34.029990684410564 184.21489925897998 0 0 0 0 -8.7612943798012566 22.938268305437816 0 22.938268305437816 248.20974848928097 0 0 0 0 59.921316120860865 384.49946757986817 0 384.49946757986817 570.7572389632636 0 0 0 0 99.663522982709765 105.4917810372736 0 105.4917810372736 222.61849049561329 0 0 0 0 -38.031398629886098 -41.617152611614642 0 -41.617152611614642 314.3517664417804 0 0 0 0 16.951055126381107 -30.137727532390102 0 -30.137727532390102 -2.6107747685493905 0 0 0 0 60.442752940463834 -52.028478971788445 0 -52.028478971788445 3.0963843014627628 0 0 0 0 160.16929759590857 103.45059311780923 0 103.45059311780923 -41.430448892875233 0 0 0 0 13.755497185616662 12.278862581898466 0 12.278862581898466 -9.122467975900749 0 0 0 0 -51.328185872422182 -243.10400769615273 0 -243.10400769615273 -31.669914494268141 0 0 0 0 65.446287007653154 -29.894800579124421 0 -29.894800579124421 -245.56186548557548 0 0 0 0 47.623094834327048 11.642571303853828 0 11.642571303853828 7.787477118979087 0 0 0 0 292.00693556680926 -335.14631181441553 0 -335.14631181441553 244.6380986742663 0 0 0 0 54.705079675693923 -27.536509730953895 0 -27.536509730953895 18.580270599501862 0 0 0 0 337.98742755767307 424.55819795993773 0 424.55819795993773 -140.49273146478265 0 0 0 0 242.64942699838139 535.91897652012949 0 535.91897652012949 -659.12052784982279 0 0 0 0 -339.53241725471889 79.66192132169499 0 79.66192132169499 265.54175071122609 0 0 0 0 1569.7804509058915 -475.16408713007377 0 -475.16408713007377 -22.859259005803324 0 0 0 0 390.55812675849302 20.703555901138998 0 20.703555901138998 144.34663064901679 0 0 0 0 1324.7504853479477 60.024648161947198 0 60.024648161947198 -6.1132700109401412 0 0 0 0 3.717057299389154 -5.2158314378751811 0 -5.2158314378751811 7.2039664745287393 0 0 0 0 1307.34844892603 188.4357319314397 0 188.4357319314397 -49.805546442669083 0 0 0 0 1954.3519763679651 298.05318666620633 0 298.05318666620633 -218.06835349107587 0 0 0 0 -971.44348169556179 -343.6281394676505 0 -343.6281394676505 -672.32356679699114 0 0 0 0 634.44394145981641 -1344.9075114780153 0 -1344.9075114780153 -344.6219699490639 0 0 0 0 343.64868427251349 425.53333063430046 0 425.53333063430046 507.27326681812337 0 0 0 0 2792.4625268171658 1017.1858120800138 0 1017.1858120800138 119.24090676574519 0 0 0 0 16.646868245534279 -13.670780550742791 0 -13.670780550742791 10.050952089370771 0 0 0 0 4592.6104664112936 1021.8210373900987 0 1021.8210373900987 73.390388095943763 0 0 0 0 -1035.0690100329557 -393.98594681056716 0 -393.98594681056716 85.055009675918313 0 0 0 0 4565.7930234531814 82.985037246764733 0 82.985037246764733 119.83547902704868 0 0 0 0 4545.4052690163226 203.20126131367107 0 203.20126131367107 -501.16452235525617 0 0 0 0 3621.1440807013641 444.29019539337503 0 444.29019539337503 -386.50366175248541 0 0 0 0 4718.0778573766293 307.78223736715302 0 307.78223736715302 -597.43236229041008 0 0 0 0 3270.1944186248147 -368.91983407263876 0 -368.91983407263876 -21.652219997089105 0 0 0 0 638.2906610108621 -542.54896762886347 0 -542.54896762886347 304.20616755639753 0 0 0 0 2137.8680610873416 1462.0945095609502 0 1462.0945095609502 303.39746047869346 0 0 0 0 18.272952043359624 7.8159696201663564 0 7.8159696201663564 3.5231786911028786 0 0 0 0 4115.9663213112217 -1136.3351295751531 0 -1136.3351295751531 -27.25398776801876 0 0 0 0 4714.2799129446284 872.73850795957253 0 872.73850795957253 98.376585832163983 0 0 0 0 4326.6486135277955 400.79671743742392 0 400.79671743742392 1485.4543461013361 0 0 0 0 5498.159466119796 328.9776985469847 0 328.9776985469847 -490.40138391163396 0 0 0 0 4818.1575448138829 311.31756350790278 0 311.31756350790278 -31.506167087154381 0 0 0 0 4551.2359875509865 441.92634157803082 0 441.92634157803082 129.52972106183543 0 0 0 0 4343.6409889346105 318.71185512200549 0 318.71185512200549 109.56639798646779 0 0 0 0 4620.8470106096065 485.48835240220922 0 485.48835240220922 -125.32157818974628 0 0 0 0 4536.9646862240334 347.43738177260161 0 347.43738177260161 -118.88205934433779 0 0 0 0 4589.0122393314232 325.90368796216052 0 325.90368796216052 -276.06777010090025 0 0 0 0 4811.5909446570331 613.36046070171994 0 613.36046070171994 -367.75576124233442 0 0 0 0 5500.9576234660308 1246.4896397578771 0 1246.4896397578771 -656.15321080549256 0 0 0 0 4451.444287174254 1814.350032167484 0 1814.350032167484 -226.20786634269808 0 0 0 0 4635.5218253757557 788.14194431238843 0 788.14194431238843 -320.38968824769671 0 0 0 0 4390.4654011895036 1049.2230402994896 0 1049.2230402994896 -321.20434265323513 0 0 0 0 3755.1171988597198 636.90813116812842 0 636.90813116812842 554.13392898532425 0 0 0 0 3861.4901019346726 835.45675821968769 0 835.45675821968769 -130.99920862405747 0 0 0 0 4061.4128617644674 917.26828972523379 0 917.26828972523379 -99.472226691795328 0 0 0 0 3793.5114317993721 965.45081591891619 0 965.45081591891619 282.92548077377774 0 0 0 0 139.71675292003056 -133.47699486317617 0 -133.47699486317617 159.87560269776719 0 0 0 0 -161.9288624314795 -854.76873392733432 0 -854.76873392733432 253.63505299924671 0 0 0 0 964.00449928005401 135.80578208701075 0 135.80578208701075 -99.158209889769253 0 0 0 0 7.6271540658607364 -5.9328832201518935 0 -5.9328832201518935 5.8880336058760614 0 0 0 0 3702.5615136054403 772.27531718976934 0 772.27531718976934 -93.953442121261787 0 0 0 0 3749.2778924137529 1004.1815788608567 0 1004.1815788608567 -154.83663787250134 0 0 0 0 2011.7324892175748 -194.44355911284646 0 -194.44355911284646 -498.36761020569952 0 0 0 0 4081.4577079393857 740.15037653514582 0 740.15037653514582 -686.04074084312265 0 0 0 0 -397.33192786398286 -1297.3862985641445 0 -1297.3862985641445 386.09491758164148 0 0 0 0 11.102928908837526 -15.63397270913876 0 -15.63397270913876 16.758876415148492 0 0 0 0 14.649477359027912 -16.387179929131634 0 -16.387179929131634 15.501109268543935 0 0 0 0 284.50862446419342 -43.355119514392868 0 -43.355119514392868 -44.756040120927992 0 0 0 0 1038.9195458626746 274.13351826817927 0 274.13351826817927 -81.840410389344697 0 0 0 0 766.0269014548976 439.16918980772175 0 439.16918980772175 116.97012034493542 0 0 0 0 603.6024673683205 -131.1541232601968 0 -131.1541232601968 315.5065901550829 0 0 0 0 480.17698146947805 337.90890033341225 0 337.90890033341225 308.08156218712975 0 0 0 0 8.9775022836161043 0.96421124333845754 0 0.96421124333845754 0.94214094283826255 0 0 0 0 700.49787966492659 -251.98045817486997 0 -251.98045817486997 9.9856361532952178 0 0 0 0 933.29624570955639 382.86301082372341 0 382.86301082372341 -54.744858502198817 0 0 0 0 545.4362757915369 -173.89045066428471 0 -173.89045066428471 306.25083464097617 0 0 0 0 440.71151675943111 307.41701069765884 0 307.41701069765884 418.53952514336015 0 0 0 0 424.91226123749948 249.47803268118153 0 249.47803268118153 16.165010224766661 0 0 0 0 232.07276422834548 148.7801116915951 0 148.7801116915951 -21.750154708022638 0 0 0 0 -803.73250954077957 -617.70932588676783 0 -617.70932588676783 53.808606284244874 0 0 0 0 236.71113034889277 -319.78041777992041 0 -319.78041777992041 -207.5606576468071 0 0 0 0 721.00091173634428 83.686963925002857 0 83.686963925002857 -180.18126808872626 0 0 0 0 -552.2109742039429 -265.10090470500899 0 -265.10090470500899 26.348362204987552 0 0 0 0 3.3801813194405526 -4.3841956870106742 0 -4.3841956870106742 -15.428888474218983 0 0 0 0 178.62733520141046 -160.03776519895473 0 -160.03776519895473 -187.58637364769857 0 0 0 0 3.0386384563105935 -2.1467922280529024 0 -2.1467922280529024 -0.64199001742567585 0 0 0 0 94.345972753515525 69.448539889013574 0 69.448539889013574 275.48387383932982 0 0 0 0 734.39621361538593 220.93821784100152 0 220.93821784100152 -134.74110856274109 0 0 0 0 143.31665828244877 -118.50521436757026 0 -118.50521436757026 -28.818375204627046 0 0 0 0 180.58604570491298 -167.68686413185378 0 -167.68686413185378 272.19041494156625 0 0 0 0 470.97282659650227 489.67543696444193 0 489.67543696444193 165.6534480066307 0 0 0 0 728.83672965802361 719.92888204297947 0 719.92888204297947 515.09236864389709 0 0 0 0 19.044155540343581 -4.8656151062348556 0 -4.8656151062348556 -2.6243217560071534 0 0 0 0 544.83242524327943 92.49623238144369 0 92.49623238144369 217.82173379538125 0 0 0 0 872.69423789222492 268.04528960715254 0 268.04528960715254 109.26901604406824 0 0 0 0 1735.8034899638369 907.66652903834779 0 907.66652903834779 351.38041199437316 0 0 0 0 8.3151803703701717 -3.3565176060985635 0 -3.3565176060985635 0.90627082948058135 0 0 0 0 2602.8870422086766 1160.1699764114596 0 1160.1699764114596 -457.43161516021615 0 0 0 0 2274.4129067107424 1270.2794003537156 0 1270.2794003537156 226.15938424128635 0 0 0 0 1919.373628147252 105.49132004730802 0 105.49132004730802 -429.23065680579424 0 0 0 0 3893.5538457729708 1629.2786137521573 0 1629.2786137521573 -26.615345134880968 0 0 0 0 1794.552400865216 1572.7221383530336 0 1572.7221383530336 859.20871975395062 0 0 0 0 608.17847584057176 248.89547143883013 0 248.89547143883013 383.67901635002863 0 0 0 0 614.12191603593237 378.42354311965869 0 378.42354311965869 207.23698380398878 0 0 0 0 2411.3944871294007 1471.7906332379503 0 1471.7906332379503 657.59075822151044 0 0 0 0 1887.0343323932611 275.97355050759779 0 275.97355050759779 92.953423390874377 0 0 0 0 3221.6411351324059 2029.8753445173402 0 2029.8753445173402 923.34337369741309 0 0 0 0 12.061528833659452 -0.46780973630205835 0 -0.46780973630205835 -2.8475245842990882 0 0 0 0 589.09713535189803 2971.741019086598 0 2971.741019086598 3001.0821784409191 0 0 0 0 5513.7413320881788 2548.6175113447371 0 2548.6175113447371 122.20823680006495 0 0 0 0 3768.6771190789077 3221.6793046477565 0 3221.6793046477565 1503.1306398704901 0 0 0 0 3820.6299983421195 1793.9541177527101 0 1793.9541177527101 -176.32769703105262 0 0 0 0 90.909891215764219 -4.2380481785830852 0 -4.2380481785830852 -10.367994731460556 0 0 0 0 354.20045913259673 -227.57883453898125 0 -227.57883453898125 -2.8517742034282492 0 0 0 0 27.669903956353664 101.47774475012193 0 101.47774475012193 -106.26819583412549 0 0 0 0 57.340625278360676 10.579652527800135 0 10.579652527800135 -119.1161005743499 0 0 0 0 84.277123933687108 51.447653549044389 0 51.447653549044389 -88.113041895446258 0 0 0 0 -42.997949692071415 29.677366528944503 0 29.677366528944503 -76.010240660797535 0 0 0 0 128.74822763499105 -44.330104646657446 0 -44.330104646657446 -72.778107542605539 0 0 0 0 86.116889446275309 34.96239148289726 0 34.96239148289726 -159.01723245648463 0 0 0 0 -4.1720439894150161 -1.1917314434613502 0 -1.1917314434613502 2.3342509011457278 0 0 0 0 -80.624356032220021 236.86292064370812 0 236.86292064370812 -294.94685249291979 0 0 0 0 228.77875879712519 -14.384207189138124 0 -14.384207189138124 -174.57485436975094 0 0 0 0 237.64832089890842 -21.22588652671584 0 -21.22588652671584 -169.76640314285851 0 0 0 0 167.6664637745198 11.550169400787127 0 11.550169400787127 -146.39928804440024 0 0 0 0 220.1256742754922 44.363921817793653 0 44.363921817793653 -126.10979468682785 0 0 0 0 100.10064642722136 65.061360328571027 0 65.061360328571027 -173.74131685224756 0 0 0 0 150.17205857441877 -25.702129182448516 0 -25.702129182448516 -135.67620822745539 0 0 0 0 201.62137275934219 68.520205373427871 0 68.520205373427871 -282.00868711284238 0 0 0 0 134.44709020348938 23.306181889027823 0 23.306181889027823 3.9329547125053823 0 0 0 0 -43.47265266434988 -68.687694321678009 0 -68.687694321678009 99.576746378820076 0 0 0 0 200.2083766493015 -37.255267798506225 0 -37.255267798506225 -10.551526355837041 0 0 0 0 275.31769551915932 -79.375561309583418 0 -79.375561309583418 -172.55452794753876 0 0 0 0 53.911861803731881 161.3003655105781 0 161.3003655105781 -269.85575673100539 0 0 0 0 252.87748226289114 47.818349969480039 0 47.818349969480039 -436.92427892514593 0 0 0 0 7.3965931781039558 3.0872914300321668 0 3.0872914300321668 0.57879813491163679 0 0 0 0 -28.935365001943865 -95.032567122806284 0 -95.032567122806284 -22.861363951497879 0 0 0 0 332.85760285431752 -102.18771797805186 0 -102.18771797805186 -115.53567696592194 0 0 0 0 546.80310092880973 133.33884452658526 0 133.33884452658526 -45.728941599764312 0 0 0 0 375.93049097812036 -25.196801864457939 0 -25.196801864457939 -182.43378510612683 0 0 0 0 234.88860272188322 -37.972056232205659 0 -37.972056232205659 -150.73309513028835 0 0 0 0 138.25412522212952 31.593039684791879 0 31.593039684791879 -0.1601242153491389 0 0 0 0 238.15530459532965 -1.1119253264713791 0 -1.1119253264713791 -169.74701838130431 0 0 0 0 55.365599942408153 37.757252617874656 0 37.757252617874656 -41.650418659726711 0 0 0 0 18.689319116459529 -2.0911057466390162 0 -2.0911057466390162 -9.631725541817584 0 0 0 0 25.382080415045493 291.17799406887161 0 291.17799406887161 23.377666272132615 0 0 0 0 17.480447541893227 286.45981913031778 0 286.45981913031778 220.77357490740405 0 0 0 0 191.97804637611262 -25.261436481773103 0 -25.261436481773103 131.78281607084182 0 0 0 0 316.38642809091834 287.32381147021897 0 287.32381147021897 41.120879967769952 0 0 0 0 55.819608933292329 40.240646454215266 0 40.240646454215266 121.49525643956667 0 0 0 0 130.62433579511708 69.173928342737952 0 69.173928342737952 -107.45183850360513 0 0 0 0 78.47735255844816 40.046265372847984 0 40.046265372847984 -14.278712034649075 0 0 0 0 -14.806090645492077 65.439896599264557 0 65.439896599264557 -10.566960811087483 0 0 0 0 9.8586310991086066 77.164881806151243 0 77.164881806151243 14.802432083233725 0 0 0 0 -9.0610709090251476 55.758377453294088 0 55.758377453294088 -9.3324012425728142 0 0 0 0 0.1170650246203877 93.084770886779552 0 93.084770886779552 7.9146460710635438 0 0 0 0 37.971615799178835 100.56926021795971 0 100.56926021795971 -62.062474391760134 0 0 0 0 39.813095804109253 22.512245972610401 0 22.512245972610401 56.031310754267906 0 0 0 0 97.52775018644752 86.733975698351969 0 86.733975698351969 -7.323264506500891 0 0 0 0 65.899695274383703 20.364058051581878 0 20.364058051581878 15.451668118890666 0 0 0 0 34.397065048535296 35.734664348783554 0 35.734664348783554 21.437247247022242 0 0 0 0 18.369274766359013 13.843133437901088 0 13.843133437901088 4.5982942461193943 0 0 0 0 7.5727103000172065 81.973833584863542 0 81.973833584863542 87.41028567941612 0 0 0 0 9.4224012368940748 9.3394035661049202 0 9.3394035661049202 60.074307080383733 0 0 0 0 12.545233412881203 7.2703333607732361 0 7.2703333607732361 -3.1965980788176438 0 0 0 0 -9.9565120119586936 16.824723191476778 0 16.824723191476778 -12.154729738662354 0 0 0 0 4.1729634325609339 -4.1185752793665245 0 -4.1185752793665245 -29.237884045866728 0 0 0 0 4.4143008286773693 49.572962532992278 0 49.572962532992278 -31.899242781394605 0 0 0 0 127.26764063272276 38.734237875834879 0 38.734237875834879 -62.669100977548169 0 0 0 0 94.455111817456782 32.702674171629951 0 32.702674171629951 -51.066677766744533 0 0 0 0 31.487651565547935 28.328360903171827 0 28.328360903171827 2.1119610947615719 0 0 0 0 -43.974364940761006 -26.734320900907505 0 -26.734320900907505 294.67797938457943 0 0 0 0 -52.17971761188528 20.333987487302522 0 20.333987487302522 56.963050701088832 0 0 0 0 -32.599719951511361 9.6914198555691655 0 9.6914198555691655 61.222722614392978 0 0 0 0 44.65847756632138 -9.5487661161901087 0 -9.5487661161901087 -34.696039024851416 0 0 0 0 23.028303321949409 1.5088567104254516 0 1.5088567104254516 -3.7559017202311278 0 0 0 0 42.56409420286036 5.202467161968201 0 5.202467161968201 -3.4426207092124059 0 0 0 0 31.076913293996768 -22.292341557857071 0 -22.292341557857071 207.81444227633142 0 0 0 0 284.29394931856223 -91.505888120349908 0 -91.505888120349908 133.6028042866028 0 0 0 0 35.483834227823536 -63.033497818948149 0 -63.033497818948149 119.74022149013445 0 0 0 0 66.867270104048657 -173.35911792388083 0 -173.35911792388083 74.581075606799004 0 0 0 0 6.7381405831692973 -217.01188243522401 0 -217.01188243522401 68.481292806222314 0 0 0 0 -45.872618589666672 -95.790789927135961 0 -95.790789927135961 272.20179177025392 0 0 0 0 145.49082383746281 -36.49612641238582 0 -36.49612641238582 -24.760550309102086 0 0 0 0 95.544154688512208 53.561790822307557 0 53.561790822307557 -50.90710542293391 0 0 0 0 54.068907676672097 -30.683984062360082 0 -30.683984062360082 -85.380121044155203 0 0 0 0 17.872678348860063 43.175985401123199 0 43.175985401123199 292.22521635325529 0 0 0 0 107.81757792363351 -130.98022429426953 0 -130.98022429426953 -1.411839513523887 0 0 0 0 61.711877870468015 -153.8732925728666 0 -153.8732925728666 15.978293147365775 0 0 0 0 -1.4336436047060204 -4.9271904765541024 0 -4.9271904765541024 -16.88789831815501 0 0 0 0 253.01370246174338 -35.993660924147889 0 -35.993660924147889 -89.487954643940384 0 0 0 0 167.90437311877758 6.6083832195349714 0 6.6083832195349714 -15.822860750396103 0 0 0 0 173.01827162980044 -107.70090853479709 0 -107.70090853479709 -25.565865454850382 0 0 0 0 -0.4936174516587073 -3.2121514253553016 0 -3.2121514253553016 -7.5874566585840464 0 0 0 0 123.60591398316319 -106.30163599544881 0 -106.30163599544881 16.842225105299804 0 0 0 0 431.78610870636476 -342.38081750646472 0 -342.38081750646472 -101.27205521068316 0 0 0 0 1.1317344096169393 0.74949451781918697 0 0.74949451781918697 2.1466974591798635 0 0 0 0 380.11262585353688 -541.90304251127293 0 -541.90304251127293 1278.5029228684589 0 0 0 0 521.14982222234539 -244.98464749770397 0 -244.98464749770397 -230.15197326107292 0 0 0 0 174.30517378859804 -178.4643976269507 0 -178.4643976269507 15.699785198880502 0 0 0 0 140.63942537215189 -487.83866591712126 0 -487.83866591712126 -91.10646834554916 0 0 0 0 3.9743832668521293 -4.0493856512294144 0 -4.0493856512294144 2.3811943323067339 0 0 0 0 1450.1888324057072 470.22629260272276 0 470.22629260272276 -1114.9170904596272 0 0 0 0 -632.68802293928456 -541.21171627370836 0 -541.21171627370836 99.010787445102551 0 0 0 0 -35.635957721591694 -503.09918149018267 0 -503.09918149018267 -91.491491975598308 0 0 0 0 346.16233839131746 116.91879903208537 0 116.91879903208537 135.37456371590326 0 0 0 0 306.60448627616279 -294.05523624978036 0 -294.05523624978036 -36.074419618901118 0 0 0 0 -15.297464813658735 -34.643863823372207 0 -34.643863823372207 28.671079995871352 0 0 0 0 134.52490287699038 -75.032129104760202 0 -75.032129104760202 -0.23316948554202099 0 0 0 0 -244.37653529572708 -266.6835273465328 0 -266.6835273465328 203.94185155253942 0 0 0 0 3.0315058326959843 -321.80741228511067 0 -321.80741228511067 -85.731886445307524 0 0 0 0 306.75708656545612 -215.45725115894265 0 -215.45725115894265 -88.226520673752688 0 0 0 0 73.099893325183075 -216.04963739856774 0 -216.04963739856774 66.463996900752008 0 0 0 0 82.634402635565493 -233.21479361579907 0 -233.21479361579907 62.643569743865356 0 0 0 0 31.005639180224534 -213.70280858279199 0 -213.70280858279199 56.071627296979131 0 0 0 0 -245.81009227939649 -300.95229420986607 0 -300.95229420986607 38.976769742853435 0 0 0 0 202.23021457367577 -189.78592161399774 0 -189.78592161399774 -22.939860786912448 0 0 0 0 -40.459654527898238 -40.626020870630384 0 -40.626020870630384 34.7990349727188 0 0 0 0 1.0006073784095548 -1.4071081700705577 0 -1.4071081700705577 -4.8525893514690761 0 0 0 0 977.12765497047076 116.44232768215775 0 116.44232768215775 -192.21916635927687 0 0 0 0 98.135199837939581 -151.83296177872194 0 -151.83296177872194 138.1685182342633 0 0 0 0 240.9075663202093 247.24920496017546 0 247.24920496017546 83.705516658292254 0 0 0 0 146.53050264668127 -122.40252826280528 0 -122.40252826280528 -292.92336492038351 0 0 0 0 -498.49989366604132 61.094359725361983 0 61.094359725361983 -29.111915894162166 0 0 0 0 10.842108924007476 -11.47081124964123 0 -11.47081124964123 4.9539845782642891 0 0 0 0 -495.31519202305935 -406.52648061580237 0 -406.52648061580237 -4.1461924470030738 0 0 0 0 567.65994524800408 134.13661443669437 0 134.13661443669437 -20.637698336190851 0 0 0 0 78.771109053137479 128.6266765826611 0 128.6266765826611 37.791055636182193 0 0 0 0 1.133252982938032 0.17424775604419551 0 0.17424775604419551 4.8626735346852712 0 0 0 0 481.38250416776282 -136.01859727474664 0 -136.01859727474664 -61.017595060882741 0 0 0 0 -0.50431198616234951 -1.8563591120686169 0 -1.8563591120686169 -1.4919969655615222 0 0 0 0 -111.26541279789672 -72.994426348423531 0 -72.994426348423531 96.134943889793021 0 0 0 0 241.30992705395693 -60.662326693138141 0 -60.662326693138141 55.498864283623334 0 0 0 0 370.43675620962313 36.302287385557463 0 36.302287385557463 15.354989421783102 0 0 0 0 833.20669356474536 318.71083649921945 0 318.71083649921945 229.68789606555973 0 0 0 0 466.35837596491911 -55.471824445954894 0 -55.471824445954894 -4.0231280365244402 0 0 0 0 0.41454123624887274 -0.011172931166413491 0 -0.011172931166413491 4.5428287519988189 0 0 0 0 -45.041671075334307 -130.32185266807801 0 -130.32185266807801 62.070761292301199 0 0 0 0 154.11098872432194 -30.437747250618486 0 -30.437747250618486 101.53667126980395 0 0 0 0 128.65491306055628 4.3425634614777664 0 4.3425634614777664 153.09557498322556 0 0 0 0 131.57507598666416 40.750374727899612 0 40.750374727899612 43.482118769773706 0 0 0 0 192.70757873698312 75.445932523440206 0 75.445932523440206 208.44378287742362 0 0 0 0 209.20585581070918 -170.39792604995307 0 -170.39792604995307 192.11766125634404 0 0 0 0 137.59472706943052 -72.691808692171975 0 -72.691808692171975 58.810347763409084 0 0 0 0 -10.71765776493703 -161.22819019820463 0 -161.22819019820463 60.732447178031826 0 0 0 0 113.43783017035457 -129.18426782087533 0 -129.18426782087533 31.872819489191443 0 0 0 0 -17.057877601619111 -102.231053515083 0 -102.231053515083 53.744567033975244 0 0 0 0 79.293220556515735 -124.80968013784116 0 -124.80968013784116 28.050752679208472 0 0 0 0 40.643985298491316 -54.356356961951406 0 -54.356356961951406 -4.7497585667026669 0 0 0 0 93.629917858575936 -125.11576985754118 0 -125.11576985754118 15.849305621282344 0 0 0 0 98.792268732315279 -111.43578848288632 0 -111.43578848288632 15.797876006761953 0 0 0 0 226.76324467663653 -123.10749326770508 0 -123.10749326770508 -29.147437369356794 0 0 0 0 122.5861572304857 -146.00204765427861 0 -146.00204765427861 60.943109212060399 0 0 0 0 65.738895662958384 -65.663501435438206 0 -65.663501435438206 -48.758871152215306 0 0 0 0 186.0964745467063 -62.917727981594908 0 -62.917727981594908 -241.19815730337723 0 0 0 0 146.82239758702053 -76.22491888311788 0 -76.22491888311788 -56.433186523085851 0 0 0 0 115.47697640699334 -108.17377103185572 0 -108.17377103185572 -104.71435655863297 0 0 0 0 111.62472826733574 -77.81796133019543 0 -77.81796133019543 -30.637668848560224 0 0 0 0 93.686941507010488 -116.84970615657483 0 -116.84970615657483 -16.097710846003793 0 0 0 0 171.59289910727239 56.529694537346927 0 56.529694537346927 -118.37802684366852 0 0 0 0 323.72061297224718 123.74090480289226 0 123.74090480289226 -90.721558948709685 0 0 0 0 163.23214982644822 33.723487099795193 0 33.723487099795193 -121.69057886094652 0 0 0 0 251.03572098747827 -16.658260434771194 0 -16.658260434771194 -92.936447238529013 0 0 0 0 381.17475496405677 36.76479998657345 0 36.76479998657345 -71.592015844652821 0 0 0 0 206.82540439260265 -90.122904002832698 0 -90.122904002832698 33.743683299530176 0 0 0 0 335.29872025660734 19.090352855996869 0 19.090352855996869 10.179806826568324 0 0 0 0 784.47027102090942 80.113658466990046 0 80.113658466990046 -10.682031696180502 0 0 0 0 337.0566122137825 -39.971482152243425 0 -39.971482152243425 44.889355186690011 0 0 0 0 511.63580699441809 -241.23024966607147 0 -241.23024966607147 272.29361162902433 0 0 0 0 211.86179082423041 -13.387869331322236 0 -13.387869331322236 599.58591209614929 0 0 0 0 371.88705345430935 370.99067599814975 0 370.99067599814975 356.45956499146951 0 0 0 0 772.31704086755053 -287.83384269868088 0 -287.83384269868088 33.565113413746531 0 0 0 0 509.73322687424661 311.04671000359514 0 311.04671000359514 293.22234444040078 0 0 0 0 210.52319321849791 77.830915804506503 0 77.830915804506503 122.24510589069405 0 0 0 0 137.51449149455993 198.00520282348501 0 198.00520282348501 -5.4453654170524715 0 0 0 0 83.11742687440892 -395.7062717096731 0 -395.7062717096731 -62.300451494105801 0 0 0 0 565.61117560740968 -209.64169704871506 0 -209.64169704871506 8.9552968470252381 0 0 0 0 4.0608158096540592 -1.1438310659824111 0 -1.1438310659824111 -0.58587861500282656 0 0 0 0 883.5322021067841 143.293014503829 0 143.293014503829 49.815982832660666 0 0 0 0 327.40698966346827 150.71062925318029 0 150.71062925318029 85.325703274613261 0 0 0 0 8.1176209836717135 -2.6301579718611663 0 -2.6301579718611663 -0.91294375134449446 0 0 0 0 58.919807029800722 -74.461259316550468 0 -74.461259316550468 -154.63692053118893 0 0 0 0 114.49333133788605 93.425750267207604 0 93.425750267207604 -5.9252859983280359 0 0 0 0 159.68261656113282 52.325273933740561 0 52.325273933740561 -33.797055977405762 0 0 0 0 159.92520321017582 44.962015394220202 0 44.962015394220202 60.234287468518232 0 0 0 0 229.08116005017655 121.27471536396479 0 121.27471536396479 -13.769102583089989 0 0 0 0 186.14109465274669 -16.018155505861614 0 -16.018155505861614 -43.547977073730181 0 0 0 0 172.53638888560818 122.64816737272668 0 122.64816737272668 27.000640427258986 0 0 0 0 8.0641510602864059 -2.364995783746366 0 -2.364995783746366 -1.3274241401579623 0 0 0 0 152.15982037810318 155.18871874282718 0 155.18871874282718 3.7182067791367217 0 0 0 0 169.77848020695819 89.925559948744649 0 89.925559948744649 154.31310646808925 0 0 0 0 301.92851403588429 235.116899655221 0 235.116899655221 63.22081095814292 0 0 0 0 178.7466784675853 215.17586109741535 0 215.17586109741535 130.42742582161759 0 0 0 0 139.19434384696797 20.893344849031223 0 20.893344849031223 6.7668098408353217 0 0 0 0 186.07401953369117 150.30787309790179 0 150.30787309790179 228.66986044935175 0 0 0 0 263.81239592414204 49.189098902079934 0 49.189098902079934 28.526684615452723 0 0 0 0 388.46583450532489 31.790445526838312 0 31.790445526838312 -44.373643177402755 0 0 0 0 446.63609328671009 127.73504370815431 0 127.73504370815431 43.778293264254444 0 0 0 0 130.68291208632581 37.805094446631074 0 37.805094446631074 60.764011297348816 0 0 0 0 0.1831543217999112 -0.54323129213599941 0 -0.54323129213599941 2.1690675349216537 0 0 0 0 -68.326002045272617 -273.44531803799106 0 -273.44531803799106 -93.278876144686279 0 0 0 0 372.06145162004395 69.630834142738905 0 69.630834142738905 -9.0052731145610778 0 0 0 0 268.81383136623481 -31.602173096050933 0 -31.602173096050933 -53.107071876777354 0 0 0 0 14.214424183949575 -14.918560743160896 0 -14.918560743160896 5.8651883393184203 0 0 0 0 -61.377688223743462 -156.0908595175971 0 -156.0908595175971 152.3290197809747 0 0 0 0 550.61833311256487 -104.13997084171888 0 -104.13997084171888 76.640889042497292 0 0 0 0 278.78270664905722 86.39478703672421 0 86.39478703672421 -54.633698372997983 0 0 0 0 144.4871031451039 99.3923723751127 0 99.3923723751127 349.44567486520964 0 0 0 0 701.40705878470908 254.82793002752533 0 254.82793002752533 123.38300853493411 0 0 0 0 948.6816088562482 -105.19923194684748 0 -105.19923194684748 -17.534106579112631 0 0 0 0 219.59779793366397 -19.289890930583397 0 -19.289890930583397 -22.825062193817757 0 0 0 0 47.146491394931218 158.00638777552695 0 158.00638777552695 69.097667644790818 0 0 0 0 385.64146309339048 259.8227051531145 0 259.8227051531145 193.72049719719598 0 0 0 0 280.85328392898373 137.55746516522095 0 137.55746516522095 119.58884485369526 0 0 0 0 14.665513777086744 139.68316460524602 0 139.68316460524602 181.56311895500596 0 0 0 0 1.4626348568100411 1.7150827103150164 0 1.7150827103150164 3.6482492759390901 0 0 0 0 157.39881397142017 -60.014359268079716 0 -60.014359268079716 -14.263916716090534 0 0 0 0 371.92955381810316 109.3600417026546 0 109.3600417026546 112.6273433891547 0 0 0 0 381.08337045073858 80.381340739123516 0 80.381340739123516 -6.2605432105447107 0 0 0 0 4.1468240658410309 -0.84220487886446449 0 -0.84220487886446449 -1.135179805168768 0 0 0 0 607.66723500852822 -2.3153694424395326 0 -2.3153694424395326 -176.37627506880563 0 0 0 0 517.20404159742611 291.2095678630252 0 291.2095678630252 106.87699881117169 0 0 0 0 353.55448961955153 -13.965957167988194 0 -13.965957167988194 17.097027543395598 0 0 0 0 -122.66391845236649 -13.371607774507083 0 -13.371607774507083 273.04296247233651 0 0 0 0 4.0048787219546398 5.7109630012598416 0 5.7109630012598416 8.0462681409073369 0 0 0 0 358.36971912853187 -78.713772772803992 0 -78.713772772803992 14.8736426826963 0 0 0 0 325.93329142111179 -21.764718785468858 0 -21.764718785468858 -2.6993032460832183 0 0 0 0 291.21717019897915 -94.780894835963636 0 -94.780894835963636 34.526924958134259 0 0 0 0 872.8051368392189 -653.81298737515772 0 -653.81298737515772 -213.0968305386989 0 0 0 0 157.95626418280881 -40.220355902145457 0 -40.220355902145457 37.2498088206803 0 0 0 0 905.26077558330462 25.57635529132088 0 25.57635529132088 -168.479156782274 0 0 0 0 244.64175935718595 152.42284611551872 0 152.42284611551872 34.461049051846203 0 0 0 0 85.194986854185117 97.327522042341116 0 97.327522042341116 78.455941852173055 0 0 0 0 257.68870729362243 117.3458406898194 0 117.3458406898194 24.811626727638213 0 0 0 0 257.45538266100539 109.13292647632377 0 109.13292647632377 125.87733534323525 0 0 0 0 261.96220257066307 92.860872643901985 0 92.860872643901985 22.810619481059803 0 0 0 0 509.40706989547471 173.78476199432589 0 173.78476199432589 24.716689866286288 0 0 0 0 507.22270688106073 -99.207028249795712 0 -99.207028249795712 63.552244213942686 0 0 0 0 376.06530088410364 -22.092219408685196 0 -22.092219408685196 5.762642095955016 0 0 0 0 278.93815358157735 18.56187298414352 0 18.56187298414352 -10.899831297233504 0 0 0 0 344.04391755644428 112.88295731774031 0 112.88295731774031 -9.7395938818217473 0 0 0 0 230.77673411963042 92.135576078002487 0 92.135576078002487 -6.7338856063761341 0 0 0 0 229.97036868164287 90.244928035789371 0 90.244928035789371 -9.144964914904449 0 0 0 0 177.52257769479183 96.710610302864552 0 96.710610302864552 -1.5218225847438589 0 0 0 0 206.68796218807984 105.73912206063483 0 105.73912206063483 -11.364926936699703 0 0 0 0 231.45412562061392 67.992753860669609 0 67.992753860669609 -16.028365780886816 0 0 0 0 186.87328631227138 68.405535497776327 0 68.405535497776327 -15.839199646675638 0 0 0 0 281.21933693968458 88.625877242227943 0 88.625877242227943 -21.668348105738005 0 0 0 0 287.57676437929149 14.62525975433681 0 14.62525975433681 -19.839387312438703 0 0 0 0 267.33541895149392 31.829653910832349 0 31.829653910832349 -33.917677148183429 0 0 0 0 229.39515117296833 26.455312572331422 0 26.455312572331422 -32.982116114638302 0 0 0 0 221.56881377196987 21.597524614839131 0 21.597524614839131 -35.857002678173558 0 0 0 0 213.2228254332731 12.159094513520358 0 12.159094513520358 -22.61242868545196 0 0 0 0 187.53762378994725 7.5631991304007897 0 7.5631991304007897 -21.023943052778122 0 0 0 0 222.59031809996623 45.915137202102642 0 45.915137202102642 -9.0546851449471433 0 0 0 0 158.37829502220848 36.715453347230323 0 36.715453347230323 -10.092727689820777 0 0 0 0 135.55340183668886 72.042253629207153 0 72.042253629207153 16.085506119382586 0 0 0 0 174.96343565458665 100.71816469325404 0 100.71816469325404 -2.7140328142290855 0 0 0 0 190.67708034346288 83.395500297424519 0 83.395500297424519 15.700291772520359 0 0 0 0 710.85088151393575 -233.792135347353 0 -233.792135347353 78.489846961525473 0 0 0 0 4.8473064425482164 6.0202283884403869 0 6.0202283884403869 6.354917162636827 0 0 0 0 123.99818833990867 10.369442193633972 0 10.369442193633972 -6.511665513202388 0 0 0 0 3.6514558746467003 3.5815013938154152 0 3.5815013938154152 4.3510024803412541 0 0 0 0 106.68412837822689 -67.877862061495762 0 -67.877862061495762 34.083542627438874 0 0 0 0 882.84305750590283 255.66948961430262 0 255.66948961430262 -65.961067594555061 0 0 0 0 153.25728466219152 9.3107574715927512 0 9.3107574715927512 -39.842626283397294 0 0 0 0 150.10732961591566 -55.715192907453456 0 -55.715192907453456 29.156204018745484 0 0 0 0 129.84066420790623 -27.326709654916158 0 -27.326709654916158 16.53977381574623 0 0 0 0 235.61522881308338 -79.932149386982019 0 -79.932149386982019 36.139556740109128 0 0 0 0 250.64290273326333 10.204294496975308 0 10.204294496975308 -15.990742142305862 0 0 0 0 246.70280295828707 -4.8940541452375328 0 -4.8940541452375328 -25.568163754870511 0 0 0 0 221.11538459049189 8.335366463862556 0 8.335366463862556 -30.592003904873309 0 0 0 0 233.67365195345519 0.42292211297115045 0 0.42292211297115045 -40.290090861250064 0 0 0 0 201.51820056201541 -26.960111275024246 0 -26.960111275024246 -18.545137342225644 0 0 0 0 183.24763405395788 4.9386335719000272 0 4.9386335719000272 -34.070943387372608 0 0 0 0 210.51411203290991 3.1915538874443428 0 3.1915538874443428 -44.270025980573337 0 0 0 0 2.2376271468657194 2.1708357970460099 0 2.1708357970460099 1.8394543565353061 0 0 0 0 60.535740374441957 -39.767383727809829 0 -39.767383727809829 -20.255479948855282 0 0 0 0 173.68259401389878 -19.215090353362029 0 -19.215090353362029 -66.158198128353433 0 0 0 0 547.17731116138748 -487.23262618501076 0 -487.23262618501076 -19.320016789356032 0 0 0 0 238.60209467842651 -159.91804168118779 0 -159.91804168118779 -25.471945117513314 0 0 0 0 99.074629879338318 -137.71546571777344 0 -137.71546571777344 28.547183440841764 0 0 0 0 186.15754917825961 -100.00574628445261 0 -100.00574628445261 -5.6693260721986007 0 0 0 0 185.84551070519956 -105.7032382081361 0 -105.7032382081361 7.0657339847439289 0 0 0 0 133.66340355321881 -86.898334057796092 0 -86.898334057796092 2.856767456896705 0 0 0 0 161.10225493484177 -64.384030362742124 0 -64.384030362742124 12.241852281787942 0 0 0 0 255.66935470797034 75.574521413698449 0 75.574521413698449 -67.635456727479323 0 0 0 0 327.7296951496246 -36.738858928468289 0 -36.738858928468289 -40.611510407187325 0 0 0 0 434.24353740736842 -175.75454200775584 0 -175.75454200775584 73.474645047135709 0 0 0 0 665.72483734773414 52.055800196928431 0 52.055800196928431 -69.890328943404484 0 0 0 0 329.75285144004738 -52.411125222130977 0 -52.411125222130977 -7.2443411556865271 0 0 0 0 397.12680871989869 313.95749754243661 0 313.95749754243661 97.744445563487716 0 0 0 0 159.5887229390064 133.88052972922469 0 133.88052972922469 2.8565717813489755 0 0 0 0 9.4439669192652218 -15.491587339219222 0 -15.491587339219222 57.114249315613733 0 0 0 0 48.392615364529775 69.62235286433679 0 69.62235286433679 -37.594984139606822 0 0 0 0 143.17969937404268 150.00285527675169 0 150.00285527675169 10.813684948035416 0 0 0 0 152.43819247129431 117.21630925420664 0 117.21630925420664 -46.120829474845777 0 0 0 0 123.83029815128248 134.45103986413142 0 134.45103986413142 -24.421312308206325 0 0 0 0 295.81771824588213 102.53632256066476 0 102.53632256066476 -71.849382588519802 0 0 0 0 212.54686652403325 186.52533142226002 0 186.52533142226002 -10.376554480151299 0 0 0 0 210.6674908563873 121.02635982420998 0 121.02635982420998 -85.844914012684058 0 0 0 0 171.78756902751047 102.89066253277088 0 102.89066253277088 -66.581415899325293 0 0 0 0 217.80968168627442 103.25940155782109 0 103.25940155782109 -43.2791793926026 0 0 0 0 172.22095628383977 66.470049790862504 0 66.470049790862504 -61.014275517690294 0 0 0 0 67.954851877555484 74.630910308484999 0 74.630910308484999 -100.26776038651951 0 0 0 0 65.424849406979774 -33.278466155701949 0 -33.278466155701949 -166.25051491815429 0 0 0 0 125.10917864700605 -314.68245451314488 0 -314.68245451314488 -307.5566418717026 0 0 0 0 -73.870976849051658 -58.848981529889898 0 -58.848981529889898 -34.848779953970734 0 0 0 0 170.99295036621334 -78.041864250011258 0 -78.041864250011258 -37.880116448866829 0 0 0 0 213.96907729876693 35.178944563390587 0 35.178944563390587 -99.319546927032206 0 0 0 0 108.69006141906721 12.530830351906843 0 12.530830351906843 -51.46783906054543 0 0 0 0 5495.0751058466758 -1486.2117454340466 0 -1486.2117454340466 -512.09272770390396 0 0 0 0 2286.560426642056 -1066.6541639367906 0 -1066.6541639367906 -122.77888470017714 0 0 0 0 3603.5324881065917 1555.615288312772 0 1555.615288312772 -37.667589398035616 0 0 0 0 58.276005835690341 46.459511419433937 0 46.459511419433937 34.051160675451449 0 0 0 0 -1169.8756683759566 1223.6672348375178 0 1223.6672348375178 3004.4770548658676 0 0 0 0 23.220906413406254 17.769545083873425 0 17.769545083873425 17.308562221166518 0 0 0 0 439.40070405637016 18.474312613283018 0 18.474312613283018 -437.94877411726702 0 0 0 0 -230.73719941070885 1063.378752204384 0 1063.378752204384 -734.83491973818741 0 0 0 0 471.0642986142775 -68.095766338308295 0 -68.095766338308295 834.52407324964224 0 0 0 0 667.75451054649602 912.3906884891303 0 912.3906884891303 1025.7801552646361 0 0 0 0 562.76830847704696 96.394208468331271 0 96.394208468331271 -101.68127288065443 0 0 0 0 500.72349543780729 129.86291542136269 0 129.86291542136269 -111.67402830976971 0 0 0 0 3.629022779345803 -3.0203282514869443 0 -3.0203282514869443 -1.9261557723120433 0 0 0 0 314.49661680259305 -98.737688092571261 0 -98.737688092571261 -389.74771493493427 0 0 0 0 73.100324285261991 59.142500717667502 0 59.142500717667502 39.984181845336494 0 0 0 0 1204.3715486543879 829.37456137365973 0 829.37456137365973 5.6780439981108088 0 0 0 0 91.910719507637623 44.089320805838952 0 44.089320805838952 -208.4801069731966 0 0 0 0 24.920634453941602 472.50899388532616 0 472.50899388532616 -609.87377494883094 0 0 0 0 94.386368852312444 24.212886074556081 0 24.212886074556081 -168.71794695047799 0 0 0 0 168.76584186042601 -5.5914337296335361 0 -5.5914337296335361 -108.1531782594345 0 0 0 0 109.61890741442039 51.039434397906916 0 51.039434397906916 -151.58810287239794 0 0 0 0 192.76492977468297 86.82305826137349 0 86.82305826137349 -2.6330567736040393 0 0 0 0 149.98697860570974 -108.01619929550998 0 -108.01619929550998 -220.30099852518924 0 0 0 0 172.53914447757415 -48.490780817297264 0 -48.490780817297264 -115.45683806250963 0 0 0 0 30.663743388271541 -210.27934486573122 0 -210.27934486573122 -355.78020351919258 0 0 0 0 56.524938417227531 -106.36479946485656 0 -106.36479946485656 -117.74867750320664 0 0 0 0 4.6729016515285764 -4.1038720644750413 0 -4.1038720644750413 -1.0730439875477593 0 0 0 0 313.08137758378143 -35.563582025268715 0 -35.563582025268715 -132.8332385229196 0 0 0 0 153.6634025467938 -106.8633992592072 0 -106.8633992592072 -144.66066481356756 0 0 0 0 117.20857161079766 -79.011430770229708 0 -79.011430770229708 -120.71363492606838 0 0 0 0 162.98579399257142 -71.081790430250294 0 -71.081790430250294 -83.564193156233159 0 0 0 0 -113.07487560977461 -180.46829705370783 0 -180.46829705370783 -79.268764929402096 0 0 0 0 4.5747358299476844 -5.2921730345810261 0 -5.2921730345810261 -24.760174540095079 0 0 0 0 305.97359172065626 134.40662506240341 0 134.40662506240341 -31.575760434422591 0 0 0 0 14.539326938481111 -14.480676725392129 0 -14.480676725392129 3.3559391923925084 0 0 0 0 30.3338282891782 -208.28589611015946 0 -208.28589611015946 -142.43203939428292 0 0 0 0 190.7493191980393 120.10707709881717 0 120.10707709881717 -25.621560023004349 0 0 0 0 202.05634121071489 -54.202635405560613 0 -54.202635405560613 -125.00992659588428 0 0 0 0 184.37394314563426 -69.39438463100123 0 -69.39438463100123 -80.238233429819957 0 0 0 0 5.1184898224753965 -4.5259764912608773 0 -4.5259764912608773 -30.854366236842477 0 0 0 0 109.16733422671678 -108.11704457482119 0 -108.11704457482119 -107.34684971495506 0 0 0 0 3.1463407328593576 -5.1333929188639331 0 -5.1333929188639331 -33.718105351182722 0 0 0 0 340.19536928992602 95.551107826288899 0 95.551107826288899 -105.69435827092639 0 0 0 0 -103.77459520047705 79.27868169292833 0 79.27868169292833 111.57748648815141 0 0 0 0 10.727261213919491 -10.530755942794116 0 -10.530755942794116 -3.2827605841802203 0 0 0 0 -92.63866329432949 -29.869497747887152 0 -29.869497747887152 69.011089737035945 0 0 0 0 36.0463157928898 -4.1240468291571233 0 -4.1240468291571233 -33.329521814661348 0 0 0 0 4.2969428742071614 59.214313596015927 0 59.214313596015927 65.975560599843448 0 0 0 0 90.028145399781351 90.267802210800937 0 90.267802210800937 57.40750921259496 0 0 0 0 116.51189151220751 81.343502673770217 0 81.343502673770217 -11.284892291761935 0 0 0 0 44.868468180102354 19.316489027031821 0 19.316489027031821 -1.813404602375158 0 0 0 0 38.520170320451143 54.430083412131353 0 54.430083412131353 12.209634696147987 0 0 0 0 64.61193206362077 61.848582225506107 0 61.848582225506107 -22.089891875822104 0 0 0 0 19.067342343604338 -1.6448660886531457 0 -1.6448660886531457 -14.154432815908727 0 0 0 0 188.31447133231995 13.955474900064019 0 13.955474900064019 -43.976399459307459 0 0 0 0 83.45322089389083 39.934918551427472 0 39.934918551427472 -7.0851394262326721 0 0 0 0 98.206930877116974 85.466504596425693 0 85.466504596425693 7.4768041000480707 0 0 0 0 167.18141624564305 123.43637681996825 0 123.43637681996825 16.527157135400586 0 0 0 0 124.29482552269474 83.802513555794121 0 83.802513555794121 18.575756302656373 0 0 0 0 61.064074723326485 54.622122692253924 0 54.622122692253924 12.561804760794985 0 0 0 0 110.83435592232854 100.06932413533923 0 100.06932413533923 9.3777368506634957 0 0 0 0 115.39618535892805 70.398445918158814 0 70.398445918158814 2.8166371440147486 0 0 0 0 152.21986765734619 96.042965744662069 0 96.042965744662069 3.3919292742424432 0 0 0 0 153.82475268331473 78.728375980814235 0 78.728375980814235 -13.154692070198507 0 0 0 0 131.93888215119659 86.610023724848475 0 86.610023724848475 3.9009535017503367 0 0 0 0 179.16800472015166 92.226224478010408 0 92.226224478010408 -10.711030233125712 0 0 0 0 173.32156898613903 99.629415005606006 0 99.629415005606006 12.942627169328262 0 0 0 0 189.76703355245991 117.72996254699137 0 117.72996254699137 26.807682502304488 0 0 0 0 200.41520550166024 91.83951515615081 0 91.83951515615081 -21.032101148109177 0 0 0 0 155.11884087901853 96.025353104746046 0 96.025353104746046 42.461424677536797 0 0 0 0 216.4616699150647 110.29161500081864 0 110.29161500081864 -4.167995499717108 0 0 0 0 191.7645544429688 12.68047482955069 0 12.68047482955069 -22.859738479193766 0 0 0 0 91.728240104577253 36.373313770749206 0 36.373313770749206 2.6489713578244607 0 0 0 0 199.38366014629719 185.36647543388142 0 185.36647543388142 -417.01529550747557 0 0 0 0 -80.780623890386778 118.33025886095947 0 118.33025886095947 -363.44161645670988 0 0 0 0 -24.382461687139823 34.710565697393243 0 34.710565697393243 19.280818852998472 0 0 0 0 81.200473784803762 53.559676795563064 0 53.559676795563064 13.960325470682619 0 0 0 0 63.973476325329699 24.552084369087979 0 24.552084369087979 -2.4622197649415805 0 0 0 0 83.434831446187673 63.724150194197989 0 63.724150194197989 -15.048941484733405 0 0 0 0 126.90409901973908 49.755180469824325 0 49.755180469824325 -14.568923290600651 0 0 0 0 86.24440170120215 56.507059497106638 0 56.507059497106638 6.0911693704902063 0 0 0 0 79.376117744650401 30.544340855820337 0 30.544340855820337 -29.100928108176049 0 0 0 0 70.349941602931722 38.605668339172894 0 38.605668339172894 42.55211461005365 0 0 0 0 84.585267954367623 34.749101630422103 0 34.749101630422103 -1.4794673317253153 0 0 0 0 142.36902777053183 138.09285074958939 0 138.09285074958939 -453.32540575057112 0 0 0 0 66.778360681550112 37.63591739971298 0 37.63591739971298 -12.662105699427229 0 0 0 0 27.150885887385812 -46.210582232657316 0 -46.210582232657316 -562.58323699066477 0 0 0 0 15.206460816177113 3.4614264684496732 0 3.4614264684496732 0.68872103523186023 0 0 0 0 280.92495301876625 70.283996283661907 0 70.283996283661907 -528.28260477976846 0 0 0 0 233.54858432758192 -7.9161059358974626 0 -7.9161059358974626 -384.797792343266 0 0 0 0 266.69728709089395 123.92710436663924 0 123.92710436663924 -460.34930553308232 0 0 0 0 295.98583652480738 61.823571341413071 0 61.823571341413071 -348.39540003551815 0 0 0 0 221.67484735982725 181.1251051573422 0 181.1251051573422 -431.77359615841681 0 0 0 0 11.787738049381005 92.957995173039876 0 92.957995173039876 -258.2970060611666 0 0 0 0 -13.090244843369874 19.114502847794455 0 19.114502847794455 -219.56459717118048 0 0 0 0 2.6013637330470374 -61.413162266806694 0 -61.413162266806694 -146.46031224615081 0 0 0 0 -10.625981931370916 -132.03980095451141 0 -132.03980095451141 -403.09316123574342 0 0 0 0 19.60350998838112 60.31671623809973 0 60.31671623809973 37.23099550572789 0 0 0 0 71.8053694080414 27.104400923127205 0 27.104400923127205 7.6246482574495271 0 0 0 0 45.689357228762674 5.3347049122857015 0 5.3347049122857015 105.03946762794112 0 0 0 0 155.28966128895991 136.00858501151743 0 136.00858501151743 -53.990540424943902 0 0 0 0 156.64101128331095 142.05174347608136 0 142.05174347608136 -27.223546520428499 0 0 0 0 20.481394652797732 3.5436285907994147 0 3.5436285907994147 -29.110799504366895 0 0 0 0 71.13667085129191 64.181940376835385 0 64.181940376835385 38.100583243648515 0 0 0 0 131.97000051196665 80.255735815917433 0 80.255735815917433 -72.287694997874496 0 0 0 0 135.11037954722997 100.37357633382089 0 100.37357633382089 47.237209872597305 0 0 0 0 235.91743993629643 2.8637189362052595 0 2.8637189362052595 -8.5943211027588404 0 0 0 0 155.43830978445476 113.14021094740929 0 113.14021094740929 -108.54948323842763 0 0 0 0 56.341823579699849 59.351758648399937 0 59.351758648399937 -1.1537437583065184 0 0 0 0 2.9634426121046999 187.18784921843871 0 187.18784921843871 -185.40187914251214 0 0 0 0 75.970360217546556 61.175776766412753 0 61.175776766412753 43.70625243833193 0 0 0 0 -138.04270348032878 186.63431370708167 0 186.63431370708167 5.7466824517923669 0 0 0 0 -160.6585998550654 53.132448214455962 0 53.132448214455962 306.42116122494872 0 0 0 0 111.45757311776106 -193.18632244317251 0 -193.18632244317251 426.31809030262127 0 0 0 0 206.67161230279635 181.55249766201146 0 181.55249766201146 68.566616698074085 0 0 0 0 117.18730146264716 -153.44739347702443 0 -153.44739347702443 116.39605555676894 0 0 0 0 48.749775205207385 15.956431121601337 0 15.956431121601337 5.37817445376563 0 0 0 0 22.338511042948085 -44.632118565553583 0 -44.632118565553583 -0.99377933194409707 0 0 0 0 134.40646393786301 127.82567600007509 0 127.82567600007509 -166.86717713981659 0 0 0 0 62.049199791533283 20.257585633927569 0 20.257585633927569 6.5526844989860029 0 0 0 0 19.76110431323832 94.965198576904356 0 94.965198576904356 -98.992020938717758 0 0 0 0 -12.037682322334149 -46.329354455837375 0 -46.329354455837375 -161.91675999759985 0 0 0 0 58.978764280960604 73.170732136331367 0 73.170732136331367 36.862554693263604 0 0 0 0 490.19396011268691 -29.387758392043878 0 -29.387758392043878 -85.476073190000108 0 0 0 0 -13.823965628849692 12.016203804038085 0 12.016203804038085 -29.313179429025098 0 0 0 0 81.706975111817883 69.535607219938356 0 69.535607219938356 -178.69002682469585 0 0 0 0 29.589373190763581 -653.40282135186135 0 -653.40282135186135 281.02148361518823 0 0 0 0 -43.160870484585757 218.88189598151962 0 218.88189598151962 746.49881327657954 0 0 0 0 229.3771227554862 -377.72722951219521 0 -377.72722951219521 -341.93888483679103 0 0 0 0 4.8019778895655065 1.880370215539557 0 1.880370215539557 0.29343878315283234 0 0 0 0 -353.0545271100782 116.81842474923286 0 116.81842474923286 -62.261736326210865 0 0 0 0 1298.9985124723898 1136.0251734318836 0 1136.0251734318836 -211.67376853711687 0 0 0 0 4.4468584514543466 2.7228087897611175 0 2.7228087897611175 -0.13985230805057997 0 0 0 0 -147.64244723864249 330.69791645324523 0 330.69791645324523 -412.16224365754073 0 0 0 0 5421.7965692085127 763.16267622599889 0 763.16267622599889 -688.8420492977699 0 0 0 0 5477.9708054042931 114.49057971813353 0 114.49057971813353 -841.88247747096455 0 0 0 0 2251.9661073516982 -1568.5107967654292 0 -1568.5107967654292 661.27428052541495 0 0 0 0 21.068643647078886 5.8690689224364405 0 5.8690689224364405 4.3191256453498141 0 0 0 0 103.55610572737351 951.7886262663153 0 951.7886262663153 1797.1577397022349 0 0 0 0 837.87719292779366 89.76490265500135 0 89.76490265500135 16.51583540597619 0 0 0 0 5503.1283071973248 -1138.9325284022534 0 -1138.9325284022534 -693.71062544631286 0 0 0 0 4365.4892357094523 -981.36042606762828 0 -981.36042606762828 552.13995788293948 0 0 0 0 3446.2524399793183 451.18566555686704 0 451.18566555686704 305.62866897060968 0 0 0 0 3631.9226230446329 -1767.4945424994037 0 -1767.4945424994037 -228.00326256494213 0 0 0 0 6.939543410469426 -2.1998602159719258 0 -2.1998602159719258 -0.4358300413965589 0 0 0 0 4790.1142612682343 -953.53006970289096 0 -953.53006970289096 -588.7007922510337 0 0 0 0 2072.8298344958966 -2174.3186397004856 0 -2174.3186397004856 -718.85954480768987 0 0 0 0 4770.8968347446335 -1452.8646498321737 0 -1452.8646498321737 -407.47753583667895 0 0 0 0 4779.0687903812668 -2196.2123690894155 0 -2196.2123690894155 723.54576697599634 0 0 0 0 20.160286081027408 0.80987552467237123 0 0.80987552467237123 0.82370828395069418 0 0 0 0 5489.1321215985117 -1640.9465961146432 0 -1640.9465961146432 -360.85262407765003 0 0 0 0 5454.9833903679955 -187.2066255531237 0 -187.2066255531237 -141.62834365409518 0 0 0 0 11.959594667153738 3.0097947538111995 0 3.0097947538111995 0.57273555888559802 0 0 0 0 77.544097197504016 118.3332681272318 0 118.3332681272318 113.20014125418609 0 0 0 0 160.29567599474831 281.80041938719847 0 281.80041938719847 371.26513298210955 0 0 0 0 57.432407173899264 73.228762166971549 0 73.228762166971549 -46.813854797237468 0 0 0 0 41.45655282265669 6.1556960835259815 0 6.1556960835259815 -1.3974686161921037 0 0 0 0 42.92566216699197 11.469821145934674 0 11.469821145934674 -33.402402079736561 0 0 0 0 23.302678939463959 6.5389039382805549 0 6.5389039382805549 0.71920900190855974 0 0 0 0 44.235358467553397 -57.886736873296897 0 -57.886736873296897 -3.0340031072339571 0 0 0 0 542.58191819410422 280.93781595027781 0 280.93781595027781 -616.22563736396989 0 0 0 0 -5.6605438996339217 -134.14311865384778 0 -134.14311865384778 -151.39126476889095 0 0 0 0 -51.024971042963443 -134.21865476447843 0 -134.21865476447843 -30.745712431947972 0 0 0 0 23.205904876854774 4.4237909304994005 0 4.4237909304994005 -1.5226708015499879 0 0 0 0 5.5284919548721518 -56.586325797640761 0 -56.586325797640761 -200.28257292187362 0 0 0 0 18.114544296248113 13.150161501269734 0 13.150161501269734 -0.71039126214999682 0 0 0 0 43.956582069540673 15.01036551174505 0 15.01036551174505 -22.45958630669827 0 0 0 0 -221.12046380616084 341.82148631183964 0 341.82148631183964 -459.33199089536049 0 0 0 0 -134.62613707145647 512.46163802166302 0 512.46163802166302 -381.44108766591717 0 0 0 0 23.76216630733596 14.460487912308263 0 14.460487912308263 2.8786663478047165 0 0 0 0 727.07845365854155 358.97996663513356 0 358.97996663513356 -1890.8761038968569 0 0 0 0 11.237250004668482 9.598365500844098 0 9.598365500844098 -1.6093516022652521 0 0 0 0 -130.76120877714857 724.99950322190784 0 724.99950322190784 -312.34885055570021 0 0 0 0 468.09273233957379 1023.0322600014171 0 1023.0322600014171 -105.39990995686549 0 0 0 0 571.36213725542621 -218.6661919382426 0 -218.6661919382426 277.41146897244141 0 0 0 0 -284.90650819155053 393.2840138988131 0 393.2840138988131 -4.0593930629379429 0 0 0 0 -202.60581177267886 92.370798875354922 0 92.370798875354922 938.22577591605841 0 0 0 0 -702.51846202904198 286.97345909663841 0 286.97345909663841 61.568133639744019 0 0 0 0 7.4995635899548194 2.6500632853782662 0 2.6500632853782662 0.46721858161912699 0 0 0 0 -4.8630748497635068 -13.927760262017046 0 -13.927760262017046 172.98976720795474 0 0 0 0 357.71399207044306 259.36445780719532 0 259.36445780719532 53.798779598365172 0 0 0 0 335.99277325484582 512.19873572678171 0 512.19873572678171 539.80988644620936 0 0 0 0 -112.32498298407154 50.925120273941275 0 50.925120273941275 538.96748620866038 0 0 0 0 194.04343530528422 -35.353110698896963 0 -35.353110698896963 43.705084431306148 0 0 0 0 27.065259113374992 15.414675323580227 0 15.414675323580227 4.8373415296885955 0 0 0 0 142.5350331003192 35.485869887829153 0 35.485869887829153 -73.951954934329478 0 0 0 0 274.69392126139428 -72.966121109325883 0 -72.966121109325883 -30.907040060290115 0 0 0 0 89.417251548722561 60.938675041622901 0 60.938675041622901 -7.0788473542368138 0 0 0 0 331.34005125048861 -14.81716167411102 0 -14.81716167411102 -17.868960523682802 0 0 0 0 21.650136209196148 12.519450057823548 0 12.519450057823548 0.51277033400633099 0 0 0 0 -57.717115192499477 -22.891996771128277 0 -22.891996771128277 56.312372185464511 0 0 0 0 19.27131321161869 16.485366451581285 0 16.485366451581285 -8.9176378019137701 0 0 0 0 5.8388796919853476 -0.47620890084925804 0 -0.47620890084925804 -2.579967325146761 0 0 0 0 36.978177152333956 8.215903957324322 0 8.215903957324322 -68.154266148565853 0 0 0 0 233.41026437388791 -153.05068624294998 0 -153.05068624294998 110.47718029295629 0 0 0 0 36.837515395469381 -0.3432463150665086 0 -0.3432463150665086 -4.5810006946203927 0 0 0 0 18.580213781609928 12.465463276209562 0 12.465463276209562 -0.069787102951522684 0 0 0 0 29.531080787587996 8.5585609343981517 0 8.5585609343981517 -8.7259825349970743 0 0 0 0 0.46751202167342853 -0.56517190163388875 0 -0.56517190163388875 -1.3080475180727131 0 0 0 0 -188.34856890874107 -225.03685610325164 0 -225.03685610325164 -170.61518030999866 0 0 0 0 -101.38953239029797 -123.56939503654812 0 -123.56939503654812 -52.929799082029831 0 0 0 0 -43.662183288564847 -166.2579544688883 0 -166.2579544688883 -162.12157949421925 0 0 0 0 576.49219660585368 69.899975957191884 0 69.899975957191884 -381.48601038060417 0 0 0 0 346.71440723865817 149.61439780940708 0 149.61439780940708 -197.59473487432706 0 0 0 0 400.69363910976972 -72.110818393271074 0 -72.110818393271074 -94.01286547712391 0 0 0 0 410.56797499263484 -52.53029726822524 0 -52.53029726822524 -80.117408728422674 0 0 0 0 484.63799289269082 17.011632649359939 0 17.011632649359939 156.40152549652544 0 0 0 0 586.53203742188634 -187.75385674986217 0 -187.75385674986217 -23.877984710028841 0 0 0 0 331.20332408626564 -238.45952742739473 0 -238.45952742739473 182.79134260853561 0 0 0 0 363.02634540281724 108.74990865614745 0 108.74990865614745 30.981007344878208 0 0 0 0 -2.5188892877545754 1.35802207000593 0 1.35802207000593 1.6228826899742315 0 0 0 0 2.9714290547388487 2.6036613496307002 0 2.6036613496307002 -0.10779797476035846 0 0 0 0 564.97768736555736 -262.35611284740264 0 -262.35611284740264 61.04382401312273 0 0 0 0 389.76796113169985 -279.61069445560469 0 -279.61069445560469 247.90677497233332 0 0 0 0 487.40748913781863 -227.47707832046672 0 -227.47707832046672 44.377541669711093 0 0 0 0 401.25096259023121 -265.83752842195031 0 -265.83752842195031 81.713946504069497 0 0 0 0 500.13218697033881 63.88544843117284 0 63.88544843117284 -328.98247974437811 0 0 0 0 290.03715231646493 29.236633459607219 0 29.236633459607219 -266.49345647125142 0 0 0 0 519.99499134784855 -82.966048101067429 0 -82.966048101067429 -264.1524116299347 0 0 0 0 302.42288967398054 148.70942067258494 0 148.70942067258494 -184.51403922435861 0 0 0 0 303.98451310799283 89.10307230181968 0 89.10307230181968 -335.62005758970236 0 0 0 0 144.54723153727537 359.23836336134019 0 359.23836336134019 -380.29209834621133 0 0 0 0 200.18290295505722 280.01408696535373 0 280.01408696535373 -344.48154431063904 0 0 0 0 77.651147957352805 69.929034230857269 0 69.929034230857269 34.235317969694734 0 0 0 0 -56.602307775998725 600.10170046872759 0 600.10170046872759 -495.24163622366927 0 0 0 0 119.65478948908532 70.231761431839317 0 70.231761431839317 18.875103810460963 0 0 0 0 320.31844266087865 402.79039320695279 0 402.79039320695279 -724.85016046207193 0 0 0 0 165.15717155426682 132.51488030433029 0 132.51488030433029 0.93747291417048473 0 0 0 0 -253.32162748453266 199.71085317572374 0 199.71085317572374 -120.62139555761746 0 0 0 0 350.25784895004472 149.77306686866939 0 149.77306686866939 -656.52896707821913 0 0 0 0 1123.7056111693892 594.76772319058466 0 594.76772319058466 -3.5810396738297356 0 0 0 0 406.87557390169968 630.66170624040728 0 630.66170624040728 17.981930505976379 0 0 0 0 1441.2644448191131 -34.093746226039798 0 -34.093746226039798 -153.7736628385083 0 0 0 0 559.15690810112937 -141.86462636995009 0 -141.86462636995009 -97.483942514389781 0 0 0 0 826.71298482374186 -702.60326913885797 0 -702.60326913885797 469.00291582110231 0 0 0 0 308.62579370044114 -251.65740430642455 0 -251.65740430642455 92.602122152295465 0 0 0 0 211.1569166482368 447.15547346721041 0 447.15547346721041 855.37191610466152 0 0 0 0 10.247981399012247 5.1219620761155582 0 5.1219620761155582 3.2753367488177045 0 0 0 0 1360.559287178774 630.24355412434443 0 630.24355412434443 453.15591396371474 0 0 0 0 1027.7229151783695 -447.83605508416298 0 -447.83605508416298 482.12177599484085 0 0 0 0 93.395017877664941 225.07016380184359 0 225.07016380184359 1146.3145461627553 0 0 0 0 453.50824738038136 -276.38635460626028 0 -276.38635460626028 287.25075380376438 0 0 0 0 263.34057716557436 -143.41637144326887 0 -143.41637144326887 376.57060604448725 0 0 0 0 701.5836486877306 -14.497721197687042 0 -14.497721197687042 277.7959815320246 0 0 0 0 500.57043401048577 300.50463708292455 0 300.50463708292455 399.9430166328757 0 0 0 0 376.02274580411904 249.21895721194323 0 249.21895721194323 417.88400728006764 0 0 0 0 270.66268769404633 -34.919292235429566 0 -34.919292235429566 275.91565585538774 0 0 0 0 130.29090114722385 108.77050996046933 0 108.77050996046933 482.43943479601148 0 0 0 0 333.77538110225214 -274.10207127058129 0 -274.10207127058129 280.32015960210811 0 0 0 0 222.41213135152066 -49.1883768433554 0 -49.1883768433554 306.35926144909899 0 0 0 0 7.8372529007177718 -2.0100043311999656 0 -2.0100043311999656 -2.2927964220806203 0 0 0 0 18.589556491388066 -176.19862242481361 0 -176.19862242481361 467.07115006329514 0 0 0 0 107.12704652834145 109.70417676544753 0 109.70417676544753 21.516102271940326 0 0 0 0 6.1626938375800364 4.1631406520182637 0 4.1631406520182637 -0.7405111315410835 0 0 0 0 -290.20521384829408 57.96398091575702 0 57.96398091575702 667.76955015064232 0 0 0 0 31.51500944892905 31.085605975655199 0 31.085605975655199 -308.75487598231484 0 0 0 0 750.32924618293328 -391.9339555518527 0 -391.9339555518527 -305.32657694407681 0 0 0 0 152.34015311460826 -50.078219628689112 0 -50.078219628689112 -82.495392688208085 0 0 0 0 887.66669510157953 256.26320423851212 0 256.26320423851212 -120.80249537040072 0 0 0 0 33.180788332965705 10.672950797537091 0 10.672950797537091 12.545262331968971 0 0 0 0 59.893918310917797 63.357353122297354 0 63.357353122297354 239.93321983013357 0 0 0 0 105.22269868058811 -34.702020249109182 0 -34.702020249109182 33.500265301117906 0 0 0 0 185.61475849011185 7.7499572081596853 0 7.7499572081596853 125.13635498155099 0 0 0 0 131.4494197159222 145.55157646937221 0 145.55157646937221 67.447739181572615 0 0 0 0 48.725228123454954 -8.4566751106821592 0 -8.4566751106821592 27.546982126341604 0 0 0 0 68.831903567430658 47.563756840742066 0 47.563756840742066 42.003272856367609 0 0 0 0 -13.24089902963442 85.394144828649871 0 85.394144828649871 81.310658558265771 0 0 0 0 -62.639099815894951 -21.792118533532232 0 -21.792118533532232 138.56504916685182 0 0 0 0 -3.6097781515827592 -98.788397835415694 0 -98.788397835415694 216.46259772094231 0 0 0 0 -29.411550456178702 37.618370703026017 0 37.618370703026017 614.98776151941456 0 0 0 0 -34.912082325748997 34.210537902007218 0 34.210537902007218 691.4249081629896 0 0 0 0 290.88126123411348 207.59557130896928 0 207.59557130896928 457.13056152589138 0 0 0 0 99.059510868606594 347.93578812161195 0 347.93578812161195 614.99172351832931 0 0 0 0 182.67309740831479 424.74931247024188 0 424.74931247024188 593.5924623479541 0 0 0 0 613.50393838906257 594.62394042460585 0 594.62394042460585 493.14143055427303 0 0 0 0 166.50288018718857 492.578825035921 0 492.578825035921 921.03591955626598 0 0 0 0 -0.19650476157992181 -2.7207040811537837 0 -2.7207040811537837 1.0564289620850769 0 0 0 0 -1330.5163814304933 -289.50611420309338 0 -289.50611420309338 988.80121627289645 0 0 0 0 -63.284853015909903 -61.082898978960657 0 -61.082898978960657 702.78834759012079 0 0 0 0 726.81055977123287 940.69921735960224 0 940.69921735960224 1693.5945882316289 0 0 0 0 78.400413522475446 -569.69653387086828 0 -569.69653387086828 1924.1649074334227 0 0 0 0 737.93794229552805 -349.63489861230488 0 -349.63489861230488 -123.90423324338917 0 0 0 0 3684.2004448297776 -444.46204596307945 0 -444.46204596307945 -248.3468767426958 0 0 0 0 19.011589610204098 13.09712749418882 0 13.09712749418882 12.689450658147349 0 0 0 0 -128.7473389976858 -32.695870371576817 0 -32.695870371576817 666.25022310738109 0 0 0 0 29.038948743933361 337.93415368639228 0 337.93415368639228 -57.428461128366166 0 0 0 0 45.815056460225648 37.332964979370672 0 37.332964979370672 28.783639266756794 0 0 0 0 82.372410273299465 -21.545063643978757 0 -21.545063643978757 289.42137131293811 0 0 0 0 104.94143640630136 -86.081165116706501 0 -86.081165116706501 80.633993548684344 0 0 0 0 819.91565838755332 155.6179578519789 0 155.6179578519789 283.85992038272548 0 0 0 0 574.84855843672267 515.35932937577593 0 515.35932937577593 138.17681659180019 0 0 0 0 -2.2840756960388013 -1.0885782187994266 0 -1.0885782187994266 1.5555678164894191 0 0 0 0 942.89061109260342 657.88135453605571 0 657.88135453605571 410.28637979780615 0 0 0 0 943.60085426437581 92.468411904589345 0 92.468411904589345 125.30937816306414 0 0 0 0 3474.6031628797227 526.45002381517543 0 526.45002381517543 -261.37464641660512 0 0 0 0 3621.7442033296065 250.65727770285551 0 250.65727770285551 -243.18740554150139 0 0 0 0 2836.9191461873106 1666.0855947647187 0 1666.0855947647187 739.52848502197435 0 0 0 0 3378.2691046872901 1186.5551689170218 0 1186.5551689170218 -477.07042032819027 0 0 0 0 5502.1559927861344 1262.7770568588048 0 1262.7770568588048 -673.66079108934264 0 0 0 0 3960.9636179549107 912.96315238976638 0 912.96315238976638 -231.62223944318129 0 0 0 0 5495.875627883358 -334.469028276622 0 -334.469028276622 780.15982662109684 0 0 0 0 27.300202396480017 -40.72413043990673 0 -40.72413043990673 37.188631165789957 0 0 0 0 171.35676949853951 -17.936413200432526 0 -17.936413200432526 3.3107906554519104 0 0 0 0 189.11034556946834 -34.889787516732213 0 -34.889787516732213 -6.0155993722273706 0 0 0 0 142.47598340669356 -48.294362396937231 0 -48.294362396937231 7.8742906568114677 0 0 0 0 73.810952418629313 -15.393495564562272 0 -15.393495564562272 26.663801076204436 0 0 0 0 79.544158819160657 -46.542020022867291 0 -46.542020022867291 22.10664263015542 0 0 0 0 73.378872887722991 -31.951618629125655 0 -31.951618629125655 9.857981113801543 0 0 0 0 31.5767618574464 -39.9786895124289 0 -39.9786895124289 9.8287951468197861 0 0 0 0 5.9033296050200761 -1.4657868723473371 0 -1.4657868723473371 2.7734439306075451 0 0 0 0 25.059436790717882 -23.423010841162977 0 -23.423010841162977 7.378810020723904 0 0 0 0 206.96611518116697 -349.08738888694177 0 -349.08738888694177 559.00075226260833 0 0 0 0 12.068853062022129 -3.8575059499656277 0 -3.8575059499656277 3.0318061856682679 0 0 0 0 1330.0656029917009 819.83664388902798 0 819.83664388902798 705.46177251681047 0 0 0 0 252.8817674877464 -516.25735154656854 0 -516.25735154656854 1167.6213866684029 0 0 0 0 1207.5783405049006 -797.16706873740077 0 -797.16706873740077 476.04893128240747 0 0 0 0 399.36961532633359 -325.66285860388831 0 -325.66285860388831 236.02002688978428 0 0 0 0 542.13333649578271 -555.96036145212383 0 -555.96036145212383 -100.83422079012053 0 0 0 0 350.39203235790501 -653.38381175118775 0 -653.38381175118775 303.64156955649469 0 0 0 0 705.53994350491848 -542.76419092962942 0 -542.76419092962942 -352.44005101975927 0 0 0 0 383.19795577495825 -266.32248223043098 0 -266.32248223043098 82.87584764509802 0 0 0 0 328.02976900523936 236.71840075759337 0 236.71840075759337 -1279.1234246152708 0 0 0 0 169.58436966047157 -73.497913403580696 0 -73.497913403580696 -363.58740719141315 0 0 0 0 409.83741799629934 -498.79245012075171 0 -498.79245012075171 -356.75503539852434 0 0 0 0 -197.97361581254518 14.312971105752695 0 14.312971105752695 -411.88850274109382 0 0 0 0 29.994390768007747 4.3166419680330534 0 4.3166419680330534 -2.1548711196787345 0 0 0 0 57.710071989087737 9.8465171125308188 0 9.8465171125308188 -85.469099039702996 0 0 0 0 1.0617164431173478 5.175839894783639 0 5.175839894783639 -1.7331736387920458 0 0 0 0 2.8257305045256658 0.55339639578050992 0 0.55339639578050992 0.031099258748712444 0 0 0 0 9.9168981537810055 -0.52577403854189342 0 -0.52577403854189342 -0.27053832784986476 0 0 0 0 300.26338511706854 -529.94904080858987 0 -529.94904080858987 -238.38914383835981 0 0 0 0 47.360286594241188 178.71674190860426 0 178.71674190860426 263.90401188247051 0 0 0 0 941.24661722491146 271.36747648422897 0 271.36747648422897 78.129202983656796 0 0 0 0 -49.272726367140422 -302.44543304173112 0 -302.44543304173112 463.14800864080098 0 0 0 0 1214.4573564111488 -169.941384977692 0 -169.941384977692 -31.180061961367755 0 0 0 0 380.80023223112221 2.8186948523507454 0 2.8186948523507454 214.56634795619539 0 0 0 0 581.10133989376482 -1115.0943697526136 0 -1115.0943697526136 -25.683570116838382 0 0 0 0 5.6511938908811317 7.4380423529698305 0 7.4380423529698305 9.1623475224870887 0 0 0 0 1099.7838126345014 30.874413245108371 0 30.874413245108371 -9.196769819362089 0 0 0 0 -25.858760671268101 5.2747887239020201 0 5.2747887239020201 33.157001985039074 0 0 0 0 6.2783333616644086 -122.67403834880861 0 -122.67403834880861 56.194388653482747 0 0 0 0 307.27154988698021 -199.70548821237571 0 -199.70548821237571 -59.243414703371855 0 0 0 0 281.59847257280489 2.3598757327836211 0 2.3598757327836211 -58.07172983493092 0 0 0 0 458.59746488942619 76.084120554230367 0 76.084120554230367 -31.173158209763642 0 0 0 0 434.57000945773325 260.27990266556208 0 260.27990266556208 166.02965496231445 0 0 0 0 60.298438991783769 20.872776393393906 0 20.872776393393906 165.86987327472525 0 0 0 0 7.3654445855402457 9.0248074382173513 0 9.0248074382173513 11.601101717829795 0 0 0 0 -21.853762755461503 98.682605600220541 0 98.682605600220541 77.89087172715881 0 0 0 0 320.71019140645512 167.07176875244477 0 167.07176875244477 69.267178369588692 0 0 0 0 136.16012262602453 152.9479991745784 0 152.9479991745784 89.146919704300672 0 0 0 0 131.04854905118464 19.273402208634124 0 19.273402208634124 34.283231326564419 0 0 0 0 172.26401742344024 -12.358215704254235 0 -12.358215704254235 -21.314774539620885 0 0 0 0 168.24649456571206 30.644171475518306 0 30.644171475518306 13.395894403754028 0 0 0 0 214.47426862875 24.063489784125068 0 24.063489784125068 9.7497473885068757 0 0 0 0 192.96459984148623 18.56457629981864 0 18.56457629981864 33.408852140442832 0 0 0 0 188.56685336609371 66.344291569586858 0 66.344291569586858 72.207824571446508 0 0 0 0 287.6839477816975 65.177809998477187 0 65.177809998477187 47.403875582752789 0 0 0 0 215.78210908093024 72.661664064678007 0 72.661664064678007 115.63847029689168 0 0 0 0 211.68020675884327 35.801541390780585 0 35.801541390780585 128.35137107655009 0 0 0 0 213.88238260100479 34.929612858915789 0 34.929612858915789 82.369807862039806 0 0 0 0 215.55970678826634 78.022033123889543 0 78.022033123889543 72.893021432430032 0 0 0 0 286.39994768687757 88.599729185662909 0 88.599729185662909 40.184370288359332 0 0 0 0 202.01268796235672 68.42531196690561 0 68.42531196690561 67.520561014834584 0 0 0 0 192.76340614547007 109.07216721309169 0 109.07216721309169 58.703522974821681 0 0 0 0 144.66550629863923 28.183023132818562 0 28.183023132818562 1.8583593597995787 0 0 0 0 147.08876761328429 27.614565186487198 0 27.614565186487198 -4.353508928613337 0 0 0 0 140.31265530260862 23.870233984631341 0 23.870233984631341 -1.8530086080190813 0 0 0 0 191.88472567882854 20.353724682610846 0 20.353724682610846 -2.6067572108695458 0 0 0 0 217.73530381028831 -7.931098591723412 0 -7.931098591723412 -13.078666111383427 0 0 0 0 150.85801975455252 30.82960260346772 0 30.82960260346772 -2.1833013799146102 0 0 0 0 165.33502119356126 -15.617656162632102 0 -15.617656162632102 38.040155828269235 0 0 0 0 283.91343158852533 -34.457536881467675 0 -34.457536881467675 37.701183623419638 0 0 0 0 66.235540949288406 -33.367233081218274 0 -33.367233081218274 149.31933548445431 0 0 0 0 57.810778498693253 91.52060266327635 0 91.52060266327635 45.992602696678887 0 0 0 0 -280.48475896395371 960.05641872399269 0 960.05641872399269 -405.19322639029645 0 0 0 0 108.10085612739149 68.06836724997406 0 68.06836724997406 17.853203425429243 0 0 0 0 -231.48971653117769 42.532896108667103 0 42.532896108667103 -161.85597463883755 0 0 0 0 -658.55095606706163 141.22085189388827 0 141.22085189388827 206.78496567679349 0 0 0 0 84.599389555291992 60.552377870136823 0 60.552377870136823 10.147782200208662 0 0 0 0 248.12965297065966 89.646307742055114 0 89.646307742055114 -16.817627706033136 0 0 0 0 -684.22116895185172 456.22747214312244 0 456.22747214312244 143.83531429557115 0 0 0 0 -528.08455996393968 600.90626451113849 0 600.90626451113849 -190.17438145126653 0 0 0 0 -299.99895884562284 247.1836142087177 0 247.1836142087177 -95.915742885669715 0 0 0 0 -360.46578342792782 185.09814559563301 0 185.09814559563301 359.4651667087328 0 0 0 0 -244.57759706545039 257.75322250622412 0 257.75322250622412 29.219586512643218 0 0 0 0 102.64874959422013 224.65197831347155 0 224.65197831347155 -64.53720690952423 0 0 0 0 -260.02853857561513 111.93248859394714 0 111.93248859394714 603.31456799862644 0 0 0 0 217.8121364757244 4.3044736614992871 0 4.3044736614992871 20.916343045057147 0 0 0 0 227.43112037115498 -6.357644436395276 0 -6.357644436395276 32.250367892108898 0 0 0 0 216.8640033241245 -7.0406321547834523 0 -7.0406321547834523 7.3812977579859762 0 0 0 0 219.44480397929146 21.921443464839513 0 21.921443464839513 19.729459088834119 0 0 0 0 220.00866734379088 27.881904810724336 0 27.881904810724336 6.6414695392468275 0 0 0 0 222.2194830840599 38.613716045503452 0 38.613716045503452 57.781351941139292 0 0 0 0 232.71796813354013 -16.546439090556305 0 -16.546439090556305 39.652657248295327 0 0 0 0 15.643403156029251 -0.072958521879428417 0 -0.072958521879428417 1.4190351175339444 0 0 0 0 228.07071617871406 0.049906108995855902 0 0.049906108995855902 87.467427204536762 0 0 0 0 252.11348499971791 -31.319799992840217 0 -31.319799992840217 -2.6702725164395815 0 0 0 0 -342.62259171079495 170.23571598515082 0 170.23571598515082 -216.45212504457299 0 0 0 0 419.0723648184503 -56.251323736137238 0 -56.251323736137238 -6.3223456541436462 0 0 0 0 -22.638158150686536 3.4658326864999935 0 3.4658326864999935 12.988485033224205 0 0 0 0 289.74485426198225 54.06309690535636 0 54.06309690535636 43.342675660160694 0 0 0 0 205.79415890524979 10.668747728337621 0 10.668747728337621 29.730672711870284 0 0 0 0 263.17645888053812 3.6348919665297217 0 3.6348919665297217 2.7532862450625544 0 0 0 0 163.91419760580902 12.232413536100694 0 12.232413536100694 21.996319286095968 0 0 0 0 207.42301490073442 -2.9392294615563515 0 -2.9392294615563515 5.7268254165965118 0 0 0 0 135.05872749001719 -17.772179050735758 0 -17.772179050735758 35.750555908604838 0 0 0 0 206.21515832343721 -0.82887880017642601 0 -0.82887880017642601 -2.0078746356466581 0 0 0 0 173.67517795506865 -37.952487525008564 0 -37.952487525008564 -1.1485396784282784 0 0 0 0 131.84723912495247 3.0648250877102328 0 3.0648250877102328 -30.650353273329529 0 0 0 0 210.45120800165751 4.2460672974416411 0 4.2460672974416411 -4.0613631369924406 0 0 0 0 205.0012187572429 -2.9471319948152086 0 -2.9471319948152086 63.523841424229431 0 0 0 0 263.21912113236613 77.618634140305403 0 77.618634140305403 23.516553679542994 0 0 0 0 -435.19100917503965 174.81589631022189 0 174.81589631022189 30.026828833058971 0 0 0 0 45.820984389806263 56.803100815142727 0 56.803100815142727 0.76857337316343077 0 0 0 0 255.85184669072623 -18.327764068100805 0 -18.327764068100805 2.7761061387227528 0 0 0 0 -417.57560938685492 153.19676239746877 0 153.19676239746877 -83.809488026814506 0 0 0 0 -422.75524291257898 189.54594513924076 0 189.54594513924076 96.327353312073683 0 0 0 0 -343.3986134828956 95.150711234601204 0 95.150711234601204 90.976889967652824 0 0 0 0 -382.81087710769498 172.14406019319449 0 172.14406019319449 -7.7320938884295174 0 0 0 0 -303.04132403683616 42.468788951615352 0 42.468788951615352 52.77043741941543 0 0 0 0 -288.68621838185936 31.120573562254322 0 31.120573562254322 -3.8584356277024199 0 0 0 0 41.130130213165323 47.82961303733677 0 47.82961303733677 -11.4915805479068 0 0 0 0 -285.75101977580925 40.557078343169451 0 40.557078343169451 11.559257921351673 0 0 0 0 -316.56985058489954 19.374061632897792 0 19.374061632897792 16.285056420279943 0 0 0 0 186.72505084404111 -33.714306264043898 0 -33.714306264043898 -59.342366444075196 0 0 0 0 186.26895095530199 -42.180789201350763 0 -42.180789201350763 -22.907435656999269 0 0 0 0 101.07676681164099 -26.486807784054108 0 -26.486807784054108 2.7630859764528566 0 0 0 0 319.42035806339118 -153.5050094101307 0 -153.5050094101307 -37.949273126048865 0 0 0 0 265.31676933231938 -232.0106619731514 0 -232.0106619731514 319.94281036105167 0 0 0 0 252.58776122916606 -183.64114311787762 0 -183.64114311787762 245.73354050223588 0 0 0 0 -70.76499262622383 -40.05889115887112 0 -40.05889115887112 267.81630081298317 0 0 0 0 276.55760001724411 -166.72740633614103 0 -166.72740633614103 199.81833434977125 0 0 0 0 -256.65583443403739 41.843756856093023 0 41.843756856093023 256.38576297251166 0 0 0 0 -63.622623901857878 -48.662820626472694 0 -48.662820626472694 171.95056992335776 0 0 0 0 -391.15172583303502 196.39761553150493 0 196.39761553150493 199.43473992843064 0 0 0 0 -359.20804693980608 219.0230813506796 0 219.0230813506796 -109.55737628872885 0 0 0 0 -234.6026683296077 52.831374669463912 0 52.831374669463912 58.142575566629603 0 0 0 0 -338.18081943019206 110.69129794637684 0 110.69129794637684 134.37757266433982 0 0 0 0 -231.40932123592211 25.70736555952908 0 25.70736555952908 218.13021773299988 0 0 0 0 -282.54669905958872 -48.76739195817936 0 -48.76739195817936 150.75905471595229 0 0 0 0 -53.96624062974297 -140.41279142276289 0 -140.41279142276289 140.76731284672678 0 0 0 0 20.346690390782896 -27.478020388383811 0 -27.478020388383811 117.76126080882932 0 0 0 0 397.73584744195978 -353.48808582392485 0 -353.48808582392485 357.2554319841729 0 0 0 0 13.65440899629175 -75.518147900212227 0 -75.518147900212227 239.42810293864932 0 0 0 0 517.67225376630813 -137.65300272758759 0 -137.65300272758759 204.09169328061034 0 0 0 0 62.501425870359526 134.11773964494569 0 134.11773964494569 507.35453575135762 0 0 0 0 636.93401101582276 77.295183606631326 0 77.295183606631326 -62.096275120820792 0 0 0 0 261.19282480983748 -530.05280151684383 0 -530.05280151684383 273.6037799959413 0 0 0 0 -397.36769645260938 -324.48481982288831 0 -324.48481982288831 469.2719562857601 0 0 0 0 -303.53019717415737 -82.449951310381948 0 -82.449951310381948 767.73291445221366 0 0 0 0 15.503816562865978 0.98141646618047318 0 0.98141646618047318 -0.44552062399093195 0 0 0 0 -275.61138684772231 -192.60791494538535 0 -192.60791494538535 319.26956138427704 0 0 0 0 -24.17818968037318 -121.64756027009571 0 -121.64756027009571 -70.084967694881925 0 0 0 0 -283.18455398771039 -215.91589640936218 0 -215.91589640936218 400.01911025887512 0 0 0 0 488.01895040359523 -284.38052912351122 0 -284.38052912351122 -251.22851749209076 0 0 0 0 -287.0070524612529 124.51642598648323 0 124.51642598648323 -60.711033968420111 0 0 0 0 -1.4851847182635538 -131.76046473175597 0 -131.76046473175597 734.76845088104528 0 0 0 0 15.678815845915977 -5.588494447236755 0 -5.588494447236755 3.5517122602688858 0 0 0 0 -117.96379032263576 207.33606604456827 0 207.33606604456827 427.68184924267189 0 0 0 0 42.133127661596518 -4.2372000802843104 0 -4.2372000802843104 599.95485885005291 0 0 0 0 -231.94904435299759 -70.943240211555803 0 -70.943240211555803 597.69425956357009 0 0 0 0 -252.61794011269376 -313.13823944256364 0 -313.13823944256364 -146.19123309556062 0 0 0 0 8.4228361294956642 9.9844152820589649 0 9.9844152820589649 -3.0934351971195113 0 0 0 0 603.59027325739589 -468.84229671147841 0 -468.84229671147841 -709.93780243124093 0 0 0 0 100.99903479141358 188.85532823104222 0 188.85532823104222 283.64605592382213 0 0 0 0 20.66406652869901 1.1610763689325871 0 1.1610763689325871 -0.77664269907798733 0 0 0 0 -268.95413227041718 -157.86746384989237 0 -157.86746384989237 401.83845883681533 0 0 0 0 184.17066219446133 -510.43678715517308 0 -510.43678715517308 88.968951732715368 0 0 0 0 39.494705162316677 423.01936626931274 0 423.01936626931274 335.97864313217087 0 0 0 0 675.78567138002472 888.72922824026227 0 888.72922824026227 -41.588654019629757 0 0 0 0 613.80356574545294 646.44183263596096 0 646.44183263596096 587.41383129020687 0 0 0 0 11.371083111376606 4.5818483664583454 0 4.5818483664583454 -0.72042184759878403 0 0 0 0 471.39152673626813 8.6769183960986993 0 8.6769183960986993 -34.461384687379905 0 0 0 0 530.62360775676825 -205.30446012941115 0 -205.30446012941115 395.3392039846949 0 0 0 0 252.6263594472257 383.68800074943829 0 383.68800074943829 808.98710036965076 0 0 0 0 656.9052299748364 676.99178875051803 0 676.99178875051803 408.50013057881006 0 0 0 0 128.4831996140274 -175.44460150597843 0 -175.44460150597843 626.42498105161576 0 0 0 0 1052.130197787279 -25.378475435821201 0 -25.378475435821201 240.06299592946743 0 0 0 0 69.14866283210722 153.41650096210606 0 153.41650096210606 255.0850337058182 0 0 0 0 213.842760031941 414.14245447556368 0 414.14245447556368 349.97966016167629 0 0 0 0 465.93568839115323 185.71653723230656 0 185.71653723230656 52.004722137153294 0 0 0 0 354.13040656075464 479.39893235447016 0 479.39893235447016 279.78101111536489 0 0 0 0 72.533910235315375 -22.436084644472125 0 -22.436084644472125 4.9536241697740326 0 0 0 0 70.111186193433241 -24.849731447609884 0 -24.849731447609884 -27.678667746482461 0 0 0 0 77.739573055383516 -73.430819302483542 0 -73.430819302483542 -53.620743140900231 0 0 0 0 134.3710781254922 -10.183348773088937 0 -10.183348773088937 -2.4221396200682648 0 0 0 0 53.748028293441166 -48.034811246559912 0 -48.034811246559912 5.1992434052681347 0 0 0 0 1264.1699189921992 1061.1695242788505 0 1061.1695242788505 541.96315761491132 0 0 0 0 1166.7705569702957 74.681871567236158 0 74.681871567236158 1194.7848872863215 0 0 0 0 436.43544589259545 919.29369956795199 0 919.29369956795199 344.20843505347511 0 0 0 0 1390.4114150190435 1188.1330821799365 0 1188.1330821799365 850.92696537891243 0 0 0 0 858.81585409802574 974.43772052475242 0 974.43772052475242 1560.15412933474 0 0 0 0 -38.953744624872343 400.06476115823716 0 400.06476115823716 1806.4492871984294 0 0 0 0 8.5655462407680432 -1.0989390255046203 0 -1.0989390255046203 5.688123690116015 0 0 0 0 34.440056718638516 -41.577473303606439 0 -41.577473303606439 -8.4097402272168438 0 0 0 0 241.73282502916118 507.82055411734473 0 507.82055411734473 654.54365922780744 0 0 0 0 168.43821238745295 262.81125123342827 0 262.81125123342827 529.79520598047566 0 0 0 0 49.282471290801141 -9.4995168062689928 0 -9.4995168062689928 0.85384034613264781 0 0 0 0 435.69311009001103 644.67053282437882 0 644.67053282437882 244.58276010362533 0 0 0 0 355.4450349163526 455.99347482627309 0 455.99347482627309 235.96134356143523 0 0 0 0 175.35481999538752 55.40412077090923 0 55.40412077090923 -57.932613291122834 0 0 0 0 1178.5767342563049 440.31291886039162 0 440.31291886039162 -312.21039503205975 0 0 0 0 681.31573665395263 -58.110872166602348 0 -58.110872166602348 1.6505474627474541 0 0 0 0 5.8221014475155641 -5.5943919176144306 0 -5.5943919176144306 -2.4232481438312732 0 0 0 0 416.63109227103996 639.34486235950135 0 639.34486235950135 445.55842741556717 0 0 0 0 863.70216605829773 -87.554840954493557 0 -87.554840954493557 -6.327868384143585 0 0 0 0 -97.2348090284504 83.986186897665903 0 83.986186897665903 309.23506647956674 0 0 0 0 446.55935949772538 452.41907170495369 0 452.41907170495369 157.65763478677036 0 0 0 0 123.54201573631144 125.53022719828004 0 125.53022719828004 102.8256535865612 0 0 0 0 321.41518379260378 305.3699160931501 0 305.3699160931501 215.55185886073741 0 0 0 0 -97.270313164684922 38.490210714844579 0 38.490210714844579 267.19365197461593 0 0 0 0 -23.071355721462169 212.25552979911663 0 212.25552979911663 381.53729810492223 0 0 0 0 26.458588066063982 1.4304438787048639 0 1.4304438787048639 -16.081739481177806 0 0 0 0 -1.9556748099857941 144.01300689176514 0 144.01300689176514 -128.8281712548378 0 0 0 0 71.239521109093175 -5.3237348987081674 0 -5.3237348987081674 -9.5407362873631243 0 0 0 0 476.70497846539365 1642.9910135864848 0 1642.9910135864848 1447.8179696423904 0 0 0 0 52.350294305026182 -284.13623001644009 0 -284.13623001644009 -767.25005036124639 0 0 0 0 129.60703423461433 -53.430868571926197 0 -53.430868571926197 20.175197294232291 0 0 0 0 -202.01444037367401 529.42903196273346 0 529.42903196273346 3105.8752769194653 0 0 0 0 20.637244830213604 -442.63694016734371 0 -442.63694016734371 -713.42938922715985 0 0 0 0 24.941798418432654 1.6433162806680706 0 1.6433162806680706 -2.0884189133514859 0 0 0 0 777.19978694181191 -655.7469306571511 0 -655.7469306571511 87.845081844770903 0 0 0 0 4227.3822793600848 65.899325890582986 0 65.899325890582986 492.87914724394068 0 0 0 0 -34.264564385350241 -278.33349664434718 0 -278.33349664434718 -406.06165032130957 0 0 0 0 -105.41014997511229 -452.57285583178236 0 -452.57285583178236 -481.54613507240538 0 0 0 0 172.72471306568332 -250.17796517558236 0 -250.17796517558236 -411.45134061266435 0 0 0 0 -36.75187657407605 -206.25045472683087 0 -206.25045472683087 -384.88586320137983 0 0 0 0 955.6037265554769 3452.4516171191372 0 3452.4516171191372 853.24320990877936 0 0 0 0 171.69054411404241 -76.143005666339221 0 -76.143005666339221 31.308478059838144 0 0 0 0 -1173.9857876149035 693.61021613071352 0 693.61021613071352 825.24215126133822 0 0 0 0 -12.739484267280204 -306.77260413529984 0 -306.77260413529984 -209.86929015375608 0 0 0 0 651.7217768962156 318.99023922361437 0 318.99023922361437 55.649477361901518 0 0 0 0 659.38131711460301 1085.0693656392777 0 1085.0693656392777 -431.85902382697077 0 0 0 0 1605.6372613358981 275.02363829040769 0 275.02363829040769 -186.29839314975834 0 0 0 0 865.59589406804298 -65.073397671792009 0 -65.073397671792009 -214.76962039931823 0 0 0 0 2843.7573754536279 -590.84987917214312 0 -590.84987917214312 -243.5436881518508 0 0 0 0 3611.1917380485393 1190.9732301350741 0 1190.9732301350741 -456.79121526994277 0 0 0 0 154.93209225338069 -108.27218034426187 0 -108.27218034426187 -191.58252675019503 0 0 0 0 -9.1835138835667749 -371.3095284943156 0 -371.3095284943156 -298.94382210203185 0 0 0 0 108.85929710181153 -404.42460280546948 0 -404.42460280546948 -568.47476728377478 0 0 0 0 160.05321075193456 -275.92840648999294 0 -275.92840648999294 -378.97700907728722 0 0 0 0 135.69781504291313 -95.61345651679585 0 -95.61345651679585 -174.08740492808283 0 0 0 0 251.74041541199404 -218.75259183684102 0 -218.75259183684102 -415.89021270679223 0 0 0 0 78.875925686821574 -370.55730580562158 0 -370.55730580562158 -427.29719242477586 0 0 0 0 22.199208565871231 -232.60998897750324 0 -232.60998897750324 -218.18502939572136 0 0 0 0 183.45234632013512 -93.280341702271741 0 -93.280341702271741 38.574023473116284 0 0 0 0 257.72142023654305 -237.65604091899695 0 -237.65604091899695 -124.35800210703383 0 0 0 0 60.926689160696696 -346.05386484455084 0 -346.05386484455084 -446.81214219715912 0 0 0 0 209.60533662242233 -263.23055323318658 0 -263.23055323318658 -1.2282989187224302 0 0 0 0 51.965376850246685 -70.274067020356597 0 -70.274067020356597 19.701171394925041 0 0 0 0 169.75407344804262 -68.283765271207812 0 -68.283765271207812 -78.116880407709687 0 0 0 0 125.19089116697432 -143.52294574974439 0 -143.52294574974439 89.175283865421079 0 0 0 0 244.80393106455449 -121.07024746074057 0 -121.07024746074057 -41.093493767024484 0 0 0 0 215.96728056618304 -84.235302434429741 0 -84.235302434429741 150.89437103819 0 0 0 0 443.43902115149831 -78.620510282649775 0 -78.620510282649775 545.06968578609667 0 0 0 0 66.076536757234862 36.636401986153942 0 36.636401986153942 208.3230942287264 0 0 0 0 455.26110349746887 19.787324526217162 0 19.787324526217162 115.83078272626153 0 0 0 0 403.18221514447941 234.16999565870447 0 234.16999565870447 433.09626929828664 0 0 0 0 354.36477519026812 264.04110572841 0 264.04110572841 630.68057050594507 0 0 0 0 473.94722449885739 221.84125968018634 0 221.84125968018634 305.2986505709996 0 0 0 0 252.25865256079123 33.693454374364592 0 33.693454374364592 411.75164604307793 0 0 0 0 344.18673959138687 -38.920437578743076 0 -38.920437578743076 88.3119355794679 0 0 0 0 364.24962561159919 191.69183232219711 0 191.69183232219711 422.1913458907984 0 0 0 0 483.24161176741472 124.53711542508063 0 124.53711542508063 168.42560707565781 0 0 0 0 327.05593519260583 -70.54500011798882 0 -70.54500011798882 101.74278263465021 0 0 0 0 239.25241226580692 -58.739663712651236 0 -58.739663712651236 91.206567850727879 0 0 0 0 212.86641966436582 -68.00800396615341 0 -68.00800396615341 218.82525590708974 0 0 0 0 979.98485933213669 544.64006235362922 0 544.64006235362922 37.727586941202389 0 0 0 0 806.89847205772821 355.76938708736679 0 355.76938708736679 -141.49637260626332 0 0 0 0 917.80974638728367 65.072791157853317 0 65.072791157853317 268.01260997850477 0 0 0 0 580.23762104038906 389.54580349115167 0 389.54580349115167 45.748836400284972 0 0 0 0 1010.7562110323488 137.64847552115589 0 137.64847552115589 269.42808951151528 0 0 0 0 677.9148919647705 -165.40837578064111 0 -165.40837578064111 1287.5083847632413 0 0 0 0 431.65638690328342 85.391257075488284 0 85.391257075488284 1033.2332729638911 0 0 0 0 1353.1185611526889 -263.35678496507353 0 -263.35678496507353 736.07442760450249 0 0 0 0 6.4810642983475191 -4.1349115246543136 0 -4.1349115246543136 -0.952474001553405 0 0 0 0 -32.414846838219091 -26.321162200774097 0 -26.321162200774097 1186.3587370617006 0 0 0 0 1553.1402664166526 258.3519575939481 0 258.3519575939481 179.95939708581045 0 0 0 0 671.18637868036421 -50.381658269033665 0 -50.381658269033665 859.88201445126106 0 0 0 0 2090.4388007262314 -82.327931725089002 0 -82.327931725089002 837.78379358263146 0 0 0 0 848.75389926662319 -155.36302322525717 0 -155.36302322525717 1725.5685718623563 0 0 0 0 1428.3197598293864 838.47661095401713 0 838.47661095401713 962.64283794585208 0 0 0 0 319.02417998456804 -38.337156558773131 0 -38.337156558773131 316.39509573815121 0 0 0 0 736.03114166419255 412.24384315835596 0 412.24384315835596 -335.7399338386349 0 0 0 0 -244.99272370290419 -8.0342311187550877 0 -8.0342311187550877 -219.15058197937424 0 0 0 0 471.25819776226126 890.39253907080274 0 890.39253907080274 552.20744429041224 0 0 0 0 205.88509710184007 386.53712731746418 0 386.53712731746418 1037.5843629936116 0 0 0 0 516.47987368567556 598.91065774628987 0 598.91065774628987 1171.076831876293 0 0 0 0 147.74825976425927 876.93601548170875 0 876.93601548170875 596.612546729928 0 0 0 0 543.58374230298796 633.32303566905375 0 633.32303566905375 742.68363663640048 0 0 0 0 557.3139114436608 398.41439488700826 0 398.41439488700826 269.19740918014213 0 0 0 0 687.45382948999759 435.41889722847736 0 435.41889722847736 246.210679401167 0 0 0 0 808.50181507597881 -14.423943061071668 0 -14.423943061071668 149.96804668294862 0 0 0 0 717.78742392428103 600.69168265771259 0 600.69168265771259 959.00373758780006 0 0 0 0 971.08449075328099 -120.86253406890455 0 -120.86253406890455 530.66237285715215 0 0 0 0 1539.5800368651544 437.52828247680191 0 437.52828247680191 197.52634253902261 0 0 0 0 952.6856440929987 1018.1540696069751 0 1018.1540696069751 511.74209403287932 0 0 0 0 -86.772720024076989 1181.7606835827728 0 1181.7606835827728 552.4253556098688 0 0 0 0 1608.7389464438147 4.682657320811586 0 4.682657320811586 -199.89413728729232 0 0 0 0 11.797403120061631 5.3921223625854395 0 5.3921223625854395 1.909274555308615 0 0 0 0 393.54192271349166 -71.502143375566902 0 -71.502143375566902 -49.645588913608663 0 0 0 0 1406.2564790749802 949.27762168043955 0 949.27762168043955 208.37187592112787 0 0 0 0 1030.162469148112 619.43817098862473 0 619.43817098862473 -67.788705071253389 0 0 0 0 831.96708549652249 461.60669045511349 0 461.60669045511349 37.484347320024881 0 0 0 0 1253.795096626076 367.81959123814772 0 367.81959123814772 57.322822405332772 0 0 0 0 1067.9140459293922 667.78310419466925 0 667.78310419466925 -103.96382380316209 0 0 0 0 6.4482851911016041 136.21322942381084 0 136.21322942381084 166.3493336269388 0 0 0 0 -5.8449471818457823 18.263699391181035 0 18.263699391181035 57.922130698245383 0 0 0 0 15.69513311405899 -37.045030527926883 0 -37.045030527926883 138.26500749974184 0 0 0 0 -24.981450729392236 15.127619399860123 0 15.127619399860123 69.491738794107732 0 0 0 0 8.1241508032835554 120.3610700526433 0 120.3610700526433 15.623043377557224 0 0 0 0 -9.4855296337045729 1.4990847868339188 0 1.4990847868339188 81.047873595662168 0 0 0 0 -32.405762509908527 14.63466362271356 0 14.63466362271356 93.171747365986448 0 0 0 0 -38.349928706178616 28.597713554078155 0 28.597713554078155 73.037963465560097 0 0 0 0 2.2996025500906399 56.844265022811669 0 56.844265022811669 -9.1941249018523195 0 0 0 0 0.80305486540601123 -13.903751430199009 0 -13.903751430199009 -0.44331052809957328 0 0 0 0 -332.7882581742233 221.60782283399431 0 221.60782283399431 -341.15913722324512 0 0 0 0 312.80574128445005 -322.71023582921953 0 -322.71023582921953 -901.00124633727319 0 0 0 0 28.079877547872343 9.2896723053252543 0 9.2896723053252543 1.0687818677438603 0 0 0 0 37.133814862987492 98.405460111784123 0 98.405460111784123 -120.30188787709722 0 0 0 0 408.19987294980092 821.39348195002572 0 821.39348195002572 -1400.1419549249767 0 0 0 0 54.688050146287424 -26.057444803008366 0 -26.057444803008366 -1.0173053254220576 0 0 0 0 382.92950905492762 53.336955167535052 0 53.336955167535052 -1169.4786523726571 0 0 0 0 90.245331749174511 -42.178741955389341 0 -42.178741955389341 -368.88002600603795 0 0 0 0 132.74475107062608 -414.46900434389681 0 -414.46900434389681 -1212.0542699827711 0 0 0 0 170.87374562482 154.41870559165773 0 154.41870559165773 -706.10730273524041 0 0 0 0 14.601200137805137 -5.0475052676819132 0 -5.0475052676819132 -3.8875580663625229 0 0 0 0 -45.614664281718433 447.38665762905111 0 447.38665762905111 -1058.3484912543536 0 0 0 0 56.751134574456387 -32.253421430215596 0 -32.253421430215596 5.9876916030008287 0 0 0 0 189.78002910006035 -104.90223001429877 0 -104.90223001429877 -126.5475255403444 0 0 0 0 145.83939782362722 -134.82214387848353 0 -134.82214387848353 -916.57559014566414 0 0 0 0 50.544091333459619 -83.348479008950676 0 -83.348479008950676 -45.030611595328082 0 0 0 0 126.80204612364983 -28.206776012055027 0 -28.206776012055027 1.1992317902584588 0 0 0 0 111.37957146155532 -50.86809344831272 0 -50.86809344831272 -71.740984331394429 0 0 0 0 40.65654611193213 -2.1339796850104449 0 -2.1339796850104449 -23.58835704011458 0 0 0 0 450.84766671140096 -351.86517967727127 0 -351.86517967727127 -879.39278731997183 0 0 0 0 39.307020431442652 -206.73199854330687 0 -206.73199854330687 -531.7501463773915 0 0 0 0 425.99805360924802 -452.14018311908785 0 -452.14018311908785 -404.26846839546761 0 0 0 0 534.7872935635678 49.809367041095356 0 49.809367041095356 -536.42833309788602 0 0 0 0 267.08401051204419 -210.43138357915359 0 -210.43138357915359 -387.92569967026429 0 0 0 0 189.95725634576229 7.3221564700306772 0 7.3221564700306772 93.267410884511264 0 0 0 0 360.63713833125075 63.25667883675942 0 63.25667883675942 -1048.7297083693957 0 0 0 0 413.12306809035363 -190.38005009809785 0 -190.38005009809785 -727.48377932728727 0 0 0 0 466.3503649418999 -91.545792422044542 0 -91.545792422044542 -1114.8711542850876 0 0 0 0 719.8751954951731 786.890337641511 0 786.890337641511 -337.04338795735657 0 0 0 0 952.50585414544912 543.52261133434172 0 543.52261133434172 -84.29440635924766 0 0 0 0 822.884038331802 771.37807163022262 0 771.37807163022262 64.128368363633854 0 0 0 0 1060.5788318333798 753.28737113764328 0 753.28737113764328 57.91391456734209 0 0 0 0 1177.4484188026981 961.04936607682612 0 961.04936607682612 -77.652557520280425 0 0 0 0 1069.960382751422 711.66548876513662 0 711.66548876513662 -302.71230047110203 0 0 0 0 837.03606442990713 551.10077563804134 0 551.10077563804134 -118.59434522998527 0 0 0 0 1002.7184918193816 667.20196597152699 0 667.20196597152699 -39.170242707090438 0 0 0 0 539.69600663162419 188.48775323900463 0 188.48775323900463 101.22445433574103 0 0 0 0 248.84690680906351 -84.216331351822191 0 -84.216331351822191 -44.577873578660729 0 0 0 0 131.59399470618155 -228.55992243289529 0 -228.55992243289529 -96.172981132080167 0 0 0 0 843.87172007933259 257.6691853134962 0 257.6691853134962 -896.26318159013954 0 0 0 0 263.37611385180935 -37.134208876162688 0 -37.134208876162688 36.665014501584665 0 0 0 0 54.594190761674014 -26.980862866672737 0 -26.980862866672737 9.2890937321128852 0 0 0 0 -25.936634643832804 21.417786743324086 0 21.417786743324086 144.60715800642538 0 0 0 0 88.0374856350942 -80.264438143316639 0 -80.264438143316639 18.180207014185626 0 0 0 0 229.74112165167753 -101.94418680234958 0 -101.94418680234958 15.89990204044625 0 0 0 0 342.30364106761044 276.86246246535438 0 276.86246246535438 212.54840614868954 0 0 0 0 519.83718745408987 -37.070673597620157 0 -37.070673597620157 113.23596174969134 0 0 0 0 206.92831496807048 -170.36845311378602 0 -170.36845311378602 209.10763202537163 0 0 0 0 485.60267614910845 137.76098533950881 0 137.76098533950881 420.81452817356694 0 0 0 0 143.05007615700015 -71.096608136514988 0 -71.096608136514988 287.23540505254459 0 0 0 0 321.44312198035186 -179.92191308134534 0 -179.92191308134534 133.30934694192001 0 0 0 0 368.80439303288586 80.713036895089317 0 80.713036895089317 199.64921580711234 0 0 0 0 181.29193685935024 -640.92389939834538 0 -640.92389939834538 -156.81245992021286 0 0 0 0 -24.497797569463728 -267.81635307317993 0 -267.81635307317993 136.46709912229744 0 0 0 0 129.96588867233777 -125.92000676187149 0 -125.92000676187149 82.056397905310163 0 0 0 0 146.14823229929334 -163.59904044527298 0 -163.59904044527298 29.108907545833063 0 0 0 0 17.633609263903054 191.31397748611926 0 191.31397748611926 -533.97190754195617 0 0 0 0 -329.80710837691731 -177.48846682672956 0 -177.48846682672956 137.37948285041057 0 0 0 0 47.104238568263213 -27.189742385279487 0 -27.189742385279487 -2.3686171869341166 0 0 0 0 171.35786266947252 -62.262146198629125 0 -62.262146198629125 9.2327966453231056 0 0 0 0 105.60976198980421 -11.94130290809575 0 -11.94130290809575 -35.7732080187495 0 0 0 0 54.11314498790307 -450.58885305785225 0 -450.58885305785225 27.490101473878894 0 0 0 0 45.651492968609091 -147.41658103965165 0 -147.41658103965165 -69.757928962400911 0 0 0 0 65.451058359163781 -40.704656702923941 0 -40.704656702923941 8.5498077860112645 0 0 0 0 87.99956530079362 -105.66871357450509 0 -105.66871357450509 -101.84445237343243 0 0 0 0 72.700195676850853 -79.949637675908889 0 -79.949637675908889 -88.712274630808679 0 0 0 0 46.590155569012325 -42.851456293999121 0 -42.851456293999121 10.960604877358485 0 0 0 0 165.15529006932775 12.576908797824217 0 12.576908797824217 -10.116211160424427 0 0 0 0 218.95108407884254 -34.786960486035241 0 -34.786960486035241 -88.95902992945139 0 0 0 0 180.94946234383679 -124.49116015390609 0 -124.49116015390609 -86.63625721279459 0 0 0 0 107.41473144580232 -139.21423982787019 0 -139.21423982787019 -55.940635980514344 0 0 0 0 71.349116701776438 -102.77922415737572 0 -102.77922415737572 -52.849266066768905 0 0 0 0 426.71250441215534 152.17041288259429 0 152.17041288259429 -128.19808512935924 0 0 0 0 454.18073013603862 -206.46995126198271 0 -206.46995126198271 -112.19778033913099 0 0 0 0 212.80936606130854 -176.03323932155035 0 -176.03323932155035 5.0954710517289641 0 0 0 0 1218.7559034176575 243.58714925131653 0 243.58714925131653 -126.35636619130673 0 0 0 0 -375.03612745604914 197.90561556411376 0 197.90561556411376 1521.7270264499639 0 0 0 0 1459.1736787455739 -209.46908870821244 0 -209.46908870821244 -616.70364703675295 0 0 0 0 918.83384497292354 -559.59167923836776 0 -559.59167923836776 7.0538168717830558 0 0 0 0 12.936046766683919 -37.828776879068684 0 -37.828776879068684 -1.061465872727382 0 0 0 0 350.72869258225728 -80.115586365874606 0 -80.115586365874606 23.333115404719138 0 0 0 0 -372.59807714042836 718.16824349645503 0 718.16824349645503 27.576664639125919 0 0 0 0 113.91598883655388 -322.30983370713602 0 -322.30983370713602 1020.8806202990381 0 0 0 0 86.2299498830304 43.98638543935364 0 43.98638543935364 -42.769482735107857 0 0 0 0 718.52944583900535 -181.61348374527006 0 -181.61348374527006 -293.37523474011687 0 0 0 0 513.22330494932248 -75.699719655334775 0 -75.699719655334775 -249.16570224698444 0 0 0 0 155.62323936741819 47.467374828007941 0 47.467374828007941 -34.200686059146435 0 0 0 0 327.06661624254048 370.6750955177522 0 370.6750955177522 -535.83271955943928 0 0 0 0 242.34641909811126 -20.497046542641328 0 -20.497046542641328 -8.733638813442667 0 0 0 0 73.88206683563476 -294.9403797022751 0 -294.9403797022751 7.0288104172987005 0 0 0 0 164.0771589075157 -212.74381221841395 0 -212.74381221841395 26.00992085015605 0 0 0 0 237.758998921694 -49.417858044893364 0 -49.417858044893364 136.01706893367918 0 0 0 0 36.942376978608081 -38.207226435053599 0 -38.207226435053599 104.9676033174328 0 0 0 0 236.43000955840375 -150.47941429989609 0 -150.47941429989609 -125.10987119748461 0 0 0 0 8.8464967655060036 -3.2022888832843428 0 -3.2022888832843428 1.1483456518095636 0 0 0 0 -128.82575039073708 451.45789371496357 0 451.45789371496357 129.90963936547723 0 0 0 0 -61.798644372589479 24.643351496753894 0 24.643351496753894 1313.6211630970392 0 0 0 0 482.98082955065183 -825.84521573250095 0 -825.84521573250095 -47.390135190341425 0 0 0 0 478.64806394874176 -1027.8423164855085 0 -1027.8423164855085 663.63423401488399 0 0 0 0 1415.3237740122713 -409.63591529825499 0 -409.63591529825499 -643.51246237437954 0 0 0 0 579.99638279357168 77.802561227666047 0 77.802561227666047 -262.89255968955695 0 0 0 0 520.08434523062897 -58.769784521748079 0 -58.769784521748079 -288.72504672193463 0 0 0 0 82.628143384768919 19.631371054492774 0 19.631371054492774 -204.97188863237534 0 0 0 0 133.921510139307 -103.35027206631655 0 -103.35027206631655 62.415673167354726 0 0 0 0 -337.80222770913861 -297.70951661693152 0 -297.70951661693152 194.80780949561449 0 0 0 0 -5.8332700403049671 -31.456638532555377 0 -31.456638532555377 30.228075785786174 0 0 0 0 -71.897431829496782 -276.55949524754942 0 -276.55949524754942 -262.19961903894728 0 0 0 0 37.684001648070989 -323.74301902019579 0 -323.74301902019579 -371.35662338568363 0 0 0 0 49.820118003000971 -156.31022574352392 0 -156.31022574352392 -188.78858293742087 0 0 0 0 98.880829772897414 -259.12193233533617 0 -259.12193233533617 -372.61823452542012 0 0 0 0 50.148481875687139 -239.93955672394804 0 -239.93955672394804 -377.73150946383248 0 0 0 0 5.514356543237227 -220.48417465886087 0 -220.48417465886087 -232.6797062648111 0 0 0 0 60.178186074073892 -248.51796439362806 0 -248.51796439362806 -407.23079961826443 0 0 0 0 41.939497581307435 -7.3708456237502453 0 -7.3708456237502453 -30.268530769869926 0 0 0 0 -278.04915914518642 -443.35078645087196 0 -443.35078645087196 -470.51777718339872 0 0 0 0 8.3743543851014692 -165.54889881481631 0 -165.54889881481631 109.34864652255055 0 0 0 0 110.59351019937458 -216.60498569877018 0 -216.60498569877018 -196.6604235845989 0 0 0 0 106.12787250942529 -76.494754662950072 0 -76.494754662950072 -139.93660287762759 0 0 0 0 36.033365864881489 -165.91098326409337 0 -165.91098326409337 -231.12605946604162 0 0 0 0 85.54413081534949 -194.19891038274045 0 -194.19891038274045 -306.30715696452535 0 0 0 0 300.62788167358667 -122.47996487855926 0 -122.47996487855926 -281.6127652129835 0 0 0 0 442.88488521347972 -130.78233537382039 0 -130.78233537382039 -94.563584733317839 0 0 0 0 265.47494845613255 -12.745516322498588 0 -12.745516322498588 -171.84910931669583 0 0 0 0 361.99337419287008 73.84703170255159 0 73.84703170255159 5.5438595421619539 0 0 0 0 281.49424737385357 -82.893900297613058 0 -82.893900297613058 -22.998841275815522 0 0 0 0 337.16724970828363 -158.59127406208063 0 -158.59127406208063 -117.33887011728984 0 0 0 0 418.20178956623568 -10.081162041069547 0 -10.081162041069547 -3.1502426899860438 0 0 0 0 241.39270739633611 -48.831935899394793 0 -48.831935899394793 -21.282171345806269 0 0 0 0 302.75601846483914 -32.855188674591773 0 -32.855188674591773 -39.530947733197536 0 0 0 0 71.469914631025901 -29.999734806502254 0 -29.999734806502254 -30.870003718273679 0 0 0 0 588.89619875287462 -111.4471829286922 0 -111.4471829286922 -239.34419433626317 0 0 0 0 77.009513356064176 0.57539621637531013 0 0.57539621637531013 -21.898602751110701 0 0 0 0 377.32240830361116 -42.856746700073927 0 -42.856746700073927 -116.94634321937974 0 0 0 0 404.4976940894885 31.143166135541833 0 31.143166135541833 -15.886110196071968 0 0 0 0 490.81872207128799 -17.588684406253833 0 -17.588684406253833 -47.578189487681811 0 0 0 0 229.80677164021472 30.175397660917952 0 30.175397660917952 12.409397032173729 0 0 0 0 206.65839199189213 83.672266558292904 0 83.672266558292904 42.379566105524873 0 0 0 0 127.66228324287849 58.44097051733867 0 58.44097051733867 5.5674306407815095 0 0 0 0 305.75099892915568 -44.278177213925119 0 -44.278177213925119 41.482314852804848 0 0 0 0 266.76691794280123 2.0523422537962688 0 2.0523422537962688 -12.783050461446692 0 0 0 0 237.80720842259325 -37.033719551718605 0 -37.033719551718605 -27.766759955871748 0 0 0 0 152.50425821210018 53.807243477852744 0 53.807243477852744 -9.0906554783735913 0 0 0 0 231.63484113914365 6.1509310935443864 0 6.1509310935443864 13.82295461611784 0 0 0 0 305.63671736064651 25.177364884410856 0 25.177364884410856 18.609202680931048 0 0 0 0 121.74015244924999 -43.445623530500598 0 -43.445623530500598 -0.65860722259108684 0 0 0 0 112.42853079113647 -50.193215832696573 0 -50.193215832696573 1.9479265456641457 0 0 0 0 190.15429988037795 -12.740459760638259 0 -12.740459760638259 -36.480615458664033 0 0 0 0 229.71512331791746 -378.83029609031382 0 -378.83029609031382 -415.7599571624778 0 0 0 0 137.78984327157593 -42.769307542338197 0 -42.769307542338197 1.0156450409677191 0 0 0 0 148.64356889364717 -101.17322944994339 0 -101.17322944994339 -60.055634295749769 0 0 0 0 99.668980038833979 -25.199519035242702 0 -25.199519035242702 39.215237114136471 0 0 0 0 203.86730918956891 -14.147303627290057 0 -14.147303627290057 -76.903449472549255 0 0 0 0 236.20275924671296 18.968692701540931 0 18.968692701540931 5.6947984132311831 0 0 0 0 90.113457602121429 -57.007632040905648 0 -57.007632040905648 1.5486219212440702 0 0 0 0 135.97695569587813 8.4374933213530312 0 8.4374933213530312 50.498728989252413 0 0 0 0 73.903227973110916 -81.703684097321457 0 -81.703684097321457 62.571413956477045 0 0 0 0 126.06462174922663 -35.010480641911514 0 -35.010480641911514 -10.198744491082554 0 0 0 0 211.23534847699648 -45.984518470676448 0 -45.984518470676448 5.5057171536882379 0 0 0 0 216.466570316451 -10.927169211880937 0 -10.927169211880937 -68.419948360771741 0 0 0 0 177.19534747200495 0.03646634738274912 0 0.03646634738274912 -14.390135808160528 0 0 0 0 156.43568888837763 -75.928291911433007 0 -75.928291911433007 79.891469399430207 0 0 0 0 229.87821446269118 6.5854981646443775 0 6.5854981646443775 -88.668497436185135 0 0 0 0 45.126423628933281 -2.8191446697674536 0 -2.8191446697674536 -25.59763248349293 0 0 0 0 157.6233147463081 -83.601436298929912 0 -83.601436298929912 -47.750176020777872 0 0 0 0 229.64673118817041 -27.093131624656962 0 -27.093131624656962 -0.78006862262009236 0 0 0 0 205.64105888521794 -48.348153576929917 0 -48.348153576929917 1.9583881458820542 0 0 0 0 209.0326200308773 -34.008280158981506 0 -34.008280158981506 -64.676674113166882 0 0 0 0 185.85638173150437 -36.128353889625032 0 -36.128353889625032 -1.7357597099398845 0 0 0 0 169.08796141484163 -59.634630219677774 0 -59.634630219677774 -76.502816430111125 0 0 0 0 151.92748215690301 -26.375350121275957 0 -26.375350121275957 -8.1706274314792111 0 0 0 0 344.77388410078129 -194.09362250215054 0 -194.09362250215054 -493.17094831780014 0 0 0 0 209.13185736517335 97.672953259350834 0 97.672953259350834 -149.89811069673306 0 0 0 0 50.408741662457743 -21.493582435325337 0 -21.493582435325337 -11.763179460309431 0 0 0 0 254.44674947966269 65.285978059722765 0 65.285978059722765 -350.48891238651049 0 0 0 0 354.89545965808793 549.06067534707836 0 549.06067534707836 243.20875025595069 0 0 0 0 569.92482210525486 -740.29707859232803 0 -740.29707859232803 764.71054898889088 0 0 0 0 9.5978389455615911 9.2868064050821459 0 9.2868064050821459 4.2118673951224288 0 0 0 0 24.530744314572075 81.22958858896709 0 81.22958858896709 -17.759645678361267 0 0 0 0 241.2850635712914 -37.578803371211947 0 -37.578803371211947 -19.926068674109199 0 0 0 0 569.29105316602909 -246.11023444236298 0 -246.11023444236298 -316.51409361573678 0 0 0 0 149.50250529526238 -35.457744003508196 0 -35.457744003508196 -45.263074208156468 0 0 0 0 215.02219861525728 -40.575425048053397 0 -40.575425048053397 -16.002384368988459 0 0 0 0 96.107064676310983 -287.26934760155018 0 -287.26934760155018 -19.736331666913429 0 0 0 0 252.46598040124445 -13.64419106375226 0 -13.64419106375226 -7.5060902654367965 0 0 0 0 358.96059057676757 -12.897754487015845 0 -12.897754487015845 -69.918952136427833 0 0 0 0 440.28038552560611 -62.603261170652331 0 -62.603261170652331 -346.56543604347735 0 0 0 0 275.06862252722203 -156.93673158486854 0 -156.93673158486854 -253.32287600902328 0 0 0 0 319.80390547477873 -34.131091394083342 0 -34.131091394083342 -71.555041901408913 0 0 0 0 49.434181565229125 -1.2674866120675858 0 -1.2674866120675858 0.82216611620562219 0 0 0 0 508.26549595007236 215.51275469838697 0 215.51275469838697 -93.414054212262272 0 0 0 0 505.60206512912191 242.79168099620529 0 242.79168099620529 -281.79501784651075 0 0 0 0 -4.9192100546115682 -1.3232981304839768 0 -1.3232981304839768 1.3099490338838251 0 0 0 0 90.158976321981754 -13.414081902333237 0 -13.414081902333237 -47.876318354930845 0 0 0 0 -95.479749314734363 -339.40596320208715 0 -339.40596320208715 -332.69631186579682 0 0 0 0 827.50592940102069 504.21657939210218 0 504.21657939210218 -427.57270177011378 0 0 0 0 54.386811977077741 -55.359117803780464 0 -55.359117803780464 -310.75034124505873 0 0 0 0 280.48136525790324 264.90393476243116 0 264.90393476243116 78.246851961523134 0 0 0 0 477.00414970128622 -260.85598292403301 0 -260.85598292403301 -157.84101325550455 0 0 0 0 154.45960231903842 -37.035466751802872 0 -37.035466751802872 -2.8667774129014845 0 0 0 0 144.47355593492648 -93.285525009966022 0 -93.285525009966022 -50.003467703456408 0 0 0 0 129.83276580732775 -43.828116594196537 0 -43.828116594196537 -2.5015296590401119 0 0 0 0 193.41745360499397 -81.354627431645156 0 -81.354627431645156 0.40991434663192194 0 0 0 0 190.97458990640735 -11.414198934338856 0 -11.414198934338856 -44.890844800538616 0 0 0 0 243.60888925902645 -123.1806001793866 0 -123.1806001793866 52.149235772729298 0 0 0 0 262.58211076179396 -64.124907784371317 0 -64.124907784371317 -5.7030975528969066 0 0 0 0 147.43853695047929 5.4157214182293796 0 5.4157214182293796 -62.267090633614259 0 0 0 0 234.96522192061093 -66.200312141949325 0 -66.200312141949325 5.9356719158467968 0 0 0 0 223.25748656319411 -91.02191068358934 0 -91.02191068358934 -8.9770598641080142 0 0 0 0 219.0999491521834 -83.888296791438506 0 -83.888296791438506 -3.4215569664959276 0 0 0 0 196.52828207109997 -99.734438907204094 0 -99.734438907204094 -8.7411975176473788 0 0 0 0 218.96418819138489 -86.34946698572557 0 -86.34946698572557 -0.80890107016421098 0 0 0 0 191.62244358702569 -90.798699354597488 0 -90.798699354597488 26.72000628352512 0 0 0 0 388.55441831299686 65.061037895797199 0 65.061037895797199 207.45944431451608 0 0 0 0 16.796233172702273 -36.527044129985732 0 -36.527044129985732 -10.234207138981901 0 0 0 0 327.72996183102077 -114.06054623393902 0 -114.06054623393902 -11.2073977163991 0 0 0 0 341.5772854745519 19.5920699254184 0 19.5920699254184 60.950646776407666 0 0 0 0 181.09409289652831 -12.206960895489829 0 -12.206960895489829 -102.15238385067096 0 0 0 0 163.52936856313195 -34.467421977329977 0 -34.467421977329977 -28.566196829235153 0 0 0 0 245.01632758278936 -47.225056386388104 0 -47.225056386388104 -53.367962281208349 0 0 0 0 231.41428356665014 -9.9952105263300695 0 -9.9952105263300695 -61.408418261515891 0 0 0 0 188.92220071164229 -47.294226190636891 0 -47.294226190636891 -45.440442171733139 0 0 0 0 132.1716649948803 -43.73023828404439 0 -43.73023828404439 -62.643198647306235 0 0 0 0 62.504706294825809 -13.81176592308784 0 -13.81176592308784 -37.252339885016482 0 0 0 0 216.66917519110621 60.000786145518305 0 60.000786145518305 -161.83755803995064 0 0 0 0 289.45029647080446 264.56866548930611 0 264.56866548930611 -67.299331317935867 0 0 0 0 32.534950610265675 23.765077299356648 0 23.765077299356648 -16.16366010794037 0 0 0 0 336.96318025254186 147.73740121527135 0 147.73740121527135 -70.59238565267151 0 0 0 0 269.84523227399052 34.382878254111262 0 34.382878254111262 -55.822765162495585 0 0 0 0 141.75991754046072 152.41863597568135 0 152.41863597568135 -66.778627743959078 0 0 0 0 203.98540359043727 251.4241781895962 0 251.4241781895962 -68.232306162397435 0 0 0 0 73.198441498479269 -139.34495349855752 0 -139.34495349855752 47.721104724339966 0 0 0 0 94.27816103466094 -82.962187248527215 0 -82.962187248527215 -32.620486071803327 0 0 0 0 478.31814749715772 -133.13817247095267 0 -133.13817247095267 -113.38058259748868 0 0 0 0 471.14663759596158 -238.31261178797985 0 -238.31261178797985 43.716130786178837 0 0 0 0 182.93055299389857 228.06051763394044 0 228.06051763394044 313.12126153699955 0 0 0 0 14.650438155389502 -22.214390348499396 0 -22.214390348499396 -10.689826303893875 0 0 0 0 158.49296557433991 -38.338898829423101 0 -38.338898829423101 -98.43690030719722 0 0 0 0 237.17010477418808 42.787519324841696 0 42.787519324841696 -52.688111033251062 0 0 0 0 175.14507037940712 -65.677388145702849 0 -65.677388145702849 -76.20084112812674 0 0 0 0 82.14738523599226 -125.90215821612219 0 -125.90215821612219 -83.076740677323187 0 0 0 0 52.892125014384447 -4.5240663645800083 0 -4.5240663645800083 -27.968438971980333 0 0 0 0 -48.953728200824116 -61.003875658754623 0 -61.003875658754623 -84.969710287787166 0 0 0 0 106.97688928324897 6.7877182470284581 0 6.7877182470284581 -39.569631619058015 0 0 0 0 177.87151769127377 -12.892142255036561 0 -12.892142255036561 -77.896193209163357 0 0 0 0 139.84921560526689 -25.68300528777208 0 -25.68300528777208 -28.787952525617925 0 0 0 0 168.72931268910088 -40.753388949759142 0 -40.753388949759142 -80.165291179080668 0 0 0 0 152.39478949713819 -12.845833515418207 0 -12.845833515418207 -59.423662932361381 0 0 0 0 216.91174237793894 -47.669528331916808 0 -47.669528331916808 -113.98234896868962 0 0 0 0 152.25317244492635 -9.293623341930541 0 -9.293623341930541 -26.274678055678887 0 0 0 0 71.118399737904639 -35.416302777174877 0 -35.416302777174877 -40.811465440146179 0 0 0 0 -103.66392610901676 -397.23633780997443 0 -397.23633780997443 124.15132152749538 0 0 0 0 25.357411893937666 -16.001002933639398 0 -16.001002933639398 -10.000133117615963 0 0 0 0 278.73080416755693 -219.74035745363472 0 -219.74035745363472 -746.66174170422164 0 0 0 0 -26.936632346594706 -245.9419546443587 0 -245.9419546443587 -425.00666012561123 0 0 0 0 -427.67508183898462 -467.50436630558579 0 -467.50436630558579 101.34660938724664 0 0 0 0 450.09649889727734 -140.57919330995401 0 -140.57919330995401 -426.74616612979662 0 0 0 0 337.97963934594554 -575.04814371401017 0 -575.04814371401017 -163.61410697370593 0 0 0 0 630.25420563738589 -982.85877706910969 0 -982.85877706910969 27.193938231996071 0 0 0 0 -72.437843738516676 1857.5349540895791 0 1857.5349540895791 886.14437798233507 0 0 0 0 332.92350616914337 -38.457404245071416 0 -38.457404245071416 -308.03710383088514 0 0 0 0 -526.42943203993491 -10.700468401324542 0 -10.700468401324542 -62.647086887665864 0 0 0 0 101.10946537285929 20.039722344939747 0 20.039722344939747 -59.904281048127281 0 0 0 0 273.63677806427586 -129.08692656641733 0 -129.08692656641733 -114.06922830730218 0 0 0 0 261.1997244010563 -76.263169974372659 0 -76.263169974372659 -284.34263110749862 0 0 0 0 101.20376805809792 -295.35374374745425 0 -295.35374374745425 -274.10264321394789 0 0 0 0 160.41831829474927 -87.858479767246962 0 -87.858479767246962 12.403620496344336 0 0 0 0 203.59929826641019 -112.07578228407581 0 -112.07578228407581 -84.064849949172469 0 0 0 0 335.20865977593439 -158.45700100973227 0 -158.45700100973227 -38.838609593225556 0 0 0 0 158.91466664378049 -80.236719200132299 0 -80.236719200132299 -32.039255780637482 0 0 0 0 246.54698515798918 292.46850302755388 0 292.46850302755388 381.40867268975489 0 0 0 0 250.01889227320498 124.88579693356223 0 124.88579693356223 128.90844731515244 0 0 0 0 227.73854668806598 172.75486751423341 0 172.75486751423341 58.128522803082888 0 0 0 0 334.8188789141368 271.70459006958436 0 271.70459006958436 138.63141401281973 0 0 0 0 357.58626925900171 157.94087959360149 0 157.94087959360149 -37.726428227509132 0 0 0 0 249.87021866530995 305.78076728462838 0 305.78076728462838 126.12847886586496 0 0 0 0 683.6174745699609 357.0396989469582 0 357.0396989469582 46.769714916206794 0 0 0 0 235.700462543306 70.490752023619564 0 70.490752023619564 -131.95064586877561 0 0 0 0 918.12924681074219 -297.75175311579005 0 -297.75175311579005 -48.891367330714274 0 0 0 0 162.81833308315254 21.603468562536364 0 21.603468562536364 -183.5242187187996 0 0 0 0 195.15825281916062 -79.400110853442271 0 -79.400110853442271 5.7261735949524919 0 0 0 0 -84.320723854441894 -427.93195779582311 0 -427.93195779582311 -373.91106580691121 0 0 0 0 135.85402661645594 -642.26237651943529 0 -642.26237651943529 -166.08072464795987 0 0 0 0 293.38897864791215 39.177498240904242 0 39.177498240904242 -184.18965884240299 0 0 0 0 3.6225608134507752 7.236922365803494 0 7.236922365803494 3.0772500131546661 0 0 0 0 237.17102602605155 -464.10688752620626 0 -464.10688752620626 793.16036155754591 0 0 0 0 528.98454224530724 679.63140428167844 0 679.63140428167844 -607.7991586315693 0 0 0 0 1.78235642859363 -348.42717819355858 0 -348.42717819355858 -522.66367847208312 0 0 0 0 -268.811046996605 286.28615084834018 0 286.28615084834018 -452.00301783822215 0 0 0 0 787.40061316612992 704.36085668372471 0 704.36085668372471 -637.25328977576191 0 0 0 0 558.60239942355111 428.68460309907641 0 428.68460309907641 43.01367590076552 0 0 0 0 1731.2510749255744 220.68762313565639 0 220.68762313565639 -304.05352719659749 0 0 0 0 252.24836180006969 -102.97106299616462 0 -102.97106299616462 -299.86725478781045 0 0 0 0 899.81097285909345 129.66291937236383 0 129.66291937236383 -442.89176881787444 0 0 0 0 28.544873878050169 -5.1868683551789427 0 -5.1868683551789427 2.091380245640444 0 0 0 0 794.79057453724818 1042.8530651652313 0 1042.8530651652313 797.35398802677537 0 0 0 0 70.39191089864471 -552.16173591751703 0 -552.16173591751703 885.48932052513055 0 0 0 0 81.936860596365079 -16.03232823266756 0 -16.03232823266756 3.2758023918261134 0 0 0 0 60.912396081723273 -328.62067249581651 0 -328.62067249581651 -290.1833957130907 0 0 0 0 322.66241458426521 112.29912118497668 0 112.29912118497668 -52.488186260379734 0 0 0 0 466.42323868261155 -67.1641028200047 0 -67.1641028200047 171.45706744327254 0 0 0 0 31.684362077547121 -103.89280041123675 0 -103.89280041123675 64.157597116969555 0 0 0 0 -71.257621506912983 -193.9903153160044 0 -193.9903153160044 -171.23183504346434 0 0 0 0 245.63366870718892 -559.70780115600337 0 -559.70780115600337 165.56272524251744 0 0 0 0 0.18048831447003977 -2.0149378010008405 0 -2.0149378010008405 4.1986625863750504 0 0 0 0 -153.19725683655997 -160.33966716834493 0 -160.33966716834493 360.82433791299081 0 0 0 0 -7.8670270917646121 -49.120623824269387 0 -49.120623824269387 -93.137072741745214 0 0 0 0 68.801737099682214 -165.75526050765257 0 -165.75526050765257 -94.541663084744869 0 0 0 0 418.68042462274025 -378.71258185772513 0 -378.71258185772513 32.88873645955573 0 0 0 0 -16.942192663365859 -255.77844731230334 0 -255.77844731230334 72.020671443373431 0 0 0 0 502.52002766623627 -217.08284211859996 0 -217.08284211859996 -878.29146104385109 0 0 0 0 851.53792344875546 -1051.9076541389795 0 -1051.9076541389795 -205.02911792100167 0 0 0 0 102.69897928641274 64.853841530622859 0 64.853841530622859 -32.079985400513912 0 0 0 0 61.566652295196036 196.78748868288585 0 196.78748868288585 -496.03303219874579 0 0 0 0 -532.91561932953482 786.192558439815 0 786.192558439815 14.766513715296242 0 0 0 0 26.553388461931789 1.2920434567181758 0 1.2920434567181758 0.37719056112743488 0 0 0 0 528.99346373644948 -36.083889675152932 0 -36.083889675152932 -124.00010858088353 0 0 0 0 645.90681718486303 112.08454985964636 0 112.08454985964636 -94.191543317174364 0 0 0 0 -21.2333729501905 10.269163669534947 0 10.269163669534947 1.2690843136776877 0 0 0 0 278.69667334281257 600.76586445488647 0 600.76586445488647 104.13217451418313 0 0 0 0 883.19040194901754 -183.15294375806843 0 -183.15294375806843 -6.8940465823989143 0 0 0 0 -409.30383039062144 136.78333307407411 0 136.78333307407411 -267.04083359352808 0 0 0 0 -398.18001014387119 238.51404166088196 0 238.51404166088196 39.654620245488331 0 0 0 0 -617.08037064940436 -66.605889191665483 0 -66.605889191665483 -45.323341426468687 0 0 0 0 -657.36759334476665 -112.21103024074 0 -112.21103024074 135.02785747255621 0 0 0 0 -361.56324504947406 -349.70098498751395 0 -349.70098498751395 276.88203804349268 0 0 0 0 -605.79583489857032 12.90063150369383 0 12.90063150369383 510.89443175886117 0 0 0 0 -514.49156857796333 -128.34802053490102 0 -128.34802053490102 -331.25644814753468 0 0 0 0 -514.29040369130962 -159.01131887623114 0 -159.01131887623114 59.591531245681836 0 0 0 0 -519.04395931982435 -553.44770559014432 0 -553.44770559014432 -233.34621725812576 0 0 0 0 33.046753608369471 1.8473518718463424 0 1.8473518718463424 -2.3515952515264402 0 0 0 0 -6.0194920341018587 98.161907726348545 0 98.161907726348545 7.5161190611670463 0 0 0 0 507.07594980322756 -192.23795972601874 0 -192.23795972601874 -389.12995317268997 0 0 0 0 -23.054562887248551 85.175223393612839 0 85.175223393612839 -32.480715899894555 0 0 0 0 379.0381090331357 270.43830780902954 0 270.43830780902954 -151.25764030458231 0 0 0 0 451.74437851001858 198.32180991589121 0 198.32180991589121 -257.92007635055415 0 0 0 0 370.74253052668064 252.49891170319825 0 252.49891170319825 -293.08983522178823 0 0 0 0 193.26748687401414 -119.13484572365269 0 -119.13484572365269 221.69304165051653 0 0 0 0 -207.8543106943398 124.06426235997606 0 124.06426235997606 74.736914354358305 0 0 0 0 259.05600250054704 -162.47547320728199 0 -162.47547320728199 -729.08825917630384 0 0 0 0 103.41464449430248 -10.077695705103942 0 -10.077695705103942 0.19269249018990742 0 0 0 0 307.39765314120268 316.92779541345044 0 316.92779541345044 -391.04350896380492 0 0 0 0 -158.52116490143817 -307.12280648101842 0 -307.12280648101842 -68.588242697289843 0 0 0 0 2.3432428258138032 -6.6554471579871262 0 -6.6554471579871262 7.8542483722438021 0 0 0 0 183.17852368803142 612.26563267616734 0 612.26563267616734 329.02214510693011 0 0 0 0 -277.36554961536604 -52.57787907079728 0 -52.57787907079728 212.66724611396421 0 0 0 0 123.05738256967743 -563.96425430432521 0 -563.96425430432521 -157.66975164957603 0 0 0 0 104.07979432299271 -297.91267441797584 0 -297.91267441797584 22.977098128080797 0 0 0 0 319.41381795794587 -329.15138954522172 0 -329.15138954522172 18.939482956893698 0 0 0 0 177.18974672502372 -245.36487658228634 0 -245.36487658228634 -289.52370592511357 0 0 0 0 537.55462072748924 -473.99264811852572 0 -473.99264811852572 -261.67587192191468 0 0 0 0 703.06164482331224 -28.636588585408319 0 -28.636588585408319 -460.47249359541502 0 0 0 0 488.05232719430933 -36.053043724714257 0 -36.053043724714257 -330.09670528752144 0 0 0 0 1998.8942382068926 210.82096295870997 0 210.82096295870997 -297.47150577061257 0 0 0 0 31.815539070255909 594.63233422180576 0 594.63233422180576 -498.41912196804265 0 0 0 0 106.67156547309139 52.983117133737949 0 52.983117133737949 -37.160353718032574 0 0 0 0 828.26121032016817 399.12877264044369 0 399.12877264044369 -605.34738474308142 0 0 0 0 -541.64364983406267 232.02087090453506 0 232.02087090453506 123.58906656196814 0 0 0 0 526.0703020816436 511.21541216466267 0 511.21541216466267 159.99429149917705 0 0 0 0 -378.66776661309996 103.12384244716122 0 103.12384244716122 978.70297072989888 0 0 0 0 435.71647365938406 -253.8414452570878 0 -253.8414452570878 244.89468946994202 0 0 0 0 -269.43727584171211 43.105025910658242 0 43.105025910658242 299.47311059452477 0 0 0 0 -295.9451623990899 -462.29902186230538 0 -462.29902186230538 256.03171591616569 0 0 0 0 536.58994657834046 230.86919996670281 0 230.86919996670281 588.57904268612037 0 0 0 0 1775.4174490982259 -593.11472658087132 0 -593.11472658087132 21.876495535134381 0 0 0 0 2037.6897251871414 -974.55388701530319 0 -974.55388701530319 1291.785441001226 0 0 0 0 557.10935583164974 703.95795020246442 0 703.95795020246442 1275.5004170222546 0 0 0 0 870.61617548138747 -1042.6518992675224 0 -1042.6518992675224 619.53272729049604 0 0 0 0 10.76857863004625 -11.304014617857803 0 -11.304014617857803 16.82268893967688 0 0 0 0 -193.80981610897288 -282.89869785320843 0 -282.89869785320843 623.70641522944322 0 0 0 0 3472.5836914238535 889.98297371202489 0 889.98297371202489 -63.489032119379772 0 0 0 0 -54.929512152215466 19.471065133087905 0 19.471065133087905 12.838601071580342 0 0 0 0 -42.075788166679558 -132.01258755914 0 -132.01258755914 426.69553103619728 0 0 0 0 134.77893030570704 -461.95213562593563 0 -461.95213562593563 370.86586274067122 0 0 0 0 1289.5229054974188 279.09469564926985 0 279.09469564926985 -96.527245973968093 0 0 0 0 997.25665310717886 380.73087639233017 0 380.73087639233017 560.87318319447104 0 0 0 0 1407.1266265049344 679.81590311575565 0 679.81590311575565 -190.57818936832518 0 0 0 0 -139.24058991698621 -245.44334069665501 0 -245.44334069665501 -52.695756703946245 0 0 0 0 29.93963540685715 -37.026148115460614 0 -37.026148115460614 46.044398088016997 0 0 0 0 32.983886940586672 -183.75925144038047 0 -183.75925144038047 -154.99958158102891 0 0 0 0 1209.5142633873038 166.2253184838255 0 166.2253184838255 91.849396757699651 0 0 0 0 1303.0513814033911 181.78470426689091 0 181.78470426689091 -46.180166672102132 0 0 0 0 1819.4868652748992 795.15503432678088 0 795.15503432678088 378.33144103087579 0 0 0 0 1039.2637141493979 202.57977652821705 0 202.57977652821705 121.39716473380759 0 0 0 0 1117.2685794066492 9.2748366152072776 0 9.2748366152072776 -70.693533242203557 0 0 0 0 1003.7026799515006 118.39796497682073 0 118.39796497682073 6.4289094804353226 0 0 0 0 448.73256141587626 -288.14824946517911 0 -288.14824946517911 -43.367877984010192 0 0 0 0 862.90048175526317 -280.79586886506331 0 -280.79586886506331 -148.35079952023443 0 0 0 0 825.85263519280124 -225.02156270659725 0 -225.02156270659725 -172.2215853008729 0 0 0 0 1535.3244037073164 -0.34016229146982369 0 -0.34016229146982369 -250.56374361730877 0 0 0 0 616.53589789062971 -33.626344166485069 0 -33.626344166485069 -105.70267658665034 0 0 0 0 568.17154132050928 -220.70553621970066 0 -220.70553621970066 -198.49896048084338 0 0 0 0 990.69520415317675 -527.70124062864579 0 -527.70124062864579 -254.53869073136957 0 0 0 0 431.22557694610441 -527.0657390929191 0 -527.0657390929191 -539.96588994800913 0 0 0 0 -104.74268057853624 -405.72269407430667 0 -405.72269407430667 -121.60191110360029 0 0 0 0 -13.75502116268035 -256.88343472175438 0 -256.88343472175438 -272.58229638854391 0 0 0 0 668.99250953808223 -200.43622854970681 0 -200.43622854970681 -586.03055466221122 0 0 0 0 -349.3662680836278 -204.18029050851146 0 -204.18029050851146 -309.27073548219778 0 0 0 0 -1084.3605333553569 -498.47329170499506 0 -498.47329170499506 -191.96437030744346 0 0 0 0 -965.89162896141852 100.62140900349482 0 100.62140900349482 180.37152551009785 0 0 0 0 -30.287717608574894 -116.13323243676314 0 -116.13323243676314 -1238.915338533232 0 0 0 0 -974.02572811575374 -760.77949544024887 0 -760.77949544024887 -298.11468073925062 0 0 0 0 -55.84283271478489 -299.76186485417202 0 -299.76186485417202 -70.475496583290806 0 0 0 0 -61.231330409238581 66.537148675328353 0 66.537148675328353 15.193367504092748 0 0 0 0 -508.21031083803973 -138.40283968746917 0 -138.40283968746917 53.918630476480757 0 0 0 0 -46.256749916778062 -100.1346283289713 0 -100.1346283289713 63.622687767096068 0 0 0 0 304.08639342438255 -86.737308177736622 0 -86.737308177736622 -35.33481041205232 0 0 0 0 -42.510476252267836 -94.130539142971429 0 -94.130539142971429 56.606968465399405 0 0 0 0 320.31388545507798 -390.06164094324777 0 -390.06164094324777 -121.68237714113548 0 0 0 0 303.30239165911917 -421.16703671494543 0 -421.16703671494543 -107.21703045409231 0 0 0 0 351.89195056389872 -145.76735143767792 0 -145.76735143767792 5.2488537888038991 0 0 0 0 434.69837367434229 -141.99626599366479 0 -141.99626599366479 -30.767911469725732 0 0 0 0 415.78584080780274 -167.39880496248497 0 -167.39880496248497 -12.905797822120803 0 0 0 0 214.11314641740319 -64.892417163593564 0 -64.892417163593564 65.775976593205087 0 0 0 0 670.37369898211909 74.646346078185161 0 74.646346078185161 -46.545947430084198 0 0 0 0 489.54241578254732 102.99271995269919 0 102.99271995269919 -48.070124961363035 0 0 0 0 529.18509868964611 -51.064929874553854 0 -51.064929874553854 -45.000691951048793 0 0 0 0 687.89458153489977 -35.844817141402018 0 -35.844817141402018 -62.880145602361154 0 0 0 0 609.41500999786513 -116.45479203653213 0 -116.45479203653213 -69.131335104761092 0 0 0 0 499.21821459656348 -44.560296375868347 0 -44.560296375868347 -57.902399186474213 0 0 0 0 537.73647254511889 -131.97805222192164 0 -131.97805222192164 -44.922438546484045 0 0 0 0 602.68778716016095 -81.473321584542646 0 -81.473321584542646 -54.678053114930663 0 0 0 0 682.69768727115479 -166.60068298264173 0 -166.60068298264173 -84.737209953946149 0 0 0 0 680.11174982046941 -139.20581290594419 0 -139.20581290594419 -68.537590830112094 0 0 0 0 708.21890848618204 -116.87002407396403 0 -116.87002407396403 -80.343426016101148 0 0 0 0 717.50590421096422 -114.62220885973511 0 -114.62220885973511 -85.307050184874242 0 0 0 0 755.85344843081839 -176.97187242993277 0 -176.97187242993277 -93.275466388797213 0 0 0 0 808.44670893746661 -162.51957031893653 0 -162.51957031893653 -106.34877291959492 0 0 0 0 781.39887934853323 -163.69317974122532 0 -163.69317974122532 -105.24516309041337 0 0 0 0 803.34168035601033 -178.31327116371904 0 -178.31327116371904 -115.57890955983385 0 0 0 0 795.48366401833482 -184.55517325016217 0 -184.55517325016217 -105.84651913405105 0 0 0 0 779.92545164300827 -187.22898286265536 0 -187.22898286265536 -90.803527901682173 0 0 0 0 650.90082363478723 -167.13369295014672 0 -167.13369295014672 -52.157956391514745 0 0 0 0 645.94460255367449 -195.69221306510735 0 -195.69221306510735 -52.331161990798137 0 0 0 0 670.47994377295254 -278.15454037672498 0 -278.15454037672498 -62.020618331069272 0 0 0 0 829.37620792284724 -176.0270626312049 0 -176.0270626312049 -68.766453379492717 0 0 0 0 804.57125365411048 -147.78025992167932 0 -147.78025992167932 -82.687740190234763 0 0 0 0 928.23695595926256 -77.535456277844787 0 -77.535456277844787 -17.833312432096136 0 0 0 0 883.85913077474106 -45.202319592848653 0 -45.202319592848653 175.46301995764134 0 0 0 0 947.16403050962253 -49.411572596396582 0 -49.411572596396582 68.191241655531485 0 0 0 0 906.50507972252672 -124.10677631755971 0 -124.10677631755971 -58.141084167978988 0 0 0 0 864.04156996874372 -110.56399168119788 0 -110.56399168119788 54.015704105884652 0 0 0 0 845.7511644284823 -194.85167596941574 0 -194.85167596941574 -72.040322106301574 0 0 0 0 819.66769708221545 -189.02115407327256 0 -189.02115407327256 -105.92331138537156 0 0 0 0 789.76825674244901 -166.25194696545259 0 -166.25194696545259 -71.591114010592719 0 0 0 0 829.19458081496123 -163.70896554083401 0 -163.70896554083401 -96.741695747641643 0 0 0 0 815.11595575493811 -176.39686541954654 0 -176.39686541954654 -117.34219746199597 0 0 0 0 814.6337151810294 -184.01693697417068 0 -184.01693697417068 -112.76988112793515 0 0 0 0 762.30857025732985 -162.06134144999123 0 -162.06134144999123 -108.18467621365562 0 0 0 0 809.3366244166973 -181.61714895417572 0 -181.61714895417572 -108.56478802384663 0 0 0 0 819.43540230256622 -150.79636074734481 0 -150.79636074734481 -109.69618444664593 0 0 0 0 796.18299214646686 -153.93743641454603 0 -153.93743641454603 -93.191356716128212 0 0 0 0 839.01748059364036 -175.26566083469697 0 -175.26566083469697 -83.755140638758348 0 0 0 0 867.56536507824785 -121.99306412374062 0 -121.99306412374062 -79.334143984509865 0 0 0 0 817.16539706144249 -104.30281788916909 0 -104.30281788916909 -28.27082411489755 0 0 0 0 732.212461041403 -43.302490118793685 0 -43.302490118793685 9.3367639704083558 0 0 0 0 830.55219970969483 -107.39236294249713 0 -107.39236294249713 -72.957383004973963 0 0 0 0 804.62592521152692 -90.012542252276035 0 -90.012542252276035 -81.000242128677201 0 0 0 0 713.87347030331148 -117.2613716509295 0 -117.2613716509295 -84.021088507714012 0 0 0 0 773.20589203423151 -126.68702051620312 0 -126.68702051620312 -109.87365045503248 0 0 0 0 734.75204511507036 -49.06285585607543 0 -49.06285585607543 -91.892250162218261 0 0 0 0 561.02578306628857 17.399640910751259 0 17.399640910751259 -56.019429582450485 0 0 0 0 776.98773397371406 -13.652876011787157 0 -13.652876011787157 -55.960277331990895 0 0 0 0 677.47026037704927 0.99606644343157313 0 0.99606644343157313 138.59617721883114 0 0 0 0 909.40948183409637 -106.58861969224199 0 -106.58861969224199 -28.388533658795041 0 0 0 0 874.14876079303212 1.7714383691545663 0 1.7714383691545663 19.867631758773314 0 0 0 0 863.15443025855348 36.882491284637581 0 36.882491284637581 486.87219518704978 0 0 0 0 935.91045617828786 -50.399322960097834 0 -50.399322960097834 148.70802169519811 0 0 0 0 519.42019521421753 209.31646773809916 0 209.31646773809916 63.524505565054824 0 0 0 0 291.5835807492258 169.38539657730144 0 169.38539657730144 196.07008208822845 0 0 0 0 210.92097008260316 -15.255557895907259 0 -15.255557895907259 -10.723133836734632 0 0 0 0 165.31996061530663 1.5896148398405785 0 1.5896148398405785 81.046220796123407 0 0 0 0 219.2250884425157 31.253045587208362 0 31.253045587208362 70.011155458294525 0 0 0 0 325.10621968330815 133.50889863626617 0 133.50889863626617 92.885442981831602 0 0 0 0 385.88940595529857 90.782227316576609 0 90.782227316576609 67.759758956386577 0 0 0 0 827.63298421373474 490.09099232687731 0 490.09099232687731 143.39052344862648 0 0 0 0 489.56512315916189 263.03590796541516 0 263.03590796541516 119.92296861682917 0 0 0 0 347.08187410963001 128.17471443967042 0 128.17471443967042 -81.474456359515898 0 0 0 0 164.15650862930488 -160.05852549774136 0 -160.05852549774136 -101.93670591973932 0 0 0 0 82.684992237889674 -46.666312153709441 0 -46.666312153709441 118.83950378180816 0 0 0 0 143.22249701977029 -14.159879784934326 0 -14.159879784934326 -7.5146093845873327 0 0 0 0 182.66232037305599 -114.01531090176286 0 -114.01531090176286 -185.86634064017562 0 0 0 0 377.91577826501452 106.4184720122139 0 106.4184720122139 -338.46966653202526 0 0 0 0 -51.357103429618292 -126.46853804195416 0 -126.46853804195416 47.357669245968282 0 0 0 0 69.12087382512982 -24.196231512369195 0 -24.196231512369195 -122.15316712794629 0 0 0 0 141.45521017879946 -99.908997061449099 0 -99.908997061449099 -47.878832018839603 0 0 0 0 134.53637158981292 -58.118355368631455 0 -58.118355368631455 19.619885160369449 0 0 0 0 -2.5183619911690585 6.2748483172279421 0 6.2748483172279421 1.6431894005196845 0 0 0 0 -400.62839756533504 -726.81656506160289 0 -726.81656506160289 -1018.0785676988307 0 0 0 0 -320.53327373333741 -355.69027246588303 0 -355.69027246588303 -548.91095073220276 0 0 0 0 40.507600495085512 17.831366265659721 0 17.831366265659721 -14.715763015140844 0 0 0 0 53.533933087659534 19.37989501829361 0 19.37989501829361 -11.877045037887001 0 0 0 0 6.5815516864414008 35.263520126850281 0 35.263520126850281 -18.53269936938846 0 0 0 0 -320.20625723777619 -286.50665332750651 0 -286.50665332750651 -354.35040755117006 0 0 0 0 53.240253071536415 38.09758010902695 0 38.09758010902695 -24.886932603266871 0 0 0 0 -56.971456676139496 89.907082588879348 0 89.907082588879348 -4.8125862165179569 0 0 0 0 -66.341262088622898 139.42029670680495 0 139.42029670680495 -169.25144995974006 0 0 0 0 0.94900058436905965 21.318681570473927 0 21.318681570473927 8.1335609098268833 0 0 0 0 4.2358637943993926 2.0307850375136667 0 2.0307850375136667 0.59920491420620436 0 0 0 0 -26.754360117462056 -82.524892614555029 0 -82.524892614555029 -18.043950866056548 0 0 0 0 38.05723433093226 12.727060358787639 0 12.727060358787639 -16.751491117503974 0 0 0 0 29.290294217449244 -16.463663014950015 0 -16.463663014950015 -12.41574584824356 0 0 0 0 54.313280196809501 -118.85551761580632 0 -118.85551761580632 -51.415213595560999 0 0 0 0 131.39054301849683 -50.100306195993653 0 -50.100306195993653 38.925185118547233 0 0 0 0 108.60954201917048 -9.3419497935319669 0 -9.3419497935319669 -33.327818716814591 0 0 0 0 234.31837095462834 31.485665107325985 0 31.485665107325985 -18.210811936784921 0 0 0 0 138.41920297898469 -18.639292965870482 0 -18.639292965870482 34.029230446820293 0 0 0 0 113.04989751390531 10.105471977403795 0 10.105471977403795 67.673465015615875 0 0 0 0 244.66569208481815 66.573257665353594 0 66.573257665353594 -13.945284278365762 0 0 0 0 412.30743433689349 97.121763662144076 0 97.121763662144076 32.511065194097682 0 0 0 0 248.56096069814521 47.56363240271321 0 47.56363240271321 71.310563645696675 0 0 0 0 -70.781259831215721 6.4595772317220508 0 6.4595772317220508 98.289599848601938 0 0 0 0 7.0971859342646582 -21.90248239009162 0 -21.90248239009162 -0.42864916280043985 0 0 0 0 149.29885241595912 -19.689010953180059 0 -19.689010953180059 -132.57167788604784 0 0 0 0 62.554092670790851 90.928163238569141 0 90.928163238569141 -28.663352610181391 0 0 0 0 -62.050137886035373 -390.87426214384232 0 -390.87426214384232 135.79315258300994 0 0 0 0 156.08164688794204 49.046115943294353 0 49.046115943294353 -11.085945667184205 0 0 0 0 101.29099699815197 -69.951581124364594 0 -69.951581124364594 13.350877195147405 0 0 0 0 242.17754587237141 39.089262515405153 0 39.089262515405153 78.535672133462867 0 0 0 0 237.01570539013483 53.64280392872206 0 53.64280392872206 37.971538419913486 0 0 0 0 103.91251442026169 23.364488351620878 0 23.364488351620878 92.509186703198793 0 0 0 0 261.37884589948226 47.753402797601666 0 47.753402797601666 16.033589539001696 0 0 0 0 265.01362614496611 30.623723260442603 0 30.623723260442603 94.130845310563018 0 0 0 0 413.27507569917361 106.19967645078214 0 106.19967645078214 55.907728245618273 0 0 0 0 414.55212039648904 96.763262471202324 0 96.763262471202324 110.2804452478772 0 0 0 0 651.30621866395813 123.40841566780364 0 123.40841566780364 105.69150898271846 0 0 0 0 614.24093376545352 178.93115471311194 0 178.93115471311194 63.28058867420259 0 0 0 0 402.20351792618749 116.42575599358861 0 116.42575599358861 88.832420578403799 0 0 0 0 602.03727837017504 170.69887910786019 0 170.69887910786019 33.601089488476646 0 0 0 0 361.93884731903381 151.09053951982378 0 151.09053951982378 110.5727159756716 0 0 0 0 396.09822110895766 90.330987809325961 0 90.330987809325961 5.8576300822605845 0 0 0 0 834.62845039207605 403.72907400475788 0 403.72907400475788 103.96226184857551 0 0 0 0 573.72795356361894 214.57306327379979 0 214.57306327379979 86.353746230815887 0 0 0 0 848.90538491228654 298.60764388444431 0 298.60764388444431 64.066694790792099 0 0 0 0 882.75698169469251 260.56427779333171 0 260.56427779333171 78.616447423863065 0 0 0 0 1098.0111652070773 410.74298275612 0 410.74298275612 34.686162983378154 0 0 0 0 1114.8981014216988 489.77855093912206 0 489.77855093912206 -40.336105989867065 0 0 0 0 1094.6130573496048 419.21534560891996 0 419.21534560891996 17.691793795482226 0 0 0 0 732.29608441975142 363.07500261849782 0 363.07500261849782 121.20205523875484 0 0 0 0 610.17385405651294 161.59526022926184 0 161.59526022926184 65.941207509456035 0 0 0 0 599.99415686645079 166.10327499873893 0 166.10327499873893 76.842368424811866 0 0 0 0 809.5291908410145 380.64327343750301 0 380.64327343750301 -0.1273490182165915 0 0 0 0 1019.1909393301758 549.33443675807848 0 549.33443675807848 -33.340640613507276 0 0 0 0 1073.2408329137252 414.58491745295032 0 414.58491745295032 3.4809678786630229 0 0 0 0 1000.8810145968746 479.79155773746061 0 479.79155773746061 4.1016779472174676 0 0 0 0 1142.6430246798918 74.004043857794386 0 74.004043857794386 8.8733640080099576 0 0 0 0 920.45289209767361 307.92171255204994 0 307.92171255204994 12.372784003473498 0 0 0 0 981.64494634981384 196.9299172384317 0 196.9299172384317 -10.918689647100109 0 0 0 0 790.31362773562432 -8.3856676273771882 0 -8.3856676273771882 6.5609988474861893 0 0 0 0 1273.0711840387085 381.67383834658813 0 381.67383834658813 107.39448060967698 0 0 0 0 1245.5023036439088 352.44956127472142 0 352.44956127472142 16.739453724899249 0 0 0 0 1104.0639586159959 432.8354195639622 0 432.8354195639622 82.658242830435483 0 0 0 0 1233.9125361832848 345.04499397896871 0 345.04499397896871 85.999215244918048 0 0 0 0 1175.3261471374426 492.91236952393228 0 492.91236952393228 44.999514460137107 0 0 0 0 901.86604939622339 371.65471340099884 0 371.65471340099884 15.946285077591426 0 0 0 0 1137.8004530454637 438.79053413726433 0 438.79053413726433 13.569010747180073 0 0 0 0 1018.2256773008121 502.38589029018385 0 502.38589029018385 75.072030970268315 0 0 0 0 857.62164728340213 412.18432871172558 0 412.18432871172558 157.71617650159351 0 0 0 0 1555.7176056299577 212.9230972147825 0 212.9230972147825 104.56771049693089 0 0 0 0 1269.0099526914855 605.57679626940535 0 605.57679626940535 106.61935899170203 0 0 0 0 1748.0482908765334 939.20065783035079 0 939.20065783035079 299.20752304244525 0 0 0 0 2156.02897777412 419.18389789398498 0 419.18389789398498 -582.54062777711079 0 0 0 0 1970.0798947688745 1316.2492386430549 0 1316.2492386430549 618.87895821066923 0 0 0 0 1905.3951298760367 1160.6615325550847 0 1160.6615325550847 247.98257675844161 0 0 0 0 219.663484566845 628.80454905315855 0 628.80454905315855 978.46703597829764 0 0 0 0 297.33350015757605 28.238975004560416 0 28.238975004560416 275.19655075629362 0 0 0 0 1220.4841776954127 533.43583562706044 0 533.43583562706044 112.10090212295472 0 0 0 0 36.536777441089725 -93.226418855097847 0 -93.226418855097847 95.584380685560973 0 0 0 0 -64.00327869769535 -71.16628286346986 0 -71.16628286346986 90.795394721624234 0 0 0 0 -33.258527948724804 -270.46292140619425 0 -270.46292140619425 86.833543788126917 0 0 0 0 -2.3118053648904606 -128.46769024880825 0 -128.46769024880825 66.062996435150126 0 0 0 0 770.24025990132941 -422.94863771409655 0 -422.94863771409655 236.32260307625711 0 0 0 0 3128.2016215313924 1108.91333677281 0 1108.91333677281 -458.54494648008949 0 0 0 0 350.2667269288213 -222.28588023022894 0 -222.28588023022894 34.431194692329882 0 0 0 0 472.74289804662112 288.96581530078674 0 288.96581530078674 -173.04118949898702 0 0 0 0 119.0557665884553 -28.884947433120033 0 -28.884947433120033 34.74750176051748 0 0 0 0 45.338456331970519 -4.5854035698639564 0 -4.5854035698639564 26.744762439454234 0 0 0 0 1860.1527734128176 235.78815764871706 0 235.78815764871706 -209.20908930067071 0 0 0 0 36.952593033114681 41.206560612572275 0 41.206560612572275 20.41275005900934 0 0 0 0 0.35868504429533488 9.9357932908196744 0 9.9357932908196744 35.145662868167619 0 0 0 0 41.139995162258856 -82.786748479962171 0 -82.786748479962171 -2.432896146654457 0 0 0 0 52.18776654645626 -18.698275696099699 0 -18.698275696099699 49.853550972517041 0 0 0 0 30.745251762855332 5.880159886199408 0 5.880159886199408 31.730715300993779 0 0 0 0 52.290722709338297 -2.3778047239625266 0 -2.3778047239625266 25.259598983586784 0 0 0 0 -1.0180574137543132 14.347184034581716 0 14.347184034581716 20.121729140758227 0 0 0 0 1552.2146104972489 291.88562053229907 0 291.88562053229907 -39.620381963248292 0 0 0 0 34.430048950638593 12.744027075366603 0 12.744027075366603 23.475794110870083 0 0 0 0 209.17005527821675 -11.827785025762978 0 -11.827785025762978 18.683746327955305 0 0 0 0 272.11923829774605 171.35039586954144 0 171.35039586954144 219.51236822716965 0 0 0 0 1239.7818710318534 202.53315625991672 0 202.53315625991672 177.00363649243081 0 0 0 0 4.311106609443474 3.0281078941464727 0 3.0281078941464727 0.37434466102659414 0 0 0 0 476.84638995147543 -49.958024930023385 0 -49.958024930023385 89.954479343114144 0 0 0 0 46.408692691853503 8.9900973779635933 0 8.9900973779635933 12.879481175172259 0 0 0 0 31.614414969934501 10.165446547799924 0 10.165446547799924 2.8405470755187432 0 0 0 0 28.911989435000578 42.46452597552161 0 42.46452597552161 -29.987728998571583 0 0 0 0 29.863018682415714 -14.598339382354425 0 -14.598339382354425 29.469309977608646 0 0 0 0 31.080225546384554 6.4591309671585009 0 6.4591309671585009 2.1517653784254414 0 0 0 0 8.6891577999429614 4.5362589389621064 0 4.5362589389621064 1.3591618252886999 0 0 0 0 1.6640712430780695 -27.676960950092337 0 -27.676960950092337 122.78283446728619 0 0 0 0 -26.525023675858392 54.920363328711744 0 54.920363328711744 54.562199670266637 0 0 0 0 26.595195501271519 -79.237877531637423 0 -79.237877531637423 132.51719159587537 0 0 0 0 85.086197913587966 -12.478639144670865 0 -12.478639144670865 40.097592556290692 0 0 0 0 33.020180744420941 -5.021922999405092 0 -5.021922999405092 40.563187326494699 0 0 0 0 5.999136479687877 -19.637712915134216 0 -19.637712915134216 184.85747877961239 0 0 0 0 6.4734939628833672 -4.3607790942492102 0 -4.3607790942492102 67.557577192384088 0 0 0 0 0.33711177529676206 -0.084317614264989516 0 -0.084317614264989516 0.53696482406088109 0 0 0 0 -21.064900492921879 17.944351836173382 0 17.944351836173382 231.008085509382 0 0 0 0 456.2848240363528 -378.25997496033278 0 -378.25997496033278 235.36962782941555 0 0 0 0 551.55597203847719 -219.32257504826748 0 -219.32257504826748 123.59849870154267 0 0 0 0 142.15303047551424 -263.1051202317658 0 -263.1051202317658 207.92191107207918 0 0 0 0 21.927868978236063 5.1450036124861001 0 5.1450036124861001 1.0451147908475544 0 0 0 0 93.835642849415308 48.02733192997357 0 48.02733192997357 -74.501827615172601 0 0 0 0 224.06736567770713 -94.43808248271057 0 -94.43808248271057 133.34828287370965 0 0 0 0 72.121681933786022 -43.404685484055335 0 -43.404685484055335 158.40920952160877 0 0 0 0 53.080914251127979 -110.31852648165204 0 -110.31852648165204 230.21019363017376 0 0 0 0 238.65822170881438 -92.061597425637046 0 -92.061597425637046 149.01771498155131 0 0 0 0 260.58606956514996 -40.371601163692276 0 -40.371601163692276 268.54153566119749 0 0 0 0 360.07882886420703 -248.6302601129164 0 -248.6302601129164 284.65262408864726 0 0 0 0 0.30553853488932248 -0.74599104421093898 0 -0.74599104421093898 -0.2101005593162526 0 0 0 0 228.91732255193347 -87.969474675415313 0 -87.969474675415313 60.936274912916815 0 0 0 0 141.08384644475882 -84.675158043296506 0 -84.675158043296506 134.14585748830683 0 0 0 0 138.18410397888692 -55.658383615959337 0 -55.658383615959337 86.557091778961876 0 0 0 0 161.94731836573919 -29.373477232680216 0 -29.373477232680216 22.905690459073412 0 0 0 0 520.0831623465856 23.236951936087507 0 23.236951936087507 -32.854313185119281 0 0 0 0 282.00109789820272 9.8324798672811085 0 9.8324798672811085 6.1026194556625342 0 0 0 0 3.1752297402272234 -73.240289606464103 0 -73.240289606464103 95.159095401754371 0 0 0 0 11.270276693103369 -36.994433947535072 0 -36.994433947535072 98.673213168279744 0 0 0 0 21.389412120508496 -29.331061512258202 0 -29.331061512258202 103.42637941743578 0 0 0 0 73.82530989847146 -42.031867860592229 0 -42.031867860592229 157.46332731650728 0 0 0 0 76.051494456332875 -47.650525715203912 0 -47.650525715203912 94.266840808663801 0 0 0 0 85.262665074438701 -50.989470553633623 0 -50.989470553633623 40.154685900382901 0 0 0 0 86.149254928561277 -57.988426617638652 0 -57.988426617638652 87.632708104725793 0 0 0 0 3.2511905565479537 -25.204189983195192 0 -25.204189983195192 -63.142826728040745 0 0 0 0 -45.580990602553356 -96.340028119036333 0 -96.340028119036333 48.878667095130368 0 0 0 0 101.62644019384243 0.59874400584101295 0 0.59874400584101295 -13.172854083972197 0 0 0 0 10.895472606280237 -55.806263901932198 0 -55.806263901932198 47.885272749978867 0 0 0 0 -7.5749142472501489 -42.33823338940843 0 -42.33823338940843 -12.611375185468205 0 0 0 0 59.309561036527157 -77.030765212035476 0 -77.030765212035476 -31.583359509725142 0 0 0 0 -106.51342927577207 -67.597156766670651 0 -67.597156766670651 24.311973915816452 0 0 0 0 -7.4979791482182918 -59.788500702982219 0 -59.788500702982219 -77.224214277566716 0 0 0 0 178.17181436621468 71.066490164790139 0 71.066490164790139 -28.942065130624087 0 0 0 0 203.49904402921675 -16.362601786870528 0 -16.362601786870528 -19.873466572551479 0 0 0 0 111.56849209734355 -38.443594905421378 0 -38.443594905421378 21.821292058219569 0 0 0 0 0.2241982969214007 -0.61889949031612446 0 -0.61889949031612446 -0.9285488891331859 0 0 0 0 70.066525509828352 -17.667057182650751 0 -17.667057182650751 44.904025901834757 0 0 0 0 210.16948906735342 35.220518112644413 0 35.220518112644413 -19.248117029342211 0 0 0 0 49.577078336733393 33.397501833806928 0 33.397501833806928 -19.148080536645466 0 0 0 0 -0.18141520038452086 -0.81211095347623541 0 -0.81211095347623541 -0.33226202427657725 0 0 0 0 -3.4629658898556954 90.75487291307445 0 90.75487291307445 -56.005657570567564 0 0 0 0 145.94694973769219 -101.41920323667341 0 -101.41920323667341 -51.626161758020316 0 0 0 0 5.1577618000499115 0.6154647218698166 0 0.6154647218698166 -0.92932549357933425 0 0 0 0 13.432101987855276 -31.173022827750174 0 -31.173022827750174 -129.03913800219198 0 0 0 0 13.194648238975788 1.2900385922239366 0 1.2900385922239366 -146.02288942915038 0 0 0 0 -9.9547288527537603 -14.026802935168234 0 -14.026802935168234 -100.55044301035923 0 0 0 0 -37.635216576367384 -43.749876110858168 0 -43.749876110858168 -132.00578491688066 0 0 0 0 -32.185911868597032 -27.346079519677915 0 -27.346079519677915 -61.079820445193036 0 0 0 0 61.696436888159951 70.986022284934734 0 70.986022284934734 -49.362177219907608 0 0 0 0 102.60673090614364 283.07770775024539 0 283.07770775024539 665.29671098561084 0 0 0 0 321.27377723593963 114.82840636146466 0 114.82840636146466 52.262982088679564 0 0 0 0 -68.209005073949811 -109.27703102951546 0 -109.27703102951546 -47.512183860741061 0 0 0 0 6.9467524314408138 -5.8225321601734947 0 -5.8225321601734947 5.0759590606400167 0 0 0 0 94.255179157407838 -32.403011045911171 0 -32.403011045911171 -109.86298552064181 0 0 0 0 -28.347429571498651 -40.505381056669648 0 -40.505381056669648 -85.202367531135678 0 0 0 0 64.902607797994278 -102.02944530862987 0 -102.02944530862987 -63.137347195763141 0 0 0 0 1.79736388718581 0.83123867921429451 0 0.83123867921429451 0.86893312496759734 0 0 0 0 53.811981266902876 -21.551864655681129 0 -21.551864655681129 7.062383369599047 0 0 0 0 46.227664658683352 -49.014049230331693 0 -49.014049230331693 -102.52074629224808 0 0 0 0 41.085669888430857 -32.336633651430475 0 -32.336633651430475 31.660419317675405 0 0 0 0 10.574959450805864 -1.1338972807661989 0 -1.1338972807661989 -0.14254798505724331 0 0 0 0 699.66243909293553 437.72630422622751 0 437.72630422622751 183.14016572312539 0 0 0 0 726.52235464888508 553.60091936328354 0 553.60091936328354 507.26452051802062 0 0 0 0 -0.66019236461386299 -1.0350597521796985 0 -1.0350597521796985 1.3020294609421139 0 0 0 0 546.04900529989391 505.119943515263 0 505.119943515263 101.27713922831208 0 0 0 0 929.5157713653316 626.17537526585284 0 626.17537526585284 172.13141595914931 0 0 0 0 731.27003730070737 652.49122753975985 0 652.49122753975985 187.00829369232088 0 0 0 0 913.12888951909554 932.61382240344665 0 932.61382240344665 344.52479707247403 0 0 0 0 1149.6447318456703 1472.7241416609786 0 1472.7241416609786 980.44916730860859 0 0 0 0 607.75348551353454 797.00611696940723 0 797.00611696940723 629.29795180328802 0 0 0 0 680.67626904963981 818.04575087922422 0 818.04575087922422 323.92633472724788 0 0 0 0 269.96633795723028 219.2113843621928 0 219.2113843621928 1461.4534050766088 0 0 0 0 439.56452372194326 225.73895073832409 0 225.73895073832409 -104.76758352338038 0 0 0 0 127.22489606278759 466.74378180524411 0 466.74378180524411 892.88568306043817 0 0 0 0 1404.792325021248 863.81848010298017 0 863.81848010298017 1761.9581651020226 0 0 0 0 1269.5462673548172 -274.59406604761489 0 -274.59406604761489 920.93916991431797 0 0 0 0 2066.5608508325604 857.094550786936 0 857.094550786936 0.78015112102366402 0 0 0 0 1003.3020592427056 207.54455691432986 0 207.54455691432986 101.73819813903356 0 0 0 0 374.05431854896597 -338.03292932872364 0 -338.03292932872364 793.82719609401829 0 0 0 0 425.21230105881114 -32.573887277500944 0 -32.573887277500944 6.5321887906056872 0 0 0 0 634.76472565442964 -42.848472840960312 0 -42.848472840960312 401.23791097522553 0 0 0 0 611.01081381677068 21.998563819399351 0 21.998563819399351 817.47808849354101 0 0 0 0 960.72987373775686 -117.58709829441523 0 -117.58709829441523 460.65142443415243 0 0 0 0 452.48025333809346 -749.84322437175979 0 -749.84322437175979 -127.44905535063481 0 0 0 0 2333.2622721249354 415.02685809340619 0 415.02685809340619 446.85952043558655 0 0 0 0 -170.16190802893834 311.36547317379154 0 311.36547317379154 411.51760939168105 0 0 0 0 40.612121308242138 -2.7391826853284189 0 -2.7391826853284189 0.38636925671362299 0 0 0 0 730.38485460115771 1143.2725992410487 0 1143.2725992410487 1385.6955055279323 0 0 0 0 1584.3344068186707 1850.8279446294982 0 1850.8279446294982 1725.1976677445919 0 0 0 0 2022.8710216130712 -1081.4846292925467 0 -1081.4846292925467 -501.84349944934729 0 0 0 0 3017.0783425640548 1882.7778296685647 0 1882.7778296685647 668.04863792444235 0 0 0 0 692.37855892994048 127.13538899757191 0 127.13538899757191 -86.662666904663638 0 0 0 0 3077.7587838231557 -1077.4111506797376 0 -1077.4111506797376 4125.8178424565267 0 0 0 0 3442.6863616168557 1507.9018191700598 0 1507.9018191700598 46.450754325607704 0 0 0 0 433.72885889263125 -26.705794654644706 0 -26.705794654644706 61.216241784779413 0 0 0 0 2.3264246060185805 5.0855538712893349 0 5.0855538712893349 42.753086508216136 0 0 0 0 587.0843144418468 114.13433758260908 0 114.13433758260908 -98.765815722636034 0 0 0 0 -197.51368331964477 -224.44701174479906 0 -224.44701174479906 85.948797642635327 0 0 0 0 -220.43309329272597 -113.07560399110116 0 -113.07560399110116 65.382148335869488 0 0 0 0 3.098783827738913 -3.0583294302225283 0 -3.0583294302225283 1.4344198019612975 0 0 0 0 -135.67739658447681 -10.330650262077143 0 -10.330650262077143 -19.109936348098927 0 0 0 0 548.36641219662852 174.63733152572104 0 174.63733152572104 -72.569689155068772 0 0 0 0 381.89498413613182 236.80085990647513 0 236.80085990647513 -77.73850021621422 0 0 0 0 135.50094998415443 -164.77320875030819 0 -164.77320875030819 305.36452518975784 0 0 0 0 -111.47109993245704 -124.20103060344888 0 -124.20103060344888 -113.57584653118283 0 0 0 0 5.3309455916219974 -6.4981425210539498 0 -6.4981425210539498 5.1439936179075225 0 0 0 0 465.85324443277204 -24.536561552258718 0 -24.536561552258718 222.51726638532818 0 0 0 0 2.2543839739800688 3.7518276599882086 0 3.7518276599882086 21.172485080244741 0 0 0 0 3275.1137767530454 1396.9128568852739 0 1396.9128568852739 -230.94275570747413 0 0 0 0 2554.7498266429029 310.19762283757655 0 310.19762283757655 -1853.3282158137008 0 0 0 0 5404.5342019295786 -1092.5403434218824 0 -1092.5403434218824 -2598.3152977728023 0 0 0 0 442.13059639649873 129.88895031954098 0 129.88895031954098 -50.27393097368622 0 0 0 0 
</DataArray>
<DataArray type="Float64" Name="cross_section_updated" format="ascii">
1 1 1 0.0099228447703378908 0.012899720654042178 1 1 1 1 1 1 1 0.011606870769065997 1 1 0.012331611104291748 1 1 0.010773604245575406 1 1 1 1 1 1 1 1 1 1 1 1 1 1 1 0.012596114024323694 1 1 1 0.016185955568656728 1 1 1 1 1 1 1 1 1 0.0077938075071211557 1 1 1 1 1 0.0093804483375600177 1 1 1 1 1 1 1 0.011598161887261881 1 1 1 1 1 1 1 1 1 1 1 1 1 1 1 1 1 1 1 1 1 1 1 1 1 1 1 1 1 1 1 1 1 1 1 1 1 1 1 1 1 1 1 1 1 1 1 1 1 1 0.010202065223375377 1 1 1 1 1 1 0.010052757680077315 1 1 1 1 1 1 1 0.0097365728713358149 1 0.0085017639540806815 1 1 0.015446422290273994 1 1 1 1 1 1 1 1 1 1 1 1 1 1 1 1 1 1 1 1 1 1 1 1 1 1 1 1 1 1 1 1 1 1 1 1 1 1 1 1 1 1 1 0.011970574410685025 1 1 1 1 0.010149307543298066 1 1 1 1 1 1 1 1 1 1 1 1 1 1 1 1 1 1 1 1 1 1 1 1 1 1 1 1 1 1 1 1 1 1 1 1 1 1 1 1 1 1 1 1 1 1 1 1 1 1 1 1 1 1 1 1 1 1 0.0093508660372705679 1 1 1 1 1 1 1 1 1 1 1 1 1 1 1 1 1 1 1 1 1 1 1 1 1 1 0.010499089293144179 1 0.0087970596895952154 1 1 1 1 0.012609596499216946 1 1 0.010007218820150553 0.015808190605057212 0.010930018200687749 1 0.010710240609479857 1 1 0.012601019666410361 1 1 0.0098540962734713147 1 0.011497106587443745 0.010128155590241062 1 1 1 1 1 0.011805735297182995 1 1 1 1 0.012251706770144109 1 0.0097797794774789806 1 1 1 1 1 1 0.0094259053610364473 1 1 1 1 1 1 1 1 1 1 1 1 1 1 1 1 1 1 0.015490634559206545 1 0.011609778377843528 0.01314852830462996 1 0.011043425149202694 1 0.017397174091906262 1 1 1 1 1 1 0.011748675593535672 1 1 1 1 1 1 0.010527174242790413 1 1 1 1 1 0.014153566043115701 1 1 1 1 0.015829484007406372 1 1 1 1 1 1 1 1 0.021350730152770454 1 1 1 1 1 1 1 1 1 1 1 1 1 1 0.019924577255799845 1 1 1 1 0.0091356971674425129 1 1 0.014529985784355375 1 1 1 1 1 1 1 1 0.010585330024408094 1 0.011984431011628442 1 0.011736266811107194 1 1 0.013559578489341292 1 1 0.017194415161563441 1 0.011903497836558686 1 0.012488310665717836 1 0.013523696803069189 1 1 0.010875919480961161 1 0.010159868277747437 0.010630101378625408 1 1 0.012762758416356684 1 0.011636875314216415 0.01163263524704755 1 0.011468154829957819 1 1 0.0087758592319947537 1 0.010847749784392815 1 1 1 1 1 1 1 1 1 1 1 1 1 1 1 1 0.011466650028543815 1 1 1 1 1 1 1 1 1 1 1 1 1 1 1 0.0097043513104138664 1 1 1 1 1 1 1 0.011385927809125096 1 1 1 1 1 1 1 1 1 1 1 1 1 1 1 1 1 1 1 1 1 1 1 1 1 1 1 1 1 1 0.0090152897868324075 1 1 0.0072907201877600719 1 1 1 1 1 1 1 1 0.025140803538627476 1 1 1 1 0.027563122847412608 1 1 1 1 1 0.0083774162438026295 1 1 1 0.018817119721732133 1 1 0.012255842099501108 0.010266803539936762 1 1 1 1 1 0.028867121663825272 0.0061714889669681749 1 1 1 1 0.013223526671069619 1 1 1 1 1 1 1 1 1 0.01260601225493159 1 1 1 1 0.016277271878312412 1 1 0.013410904429058264 1 1 1 1 1 0.011614411671319103 1 1 1 1 1 1 1 1 1 1 1 1 1 1 1 1 1 1 1 1 1 0.012660384929270754 1 1 1 1 1 1 1 1 1 1 1 1 1 1 1 1 0.016868203712017013 1 1 1 0.0087780273280793283 1 1 0.01671659806407997 1 0.015835298967095367 0.0080483156675076606 1 1 1 1 1 1 1 1 0.012815966930298888 1 1 0.022676902297790152 1 1 1 1 1 1 1 1 0.012030672256581852 1 1 1 1 0.020068007714375981 1 1 1 1 1 1 1 1 1 1 1 1 1 1 1 1 1 1 1 1 1 1 1 1 1 1 1 1 1 1 0.010441614587740254 0.010858988825232698 1 1 1 1 1 1 1 0.01061129067356412 1 1 1 1 1 1 0.010973280388582692 1 1 0.012587713496298664 0.006294783461735641 1 0.0099920976435269697 0.011941020784346387 1 1 1 1 1 1 0.011408800783624414 1 0.01248476984696633 1 0.011254284801077688 1 1 0.012001441713122077 1 1 1 0.010294998445595942 1 1 1 1 1 1 0.010479668131701614 1 1 0.010066029353610562 1 1 1 1 1 1 1 1 0.010268361126136428 1 1 1 1 1 1 1 1 1 1 1 1 0.022101041481735677 1 1 1 0.020671824306908802 1 1 1 1 1 1 0.010352506902742314 1 1 1 0.01097456006687878 1 1 1 1 1 1 1 1 0.010347390990086511 1 0.0098035910666965757 1 1 1 1 1 1 1 1 1 1 0.011264165725355883 1 1 1 0.022904165282587496 1 1 1 0.013778369217386151 1 1 1 0.010041728755079049 0.016306544384699292 1 1 0.01342747093013902 1 1 1 0.023331065965517636 1 1 0.021817471606009033 1 1 1 1 0.0096975166531666056 1 0.013146066791063844 1 1 1 1 1 1 1 1 0.020168931601349888 1 1 1 1 1 0.0055697914181703223 1 0.026360161443830236 1 0.017799469363008441 1 1 1 1 1 1 1 1 1 1 1 1 1 1 1 1 1 0.020650434003172853 1 1 1 1 1 1 0.011279700002338073 1 1 1 1 1 1 1 1 1 1 1 1 1 1 1 1 1 1 0.0099431529654352303 1 1 1 1 1 1 1 1 1 1 1 1 0.022664633399499725 0.0088244233369904716 1 1 1 1 1 0.0099828783124228763 0.018223976398652308 1 1 0.027642542507642649 1 1 1 0.015309270054914623 1 1 1 0.031962107451394141 1 0.013245675489460602 1 1 1 1 1 0.033428259966305995 1 1 1 1 0.02766702192520086 1 1 1 0.0094147643502316032 1 1 1 0.013151293369754331 1 1 0.019208917144185572 1 1 1 1 1 1 1 1 0.0075369555160426345 1 1 1 1 0.015468209807003907 1 1 1 1 1 1 1 1 1 1 1 1 1 1 1 1 0.013914346756420729 1 1 0.026924461245983224 1 1 1 1 1 1 1 1 0.026869993027801985 1 1 0.025442248323941423 1 1 1 1 1 0.02337275954902427 1 1 1 1 0.010085924174696418 1 1 1 1 0.020094915170801943 1 1 0.010227631569527955 1 1 1 1 1 1 1 1 1 0.013660488514112019 0.018893799338570067 1 1 1 1 1 0.017764094566075788 1 0.010085943729562492 1 1 1 1 1 1 1 0.015335180333898539 1 1 1 0.0094879068903151974 1 1 1 0.02063231448326313 1 1 1 1 1 0.016638843621091755 0.012066181309629782 0.01531420312559976 0.0096612321788706358 1 1 1 1 0.014402427655706176 1 1 1 1 1 1 1 1 1 1 1 1 1 1 1 1 1 1 0.01370083312896447 1 1 1 0.011557821152320496 1 1 1 1 1 1 1 1 1 1 1 1 1 1 1 1 0.0097352725582911942 1 1 1 1 1 1 1 1 1 1 1 1 1 0.014908398504138134 1 0.014003535731949361 1 1 1 1 1 0.0099906350614503564 0.019109869002678585 1 1 0.011169226204972195 1 0.01385160930760054 1 1 1 1 1 1 1 1 1 1 0.011263167118949931 1 1 1 1 1 1 1 1 1 1 1 1 1 1 1 1 1 0.010894417226254706 1 1 1 1 1 1 1 1 1 1 1 1 1 1 1 1 1 1 1 1 1 1 1 0.015285598284185263 1 0.012037970172000527 1 1 0.010615739308628901 1 1 1 0.0098894031103898394 1 1 1 1 1 1 1 1 1 1 1 1 1 1 1 1 1 0.013659021409587545 1 1 1 1 1 1 1 1 1 1 1 1 1 1 1 0.010731030417786192 1 1 1 1 1 1 1 1 1 1 1 1 1 1 1 1 1 1 1 1 1 1 0.011235707404953912 1 1 1 1 1 1 1 1 1 1 0.010686577823957048 1 1 1 1 1 1 0.010181900836789333 1 1 1 1 1 1 1 1 1 1 1 1 1 1 1 1 1 1 1 1 0.0101221247109833 1 1 1 1 1 1 1 1 1 1 1 1 0.014254411141289728 1 1 1 0.010487079974886997 1 1 1 1 1 0.0082420170901156935 1 1 1 0.017719790827161592 0.012320252551286603 1 1 1 1 1 1 1 0.010805256022582192 1 1 1 1 1 1 1 1 1 1 1 1 1 1 0.0093044828343011796 1 1 1 0.036165694723970215 1 1 1 1 1 1 1 1 1 1 1 1 1 1 1 1 1 0.013055165703781178 1 1 1 1 0.01280962379163866 1 1 0.014064089379638213 1 1 1 0.011106080503418027 1 1 1 1 1 1 1 1 1 1 1 1 1 1 1 1 1 1 1 1 1 1 1 1 1 0.035422661669237285 1 1 1 1 1 1 1 1 1 1 1 1 0.03454427565667853 1 1 1 1 1 1 1 1 1 1 1 1 1 1 1 1 1 1 0.010519932092875934 1 1 1 1 1 1 1 1 1 1 1 0.011195912319289077 1 1 1 1 1 0.010675980226413157 1 0.011124259446302584 1 1 1 1 1 1 1 1 1 1 1 1 1 1 0.01113472759422782 1 1 1 1 1 1 1 1 1 1 1 1 1 1 1 1 1 1 1 1 1 1 1 1 1 1 1 1 1 1 1 1 1 1 1 1 1 1 1 1 1 1 1 1 1 1 1 1 1 1 1 1 1 1 1 1 1 1 1 1 1 1 1 1 1 1 1 1 1 1 1 1 1 1 1 1 1 1 1 1 1 1 1 1 1 1 1 1 1 1 1 1 1 1 1 1 1 1 1 1 1 1 1 1 1 1 1 1 1 1 1 1 1 1 1 1 1 1 1 1 1 1 1 1 1 1 1 1 0.026878860923872747 1 1 1 1 1 1 1 1 1 1 1 1 1 1 1 1 1 0.010771814573083967 1 0.011898387463082152 0.023902358522355963 1 1 1 1 1 1 1 1 1 1 1 1 1 1 1 1 1 1 0.018893346104568779 1 1 1 1 1 1 1 0.0097087611308686542 1 1 1 1 1 1 1 1 1 1 1 1 1 1 1 1 1 1 1 0.020279763933983515 1 1 1 0.0099960258474228528 1 0.011385661302204617 1 1 0.009960987595583868 1 1 1 1 0.022349233898051865 1 0.020081717845599506 1 1 1 0.011038945335506631 1 1 0.010073562196356129 1 1 1 1 0.0099817220240412188 1 1 1 0.011010609550382029 1 1 0.01424167229799315 1 0.014689810923911825 1 0.012312205889338113 1 0.011172007491316693 1 0.010027925546011696 1 1 1 1 1 1 1 1 0.013844479371907222 1 1 1 1 1 0.013444713104158994 1 0.010070982218354479 1 1 1 1 1 1 1 1 1 1 1 1 1 1 1 1 1 1 1 1 1 1 1 1 1 1 1 1 1 1 1 1 1 1 1 1 1 0.010102788333881896 1 1 1 1 0.010092429523928796 1 1 1 1 1 0.012442742110843466 1 1 1 1 1 0.011266736951143993 1 1 1 1 1 1 1 1 1 0.010285014641144508 0.010072566717299253 1 1 1 1 1 1 1 1 1 1 1 1 1 1 1 1 1 1 1 1 1 1 1 1 1 1 1 1 1 1 1 1 1 0.018191454220016168 1 0.0098324045727804857 1 1 1 1 1 1 1 1 1 1 1 1 1 0.01025385245540222 1 1 1 1 1 1 1 1 1 1 1 1 1 0.020473473015341678 0.010982354774355309 1 1 1 1 1 1 1 1 1 1 0.012108927664353501 1 1 1 1 1 1 1 1 0.02174281147987351 1 1 1 1 1 1 1 0.01044693678759815 1 1 1 1 1 1 1 1 1 1 1 1 1 1 1 0.015370042662678569 1 1 0.013850107679771659 1 1 1 1 0.010304563505221388 1 1 1 1 0.016323164449787368 1 1 1 1 1 1 1 1 1 1 1 1 1 1 0.0099943875733769106 1 0.0098899910600638713 1 1 1 1 1 1 0.011365045811682045 1 1 1 1 1 1 1 1 1 1 1 1 1 1 0.01020252878143448 1 1 1 1 1 1 0.0099700733985173869 1 1 1 1 1 1 1 0.012869900840075651 1 0.016480929104401392 0.0098827387703343539 1 0.017745224954356008 1 1 1 1 1 1 1 1 1 1 1 1 1 1 1 1 1 1 1 1 1 1 1 1 1 1 1 1 1 1 1 1 1 1 1 1 1 1 1 0.01250512954125254 1 1 1 1 1 1 1 1 1 1 1 0.010974261568915396 1 1 1 1 1 0.011118018257729949 1 1 1 1 1 1 1 1 1 0.011863721046619133 1 1 1 0.01227812533005844 1 1 1 1 1 1 1 1 1 1 1 1 1 1 0.012503964511853614 1 1 0.010000362171256794 1 1 1 1 1 1 1 1 1 1 1 0.01008427047351871 1 1 1 0.0093995968890016879 1 1 1 0.012782221428641147 1 1 1 1 1 1 1 1 1 1 1 1 1 1 1 1 1 1 1 1 0.010001861213997286 1 1 1 1 1 1 1 1 1 1 1 0.010378512498856128 1 0.011430009966280198 1 1 1 1 1 1 1 1 1 0.010120761537966545 1 1 1 1 1 1 1 1 1 1 1 1 1 0.012179694137245425 1 1 1 1 1 1 1 1 1 1 1 1 1 1 1 1 1 1 1 1 1 1 1 1 1 1 1 1 1 1 1 1 1 1 1 1 1 1 1 1 1 1 1 1 1 1 1 1 1 1 1 1 1 1 1 1 1 1 1 1 1 1 1 0.0101236297101268 1 1 1 1 1 1 1 1 1 1 1 1 1 0.0089699402169361297 1 1 1 0.0079895075896559038 1 1 1 0.012202280474719114 1 0.013256549711326955 1 0.010632008381199952 1 1 1 1 0.011344761857703816 1 0.0099482508723472383 1 1 1 1 1 1 1 0.010027654340014805 1 1 1 1 1 1 1 1 0.010415960216036975 1 1 1 1 0.013482057645010571 1 1 1 1 1 1 1 1 1 1 1 0.013873156974089173 1 1 1 1 1 1 1 1 1 1 0.011780530367549197 1 1 1 1 1 1 1 0.010243654075842795 1 1 1 1 1 1 1 1 0.010226126519936776 1 1 1 1 1 1 1 1 1 1 1 1 1 1 1 1 1 1 1 1 1 1 1 0.010129717764298364 1 0.010112490715296352 1 1 1 1 1 1 1 1 1 1 1 1 1 1 1 1 1 1 1 1 0.010707358212807071 1 1 1 1 1 1 1 1 1 1 1 1 1 1 1 1 1 0.011947103570128972 0.0094849699798587143 1 1 0.010182718495216079 1 1 0.012635237089804959 1 1 1 1 1 1 1 1 1 1 1 1 1 1 1 1 1 1 1 1 1 1 1 1 1 1 1 1 1 1 1 1 1 1 1 1 1 1 1 1 1 1 1 1 1 1 1 0.010579995631274808 1 1 1 1 1 1 0.011869411386563651 1 0.0098957610034129465 0.012013792295646496 1 0.013631545877141507 1 1 1 0.012608546874919555 1 1 1 0.010179000168237182 1 1 1 1 1 1 0.010047261258365518 1 1 1 1 1 1 1 0.010174332777919921 1 1 0.012745127504328359 1 0.012285711433666717 1 1 1 0.012259677534707036 1 1 1 1 1 1 1 1 0.010180665394514996 1 1 1 0.017036758188507875 1 1 1 1 1 1 1 1 1 0.0099669050128913649 1 1 0.010200645217542534 1 0.0098981765365186228 1 1 1 0.010053241921172955 1 1 1 1 0.012587381720028799 0.010255610433539886 1 1 1 1 1 1 1 1 0.012407939455429019 1 1 0.01162787735191544 1 1 0.011553810181802593 1 1 1 0.010004091176310789 0.010411705042548475 1 1 0.0099917255228608535 1 1 1 1 1 0.011051666439068061 1 1 1 1 1 1 1 1 1 1 1 1 1 1 1 1 1 1 1 1 0.009957110553620873 0.016678509890547338 1 1 1 1 0.012425661989984287 0.012328447836542425 1 1 1 1 0.012805646036365338 1 1 1 1 1 1 1 1 1 1 1 1 1 1 1 1 1 1 1 1 1 1 1 1 1 1 1 1 1 1 1 1 1 1 1 1 1 0.010142105420519059 1 1 1 1 1 0.0097876588012791449 1 1 1 1 0.010004742758051442 1 1 0.0099942135825298456 1 1 1 1 1 1 1 1 0.010004744276194985 1 1 1 1 1 1 1 0.010000372064576147 1 1 0.010033153004195102 1 1 1 1 1 1 1 1 1 1 1 1 1 1 1 1 1 1 0.010026943806283372 1 1 0.0099571029437820913 1 1 0.010091260642282249 1 1 1 1 0.012649972263741649 1 1 1 1 1 0.011825113161568417 0.012393459474538952 1 0.0099474637746054875 1 1 1 1 1 1 1 1 1 1 1 1 1 1 1 1 1 1 1 1 1 1 1 1 1 1 1 1 1 1 1 1 1 1 1 1 1 1 1 1 0.010144297279840307 0.011442101259038197 1 1 1 1 0.012470958411275927 1 0.010418255396356275 1 1 1 1 1 0.010013080375690042 0.010478634207741193 1 1 1 1 0.011103433743024645 1 1 0.011421933353322609 1 1 0.010193802264711886 1 1 1 1 1 1 1 1 0.011196166584567548 1 1 1 1 0.013145293779221356 1 1 1 1 0.011220852132781005 1 1 1 1 1 0.012634814662210295 1 0.01259255983254453 1 1 1 1 1 1 1 0.010016932058103625 1 1 0.0098896137676576304 1 1 0.0091238459898149091 0.011449578425039797 1 0.011279655052150991 1 0.0099933245849638114 1 1 1 1 1 1 1 1 1 1 1 1 1 1 1 1 1 1 1 1 1 1 1 1 1 1 1 1 0.011393732544147266 1 1 1 1 1 1 0.011944785965510969 1 1 1 1 1 1 1 1 1 1 1 1 1 1 1 1 1 1 1 1 1 1 1 1 1 1 1 1 1 1 1 0.01288488267176157 1 0.01149115012761432 1 1 1 1 0.011738616411292053 1 1 1 1 1 1 1 1 1 1 1 1 1 1 1 1 1 1 1 1 1 1 1 1 1 1 1 1 1 1 1 1 1 1 1 1 1 1 1 1 1 1 1 0.013548646454821667 1 1 1 1 1 1 1 1 1 1 1 1 0.011379258359996355 1 1 1 1 1 0.012741944145281639 1 1 1 1 1 1 1 1 0.010931914101752011 1 1 1 1 1 1 1 1 1 1 1 1 1 1 1 1 0.0097809761507261107 1 1 1 0.0093500772157198812 0.013119705033761767 1 1 0.011867660706594764 1 1 1 0.0091417878313768894 1 1 1 1 0.013012345212419299 1 1 1 1 1 1 1 1 1 1 1 1 1 1 1 1 1 1 0.010672082718360711 1 1 1 1 1 1 1 0.0096958155706147117 1 1 1 1 1 1 1 1 1 1 1 1 1 1 1 1 1 1 1 1 0.010699195152131712 1 1 1 1 1 1 1 0.0090277960898221682 1 1 1 1 1 1 1 0.011977163238176955 0.0085994412796793953 1 1 1 1 1 1 1 1 1 1 0.019926887883019488 1 0.012248984723575948 1 0.0098536967614132956 1 1 1 1 1 1 1 1 1 1 0.034523720714344258 1 1 0.035363726829972061 1 1 1 1 0.014389722275631851 1 1 1 1 1 1 1 1 0.0097415692504059723 1 1 1 1 1 1 1 1 1 1 1 1 1 1 1 1 0.013075379375720321 1 1 1 1 1 1 1 1 1 1 0.011580293965654929 1 1 1 1 1 0.010459683802366643 1 1 1 1 0.022044659011539992 1 1 0.022188173748296409 1 1 1 1 1 1 1 1 0.01379812697699425 1 1 1 1 1 1 1 1 1 1 1 1 1 1 0.011327519207964397 1 1 1 1 1 1 1 1 1 1 1 1 1 1 0.010062594776764463 1 0.0094101732397539953 1 1 1 1 1 0.015731013590053675 1 0.0075811275056358908 1 1 1 1 1 1 1 0.010103445241068786 1 1 1 1 1 1 1 1 1 1 1 1 1 1 1 0.0091775558334012599 1 1 1 1 1 1 0.011268867529195897 1 1 1 1 1 0.0096116206046135966 1 1 0.0098475453046131742 1 1 1 0.0078243433461260004 0.015555097501737919 1 1 1 1 0.014560995597676374 1 0.0099038477479563361 1 1 1 1 1 1 1 1 1 1 0.013591781224687936 1 1 1 1 1 0.0087813267537931589 1 1 1 1 1 1 1 1 1 1 1 1 1 1 1 1 1 1 1 0.0094936170078272417 1 1 1 1 1 1 1 1 1 1 0.012336779638392283 1 1 1 1 0.0088300761527436034 1 1 0.0089098428411317297 0.014139882601603183 1 1 1 0.0092287823073121944 1 1 1 1 1 1 1 1 1 1 1 1 1 0.0083471505668184856 1 0.011095246613061598 1 0.0081353273738115073 1 1 1 1 1 1 0.010102456321369708 1 1 1 1 1 1 1 1 1 1 1 1 1 1 1 1 1 1 1 1 1 1 1 1 1 1 1 1 1 1 1 1 0.012464136822816267 1 1 1 1 0.01107702553929367 1 1 1 1 1 1 1 1 1 1 1 1 1 1 1 1 1 1 1 1 1 1 1 1 1 1 1 1 1 1 1 1 1 1 0.013052643564470577 1 1 1 1 1 0.020548924093507392 1 1 0.017769364080098826 1 1 1 1 1 1 1 0.009444863959738134 1 0.010128867912220039 1 1 1 1 1 1 1 1 1 1 1 1 1 1 1 1 1 1 1 1 1 1 0.019848389942655573 1 1 1 1 1 0.014047686614456725 1 1 1 1 1 1 1 1 1 1 1 1 1 1 1 1 1 1 1 1 1 1 1 1 1 1 1 1 1 0.014410583395462178 0.011726142049547968 1 1 1 1 0.018536138050760556 0.01005575768228785 1 1 1 1 0.014208806763111009 0.012898751092933678 1 1 0.012921623064859604 1 1 1 0.022295684530721858 1 1 1 1 0.023379809361104932 1 1 1 0.013416392692108595 1 1 1 1 1 1 1 1 1 1 1 1 0.012438420975839446 1 1 1 1 1 1 1 1 1 1 1 1 1 1 1 1 1 1 1 1 1 1 1 1 1 1 1 1 0.0092321848879917366 1 0.010789051236083919 1 1 0.010173751451036033 1 1 0.0099532633785588062 1 1 1 1 1 1 1 1 1 1 1 1 1 1 1 1 1 1 1 1 1 1 1 1 1 1 1 1 1 1 0.014854138166870859 1 1 0.013153816141220916 0.01466995806801584 0.011444233945525769 1 1 0.01775635945833676 1 1 1 1 1 1 1 0.0099946545363018557 0.016779686837499454 1 1 1 0.0093607681683259246 1 0.017791768502380831 0.011124238597729061 1 1 1 1 0.010947861502118515 1 1 1 1 1 0.010065772768116496 1 1 1 1 1 1 0.018463577227347636 0.015448033230770992 1 1 1 0.010846301119113074 1 0.01856370721489304 0.011172222213549408 1 1 0.0099497729027427026 1 1 1 1 0.010003058033293002 1 1 1 1 0.0097149075450348385 1 1 1 1 1 1 1 1 0.014636176415980012 1 1 1 1 0.010560234700493491 1 0.014250337194323053 1 1 1 1 1 1 1 0.0099958762480219232 0.0099328823580762463 1 0.017038364250056268 1 1 1 1 1 1 0.010022761958115446 1 0.016170717646186571 1 0.0080988442952093908 1 1 1 1 1 1 1 1 1 1 1 1 0.010375811311847975 1 1 1 0.010030615404359206 1 1 0.020739161793073509 0.021477078994549988 1 1 1 1 1 1 1 1 1 1 1 1 1 1 0.010021351207283478 1 1 1 1 1 1 1 0.0099911032925153829 0.0099807395972302745 1 1 0.01407103986456831 1 1 1 1 1 0.013697747658876443 1 1 1 1 1 1 1 1 1 1 1 1 1 1 1 1 1 0.021756250009630669 0.010396496754829353 1 0.0097277873230346614 0.013061706830325247 1 1 1 1 1 1 1 0.023882106686000715 1 1 1 0.0099750890826454768 1 1 0.023510883942231733 1 1 1 1 1 1 0.0061984342143084313 1 1 1 0.0042468914331760758 1 1 0.010972282476530187 1 1 1 1 1 1 1 1 1 1 1 1 1 1 1 1 1 1 0.010590477739188045 1 1 1 1 1 0.0077736269702539662 1 1 1 1 1 1 1 1 1 1 1 1 1 1 1 1 1 1 0.010145193397275763 1 1 1 1 1 0.010050007471610507 1 1 1 1 1 1 1 1 1 1 1 1 1 1 1 1 0.010003730485308514 1 1 1 1 1 1 1 0.01002728199839451 1 0.010024729000902746 1 1 1 1 1 1 1 1 1 1 1 1 1 1 0.0099625486374048614 1 1 1 1 0.016817534348275015 1 1 0.0078335988578293932 1 1 1 1 1 0.010221194036613257 1 1 1 1 1 1 1 1 0.011574350293593967 1 1 1 1 1 1 1 1 1 1 1 1 1 1 1 1 1 1 1 1 1 1 1 1 1 1 1 1 1 1 1 1 1 1 0.012171749882050244 1 1 0.0065827497586907931 1 1 1 1 0.010114024602166056 1 1 1 1 1 0.010170012073735357 1 1 0.0099976018972217501 0.0074056956860599037 1 1 1 0.010418809982455382 0.010108388491978261 1 1 1 0.010129673145991549 1 1 0.011026022053752381 1 1 1 1 1 0.0094000403423729409 1 1 1 1 0.0089533567860453737 1 1 1 1 1 1 1 1 0.0098528872314076754 0.011720714117804858 1 0.010712132294740273 1 1 1 1 1 1 1 0.010949708317784728 1 1 0.014846213121634637 1 1 0.009932258685992448 1 1 0.0099748420660485445 1 0.012926531668625438 1 0.008798318931498645 1 0.0099668301744230622 1 0.01370197187985869 1 0.011994587604027732 1 1 1 1 1 1 1 1 1 1 0.013024235677615081 0.010055788728882615 0.0086701057116527966 1 1 0.014489035866554052 0.013908324209300334 1 1 0.0081943458165224213 0.0086392149168827027 1 1 1 0.0096682295305630037 1 0.0091603967099091639 0.013564760217952901 1 0.014271366601989383 1 1 1 1 1 1 0.010122793199683788 1 1 1 1 0.011390729189327037 1 1 1 1 1 1 1 1 1 1 1 1 0.009291499888264004 0.012382727322497785 1 1 1 1 1 1 1 1 1 1 1 1 0.0095623104061643427 1 1 1 0.010311248518548925 1 1 1 1 0.013875024192299332 1 1 1 1 0.010013889902479957 1 1 0.0094837772435679337 0.013094433329833819 1 1 1 1 1 1 1 1 1 1 1 1 1 1 1 1 1 1 0.0087210179501289453 1 1 1 0.014896545456377024 1 1 0.011974837338015795 1 1 1 1 1 0.0098642342293316677 1 1 1 1 1 1 1 1 1 1 1 1 1 1 0.010088864756282796 1 1 1 1 1 1 1 1 1 1 1 1 1 1 1 1 0.011728758170077992 1 1 1 1 1 1 1 1 1 1 1 0.010861421017925303 1 1 1 1 1 1 0.011732986603076388 1 1 1 1 1 1 0.010175676020726849 1 1 1 0.0091642169057358433 1 1 1 1 1 1 1 1 1 1 1 1 1 1 0.0098937968060467604 1 1 0.009763537229232646 1 0.0098742171487154889 1 1 1 1 0.023993803299768593 1 0.012422763029773904 1 1 0.01664983995092699 1 0.017191120544671444 1 1 1 1 1 0.012927890891586658 1 1 1 1 1 1 0.010846122451117345 1 1 1 1 1 0.010722515878765446 0.015197350417933731 1 1 1 1 1 1 1 1 0.014362834966229827 1 1 0.012693320437225708 1 1 1 1 1 1 0.010465215968909942 1 1 1 1 0.0081627939879305202 1 1 1 1 0.0072562111694831864 0.024384198737464183 1 1 1 1 1 1 1 1 1 1 0.010120356047390897 1 1 0.010678872167011617 1 1 1 1 1 1 1 1 1 1 1 1 1 1 1 1 1 1 1 0.0093553357231327475 1 1 1 1 0.0095350374100477819 1 1 1 1 1 1 1 1 0.014637129142486357 1 1 1 1 1 1 1 1 1 0.023529115811190875 1 1 1 1 1 0.010430539824037978 1 1 1 1 1 1 1 1 0.010136894360388659 1 1 1 1 1 1 1 1 1 1 1 1 1 1 1 1 1 1 1 1 1 1 1 0.010427731537217606 1 1 1 1 1 0.013608959709582966 1 1 0.012362937841395366 1 1 0.010048940746987173 0.01163142352663088 1 0.012680680754588634 1 1 1 1 1 1 0.011483342356972204 1 0.011382723386041288 1 1 1 1 1 1 1 0.011736925616490314 1 1 0.010918013092471226 1 1 1 1 1 0.014374371958100363 1 1 1 1 1 1 1 1 1 1 0.011663322955671794 1 1 1 1 1 0.013354893534068555 1 1 1 0.010846918577260976 0.010030011210095171 1 1 0.014517817783627974 1 1 1 0.010122854115660506 0.0099792338087134353 1 1 0.02077163905138113 1 1 1 1 1 1 1 1 1 1 1 1 1 1 1 1 1 1 1 1 1 1 0.020515872323535453 1 1 1 1 1 1 1 1 1 1 1 1 1 1 1 1 1 0.017300721894038099 1 1 1 1 1 0.012684220670216472 1 1 1 1 0.009908845839651223 1 1 1 1 1 0.011275088936574263 1 1 1 1 1 0.0096854533372988365 1 1 1 1 1 1 1 1 1 1 0.0097766074976476224 1 1 0.013226637759758681 1 1 1 0.013695414768159383 1 1 1 1 0.011499489752897116 1 1 1 1 1 0.01464785139798442 1 1 1 1 1 1 1 1 1 1 0.010794079398020882 1 1 1 1 1 1 1 1 0.01350530131308738 1 1 1 1 0.019982120273842923 1 1 1 1 1 1 1 1 1 1 0.0097830637355586121 1 0.01805693231473858 1 1 0.016040803558362526 1 1 1 0.010421900987592918 1 1 1 1 1 1 0.010053683596905047 1 1 0.010940989087058164 1 0.018272119930362835 0.0099982957522430031 1 1 0.010183793627466933 1 1 1 0.010325022784816991 1 1 1 1 1 1 0.010028612467180583 0.012489856330643184 1 1 1 0.011594540673594002 0.012547545127883492 1 1 1 0.013892481974017649 1 1 1 0.019237811322638736 1 1 1 1 1 0.01200802011098912 1 1 1 1 0.012257420417496842 1 1 0.010037794456412067 1 0.011618686692562212 1 1 1 1 1 1 1 1 1 0.012213322923926495 1 1 1 1 1 1 1 1 1 0.01099735342185121 1 1 0.0094085522626323661 1 1 0.006854358358206602 1 1 1 1 0.019567480532061136 1 1 1 1 1 1 1 1 1 1 1 1 1 1 1 1 1 1 1 1 1 1 1 1 1 1 1 1 1 0.012557869365693227 1 1 1 1 1 1 0.010894250221869331 1 1 0.015464363939769368 1 1 1 1 1 1 1 1 0.0112961725679743 1 1 1 1 0.016903732836602674 1 1 1 1 0.014369650464974191 1 1 1 1 1 0.013495638008253933 1 1 1 1 1 0.012113931878361319 1 1 1 1 1 1 1 1 0.011004514061218744 1 1 1 1 0.010660610131391066 1 1 1 1 1 1 1 1 1 1 1 1 1 0.010203577198483683 1 1 1 1 1 1 1 0.016701214886151273 1 1 1 1 1 1 1 1 1 1 1 1 1 1 1 1 1 1 1 1 1 1 1 1 1 1 1 1 1 1 1 1 1 1 1 1 1 1 1 1 1 1 0.020699013681461646 1 1 0.0096169610416594296 1 0.019451695109195387 0.0097277404735948338 1 1 1 1 1 1 1 1 1 1 1 1 1 0.019578350440266994 1 1 1 1 1 1 1 0.009931945790033099 1 1 1 1 1 1 1 1 1 1 1 1 1 1 1 1 1 1 1 1 1 1 1 1 1 1 1 1 0.014212379961072641 1 1 0.0090589082170741391 1 1 1 0.0080359992098775028 1 1 1 1 1 1 1 1 1 1 1 1 1 1 1 1 1 1 1 1 1 1 1 0.010547481128311366 1 1 1 1 1 1 1 1 0.0081413078985392053 1 1 1 1 1 1 1 1 0.0093556652941482413 1 1 1 1 1 1 1 1 1 1 0.011324877069280079 1 1 1 1 1 1 0.0096666446875625957 1 1 1 1 1 1 1 1 1 1 1 0.0024785573341359769 0.0054538928033772338 1 1 1 1 1 0.0085176791298237908 1 1 1 1 1 1 0.0096380777245956267 1 1 1 1 1 1 0.0099490571180099897 1 0.010080082338453512 1 1 1 1 1 1 1 1 1 1 1 1 1 1 1 1 1 1 1 1 1 1 1 1 1 1 1 1 1 1 1 0.011711602478268572 1 1 1 1 1 1 1 1 1 1 1 0.007355778898213856 1 1 1 1 1 0.014334098905394332 1 0.0065266378614474412 1 1 1 1 1 1 1 0.0096028729707735364 1 1 1 1 1 1 1 1 0.01012921593543255 1 1 1 1 1 1 1 1 1 0.008772288912861052 1 1 1 1 1 1 1 1 1 1 1 1 0.01056603924610492 1 1 1 1 0.010944736090865133 1 1 1 1 1 1 1 1 1 1 0.010507912780192773 1 1 1 1 1 1 1 1 0.010064660697548364 1 1 0.010110609404269473 1 1 1 1 1 1 1 1 1 1 0.0099129538206869823 1 0.0058683955510766481 1 0.013495766027400503 1 0.011975371743080198 1 1 1 0.0079892952012521248 1 1 1 0.019558725413815502 0.011613397692956089 1 1 1 1 0.010183752510269539 1 1 0.0099651969740767992 0.013442987241030914 1 1 1 0.0097077977819211014 1 1 1 0.010225583023048301 1 1 0.0096542694420129489 1 1 0.007995807109186355 1 0.0078549314119234909 1 1 1 0.006836000556571133 1 1 1 1 1 1 1 1 1 1 1 1 1 1 0.0084013257136453974 1 1 1 1 1 0.0078119803496645261 1 1 1 1 0.0082708169984112966 1 1 1 1 1 1 1 1 1 0.011615848502504113 1 1 1 1 1 1 0.010553011728195925 1 1 1 0.011930879628244231 1 1 1 0.0068379278442351598 1 1 1 1 1 1 1 1 0.0098112927600751392 1 1 1 1 1 1 1 1 0.011322945708128316 1 1 1 0.0095794636528913624 1 1 0.0079006107100283093 1 1 1 1 1 1 0.011566766560196312 1 1 0.018177484977390326 1 0.012379670934714485 1 1 1 0.023399557969962875 1 1 0.020479249212829492 1 1 1 1 1 0.013522970592362175 1 1 0.010844080843734744 1 1 1 1 1 1 1 1 1 1 1 1 0.010389402026047533 1 1 1 1 1 1 1 1 1 1 1 1 1 1 1 1 1 1 1 1 1 0.0095945017319295327 1 1 1 1 1 1 1 1 1 0.012827583905937979 1 1 1 0.01025045393583684 1 0.012088193090312994 1 1 1 1 0.015865309977984726 0.012534728165919096 1 1 0.023658881919807601 0.01345338050487796 1 1 1 0.0042815684166120742 1 1 0.0059173323387711231 1 0.0095876602606329506 1 1 1 0.017282671639156505 1 1 1 1 1 1 1 1 0.017642092733882311 1 1 1 1 1 1 1 0.026590922919487538 1 1 0.010401580502837409 1 1 1 0.015619453449616585 1 0.0098111458904659998 1 1 0.0083237701163582124 1 0.0087761362479511704 0.020770996581328735 1 1 1 1 0.011500854786768445 1 1 0.012477252445090958 0.0025907046493349236 1 1 1 1 1 1 1 1 1 0.0095494793548510683 1 1 1 1 0.0035870291488649987 1 1 1 1 1 1 1 1 1 1 1 1 1 1 1 1 1 1 1 1 1 1 1 1 1 1 1 1 1 1 0.014484881416575578 1 1 0.013364600855957771 1 1 1 1 1 1 1 1 1 1 1 -7.8062556418956319e-18 0.015257409918238481 1 1 1 1 1 1 1 1 1 1 1 1 1 1 1 1 1 1 1 1 0.019970446123118938 1 1 1 1 1 1 1 1 1 1 1 1 1 1 1 1 0.0051678109313517198 1 1 1 0.0099820166665781085 1 1 1 1 1 1 0.0082398077574477417 1 1 1 1 1 1 1 1 0.0098654313098372037 0.0088757967411026498 1 1 1 1 1 1 1 0.010734103665011929 1 1 1 1 1 1 1 0.0093999300143538939 1 1 1 1 1 1 0.011749017317665984 1 1 1 1 1 0.0099572679352761782 1 1 0.028254717338295328 1 1 1 1 1 1 1 0.02882083683578588 1 1 1 0.029072783296947891 1 1 1 1 1 1 1 1 1 1 1 1 1 1 1 1 1 1 1 1 1 1 1 1 1 1 1 1 1 1 1 1 1 1 1 1 1 0.041978963477693657 0.010420729527339528 1 1 1 1 1 0.01058385169026657 1 1 1 1 0.010707936436565573 1 1 0.010395813887934771 1 1 1 1 1 1 1 1 1 1 1 1 1 1 1 1 1 0.010188037802331797 1 1 1 1 0.0099690889918230049 1 1 1 0.011292963444107972 1 1 1 1 1 0.016585059278806106 1 0.01048201320000495 1 1 1 1 1 1 1 0.022405857127082547 1 1 0.010617686808271354 1 0.016174295489065182 1 1 1 0.010993331091065667 1 1 0.015068706554960825 1 1 0.011793077095710702 1 1 1 1 1 1 1 1 1 1 1 1 1 0.019323810322126919 1 0.020074644776479349 1 1 1 1 1 1 1 0.011397326120146442 1 1 0.031209603263994475 1 1 0.038049937879528234 1 1 1 1 1 0.0098154890148781319 1 1 1 1 0.010266051826650503 1 1 1 0.01177803652840758 1 1 1 1 1 1 1 1 1 1 1 1 1 1 1 1 1 1 1 0.011561212564826255 1 1 1 0.010558296479125186 1 1 0.010613881579312631 1 1 1 0.012723626182733564 1 1 1 1 1 1 1 1 1 0.013464585289149884 1 0.010276393677386839 1 1 1 1 1 1 1 1 1 1 1 0.013206947571135559 1 1 1 1 1 1 1 1 1 1 1 1 1 0.010261557939505988 1 1 1 1 1 0.0098986756744008954 0.013066326045921641 1 1 1 1 1 1 1 1 1 1 1 1 1 1 1 1 1 1 1 1 1 1 1 0.011524438542356207 1 1 1 1 1 1 1 1 1 1 1 1 1 1 0.0084555134356896714 1 1 1 1 1 1 1 1 1 0.010709373150930795 1 1 1 0.019387457065453154 1 1 1 1 1 1 1 1 1 1 1 1 1 1 1 1 1 1 1 0.0088403301767985276 1 1 1 1 1 0.0088243535432468868 1 1 1 1 1 0.010003734706541471 1 1 0.012322444171543467 1 1 1 0.013538103939290638 1 1 1 1 1 1 1 1 0.014601102562070652 1 1 0.0088737111331187654 1 1 1 0.016806776574181937 1 1 0.018627684488085543 1 1 0.013542074676851128 1 0.023826289826815943 1 1 1 0.0089461780402588092 1 1 1 1 1 1 1 1 0.025491918201360236 1 1 1 0.010008861459745408 1 1 1 1 1 1 1 1 1 1 1 1 0.011964535543056692 1 0.010307022340108151 1 1 0.011503486921915902 1 1 1 0.030217178979673444 1 1 1 0.023934468348608559 0.013815868655211498 1 1 1 1 1 1 1 1 1 1 1 1 1 1 1 1 0.01119070899767324 0.023857023187132682 1 1 1 0.01317880920950198 1 1 1 1 1 0.012132823354485928 1 1 1 1 1 1 1 1 1 1 1 1 1 1 0.010777980419050688 1 1 1 1 1 1 1 1 1 1 1 1 1 1 1 1 1 1 1 1 1 1 1 1 1 1 0.012105503690780882 1 0.023941501705350185 1 1 0.016040396569862701 1 1 1 1 1 1 0.022801131297646812 1 1 1 1 1 0.019262346926214396 1 1 1 1 1 1 0.015317834504571505 1 0.021789182884052242 1 1 1 1 1 1 1 1 1 1 1 1 1 1 1 1 1 1 1 1 1 1 1 1 0.024049724360253884 1 1 0.024855750813689886 1 1 1 1 1 1 1 1 1 1 1 0.012630819499602687 1 1 1 1 1 1 1 1 1 1 0.012829516559179022 1 1 1 1 1 1 1 0.009862133872515777 1 1 1 1 1 0.0099818621978233438 0.00991787048618324 1 0.013360747175815117 0.0094914074654343684 1 1 1 0.013766702985002981 1 1 1 1 0.019482647462247447 1 1 1 1 0.0092456511938384927 1 1 0.010497106330578002 1 1 0.015918143028662547 1 1 0.013854346757367395 1 1 1 1 1 1 1 1 1 1 1 0.015708715074949191 1 1 1 0.020450501537928364 1 1 0.0099847449695397231 0.0093011590151266463 0.014262961943513432 1 1 1 0.008632610227703133 1 1 0.021621086301671311 0.010892417586465267 1 1 1 1 1 1 1 1 1 1 1 1 1 1 1 1 0.010516517203473325 1 1 1 1 1 1 1 1 1 1 1 1 1 1 1 1 1 1 1 1 1 1 1 0.010145753864681693 0.035033908202779622 1 1 1 0.038809780481716308 1 1 1 1 1 1 1 1 1 0.022935438876036281 1 1 1 1 1 0.024978897225730771 1 1 0.024507437692143398 1 0.023705828343182161 1 1 1 1 0.015683636472245945 0.030904612896307096 1 1 1 1 1 1 1 1 1 1 1 1 1 1 1 1 1 1 1 1 1 1 1 0.012881620457211416 1 1 1 1 1 1 1 1 1 1 1 1 1 0.01711734824316672 1 1 0.017862804540806847 1 1 1 1 1 1 1 1 1 1 1 1 1 0.014022026186707682 1 1 0.020607195774542331 1 1 1 1 1 1 1 1 1 1 1 1 1 1 1 1 1 1 0.013623367202514378 1 1 1 1 1 1 1 1 1 1 1 0.0097877594462252616 0.018059331757766417 1 1 1 0.016064562917054145 1 1 1 1 0.013922724774381934 1 1 0.01408349162454783 1 1 1 1 1 1 1 1 1 1 1 1 1 1 1 1 1 1 1 1 1 0.011406282592865805 1 1 1 1 1 0.010788129298516611 1 1 1 1 1 1 1 1 1 1 1 1 1 0.010374521378895411 1 1 1 1 1 1 1 0.0085286563952199964 1 1 1 1 1 1 1 1 1 1 1 1 1 1 1 1 1 1 0.0098866484045940645 1 1 1 0.010215544630902684 1 1 1 1 1 1 0.0068774806806297375 0.025356280329101859 1 1 1 1 1 0.023317850554353647 1 1 1 1 0.012960102935360408 1 1 1 0.010507199161292885 1 0.015108699854220982 0.0097573546548881847 1 1 1 1 1 1 1 1 1 1 1 1 1 1 1 0.010225295374942727 1 1 1 1 1 1 0.014728585754157957 1 1 1 0.013344841799078123 1 1 0.010319861543753148 1 1 1 0.013813406319866682 1 0.011114776836311084 1 1 1 1 1 1 0.01033938593546517 1 0.011960694658461907 1 1 1 0.01263916554228498 0.0053655132911229943 1 1 1 1 0.010083802605810424 1 0.014399067347003509 0.0069173876341999639 1 1 1 1 1 1 1 0.011184386780564893 1 1 1 1 1 1 1 1 1 0.011923415961156307 1 1 1 1 1 1 1 1 0.0099836873256612165 0.010388428359366363 1 1 0.011713917244775447 1 1 0.01024805060648626 1 1 1 0.010197130148478947 1 1 0.013959481389525507 1 1 1 1 1 0.017378087252699466 1 1 1 1 1 1 1 1 1 1 1 1 1 1 1 1 1 1 1 1 0.014999245924623695 0.014655458197922029 1 1 1 1 0.0099549232332539553 1 1 0.0098520571864344625 1 1 1 1 1 1 1 1 1 0.014716155663322794 0.0097218853100199398 1 1 1 1 1 1 1 1 1 1 1 1 0.010133046889383091 1 1 1 1 1 1 1 1 1 1 1 1 1 1 0.014534265333973031 1 1 0.015968034609305355 1 1 1 1 1 1 1 1 1 1 1 1 1 1 1 0.0099690893556709081 1 1 1 0.010043410847867019 1 1 1 1 1 1 1 1 1 1 1 0.0095343189360214131 1 1 1 1 1 1 1 1 1 1 1 1 1 1 1 1 1 0.010032028037858678 1 1 1 1 1 1 1 1 1 1 1 1 1 1 1 1 1 1 1 1 1 1 1 1 1 1 1 1 1 1 1 1 0.01766113158971273 1 1 1 1 1 1 1 1 1 1 1 1 1 1 1 1 1 1 1 1 1 1 1 1 0.010779530757288207 0.018986722956913209 1 1 1 1 1 1 1 1 1 1 1 1 1 1 1 1 1 1 1 1 1 1 1 1 1 1 1 1 1 1 1 1 1 1 1 1 1 1 1 1 1 1 1 1 1 1 1 1 1 1 1 1 1 1 1 1 1 0.011179096751835692 1 1 1 0.01113950724930194 1 1 1 1 1 1 1 1 1 1 1 1 1 1 1 1 1 1 1 1 1 1 1 1 1 0.013294741117640221 1 1 1 1 1 1 1 1 1 1 1 1 1 1 0.009997265274958117 1 1 1 1 1 0.0095307909518434607 1 1 0.013560724445330515 1 1 1 1 1 1 1 0.01262040500673995 1 0.010131243502055388 1 1 1 1 1 0.012731018607867123 1 1 1 1 1 1 1 0.013086166927973921 1 1 1 1 1 1 1 0.0093242520180552083 1 1 0.011856296603598699 1 1 1 0.014923051267211263 1 1 1 1 1 1 1 1 1 1 1 1 1 1 0.012390101423201919 1 1 1 1 1 1 1 1 1 1 1 1 1 1 1 1 1 1 1 0.011025776066437801 1 0.0099074934258793247 1 0.011058174472226597 1 0.0078849537229398539 0.016894903915099416 1 1 1 1 1 1 1 1 1 0.010372041844476801 1 1 1 1 1 0.019082498623490918 1 0.0095102561917315316 1 1 1 1 1 0.010443529058710632 1 1 0.0053418916387523527 1 1 1 1 1 1 1 0.011267491539336301 1 1 1 1 1 1 1 1 1 1 0.0078816674598959999 1 1 0.010051865443592978 0.0099617824801271956 1 1 1 0.0059291987522150022 1 1 1 1 1 1 1 1 0.010023885443247714 1 1 1 1 1 1 1 1 1 1 1 1 1 1 1 1 1 1 1 1 1 1 1 1 0.012876248942851653 1 0.013829501660262812 0.0059372275516961816 1 1 1 1 1 1 1 1 1 1 1 1 1 1 1 1 1 1 1 1 1 1 0.010546391794261107 1 1 0.01540881236653904 0.01171364966534293 1 1 1 1 1 1 1 1 1 1 1 1 1 1 1 1 1 1 1 1 0.0084722105634894955 1 1 0.016192991733330997 1 1 0.011309138429135418 1 1 1 1 1 1 1 1 1 1 1 1 1 1 1 1 1 1 1 1 1 0.013822128951058436 1 1 1 0.0070708654954954346 1 1 1 1 1 0.019630908004133127 1 1 1 1 1 0.022951772302374017 1 1 1 1 1 1 1 1 1 1 1 1 1 0.01007808323286258 1 0.011869726407835146 1 1 1 1 0.015235672107934589 1 1 1 1 1 0.011782358372649168 1 0.015035567132635571 1 1 1 1 1 1 1 1 1 1 1 1 0.010557654677059051 1 1 1 1 1 1 1 1 0.010556525385863233 1 1 1 1 1 1 1 1 1 1 1 0.0098581364502764914 1 1 1 0.012073046840312662 1 1 0.015483409712413541 1 0.0086408876159902205 1 1 1 1 1 1 0.010160326930583703 1 1 1 1 1 1 1 1 1 1 1 1 1 1 1 0.010320973256042079 1 1 1 0.010160646325458369 1 1 1 1 1 1 1 1 0.015384436677853988 1 0.0208014318686588 1 1 1 1 0.023653817281440295 1 1 1 1 1 1 1 1 1 1 1 1 1 1 1 0.028929717475777314 1 1 1 1 1 1 0.026399482114672627 1 1 1 1 1 1 1 1 1 1 1 1 1 1 1 1 1 1 1 1 1 1 1 1 1 1 0.031107055623697241 1 1 0.03274808591547379 1 1 1 1 1 1 1 1 1 1 1 1 1 1 0.012535107936884176 1 1 1 1 1 1 1 1 1 1 1 0.01050945326326954 1 0.033581703506560721 1 1 0.0092178565863635462 1 1 0.0065526693280327898 0.02304548696088226 1 0.024128352137736883 1 1 0.0097355856807705421 1 1 1 1 1 1 1 1 1 1 1 1 1 1 1 1 1 1 1 1 1 1 1 1 1 1 1 0.010616332875662394 1 1 0.010268801772700634 1 1 0.011485391147262448 1 0.011402911961345023 1 1 1 0.010021921131755526 1 1 1 1 0.011283866358896437 1 1 1 1 1 1 1 1 1 1 0.011198706089349413 1 1 1 0.0097234398679773414 1 1 1 0.010584698038126946 1 1 1 1 1 1 1 1 1 1 1 1 1 0.011011542177884998 0.0102856292342648 1 1 1 1 1 1 1 1 1 1 1 1 1 1 1 1 1 1 1 1 1 1 1 1 0.010002554041678512 0.010005498329638703 1 1 1 1 1 1 1 1 1 1 1 1 1 0.01011141235293752 0.010488093715695495 1 0.010005759372304648 1 1 1 1 1 0.010022224657639738 1 1 1 1 1 1 1 1 0.0099337055351820802 0.010100370258726945 1 0.010010331804679654 1 1 0.010096288362468803 1 0.01003841604049854 1 1 1 1 1 1 1 1 1 1 1 0.010198671072833024 1 1 1 1 1 1 1 0.010531904400564042 1 1 1 1 1 0.010189248012536727 1 0.010146024688808486 1 1 1 1 1 1 1 1 0.015588256215467534 1 1 1 1 0.014083564155423001 0.010267261653535358 0.011294150862405594 1 1 0.011062445168623786 1 1 1 0.011592468642443843 1 1 0.011073998404388365 1 1 1 1 0.014679901290540184 1 1 1 1 1 1 1 0.013288213428534354 1 1 1 1 1 1 1 1 1 1 1 1 1 1 1 0.010537881966218549 1 0.010112200780454158 1 1 1 1 0.010771976490032566 1 1 0.0087306642968662789 1 1 0.015853810895582 1 0.010042017596169101 1 1 1 1 1 1 0.0099828821968967821 1 1 1 1 1 1 1 1 1 0.012237025332584063 0.016305165502676994 1 1 1 1 0.010014435519594217 1 1 1 1 0.014899049282882888 1 1 1 1 1 1 1 1 1 1 1 1 1 1 1 1 1 1 1 1 1 1 1 1 1 1 1 1 1 1 1 1 1 1 0.010295079034360277 1 1 1 1 0.010095409806920391 1 1 1 1 1 1 0.010866201301527219 1 1 1 1 1 1 1 0.010282727071204957 1 0.013318140542948824 1 1 0.0054590196755600201 0.0099763767238139969 1 1 0.010171079439397018 1 1 1 1 1 1 1 1 0.010250979686314918 1 1 0.012741044100372752 1 1 0.013709815337719082 1 1 1 0.011871286266128815 1 1 0.0099176157091056677 0.011629343090899122 0.0099891688104768728 1 1 0.013140279087415434 1 1 0.011608203390419305 1 1 1 1 1 1 1 1 1 1 1 1 1 1 0.011425236732086307 1 1 1 1 1 1 1 1 1 0.012230687307683494 1 1 1 1 1 0.013315157889692661 1 0.01058451209964793 1 0.0094256663837174962 1 1 1 1 0.01072947981893183 1 1 1 1 0.013101005905761978 1 0.01454891075648726 1 0.013402146451855869 0.0092910840862224994 1 1 1 1 1 1 0.014248773954649879 1 1 0.010230682641969312 1 1 1 1 1 0.011028747414156602 1 1 1 0.011791836154220962 1 1 0.015365340831034933 1 1 1 1 0.010107736351114241 1 1 1 1 1 1 1 1 1 1 1 1 1 0.011437937928615909 1 1 1 0.0099955341755382683 1 1 1 1 1 1 1 1 1 1 1 1 1 1 1 1 1 1 1 1 1 1 1 1 1 1 1 1 1 1 0.010375479919686389 1 1 1 1 1 1 1 1 1 1 1 1 1 0.011700345431437713 1 1 1 1 0.011375652986708694 1 1 1 0.012655009449163706 1 1 1 1 1 1 1 1 1 1 0.0098274657317667154 1 1 1 1 0.010884795261429093 1 1 1 0.010014897046114954 1 0.011305200564095147 1 1 1 1 1 1 1 1 0.019591582307254669 0.011547026843451783 1 1 1 1 1 1 1 1 1 1 1 1 1 1 1 1 1 1 1 1 1 1 1 1 1 0.0098726548306590084 1 1 1 1 1 1 1 1 1 1 0.0097175196506378431 1 1 1 1 0.010108418088692672 0.0093118168535930024 1 1 1 1 0.013933000917033537 1 1 0.019585651323741973 0.010019404851684377 1 1 0.01911653643599763 1 1 1 1 1 1 1 1 1 1 0.014911639751012215 1 1 1 1 1 1 1 0.017216938788336036 1 0.019749323660743737 1 1 0.016340800612246284 1 1 1 0.0075451992951666748 1 0.010100232418006271 1 0.01124410336489752 1 1 0.010481387339941362 1 1 1 1 1 1 1 1 0.011793748180440856 1 1 1 1 1 1 1 0.008602630171332476 1 1 1 1 0.0067602490890224781 1 1 0.0097027871410193603 1 1 1 1 1 1 1 1 1 1 1 1 1 1 1 1 0.010076091652040167 1 1 1 1 1 1 0.010121055196330248 1 1 1 0.010000713011316191 1 1 0.010079703918126973 1 1 1 0.0096491888942677045 1 1 1 1 1 1 1 1 1 1 1 1 1 1 1 1 1 0.0099823287516749171 1 1 1 1 1 1 1 1 0.010478070096697288 1 1 0.010777295155760869 1 1 1 1 1 1 1 1 1 1 1 1 1 1 1 1 1 0.0099899015894608784 1 1 1 1 1 1 0.010356175694287803 1 1 0.010007572837785944 1 1 1 1 1 1 1 1 1 1 1 1 1 1 1 1 1 1 1 1 1 1 1 1 1 1 1 1 1 1 1 1 1 1 1 1 1 1 0.010232709016970824 1 1 1 1 1 0.010351877266741841 0.011205122275655899 1 1 1 0.01096713209557889 1 0.010885229609115678 1 0.010821481116459773 1 1 0.01086921032905034 1 1 1 1 1 1 1 1 1 1 0.0099961324756688494 1 1 1 1 1 0.0099983273137786381 1 1 1 1 1 1 1 1 1 1 1 1 0.010631284268050226 0.010268487514911363 1 1 1 1 1 1 1 1 1 1 1 1 1 1 1 1 1 1 1 0.010937005932135622 1 1 1 1 1 1 1 1 1 1 1 1 1 1 1 0.010755616947076045 1 0.010295913547240725 1 1 1 0.011725121256174018 1 1 1 1 0.0097774813870962658 1 0.011755784943385639 1 1 1 1 1 1 1 1 1 1 1 1 1 1 1 1 1 1 1 1 1 0.011532055042559317 1 1 0.010686068199680814 1 1 1 1 1 1 1 1 1 1 1 0.010030179563047283 1 1 1 1 1 1 1 1 1 1 1 1 1 1 0.010668051018786609 1 1 1 0.010449652833896613 1 1 1 0.01012953458650323 1 0.011076846503853613 1 1 1 1 1 1 1 0.010409576905490103 0.010100313004200653 1 1 1 1 1 1 1 1 1 1 1 1 0.010017931595113855 1 1 1 1 1 1 1 1 1 1 1 1 1 1 1 1 1 1 1 1 1 1 1 1 1 1 0.010017873422144939 1 1 1 1 1 1 1 1 1 1 1 1 1 1 1 0.010873178271018746 1 1 1 0.011943425793247198 1 1 1 0.014060111669730584 1 1 1 1 1 1 1 1 1 1 1 1 1 1 1 1 1 1 1 1 1 1 0.013757554455456192 1 1 0.011640868578972792 1 1 1 1 1 1 1 1 1 1 1 1 1 1 1 1 1 1 1 0.010899100074963211 1 1 1 0.011160652807367593 1 0.011088872912974349 1 1 1 1 1 1 0.010482675970366978 1 1 1 1 1 1 1 1 0.01056326097746953 1 1 1 1 1 1 1 1 1 1 1 1 1 1 1 1 0.011550848645563321 1 1 1 1 1 1 1 1 1 1 1 1 1 1 1 1 1 1 1 1 1 1 1 1 1 1 1 1 1 1 1 1 0.010808376092103698 1 1 1 1 1 1 1 1 1 1 1 1 1 1 1 1 1 1 1 1 1 1 1 1 1 1 1 1 1 1 1 1 1 1 1 1 1 1 1 1 1 1 1 1 1 1 1 1 1 1 1 1 1 1 1 1 1 1 1 1 1 0.010282764156598883 1 1 1 0.01144459155527373 1 1 1 1 1 1 1 1 1 1 1 1 1 1 1 1 1 1 1 1 1 1 1 1 1 1 1 1 1 1 1 1 1 1 1 1 1 1 1 1 1 1 1 1 1 1 1 1 1 1 1 1 1 1 1 1 1 1 0.011821658743344524 1 1 1 1 1 1 1 0.011411775832784644 1 1 1 1 1 1 1 1 1 1 1 1 1 1 1 1 1 1 1 1 1 0.010893756927013519 1 1 1 1 1 1 1 0.011000769739196677 1 1 1 1 1 1 1 0.009798209949573292 1 1 1 1 1 1 1 1 1 1 1 0.010299962113889755 1 1 1 1 1 0.01044089699770589 1 1 1 1 1 1 1 1 1 1 0.011026633406236228 1 1 1 1 1 1 0.0095242959347114353 1 1 1 1 0.0093952929971457474 1 1 1 1 1 0.018871177598316038 1 1 1 1 0.0099776466781513681 1 1 0.015273024262283564 1 1 1 1 1 0.011077403352920567 1 1 1 0.014030881083217671 1 1 1 1 0.0065253658309940184 1 1 1 0.0059957734065060834 1 1 1 1 0.0098642708595665738 1 1 0.010570307013702714 1 1 1 1 1 0.011795181594380529 1 1 1 1 1 0.0099902403925130022 1 1 1 1 1 1 1 1 1 0.022843012909966647 1 1 1 1 0.010398154216381822 0.021847037830293563 1 1 1 1 1 1 1 1 1 1 1 1 1 1 1 0.023315663714196827 1 1 0.010398606784180982 1 1 1 1 0.010627550884794987 1 0.011443107331992823 1 1 1 1 1 1 1 1 1 0.011430893833471512 1 1 1 1 1 1 1 1 1 0.010455898684496694 1 1 0.011401102494643676 1 1 1 1 1 1 0.012247618801137519 1 1 1 0.013031528471984979 0.0075009358041278167 1 1 1 1 1 1 1 1 1 1 1 1 1 1 1 1 1 1 0.010615337386273668 1 1 1 1 1 1 1 0.009489862299615133 1 0.0086321118523660246 1 1 1 1 1 1 1 1 1 1 1 1 1 0.010016916357417503 1 1 1 1 0.010062351182782241 1 1 1 1 1 1 1 1 1 0.0099975266247352423 1 1 1 1 1 0.0097992472096495239 1 1 1 1 1 1 1 1 1 1 1 1 1 1 1 1 1 1 1 1 1 1 1 1 1 1 1 1 1 1 1 1 1 1 1 1 1 1 1 1 1 1 1 1 1 1 1 1 1 1 1 1 0.01038224528906366 1 0.010978441728752751 1 1 1 1 1 1 1 0.011254064444833976 1 1 0.010000027809465274 1 1 1 1 1 1 0.01158594156492327 1 1 1 1 0.010596901124173733 1 0.009672455097328593 1 1 1 1 1 1 0.010461317729304033 1 1 0.010861379534316009 1 1 1 1 1 1 1 1 1 1 1 1 0.010737369808808723 1 1 1 1 1 1 1 0.021692259851082182 1 1 0.022349057719747135 1 1 1 1 1 1 1 1 1 1 1 0.0099963485386172363 1 1 1 1 1 0.014898771640164911 1 0.013165717105050385 1 1 0.01255896393192843 1 1 0.01017197609039013 0.010013680941468227 1 1 1 0.009907980716251201 1 0.010609889956461433 1 1 1 1 1 0.010460057306842498 1 1 1 1 1 1 1 1 0.011889075525255345 1 1 1 1 1 1 1 1 0.010278988896812301 0.01105210134209697 1 0.010110989636431346 1 1 1 1 1 1 1 1 1 1 1 1 0.011049579823680128 1 1 1 1 1 1 1 1 1 1 1 1 0.0099239958490160568 1 1 1 1 1 1 0.011045751465205034 1 1 1 1 0.011921172708647468 1 1 1 1 1 1 1 1 0.014261275048353131 1 1 0.0097509504588261867 1 1 0.012177448771448371 0.011572006720188668 1 0.0095661030303654596 1 0.0087723136063961732 1 1 1 1 1 1 1 1 1 0.0089338891986538854 1 1 0.014923698787171612 1 0.01629819173337986 1 1 1 1 1 1 0.011071046351493681 1 1 1 1 1 1 0.012678378839297195 1 1 1 1 1 1 1 1 1 0.012160813694066332 1 1 1 1 1 1 1 1 1 1 1 1 1 1 1 1 1 1 1 1 1 1 0.011106020213228757 1 1 1 1 1 0.012826417696665923 0.012861391558401009 1 1 1 1 1 0.010909132093442804 1 1 1 1 1 1 1 1 1 1 0.0087899078296556805 1 0.010173869816128136 1 1 1 1 1 1 0.011403147034578325 1 1 1 0.010828721979457469 1 1 1 1 1 1 1 1 1 1 0.010574425055120859 1 1 1 1 1 1 1 1 1 1 1 1 0.0099087619652156213 1 1 1 1 1 1 1 1 0.023799585164260617 1 1 1 1 1 0.010858664091023484 1 1 1 1 1 0.024354677842520642 1 1 0.0097670750689856801 1 1 1 1 1 1 0.015364102714745257 1 1 1 1 1 1 1 1 1 1 1 1 0.010025477070923482 1 0.0070476656068420539 1 1 1 0.013741942662123821 1 1 1 1 0.012302851193717532 1 1 1 1 1 1 1 1 1 1 1 1 1 0.0081803516032042355 1 1 1 0.0091441849580210857 1 1 0.010234661521786013 1 1 1 1 0.010613702475810569 1 1 1 1 1 1 1 1 1 1 1 1 1 1 1 1 0.0096203889734187142 1 1 1 1 1 0.011590570295200959 1 1 1 0.010483013588827113 1 0.0097824265693664779 1 1 1 1 1 0.010444613154215101 1 1 1 1 1 1 1 1 1 1 1 1 1 1 1 1 1 1 1 1 1 1 1 1 1 1 1 1 1 1 1 1 1 1 1 1 1 1 1 1 0.010340761681047021 1 1 0.010724335443126266 1 1 1 1 1 1 1 0.010679554712831833 1 1 1 1 1 1 1 1 1 1 0.010196261087173988 1 1 1 0.012026573407940895 1 1 1 1 1 1 1 1 1 1 1 0.010456211126016803 1 1 1 0.01029598095075256 1 1 1 1 0.011162789324566189 1 1 1 1 1 1 1 1 1 1 1 1 1 1 1 1 1 1 1 1 1 1 1 1 1 1 1 1 1 1 1 1 1 1 1 0.011058859709977102 1 0.010738007162628448 1 1 1 1 1 1 1 1 1 1 1 1 1 0.010352281511427711 1 1 1 1 1 1 1 1 1 1 1 1 1 1 1 1 1 1 1 1 1 1 1 1 1 1 1 1 1 1 1 1 1 1 1 1 1 0.019133617456820705 1 0.013802159149934259 1 1 1 1 1 1 0.010149469057659219 1 0.021394342395374737 1 1 1 1 1 1 1 1 1 1 1 0.010323338873787363 1 1 1 1 1 0.0079677157706305821 1 0.011803353224764952 1 1 1 1 0.0073630259248265179 1 0.0071118970314776354 1 1 0.01087267324903397 1 1 1 1 1 1 1 1 0.0095545223901509265 1 1 1 1 1 1 1 1 1 1 1 1 1 1 1 1 1 1 0.02046107732079339 1 1 0.010030766736021074 1 0.015220053591024033 1 1 1 1 1 0.0087043002154041649 1 1 1 0.0099922103298439747 1 1 1 1 1 1 1 1 1 1 0.018161691285223158 1 1 1 0.0072305013050369283 0.021704217802446385 1 1 1 1 1 1 0.021930296563007309 1 1 1 1 1 0.015398746789593389 1 1 0.016865694820571583 1 1 1 1 1 1 1 1 1 0.010544012232899729 1 1 0.010550094911192461 1 1 1 1 0.012291841214739788 1 1 1 1 1 1 0.010741835214598105 1 1 1 1 0.011856877156455116 1 1 0.011230524867906263 1 1 1 0.014064020675003511 1 0.012441275136115149 1 1 1 1 0.012238204165789383 1 0.011390652816782334 1 1 1 0.013048857834191869 1 0.010818491928909381 1 1 1 1 1 1 0.0099881646325192773 1 1 1 1 1 0.013423915909363097 1 1 1 1 0.0097521333442907587 1 1 0.0097705588143400489 1 1 1 1 0.012623606344008732 0.0098877836368551301 1 1 1 1 1 1 1 1 1 1 1 0.0099715344540720046 0.010215212663189806 1 1 1 1 1 1 1 1 1 1 1 1 1 0.023464789035298434 1 1 1 1 1 1 1 1 1 1 1 0.011267648039977193 1 1 1 1 1 1 1 1 1 1 1 1 0.010703113981274966 1 1 0.010518000279743353 1 1 1 1 1 0.011871863624578715 1 1 1 1 0.015073338249466134 0.020455139150216128 1 1 1 1 1 1 1 1 1 1 0.010176873866267427 1 1 1 1 1 1 0.01291811997862404 1 1 0.017511340048577937 1 1 1 1 0.0099135322902968101 1 1 1 1 1 1 1 1 1 1 1 1 1 1 1 1 1 0.010233891786385197 1 1 0.011339520124867618 1 1 1 1 1 1 1 1 1 1 1 1 0.012873802319407227 1 0.0098197591102431869 0.010283601226867521 0.010946066048108744 1 1 1 1 1 1 1 0.011487027715468848 1 1 1 1 1 1 1 1 0.011853365673947345 1 1 1 1 1 1 1 1 1 1 1 1 1 1 1 1 1 1 1 1 1 1 1 1 1 1 1 1 0.022668206387650779 1 1 0.020430829490372927 1 1 1 1 1 1 1 1 1 1 1 1 1 1 1 0.010220392131624871 1 1 1 1 0.010023898364703059 1 1 1 1 1 1 1 1 1 1 1 1 1 0.012982394554940282 1 1 1 1 1 1 1 0.011381923641895924 1 1 1 1 0.020350786243993915 1 1 1 1 1 1 1 1 1 1 1 1 1 1 1 1 1 1 1 1 1 1 1 0.011510247604934095 1 1 1 1 1 1 0.010164644477862661 1 1 1 1 0.0098563399166244816 1 1 0.01201587878489019 1 1 1 1 1 0.011023631459699442 1 1 1 1 1 1 1 1 1 1 0.017748323056936556 1 1 1 1 1 1 1 1 1 1 0.010551266391251202 1 1 1 0.014773006680290985 1 1 1 1 1 0.010418620850259947 1 1 1 1 1 1 1 1 0.009251025645633508 1 0.016597922311082394 1 1 0.024929230429007163 1 1 0.012107634865703499 1 1 1 1 1 1 1 0.030336759460363093 1 1 1 1 1 1 1 1 1 1 1 1 1 1 1 1 0.032856787777384822 1 1 1 1 1 1 1 1 1 1 1 1 1 1 1 1 1 1 1 1 1 1 1 1 1 1 1 1 1 0.010424110288372318 1 1 1 1 1 1 1 1 1 1 1 1 1 1 1 1 1 1 1 1 1 1 1 0.011413698297755501 1 1 1 1 1 1 1 1 1 1 1 1 1 1 1 1 1 1 0.013082238751447879 1 1 1 1 1 1 1 0.0095256073658522497 1 0.016832747022782465 1 1 1 0.023279765958553182 1 0.0099150531348341543 1 1 1 1 1 1 1 1 1 1 1 1 1 1 1 1 1 1 1 1 1 1 0.0098573512269312987 1 0.021579516746844545 1 1 1 1 1 1 1 1 1 1 0.031527984861212839 1 1 1 0.0092455040666761037 1 0.0098104480205535981 1 1 0.016498708607616069 1 1 0.01023267741864993 1 1 1 1 1 1 1 1 1 1 1 1 0.0091120512589063871 1 1 1 0.013927071282928073 1 1 0.017044314489646377 1 1 1 1 1 1 1 0.010976100297279291 1 1 1 1 1 1 1 1 0.028215171163437181 1 0.012915079746458233 1 1 1 1 1 1 1 0.0099938751129272085 1 1 1 1 1 1 1 1 1 1 0.036945298454475167 1 1 0.031052166999001211 1 0.0063955368247700668 1 0.0079334266649058321 1 1 1 1 1 0.019887628324582799 1 1 1 0.019247424213870806 1 1 0.023058295736292235 0.01847961031476757 1 1 0.023867650807417422 1 1 1 1 0.018366626457125536 1 1 0.020468915341930287 1 1 0.026810444535084514 1 1 0.0099990884479072527 1 1 1 1 1 1 0.023005226961552099 1 1 0.013830705833491396 1 1 1 0.011329380822863021 1 0.0300667455346907 1 1 0.0285727797752558 1 1 1 1 1 1 0.010842132568771031 1 1 0.010136203199948773 1 1 1 1 1 1 0.024466030526710196 1 0.020489173312990296 1 1 1 1 0.018075702968377433 1 1 1 1 1 0.032759763281728284 1 0.0099967442968013701 1 1 1 0.016502666254445318 0.030595355178516515 0.0085996116054256576 1 1 0.0086082636345763321 1 1 0.0098158487761074945 1 0.029094034625601364 1 1 1 0.014221502450343095 1 1 1 0.01044449158925579 1 1 1 1 0.0099890954476403501 1 0.015901534717446625 1 0.022194340450534422 1 0.016765793334083338 1 0.0209688276771876 0.0099170846995321159 1 0.011725673595819931 1 1 1 1 1 1 1 1 1 0.012402431300650755 1 1 1 0.02975268218241256 1 1 0.014977450397826437 1 1 1 1 1 1 1 1 1 1 0.031280447710833513 1 1 1 0.010656158160146433 1 1 1 1 1 1 1 1 1 0.012947330859134147 1 1 0.018496764266411891 1 1 1 1 1 1 0.010386012112550075 1 1 1 1 1 1 1 0.018526858715907098 1 1 0.010108212611338423 1 1 0.010234186692650129 1 1 1 1 1 1 1 1 1 1 1 0.011633260905483842 1 1 0.003154186231549623 1 1 1 1 1 1 0.02031745106322376 1 1 0.011123252539658035 1 1 1 1 1 1 1 1 1 1 1 0.017217574676833519 1 1 1 1 1 1 1 1 1 1 1 1 0.012539295326116572 1 1 1 1 1 1 1 1 1 0.017526090665404892 1 1 1 1 1 1 1 1 1 1 1 1 1 1 1 1 1 1 1 1 1 1 1 1 1 1 1 1 1 1 1 1 1 1 1 1 1 1 1 1 1 1 1 1 1 1 1 1 1 1 1 1 1 1 1 1 1 1 1 1 1 1 1 1 1 1 1 1 1 1 1 1 1 1 1 1 1 1 1 1 1 1 1 1 1 1 1 1 1 1 1 1 1 1 1 1 1 1 1 1 1 0.024265080366091606 1 1 1 1 1 1 0.0095161736148230008 1 1 0.013116055540258097 1 0.0061200734124593828 1 0.0062571742372805987 1 1 1 0.010070106786989275 1 1 0.0096629561868178445 1 1 1 1 1 1 1 1 1 1 0.010930081147518589 1 1 1 1 1 1 1 1 1 1 1 1 1 1 1 1 1 1 1 1 1 1 1 1 1 1 1 1 1 1 1 1 1 1 1 1 1 1 1 1 1 1 1 1 1 1 1 1 1 1 1 1 1 1 1 1 1 1 1 1 1 1 1 1 1 1 0.013343544263657928 1 1 1 1 0.011782083078505704 1 1 1 1 1 0.0099937403018285284 1 1 0.013413716057152296 1 1 0.013239624310561734 0.010130919113116112 1 1 1 1 1 1 1 0.01004997527960514 1 1 1 1 0.012303527685869273 1 1 1 1 1 1 1 0.0099518984404928582 1 1 1 1 1 1 1 1 1 1 1 1 1 1 1 1 1 1 1 1 1 1 1 1 0.0098875488748333962 1 1 1 0.0099356504343405486 1 1 0.010440655621866225 1 1 1 1 1 1 1 1 1 0.011038214713966247 1 1 1 0.010038323066153654 1 1 1 0.011039398086622805 1 1 0.010001270534629243 1 1 1 1 1 1 1 1 1 1 1 1 1 1 1 1 1 1 1 1 1 1 0.014004690766693174 1 1 1 1 1 1 1 1 0.014174659344851799 1 1 1 0.010437653645680309 1 1 1 1 1 0.011063366944557607 1 0.012049317471148537 1 1 1 1 
</DataArray>
</CellData>
</Piece>
</UnstructuredGrid>
</VTKFile>
